p cnf 9198 54028
-85 1 2 3 0
-1 85 0
-2 85 0
-3 85 0
86 -1 -2 0
-86 1 0
-86 2 0
87 -1 -3 0
-87 1 0
-87 3 0
88 -2 -3 0
-88 2 0
-88 3 0
-89 86 87 88 0
-86 89 0
-87 89 0
-88 89 0
-90 1 0
-90 -2 0
-90 -3 0
90 -1 2 3 0
-91 2 0
-91 -1 0
-91 -3 0
91 -2 1 3 0
-92 3 0
-92 -1 0
-92 -2 0
92 -3 1 2 0
-93 4 5 6 0
-4 93 0
-5 93 0
-6 93 0
94 -4 -5 0
-94 4 0
-94 5 0
95 -4 -6 0
-95 4 0
-95 6 0
96 -5 -6 0
-96 5 0
-96 6 0
-97 94 95 96 0
-94 97 0
-95 97 0
-96 97 0
-98 4 0
-98 -5 0
-98 -6 0
98 -4 5 6 0
-99 5 0
-99 -4 0
-99 -6 0
99 -5 4 6 0
-100 6 0
-100 -4 0
-100 -5 0
100 -6 4 5 0
-101 7 8 9 0
-7 101 0
-8 101 0
-9 101 0
102 -7 -8 0
-102 7 0
-102 8 0
103 -7 -9 0
-103 7 0
-103 9 0
104 -8 -9 0
-104 8 0
-104 9 0
-105 102 103 104 0
-102 105 0
-103 105 0
-104 105 0
-106 7 0
-106 -8 0
-106 -9 0
106 -7 8 9 0
-107 8 0
-107 -7 0
-107 -9 0
107 -8 7 9 0
-108 9 0
-108 -7 0
-108 -8 0
108 -9 7 8 0
-109 10 11 12 0
-10 109 0
-11 109 0
-12 109 0
110 -10 -11 0
-110 10 0
-110 11 0
111 -10 -12 0
-111 10 0
-111 12 0
112 -11 -12 0
-112 11 0
-112 12 0
-113 110 111 112 0
-110 113 0
-111 113 0
-112 113 0
-114 10 0
-114 -11 0
-114 -12 0
114 -10 11 12 0
-115 11 0
-115 -10 0
-115 -12 0
115 -11 10 12 0
-116 12 0
-116 -10 0
-116 -11 0
116 -12 10 11 0
-117 13 14 15 0
-13 117 0
-14 117 0
-15 117 0
118 -13 -14 0
-118 13 0
-118 14 0
119 -13 -15 0
-119 13 0
-119 15 0
120 -14 -15 0
-120 14 0
-120 15 0
-121 118 119 120 0
-118 121 0
-119 121 0
-120 121 0
-122 13 0
-122 -14 0
-122 -15 0
122 -13 14 15 0
-123 14 0
-123 -13 0
-123 -15 0
123 -14 13 15 0
-124 15 0
-124 -13 0
-124 -14 0
124 -15 13 14 0
-125 16 17 18 0
-16 125 0
-17 125 0
-18 125 0
126 -16 -17 0
-126 16 0
-126 17 0
127 -16 -18 0
-127 16 0
-127 18 0
128 -17 -18 0
-128 17 0
-128 18 0
-129 126 127 128 0
-126 129 0
-127 129 0
-128 129 0
-130 16 0
-130 -17 0
-130 -18 0
130 -16 17 18 0
-131 17 0
-131 -16 0
-131 -18 0
131 -17 16 18 0
-132 18 0
-132 -16 0
-132 -17 0
132 -18 16 17 0
-133 19 20 21 0
-19 133 0
-20 133 0
-21 133 0
134 -19 -20 0
-134 19 0
-134 20 0
135 -19 -21 0
-135 19 0
-135 21 0
136 -20 -21 0
-136 20 0
-136 21 0
-137 134 135 136 0
-134 137 0
-135 137 0
-136 137 0
-138 19 0
-138 -20 0
-138 -21 0
138 -19 20 21 0
-139 20 0
-139 -19 0
-139 -21 0
139 -20 19 21 0
-140 21 0
-140 -19 0
-140 -20 0
140 -21 19 20 0
-141 22 23 24 0
-22 141 0
-23 141 0
-24 141 0
142 -22 -23 0
-142 22 0
-142 23 0
143 -22 -24 0
-143 22 0
-143 24 0
144 -23 -24 0
-144 23 0
-144 24 0
-145 142 143 144 0
-142 145 0
-143 145 0
-144 145 0
-146 22 0
-146 -23 0
-146 -24 0
146 -22 23 24 0
-147 23 0
-147 -22 0
-147 -24 0
147 -23 22 24 0
-148 24 0
-148 -22 0
-148 -23 0
148 -24 22 23 0
-149 25 26 27 0
-25 149 0
-26 149 0
-27 149 0
150 -25 -26 0
-150 25 0
-150 26 0
151 -25 -27 0
-151 25 0
-151 27 0
152 -26 -27 0
-152 26 0
-152 27 0
-153 150 151 152 0
-150 153 0
-151 153 0
-152 153 0
-154 25 0
-154 -26 0
-154 -27 0
154 -25 26 27 0
-155 26 0
-155 -25 0
-155 -27 0
155 -26 25 27 0
-156 27 0
-156 -25 0
-156 -26 0
156 -27 25 26 0
-157 28 29 30 0
-28 157 0
-29 157 0
-30 157 0
158 -28 -29 0
-158 28 0
-158 29 0
159 -28 -30 0
-159 28 0
-159 30 0
160 -29 -30 0
-160 29 0
-160 30 0
-161 158 159 160 0
-158 161 0
-159 161 0
-160 161 0
-162 28 0
-162 -29 0
-162 -30 0
162 -28 29 30 0
-163 29 0
-163 -28 0
-163 -30 0
163 -29 28 30 0
-164 30 0
-164 -28 0
-164 -29 0
164 -30 28 29 0
-165 31 32 33 0
-31 165 0
-32 165 0
-33 165 0
166 -31 -32 0
-166 31 0
-166 32 0
167 -31 -33 0
-167 31 0
-167 33 0
168 -32 -33 0
-168 32 0
-168 33 0
-169 166 167 168 0
-166 169 0
-167 169 0
-168 169 0
-170 31 0
-170 -32 0
-170 -33 0
170 -31 32 33 0
-171 32 0
-171 -31 0
-171 -33 0
171 -32 31 33 0
-172 33 0
-172 -31 0
-172 -32 0
172 -33 31 32 0
-173 34 35 36 0
-34 173 0
-35 173 0
-36 173 0
174 -34 -35 0
-174 34 0
-174 35 0
175 -34 -36 0
-175 34 0
-175 36 0
176 -35 -36 0
-176 35 0
-176 36 0
-177 174 175 176 0
-174 177 0
-175 177 0
-176 177 0
-178 34 0
-178 -35 0
-178 -36 0
178 -34 35 36 0
-179 35 0
-179 -34 0
-179 -36 0
179 -35 34 36 0
-180 36 0
-180 -34 0
-180 -35 0
180 -36 34 35 0
-181 37 38 39 0
-37 181 0
-38 181 0
-39 181 0
182 -37 -38 0
-182 37 0
-182 38 0
183 -37 -39 0
-183 37 0
-183 39 0
184 -38 -39 0
-184 38 0
-184 39 0
-185 182 183 184 0
-182 185 0
-183 185 0
-184 185 0
-186 37 0
-186 -38 0
-186 -39 0
186 -37 38 39 0
-187 38 0
-187 -37 0
-187 -39 0
187 -38 37 39 0
-188 39 0
-188 -37 0
-188 -38 0
188 -39 37 38 0
-189 40 41 42 0
-40 189 0
-41 189 0
-42 189 0
190 -40 -41 0
-190 40 0
-190 41 0
191 -40 -42 0
-191 40 0
-191 42 0
192 -41 -42 0
-192 41 0
-192 42 0
-193 190 191 192 0
-190 193 0
-191 193 0
-192 193 0
-194 40 0
-194 -41 0
-194 -42 0
194 -40 41 42 0
-195 41 0
-195 -40 0
-195 -42 0
195 -41 40 42 0
-196 42 0
-196 -40 0
-196 -41 0
196 -42 40 41 0
-197 43 44 45 0
-43 197 0
-44 197 0
-45 197 0
198 -43 -44 0
-198 43 0
-198 44 0
199 -43 -45 0
-199 43 0
-199 45 0
200 -44 -45 0
-200 44 0
-200 45 0
-201 198 199 200 0
-198 201 0
-199 201 0
-200 201 0
-202 43 0
-202 -44 0
-202 -45 0
202 -43 44 45 0
-203 44 0
-203 -43 0
-203 -45 0
203 -44 43 45 0
-204 45 0
-204 -43 0
-204 -44 0
204 -45 43 44 0
-205 46 47 48 0
-46 205 0
-47 205 0
-48 205 0
206 -46 -47 0
-206 46 0
-206 47 0
207 -46 -48 0
-207 46 0
-207 48 0
208 -47 -48 0
-208 47 0
-208 48 0
-209 206 207 208 0
-206 209 0
-207 209 0
-208 209 0
-210 46 0
-210 -47 0
-210 -48 0
210 -46 47 48 0
-211 47 0
-211 -46 0
-211 -48 0
211 -47 46 48 0
-212 48 0
-212 -46 0
-212 -47 0
212 -48 46 47 0
-213 49 50 51 0
-49 213 0
-50 213 0
-51 213 0
214 -49 -50 0
-214 49 0
-214 50 0
215 -49 -51 0
-215 49 0
-215 51 0
216 -50 -51 0
-216 50 0
-216 51 0
-217 214 215 216 0
-214 217 0
-215 217 0
-216 217 0
-218 49 0
-218 -50 0
-218 -51 0
218 -49 50 51 0
-219 50 0
-219 -49 0
-219 -51 0
219 -50 49 51 0
-220 51 0
-220 -49 0
-220 -50 0
220 -51 49 50 0
-221 52 53 54 0
-52 221 0
-53 221 0
-54 221 0
222 -52 -53 0
-222 52 0
-222 53 0
223 -52 -54 0
-223 52 0
-223 54 0
224 -53 -54 0
-224 53 0
-224 54 0
-225 222 223 224 0
-222 225 0
-223 225 0
-224 225 0
-226 52 0
-226 -53 0
-226 -54 0
226 -52 53 54 0
-227 53 0
-227 -52 0
-227 -54 0
227 -53 52 54 0
-228 54 0
-228 -52 0
-228 -53 0
228 -54 52 53 0
-229 55 56 57 0
-55 229 0
-56 229 0
-57 229 0
230 -55 -56 0
-230 55 0
-230 56 0
231 -55 -57 0
-231 55 0
-231 57 0
232 -56 -57 0
-232 56 0
-232 57 0
-233 230 231 232 0
-230 233 0
-231 233 0
-232 233 0
-234 55 0
-234 -56 0
-234 -57 0
234 -55 56 57 0
-235 56 0
-235 -55 0
-235 -57 0
235 -56 55 57 0
-236 57 0
-236 -55 0
-236 -56 0
236 -57 55 56 0
-237 58 59 60 0
-58 237 0
-59 237 0
-60 237 0
238 -58 -59 0
-238 58 0
-238 59 0
239 -58 -60 0
-239 58 0
-239 60 0
240 -59 -60 0
-240 59 0
-240 60 0
-241 238 239 240 0
-238 241 0
-239 241 0
-240 241 0
-242 58 0
-242 -59 0
-242 -60 0
242 -58 59 60 0
-243 59 0
-243 -58 0
-243 -60 0
243 -59 58 60 0
-244 60 0
-244 -58 0
-244 -59 0
244 -60 58 59 0
-245 61 62 63 0
-61 245 0
-62 245 0
-63 245 0
246 -61 -62 0
-246 61 0
-246 62 0
247 -61 -63 0
-247 61 0
-247 63 0
248 -62 -63 0
-248 62 0
-248 63 0
-249 246 247 248 0
-246 249 0
-247 249 0
-248 249 0
-250 61 0
-250 -62 0
-250 -63 0
250 -61 62 63 0
-251 62 0
-251 -61 0
-251 -63 0
251 -62 61 63 0
-252 63 0
-252 -61 0
-252 -62 0
252 -63 61 62 0
-253 64 65 66 0
-64 253 0
-65 253 0
-66 253 0
254 -64 -65 0
-254 64 0
-254 65 0
255 -64 -66 0
-255 64 0
-255 66 0
256 -65 -66 0
-256 65 0
-256 66 0
-257 254 255 256 0
-254 257 0
-255 257 0
-256 257 0
-258 64 0
-258 -65 0
-258 -66 0
258 -64 65 66 0
-259 65 0
-259 -64 0
-259 -66 0
259 -65 64 66 0
-260 66 0
-260 -64 0
-260 -65 0
260 -66 64 65 0
-261 67 68 69 0
-67 261 0
-68 261 0
-69 261 0
262 -67 -68 0
-262 67 0
-262 68 0
263 -67 -69 0
-263 67 0
-263 69 0
264 -68 -69 0
-264 68 0
-264 69 0
-265 262 263 264 0
-262 265 0
-263 265 0
-264 265 0
-266 67 0
-266 -68 0
-266 -69 0
266 -67 68 69 0
-267 68 0
-267 -67 0
-267 -69 0
267 -68 67 69 0
-268 69 0
-268 -67 0
-268 -68 0
268 -69 67 68 0
-269 70 71 72 0
-70 269 0
-71 269 0
-72 269 0
270 -70 -71 0
-270 70 0
-270 71 0
271 -70 -72 0
-271 70 0
-271 72 0
272 -71 -72 0
-272 71 0
-272 72 0
-273 270 271 272 0
-270 273 0
-271 273 0
-272 273 0
-274 70 0
-274 -71 0
-274 -72 0
274 -70 71 72 0
-275 71 0
-275 -70 0
-275 -72 0
275 -71 70 72 0
-276 72 0
-276 -70 0
-276 -71 0
276 -72 70 71 0
-277 73 74 75 0
-73 277 0
-74 277 0
-75 277 0
278 -73 -74 0
-278 73 0
-278 74 0
279 -73 -75 0
-279 73 0
-279 75 0
280 -74 -75 0
-280 74 0
-280 75 0
-281 278 279 280 0
-278 281 0
-279 281 0
-280 281 0
-282 73 0
-282 -74 0
-282 -75 0
282 -73 74 75 0
-283 74 0
-283 -73 0
-283 -75 0
283 -74 73 75 0
-284 75 0
-284 -73 0
-284 -74 0
284 -75 73 74 0
-285 76 77 78 0
-76 285 0
-77 285 0
-78 285 0
286 -76 -77 0
-286 76 0
-286 77 0
287 -76 -78 0
-287 76 0
-287 78 0
288 -77 -78 0
-288 77 0
-288 78 0
-289 286 287 288 0
-286 289 0
-287 289 0
-288 289 0
-290 76 0
-290 -77 0
-290 -78 0
290 -76 77 78 0
-291 77 0
-291 -76 0
-291 -78 0
291 -77 76 78 0
-292 78 0
-292 -76 0
-292 -77 0
292 -78 76 77 0
-293 79 80 81 0
-79 293 0
-80 293 0
-81 293 0
294 -79 -80 0
-294 79 0
-294 80 0
295 -79 -81 0
-295 79 0
-295 81 0
296 -80 -81 0
-296 80 0
-296 81 0
-297 294 295 296 0
-294 297 0
-295 297 0
-296 297 0
-298 79 0
-298 -80 0
-298 -81 0
298 -79 80 81 0
-299 80 0
-299 -79 0
-299 -81 0
299 -80 79 81 0
-300 81 0
-300 -79 0
-300 -80 0
300 -81 79 80 0
-301 82 83 84 0
-82 301 0
-83 301 0
-84 301 0
302 -82 -83 0
-302 82 0
-302 83 0
303 -82 -84 0
-303 82 0
-303 84 0
304 -83 -84 0
-304 83 0
-304 84 0
-305 302 303 304 0
-302 305 0
-303 305 0
-304 305 0
-306 82 0
-306 -83 0
-306 -84 0
306 -82 83 84 0
-307 83 0
-307 -82 0
-307 -84 0
307 -83 82 84 0
-308 84 0
-308 -82 0
-308 -83 0
308 -84 82 83 0
-1 0
2 0
3 0
309 0
310 311 0
-310 -311 0
312 313 314 0
-312 -313 0
-312 -314 0
-313 -314 0
315 316 317 318 0
-315 -316 0
-315 -317 0
-315 -318 0
-316 -317 0
-316 -318 0
-317 -318 0
319 320 321 322 323 0
-319 -320 0
-319 -321 0
-319 -322 0
-319 -323 0
-320 -321 0
-320 -322 0
-320 -323 0
-321 -322 0
-321 -323 0
-322 -323 0
324 325 326 327 328 329 0
-324 -325 0
-324 -326 0
-324 -327 0
-324 -328 0
-324 -329 0
-325 -326 0
-325 -327 0
-325 -328 0
-325 -329 0
-326 -327 0
-326 -328 0
-326 -329 0
-327 -328 0
-327 -329 0
-328 -329 0
330 331 332 333 334 335 336 0
-330 -331 0
-330 -332 0
-330 -333 0
-330 -334 0
-330 -335 0
-330 -336 0
-331 -332 0
-331 -333 0
-331 -334 0
-331 -335 0
-331 -336 0
-332 -333 0
-332 -334 0
-332 -335 0
-332 -336 0
-333 -334 0
-333 -335 0
-333 -336 0
-334 -335 0
-334 -336 0
-335 -336 0
337 338 339 340 341 342 343 344 0
-337 -338 0
-337 -339 0
-337 -340 0
-337 -341 0
-337 -342 0
-337 -343 0
-337 -344 0
-338 -339 0
-338 -340 0
-338 -341 0
-338 -342 0
-338 -343 0
-338 -344 0
-339 -340 0
-339 -341 0
-339 -342 0
-339 -343 0
-339 -344 0
-340 -341 0
-340 -342 0
-340 -343 0
-340 -344 0
-341 -342 0
-341 -343 0
-341 -344 0
-342 -343 0
-342 -344 0
-343 -344 0
345 346 347 348 349 350 351 352 353 0
-345 -346 0
-345 -347 0
-345 -348 0
-345 -349 0
-345 -350 0
-345 -351 0
-345 -352 0
-345 -353 0
-346 -347 0
-346 -348 0
-346 -349 0
-346 -350 0
-346 -351 0
-346 -352 0
-346 -353 0
-347 -348 0
-347 -349 0
-347 -350 0
-347 -351 0
-347 -352 0
-347 -353 0
-348 -349 0
-348 -350 0
-348 -351 0
-348 -352 0
-348 -353 0
-349 -350 0
-349 -351 0
-349 -352 0
-349 -353 0
-350 -351 0
-350 -352 0
-350 -353 0
-351 -352 0
-351 -353 0
-352 -353 0
354 355 356 357 358 359 360 361 362 363 0
-354 -355 0
-354 -356 0
-354 -357 0
-354 -358 0
-354 -359 0
-354 -360 0
-354 -361 0
-354 -362 0
-354 -363 0
-355 -356 0
-355 -357 0
-355 -358 0
-355 -359 0
-355 -360 0
-355 -361 0
-355 -362 0
-355 -363 0
-356 -357 0
-356 -358 0
-356 -359 0
-356 -360 0
-356 -361 0
-356 -362 0
-356 -363 0
-357 -358 0
-357 -359 0
-357 -360 0
-357 -361 0
-357 -362 0
-357 -363 0
-358 -359 0
-358 -360 0
-358 -361 0
-358 -362 0
-358 -363 0
-359 -360 0
-359 -361 0
-359 -362 0
-359 -363 0
-360 -361 0
-360 -362 0
-360 -363 0
-361 -362 0
-361 -363 0
-362 -363 0
364 365 366 367 368 369 370 371 372 373 374 0
-364 -365 0
-364 -366 0
-364 -367 0
-364 -368 0
-364 -369 0
-364 -370 0
-364 -371 0
-364 -372 0
-364 -373 0
-364 -374 0
-365 -366 0
-365 -367 0
-365 -368 0
-365 -369 0
-365 -370 0
-365 -371 0
-365 -372 0
-365 -373 0
-365 -374 0
-366 -367 0
-366 -368 0
-366 -369 0
-366 -370 0
-366 -371 0
-366 -372 0
-366 -373 0
-366 -374 0
-367 -368 0
-367 -369 0
-367 -370 0
-367 -371 0
-367 -372 0
-367 -373 0
-367 -374 0
-368 -369 0
-368 -370 0
-368 -371 0
-368 -372 0
-368 -373 0
-368 -374 0
-369 -370 0
-369 -371 0
-369 -372 0
-369 -373 0
-369 -374 0
-370 -371 0
-370 -372 0
-370 -373 0
-370 -374 0
-371 -372 0
-371 -373 0
-371 -374 0
-372 -373 0
-372 -374 0
-373 -374 0
375 376 377 378 379 380 381 382 383 384 385 386 0
-375 -376 0
-375 -377 0
-375 -378 0
-375 -379 0
-375 -380 0
-375 -381 0
-375 -382 0
-375 -383 0
-375 -384 0
-375 -385 0
-375 -386 0
-376 -377 0
-376 -378 0
-376 -379 0
-376 -380 0
-376 -381 0
-376 -382 0
-376 -383 0
-376 -384 0
-376 -385 0
-376 -386 0
-377 -378 0
-377 -379 0
-377 -380 0
-377 -381 0
-377 -382 0
-377 -383 0
-377 -384 0
-377 -385 0
-377 -386 0
-378 -379 0
-378 -380 0
-378 -381 0
-378 -382 0
-378 -383 0
-378 -384 0
-378 -385 0
-378 -386 0
-379 -380 0
-379 -381 0
-379 -382 0
-379 -383 0
-379 -384 0
-379 -385 0
-379 -386 0
-380 -381 0
-380 -382 0
-380 -383 0
-380 -384 0
-380 -385 0
-380 -386 0
-381 -382 0
-381 -383 0
-381 -384 0
-381 -385 0
-381 -386 0
-382 -383 0
-382 -384 0
-382 -385 0
-382 -386 0
-383 -384 0
-383 -385 0
-383 -386 0
-384 -385 0
-384 -386 0
-385 -386 0
387 388 389 390 391 392 393 394 395 396 397 398 399 0
-387 -388 0
-387 -389 0
-387 -390 0
-387 -391 0
-387 -392 0
-387 -393 0
-387 -394 0
-387 -395 0
-387 -396 0
-387 -397 0
-387 -398 0
-387 -399 0
-388 -389 0
-388 -390 0
-388 -391 0
-388 -392 0
-388 -393 0
-388 -394 0
-388 -395 0
-388 -396 0
-388 -397 0
-388 -398 0
-388 -399 0
-389 -390 0
-389 -391 0
-389 -392 0
-389 -393 0
-389 -394 0
-389 -395 0
-389 -396 0
-389 -397 0
-389 -398 0
-389 -399 0
-390 -391 0
-390 -392 0
-390 -393 0
-390 -394 0
-390 -395 0
-390 -396 0
-390 -397 0
-390 -398 0
-390 -399 0
-391 -392 0
-391 -393 0
-391 -394 0
-391 -395 0
-391 -396 0
-391 -397 0
-391 -398 0
-391 -399 0
-392 -393 0
-392 -394 0
-392 -395 0
-392 -396 0
-392 -397 0
-392 -398 0
-392 -399 0
-393 -394 0
-393 -395 0
-393 -396 0
-393 -397 0
-393 -398 0
-393 -399 0
-394 -395 0
-394 -396 0
-394 -397 0
-394 -398 0
-394 -399 0
-395 -396 0
-395 -397 0
-395 -398 0
-395 -399 0
-396 -397 0
-396 -398 0
-396 -399 0
-397 -398 0
-397 -399 0
-398 -399 0
400 401 402 403 404 405 406 407 408 409 410 411 412 0
-400 -401 0
-400 -402 0
-400 -403 0
-400 -404 0
-400 -405 0
-400 -406 0
-400 -407 0
-400 -408 0
-400 -409 0
-400 -410 0
-400 -411 0
-400 -412 0
-401 -402 0
-401 -403 0
-401 -404 0
-401 -405 0
-401 -406 0
-401 -407 0
-401 -408 0
-401 -409 0
-401 -410 0
-401 -411 0
-401 -412 0
-402 -403 0
-402 -404 0
-402 -405 0
-402 -406 0
-402 -407 0
-402 -408 0
-402 -409 0
-402 -410 0
-402 -411 0
-402 -412 0
-403 -404 0
-403 -405 0
-403 -406 0
-403 -407 0
-403 -408 0
-403 -409 0
-403 -410 0
-403 -411 0
-403 -412 0
-404 -405 0
-404 -406 0
-404 -407 0
-404 -408 0
-404 -409 0
-404 -410 0
-404 -411 0
-404 -412 0
-405 -406 0
-405 -407 0
-405 -408 0
-405 -409 0
-405 -410 0
-405 -411 0
-405 -412 0
-406 -407 0
-406 -408 0
-406 -409 0
-406 -410 0
-406 -411 0
-406 -412 0
-407 -408 0
-407 -409 0
-407 -410 0
-407 -411 0
-407 -412 0
-408 -409 0
-408 -410 0
-408 -411 0
-408 -412 0
-409 -410 0
-409 -411 0
-409 -412 0
-410 -411 0
-410 -412 0
-411 -412 0
413 414 415 416 417 418 419 420 421 422 423 424 425 0
-413 -414 0
-413 -415 0
-413 -416 0
-413 -417 0
-413 -418 0
-413 -419 0
-413 -420 0
-413 -421 0
-413 -422 0
-413 -423 0
-413 -424 0
-413 -425 0
-414 -415 0
-414 -416 0
-414 -417 0
-414 -418 0
-414 -419 0
-414 -420 0
-414 -421 0
-414 -422 0
-414 -423 0
-414 -424 0
-414 -425 0
-415 -416 0
-415 -417 0
-415 -418 0
-415 -419 0
-415 -420 0
-415 -421 0
-415 -422 0
-415 -423 0
-415 -424 0
-415 -425 0
-416 -417 0
-416 -418 0
-416 -419 0
-416 -420 0
-416 -421 0
-416 -422 0
-416 -423 0
-416 -424 0
-416 -425 0
-417 -418 0
-417 -419 0
-417 -420 0
-417 -421 0
-417 -422 0
-417 -423 0
-417 -424 0
-417 -425 0
-418 -419 0
-418 -420 0
-418 -421 0
-418 -422 0
-418 -423 0
-418 -424 0
-418 -425 0
-419 -420 0
-419 -421 0
-419 -422 0
-419 -423 0
-419 -424 0
-419 -425 0
-420 -421 0
-420 -422 0
-420 -423 0
-420 -424 0
-420 -425 0
-421 -422 0
-421 -423 0
-421 -424 0
-421 -425 0
-422 -423 0
-422 -424 0
-422 -425 0
-423 -424 0
-423 -425 0
-424 -425 0
426 427 428 429 430 431 432 433 434 435 436 437 438 0
-426 -427 0
-426 -428 0
-426 -429 0
-426 -430 0
-426 -431 0
-426 -432 0
-426 -433 0
-426 -434 0
-426 -435 0
-426 -436 0
-426 -437 0
-426 -438 0
-427 -428 0
-427 -429 0
-427 -430 0
-427 -431 0
-427 -432 0
-427 -433 0
-427 -434 0
-427 -435 0
-427 -436 0
-427 -437 0
-427 -438 0
-428 -429 0
-428 -430 0
-428 -431 0
-428 -432 0
-428 -433 0
-428 -434 0
-428 -435 0
-428 -436 0
-428 -437 0
-428 -438 0
-429 -430 0
-429 -431 0
-429 -432 0
-429 -433 0
-429 -434 0
-429 -435 0
-429 -436 0
-429 -437 0
-429 -438 0
-430 -431 0
-430 -432 0
-430 -433 0
-430 -434 0
-430 -435 0
-430 -436 0
-430 -437 0
-430 -438 0
-431 -432 0
-431 -433 0
-431 -434 0
-431 -435 0
-431 -436 0
-431 -437 0
-431 -438 0
-432 -433 0
-432 -434 0
-432 -435 0
-432 -436 0
-432 -437 0
-432 -438 0
-433 -434 0
-433 -435 0
-433 -436 0
-433 -437 0
-433 -438 0
-434 -435 0
-434 -436 0
-434 -437 0
-434 -438 0
-435 -436 0
-435 -437 0
-435 -438 0
-436 -437 0
-436 -438 0
-437 -438 0
439 440 441 442 443 444 445 446 447 448 449 450 451 0
-439 -440 0
-439 -441 0
-439 -442 0
-439 -443 0
-439 -444 0
-439 -445 0
-439 -446 0
-439 -447 0
-439 -448 0
-439 -449 0
-439 -450 0
-439 -451 0
-440 -441 0
-440 -442 0
-440 -443 0
-440 -444 0
-440 -445 0
-440 -446 0
-440 -447 0
-440 -448 0
-440 -449 0
-440 -450 0
-440 -451 0
-441 -442 0
-441 -443 0
-441 -444 0
-441 -445 0
-441 -446 0
-441 -447 0
-441 -448 0
-441 -449 0
-441 -450 0
-441 -451 0
-442 -443 0
-442 -444 0
-442 -445 0
-442 -446 0
-442 -447 0
-442 -448 0
-442 -449 0
-442 -450 0
-442 -451 0
-443 -444 0
-443 -445 0
-443 -446 0
-443 -447 0
-443 -448 0
-443 -449 0
-443 -450 0
-443 -451 0
-444 -445 0
-444 -446 0
-444 -447 0
-444 -448 0
-444 -449 0
-444 -450 0
-444 -451 0
-445 -446 0
-445 -447 0
-445 -448 0
-445 -449 0
-445 -450 0
-445 -451 0
-446 -447 0
-446 -448 0
-446 -449 0
-446 -450 0
-446 -451 0
-447 -448 0
-447 -449 0
-447 -450 0
-447 -451 0
-448 -449 0
-448 -450 0
-448 -451 0
-449 -450 0
-449 -451 0
-450 -451 0
452 453 454 455 456 457 458 459 460 461 462 463 464 0
-452 -453 0
-452 -454 0
-452 -455 0
-452 -456 0
-452 -457 0
-452 -458 0
-452 -459 0
-452 -460 0
-452 -461 0
-452 -462 0
-452 -463 0
-452 -464 0
-453 -454 0
-453 -455 0
-453 -456 0
-453 -457 0
-453 -458 0
-453 -459 0
-453 -460 0
-453 -461 0
-453 -462 0
-453 -463 0
-453 -464 0
-454 -455 0
-454 -456 0
-454 -457 0
-454 -458 0
-454 -459 0
-454 -460 0
-454 -461 0
-454 -462 0
-454 -463 0
-454 -464 0
-455 -456 0
-455 -457 0
-455 -458 0
-455 -459 0
-455 -460 0
-455 -461 0
-455 -462 0
-455 -463 0
-455 -464 0
-456 -457 0
-456 -458 0
-456 -459 0
-456 -460 0
-456 -461 0
-456 -462 0
-456 -463 0
-456 -464 0
-457 -458 0
-457 -459 0
-457 -460 0
-457 -461 0
-457 -462 0
-457 -463 0
-457 -464 0
-458 -459 0
-458 -460 0
-458 -461 0
-458 -462 0
-458 -463 0
-458 -464 0
-459 -460 0
-459 -461 0
-459 -462 0
-459 -463 0
-459 -464 0
-460 -461 0
-460 -462 0
-460 -463 0
-460 -464 0
-461 -462 0
-461 -463 0
-461 -464 0
-462 -463 0
-462 -464 0
-463 -464 0
465 466 467 468 469 470 471 472 473 474 475 476 477 0
-465 -466 0
-465 -467 0
-465 -468 0
-465 -469 0
-465 -470 0
-465 -471 0
-465 -472 0
-465 -473 0
-465 -474 0
-465 -475 0
-465 -476 0
-465 -477 0
-466 -467 0
-466 -468 0
-466 -469 0
-466 -470 0
-466 -471 0
-466 -472 0
-466 -473 0
-466 -474 0
-466 -475 0
-466 -476 0
-466 -477 0
-467 -468 0
-467 -469 0
-467 -470 0
-467 -471 0
-467 -472 0
-467 -473 0
-467 -474 0
-467 -475 0
-467 -476 0
-467 -477 0
-468 -469 0
-468 -470 0
-468 -471 0
-468 -472 0
-468 -473 0
-468 -474 0
-468 -475 0
-468 -476 0
-468 -477 0
-469 -470 0
-469 -471 0
-469 -472 0
-469 -473 0
-469 -474 0
-469 -475 0
-469 -476 0
-469 -477 0
-470 -471 0
-470 -472 0
-470 -473 0
-470 -474 0
-470 -475 0
-470 -476 0
-470 -477 0
-471 -472 0
-471 -473 0
-471 -474 0
-471 -475 0
-471 -476 0
-471 -477 0
-472 -473 0
-472 -474 0
-472 -475 0
-472 -476 0
-472 -477 0
-473 -474 0
-473 -475 0
-473 -476 0
-473 -477 0
-474 -475 0
-474 -476 0
-474 -477 0
-475 -476 0
-475 -477 0
-476 -477 0
478 479 480 481 482 483 484 485 486 487 488 489 490 0
-478 -479 0
-478 -480 0
-478 -481 0
-478 -482 0
-478 -483 0
-478 -484 0
-478 -485 0
-478 -486 0
-478 -487 0
-478 -488 0
-478 -489 0
-478 -490 0
-479 -480 0
-479 -481 0
-479 -482 0
-479 -483 0
-479 -484 0
-479 -485 0
-479 -486 0
-479 -487 0
-479 -488 0
-479 -489 0
-479 -490 0
-480 -481 0
-480 -482 0
-480 -483 0
-480 -484 0
-480 -485 0
-480 -486 0
-480 -487 0
-480 -488 0
-480 -489 0
-480 -490 0
-481 -482 0
-481 -483 0
-481 -484 0
-481 -485 0
-481 -486 0
-481 -487 0
-481 -488 0
-481 -489 0
-481 -490 0
-482 -483 0
-482 -484 0
-482 -485 0
-482 -486 0
-482 -487 0
-482 -488 0
-482 -489 0
-482 -490 0
-483 -484 0
-483 -485 0
-483 -486 0
-483 -487 0
-483 -488 0
-483 -489 0
-483 -490 0
-484 -485 0
-484 -486 0
-484 -487 0
-484 -488 0
-484 -489 0
-484 -490 0
-485 -486 0
-485 -487 0
-485 -488 0
-485 -489 0
-485 -490 0
-486 -487 0
-486 -488 0
-486 -489 0
-486 -490 0
-487 -488 0
-487 -489 0
-487 -490 0
-488 -489 0
-488 -490 0
-489 -490 0
491 492 493 494 495 496 497 498 499 500 501 502 503 0
-491 -492 0
-491 -493 0
-491 -494 0
-491 -495 0
-491 -496 0
-491 -497 0
-491 -498 0
-491 -499 0
-491 -500 0
-491 -501 0
-491 -502 0
-491 -503 0
-492 -493 0
-492 -494 0
-492 -495 0
-492 -496 0
-492 -497 0
-492 -498 0
-492 -499 0
-492 -500 0
-492 -501 0
-492 -502 0
-492 -503 0
-493 -494 0
-493 -495 0
-493 -496 0
-493 -497 0
-493 -498 0
-493 -499 0
-493 -500 0
-493 -501 0
-493 -502 0
-493 -503 0
-494 -495 0
-494 -496 0
-494 -497 0
-494 -498 0
-494 -499 0
-494 -500 0
-494 -501 0
-494 -502 0
-494 -503 0
-495 -496 0
-495 -497 0
-495 -498 0
-495 -499 0
-495 -500 0
-495 -501 0
-495 -502 0
-495 -503 0
-496 -497 0
-496 -498 0
-496 -499 0
-496 -500 0
-496 -501 0
-496 -502 0
-496 -503 0
-497 -498 0
-497 -499 0
-497 -500 0
-497 -501 0
-497 -502 0
-497 -503 0
-498 -499 0
-498 -500 0
-498 -501 0
-498 -502 0
-498 -503 0
-499 -500 0
-499 -501 0
-499 -502 0
-499 -503 0
-500 -501 0
-500 -502 0
-500 -503 0
-501 -502 0
-501 -503 0
-502 -503 0
504 505 506 507 508 509 510 511 512 513 514 515 516 0
-504 -505 0
-504 -506 0
-504 -507 0
-504 -508 0
-504 -509 0
-504 -510 0
-504 -511 0
-504 -512 0
-504 -513 0
-504 -514 0
-504 -515 0
-504 -516 0
-505 -506 0
-505 -507 0
-505 -508 0
-505 -509 0
-505 -510 0
-505 -511 0
-505 -512 0
-505 -513 0
-505 -514 0
-505 -515 0
-505 -516 0
-506 -507 0
-506 -508 0
-506 -509 0
-506 -510 0
-506 -511 0
-506 -512 0
-506 -513 0
-506 -514 0
-506 -515 0
-506 -516 0
-507 -508 0
-507 -509 0
-507 -510 0
-507 -511 0
-507 -512 0
-507 -513 0
-507 -514 0
-507 -515 0
-507 -516 0
-508 -509 0
-508 -510 0
-508 -511 0
-508 -512 0
-508 -513 0
-508 -514 0
-508 -515 0
-508 -516 0
-509 -510 0
-509 -511 0
-509 -512 0
-509 -513 0
-509 -514 0
-509 -515 0
-509 -516 0
-510 -511 0
-510 -512 0
-510 -513 0
-510 -514 0
-510 -515 0
-510 -516 0
-511 -512 0
-511 -513 0
-511 -514 0
-511 -515 0
-511 -516 0
-512 -513 0
-512 -514 0
-512 -515 0
-512 -516 0
-513 -514 0
-513 -515 0
-513 -516 0
-514 -515 0
-514 -516 0
-515 -516 0
517 518 519 520 521 522 523 524 525 526 527 528 529 0
-517 -518 0
-517 -519 0
-517 -520 0
-517 -521 0
-517 -522 0
-517 -523 0
-517 -524 0
-517 -525 0
-517 -526 0
-517 -527 0
-517 -528 0
-517 -529 0
-518 -519 0
-518 -520 0
-518 -521 0
-518 -522 0
-518 -523 0
-518 -524 0
-518 -525 0
-518 -526 0
-518 -527 0
-518 -528 0
-518 -529 0
-519 -520 0
-519 -521 0
-519 -522 0
-519 -523 0
-519 -524 0
-519 -525 0
-519 -526 0
-519 -527 0
-519 -528 0
-519 -529 0
-520 -521 0
-520 -522 0
-520 -523 0
-520 -524 0
-520 -525 0
-520 -526 0
-520 -527 0
-520 -528 0
-520 -529 0
-521 -522 0
-521 -523 0
-521 -524 0
-521 -525 0
-521 -526 0
-521 -527 0
-521 -528 0
-521 -529 0
-522 -523 0
-522 -524 0
-522 -525 0
-522 -526 0
-522 -527 0
-522 -528 0
-522 -529 0
-523 -524 0
-523 -525 0
-523 -526 0
-523 -527 0
-523 -528 0
-523 -529 0
-524 -525 0
-524 -526 0
-524 -527 0
-524 -528 0
-524 -529 0
-525 -526 0
-525 -527 0
-525 -528 0
-525 -529 0
-526 -527 0
-526 -528 0
-526 -529 0
-527 -528 0
-527 -529 0
-528 -529 0
530 531 532 533 534 535 536 537 538 539 540 541 542 0
-530 -531 0
-530 -532 0
-530 -533 0
-530 -534 0
-530 -535 0
-530 -536 0
-530 -537 0
-530 -538 0
-530 -539 0
-530 -540 0
-530 -541 0
-530 -542 0
-531 -532 0
-531 -533 0
-531 -534 0
-531 -535 0
-531 -536 0
-531 -537 0
-531 -538 0
-531 -539 0
-531 -540 0
-531 -541 0
-531 -542 0
-532 -533 0
-532 -534 0
-532 -535 0
-532 -536 0
-532 -537 0
-532 -538 0
-532 -539 0
-532 -540 0
-532 -541 0
-532 -542 0
-533 -534 0
-533 -535 0
-533 -536 0
-533 -537 0
-533 -538 0
-533 -539 0
-533 -540 0
-533 -541 0
-533 -542 0
-534 -535 0
-534 -536 0
-534 -537 0
-534 -538 0
-534 -539 0
-534 -540 0
-534 -541 0
-534 -542 0
-535 -536 0
-535 -537 0
-535 -538 0
-535 -539 0
-535 -540 0
-535 -541 0
-535 -542 0
-536 -537 0
-536 -538 0
-536 -539 0
-536 -540 0
-536 -541 0
-536 -542 0
-537 -538 0
-537 -539 0
-537 -540 0
-537 -541 0
-537 -542 0
-538 -539 0
-538 -540 0
-538 -541 0
-538 -542 0
-539 -540 0
-539 -541 0
-539 -542 0
-540 -541 0
-540 -542 0
-541 -542 0
543 544 545 546 547 548 549 550 551 552 553 554 555 0
-543 -544 0
-543 -545 0
-543 -546 0
-543 -547 0
-543 -548 0
-543 -549 0
-543 -550 0
-543 -551 0
-543 -552 0
-543 -553 0
-543 -554 0
-543 -555 0
-544 -545 0
-544 -546 0
-544 -547 0
-544 -548 0
-544 -549 0
-544 -550 0
-544 -551 0
-544 -552 0
-544 -553 0
-544 -554 0
-544 -555 0
-545 -546 0
-545 -547 0
-545 -548 0
-545 -549 0
-545 -550 0
-545 -551 0
-545 -552 0
-545 -553 0
-545 -554 0
-545 -555 0
-546 -547 0
-546 -548 0
-546 -549 0
-546 -550 0
-546 -551 0
-546 -552 0
-546 -553 0
-546 -554 0
-546 -555 0
-547 -548 0
-547 -549 0
-547 -550 0
-547 -551 0
-547 -552 0
-547 -553 0
-547 -554 0
-547 -555 0
-548 -549 0
-548 -550 0
-548 -551 0
-548 -552 0
-548 -553 0
-548 -554 0
-548 -555 0
-549 -550 0
-549 -551 0
-549 -552 0
-549 -553 0
-549 -554 0
-549 -555 0
-550 -551 0
-550 -552 0
-550 -553 0
-550 -554 0
-550 -555 0
-551 -552 0
-551 -553 0
-551 -554 0
-551 -555 0
-552 -553 0
-552 -554 0
-552 -555 0
-553 -554 0
-553 -555 0
-554 -555 0
556 557 558 559 560 561 562 563 564 565 566 567 568 0
-556 -557 0
-556 -558 0
-556 -559 0
-556 -560 0
-556 -561 0
-556 -562 0
-556 -563 0
-556 -564 0
-556 -565 0
-556 -566 0
-556 -567 0
-556 -568 0
-557 -558 0
-557 -559 0
-557 -560 0
-557 -561 0
-557 -562 0
-557 -563 0
-557 -564 0
-557 -565 0
-557 -566 0
-557 -567 0
-557 -568 0
-558 -559 0
-558 -560 0
-558 -561 0
-558 -562 0
-558 -563 0
-558 -564 0
-558 -565 0
-558 -566 0
-558 -567 0
-558 -568 0
-559 -560 0
-559 -561 0
-559 -562 0
-559 -563 0
-559 -564 0
-559 -565 0
-559 -566 0
-559 -567 0
-559 -568 0
-560 -561 0
-560 -562 0
-560 -563 0
-560 -564 0
-560 -565 0
-560 -566 0
-560 -567 0
-560 -568 0
-561 -562 0
-561 -563 0
-561 -564 0
-561 -565 0
-561 -566 0
-561 -567 0
-561 -568 0
-562 -563 0
-562 -564 0
-562 -565 0
-562 -566 0
-562 -567 0
-562 -568 0
-563 -564 0
-563 -565 0
-563 -566 0
-563 -567 0
-563 -568 0
-564 -565 0
-564 -566 0
-564 -567 0
-564 -568 0
-565 -566 0
-565 -567 0
-565 -568 0
-566 -567 0
-566 -568 0
-567 -568 0
569 570 571 572 573 574 575 576 577 578 579 580 581 0
-569 -570 0
-569 -571 0
-569 -572 0
-569 -573 0
-569 -574 0
-569 -575 0
-569 -576 0
-569 -577 0
-569 -578 0
-569 -579 0
-569 -580 0
-569 -581 0
-570 -571 0
-570 -572 0
-570 -573 0
-570 -574 0
-570 -575 0
-570 -576 0
-570 -577 0
-570 -578 0
-570 -579 0
-570 -580 0
-570 -581 0
-571 -572 0
-571 -573 0
-571 -574 0
-571 -575 0
-571 -576 0
-571 -577 0
-571 -578 0
-571 -579 0
-571 -580 0
-571 -581 0
-572 -573 0
-572 -574 0
-572 -575 0
-572 -576 0
-572 -577 0
-572 -578 0
-572 -579 0
-572 -580 0
-572 -581 0
-573 -574 0
-573 -575 0
-573 -576 0
-573 -577 0
-573 -578 0
-573 -579 0
-573 -580 0
-573 -581 0
-574 -575 0
-574 -576 0
-574 -577 0
-574 -578 0
-574 -579 0
-574 -580 0
-574 -581 0
-575 -576 0
-575 -577 0
-575 -578 0
-575 -579 0
-575 -580 0
-575 -581 0
-576 -577 0
-576 -578 0
-576 -579 0
-576 -580 0
-576 -581 0
-577 -578 0
-577 -579 0
-577 -580 0
-577 -581 0
-578 -579 0
-578 -580 0
-578 -581 0
-579 -580 0
-579 -581 0
-580 -581 0
582 583 584 585 586 587 588 589 590 591 592 593 594 0
-582 -583 0
-582 -584 0
-582 -585 0
-582 -586 0
-582 -587 0
-582 -588 0
-582 -589 0
-582 -590 0
-582 -591 0
-582 -592 0
-582 -593 0
-582 -594 0
-583 -584 0
-583 -585 0
-583 -586 0
-583 -587 0
-583 -588 0
-583 -589 0
-583 -590 0
-583 -591 0
-583 -592 0
-583 -593 0
-583 -594 0
-584 -585 0
-584 -586 0
-584 -587 0
-584 -588 0
-584 -589 0
-584 -590 0
-584 -591 0
-584 -592 0
-584 -593 0
-584 -594 0
-585 -586 0
-585 -587 0
-585 -588 0
-585 -589 0
-585 -590 0
-585 -591 0
-585 -592 0
-585 -593 0
-585 -594 0
-586 -587 0
-586 -588 0
-586 -589 0
-586 -590 0
-586 -591 0
-586 -592 0
-586 -593 0
-586 -594 0
-587 -588 0
-587 -589 0
-587 -590 0
-587 -591 0
-587 -592 0
-587 -593 0
-587 -594 0
-588 -589 0
-588 -590 0
-588 -591 0
-588 -592 0
-588 -593 0
-588 -594 0
-589 -590 0
-589 -591 0
-589 -592 0
-589 -593 0
-589 -594 0
-590 -591 0
-590 -592 0
-590 -593 0
-590 -594 0
-591 -592 0
-591 -593 0
-591 -594 0
-592 -593 0
-592 -594 0
-593 -594 0
595 596 597 598 599 600 601 602 603 604 605 606 607 0
-595 -596 0
-595 -597 0
-595 -598 0
-595 -599 0
-595 -600 0
-595 -601 0
-595 -602 0
-595 -603 0
-595 -604 0
-595 -605 0
-595 -606 0
-595 -607 0
-596 -597 0
-596 -598 0
-596 -599 0
-596 -600 0
-596 -601 0
-596 -602 0
-596 -603 0
-596 -604 0
-596 -605 0
-596 -606 0
-596 -607 0
-597 -598 0
-597 -599 0
-597 -600 0
-597 -601 0
-597 -602 0
-597 -603 0
-597 -604 0
-597 -605 0
-597 -606 0
-597 -607 0
-598 -599 0
-598 -600 0
-598 -601 0
-598 -602 0
-598 -603 0
-598 -604 0
-598 -605 0
-598 -606 0
-598 -607 0
-599 -600 0
-599 -601 0
-599 -602 0
-599 -603 0
-599 -604 0
-599 -605 0
-599 -606 0
-599 -607 0
-600 -601 0
-600 -602 0
-600 -603 0
-600 -604 0
-600 -605 0
-600 -606 0
-600 -607 0
-601 -602 0
-601 -603 0
-601 -604 0
-601 -605 0
-601 -606 0
-601 -607 0
-602 -603 0
-602 -604 0
-602 -605 0
-602 -606 0
-602 -607 0
-603 -604 0
-603 -605 0
-603 -606 0
-603 -607 0
-604 -605 0
-604 -606 0
-604 -607 0
-605 -606 0
-605 -607 0
-606 -607 0
309 0
-309 85 310 0
-309 -85 311 0
-310 93 312 0
-310 -93 313 0
-311 93 313 0
-311 -93 314 0
-312 101 315 0
-312 -101 316 0
-313 101 316 0
-313 -101 317 0
-314 101 317 0
-314 -101 318 0
-315 109 319 0
-315 -109 320 0
-316 109 320 0
-316 -109 321 0
-317 109 321 0
-317 -109 322 0
-318 109 322 0
-318 -109 323 0
-319 117 324 0
-319 -117 325 0
-320 117 325 0
-320 -117 326 0
-321 117 326 0
-321 -117 327 0
-322 117 327 0
-322 -117 328 0
-323 117 328 0
-323 -117 329 0
-324 125 330 0
-324 -125 331 0
-325 125 331 0
-325 -125 332 0
-326 125 332 0
-326 -125 333 0
-327 125 333 0
-327 -125 334 0
-328 125 334 0
-328 -125 335 0
-329 125 335 0
-329 -125 336 0
-330 133 337 0
-330 -133 338 0
-331 133 338 0
-331 -133 339 0
-332 133 339 0
-332 -133 340 0
-333 133 340 0
-333 -133 341 0
-334 133 341 0
-334 -133 342 0
-335 133 342 0
-335 -133 343 0
-336 133 343 0
-336 -133 344 0
-337 141 345 0
-337 -141 346 0
-338 141 346 0
-338 -141 347 0
-339 141 347 0
-339 -141 348 0
-340 141 348 0
-340 -141 349 0
-341 141 349 0
-341 -141 350 0
-342 141 350 0
-342 -141 351 0
-343 141 351 0
-343 -141 352 0
-344 141 352 0
-344 -141 353 0
-345 149 354 0
-345 -149 355 0
-346 149 355 0
-346 -149 356 0
-347 149 356 0
-347 -149 357 0
-348 149 357 0
-348 -149 358 0
-349 149 358 0
-349 -149 359 0
-350 149 359 0
-350 -149 360 0
-351 149 360 0
-351 -149 361 0
-352 149 361 0
-352 -149 362 0
-353 149 362 0
-353 -149 363 0
-354 157 364 0
-354 -157 365 0
-355 157 365 0
-355 -157 366 0
-356 157 366 0
-356 -157 367 0
-357 157 367 0
-357 -157 368 0
-358 157 368 0
-358 -157 369 0
-359 157 369 0
-359 -157 370 0
-360 157 370 0
-360 -157 371 0
-361 157 371 0
-361 -157 372 0
-362 157 372 0
-362 -157 373 0
-363 157 373 0
-363 -157 374 0
-364 165 375 0
-364 -165 376 0
-365 165 376 0
-365 -165 377 0
-366 165 377 0
-366 -165 378 0
-367 165 378 0
-367 -165 379 0
-368 165 379 0
-368 -165 380 0
-369 165 380 0
-369 -165 381 0
-370 165 381 0
-370 -165 382 0
-371 165 382 0
-371 -165 383 0
-372 165 383 0
-372 -165 384 0
-373 165 384 0
-373 -165 385 0
-374 165 385 0
-374 -165 386 0
-375 173 387 0
-375 -173 388 0
-376 173 388 0
-376 -173 389 0
-377 173 389 0
-377 -173 390 0
-378 173 390 0
-378 -173 391 0
-379 173 391 0
-379 -173 392 0
-380 173 392 0
-380 -173 393 0
-381 173 393 0
-381 -173 394 0
-382 173 394 0
-382 -173 395 0
-383 173 395 0
-383 -173 396 0
-384 173 396 0
-384 -173 397 0
-385 173 397 0
-385 -173 398 0
-386 173 398 0
-386 -173 399 0
-387 181 400 0
-387 -181 401 0
-388 181 401 0
-388 -181 402 0
-389 181 402 0
-389 -181 403 0
-390 181 403 0
-390 -181 404 0
-391 181 404 0
-391 -181 405 0
-392 181 405 0
-392 -181 406 0
-393 181 406 0
-393 -181 407 0
-394 181 407 0
-394 -181 408 0
-395 181 408 0
-395 -181 409 0
-396 181 409 0
-396 -181 410 0
-397 181 410 0
-397 -181 411 0
-398 181 411 0
-398 -181 412 0
-399 181 412 0
-399 -181 412 0
-400 189 413 0
-400 -189 414 0
-401 189 414 0
-401 -189 415 0
-402 189 415 0
-402 -189 416 0
-403 189 416 0
-403 -189 417 0
-404 189 417 0
-404 -189 418 0
-405 189 418 0
-405 -189 419 0
-406 189 419 0
-406 -189 420 0
-407 189 420 0
-407 -189 421 0
-408 189 421 0
-408 -189 422 0
-409 189 422 0
-409 -189 423 0
-410 189 423 0
-410 -189 424 0
-411 189 424 0
-411 -189 425 0
-412 189 425 0
-412 -189 425 0
-413 197 426 0
-413 -197 427 0
-414 197 427 0
-414 -197 428 0
-415 197 428 0
-415 -197 429 0
-416 197 429 0
-416 -197 430 0
-417 197 430 0
-417 -197 431 0
-418 197 431 0
-418 -197 432 0
-419 197 432 0
-419 -197 433 0
-420 197 433 0
-420 -197 434 0
-421 197 434 0
-421 -197 435 0
-422 197 435 0
-422 -197 436 0
-423 197 436 0
-423 -197 437 0
-424 197 437 0
-424 -197 438 0
-425 197 438 0
-425 -197 438 0
-426 205 439 0
-426 -205 440 0
-427 205 440 0
-427 -205 441 0
-428 205 441 0
-428 -205 442 0
-429 205 442 0
-429 -205 443 0
-430 205 443 0
-430 -205 444 0
-431 205 444 0
-431 -205 445 0
-432 205 445 0
-432 -205 446 0
-433 205 446 0
-433 -205 447 0
-434 205 447 0
-434 -205 448 0
-435 205 448 0
-435 -205 449 0
-436 205 449 0
-436 -205 450 0
-437 205 450 0
-437 -205 451 0
-438 205 451 0
-438 -205 451 0
-439 213 452 0
-439 -213 453 0
-440 213 453 0
-440 -213 454 0
-441 213 454 0
-441 -213 455 0
-442 213 455 0
-442 -213 456 0
-443 213 456 0
-443 -213 457 0
-444 213 457 0
-444 -213 458 0
-445 213 458 0
-445 -213 459 0
-446 213 459 0
-446 -213 460 0
-447 213 460 0
-447 -213 461 0
-448 213 461 0
-448 -213 462 0
-449 213 462 0
-449 -213 463 0
-450 213 463 0
-450 -213 464 0
-451 213 464 0
-451 -213 464 0
-452 221 465 0
-452 -221 466 0
-453 221 466 0
-453 -221 467 0
-454 221 467 0
-454 -221 468 0
-455 221 468 0
-455 -221 469 0
-456 221 469 0
-456 -221 470 0
-457 221 470 0
-457 -221 471 0
-458 221 471 0
-458 -221 472 0
-459 221 472 0
-459 -221 473 0
-460 221 473 0
-460 -221 474 0
-461 221 474 0
-461 -221 475 0
-462 221 475 0
-462 -221 476 0
-463 221 476 0
-463 -221 477 0
-464 221 477 0
-464 -221 477 0
-465 229 478 0
-465 -229 479 0
-466 229 479 0
-466 -229 480 0
-467 229 480 0
-467 -229 481 0
-468 229 481 0
-468 -229 482 0
-469 229 482 0
-469 -229 483 0
-470 229 483 0
-470 -229 484 0
-471 229 484 0
-471 -229 485 0
-472 229 485 0
-472 -229 486 0
-473 229 486 0
-473 -229 487 0
-474 229 487 0
-474 -229 488 0
-475 229 488 0
-475 -229 489 0
-476 229 489 0
-476 -229 490 0
-477 229 490 0
-477 -229 490 0
-478 237 491 0
-478 -237 492 0
-479 237 492 0
-479 -237 493 0
-480 237 493 0
-480 -237 494 0
-481 237 494 0
-481 -237 495 0
-482 237 495 0
-482 -237 496 0
-483 237 496 0
-483 -237 497 0
-484 237 497 0
-484 -237 498 0
-485 237 498 0
-485 -237 499 0
-486 237 499 0
-486 -237 500 0
-487 237 500 0
-487 -237 501 0
-488 237 501 0
-488 -237 502 0
-489 237 502 0
-489 -237 503 0
-490 237 503 0
-490 -237 503 0
-491 245 504 0
-491 -245 505 0
-492 245 505 0
-492 -245 506 0
-493 245 506 0
-493 -245 507 0
-494 245 507 0
-494 -245 508 0
-495 245 508 0
-495 -245 509 0
-496 245 509 0
-496 -245 510 0
-497 245 510 0
-497 -245 511 0
-498 245 511 0
-498 -245 512 0
-499 245 512 0
-499 -245 513 0
-500 245 513 0
-500 -245 514 0
-501 245 514 0
-501 -245 515 0
-502 245 515 0
-502 -245 516 0
-503 245 516 0
-503 -245 516 0
-504 253 517 0
-504 -253 518 0
-505 253 518 0
-505 -253 519 0
-506 253 519 0
-506 -253 520 0
-507 253 520 0
-507 -253 521 0
-508 253 521 0
-508 -253 522 0
-509 253 522 0
-509 -253 523 0
-510 253 523 0
-510 -253 524 0
-511 253 524 0
-511 -253 525 0
-512 253 525 0
-512 -253 526 0
-513 253 526 0
-513 -253 527 0
-514 253 527 0
-514 -253 528 0
-515 253 528 0
-515 -253 529 0
-516 253 529 0
-516 -253 529 0
-517 261 530 0
-517 -261 531 0
-518 261 531 0
-518 -261 532 0
-519 261 532 0
-519 -261 533 0
-520 261 533 0
-520 -261 534 0
-521 261 534 0
-521 -261 535 0
-522 261 535 0
-522 -261 536 0
-523 261 536 0
-523 -261 537 0
-524 261 537 0
-524 -261 538 0
-525 261 538 0
-525 -261 539 0
-526 261 539 0
-526 -261 540 0
-527 261 540 0
-527 -261 541 0
-528 261 541 0
-528 -261 542 0
-529 261 542 0
-529 -261 542 0
-530 269 543 0
-530 -269 544 0
-531 269 544 0
-531 -269 545 0
-532 269 545 0
-532 -269 546 0
-533 269 546 0
-533 -269 547 0
-534 269 547 0
-534 -269 548 0
-535 269 548 0
-535 -269 549 0
-536 269 549 0
-536 -269 550 0
-537 269 550 0
-537 -269 551 0
-538 269 551 0
-538 -269 552 0
-539 269 552 0
-539 -269 553 0
-540 269 553 0
-540 -269 554 0
-541 269 554 0
-541 -269 555 0
-542 269 555 0
-542 -269 555 0
-543 277 556 0
-543 -277 557 0
-544 277 557 0
-544 -277 558 0
-545 277 558 0
-545 -277 559 0
-546 277 559 0
-546 -277 560 0
-547 277 560 0
-547 -277 561 0
-548 277 561 0
-548 -277 562 0
-549 277 562 0
-549 -277 563 0
-550 277 563 0
-550 -277 564 0
-551 277 564 0
-551 -277 565 0
-552 277 565 0
-552 -277 566 0
-553 277 566 0
-553 -277 567 0
-554 277 567 0
-554 -277 568 0
-555 277 568 0
-555 -277 568 0
-556 285 569 0
-556 -285 570 0
-557 285 570 0
-557 -285 571 0
-558 285 571 0
-558 -285 572 0
-559 285 572 0
-559 -285 573 0
-560 285 573 0
-560 -285 574 0
-561 285 574 0
-561 -285 575 0
-562 285 575 0
-562 -285 576 0
-563 285 576 0
-563 -285 577 0
-564 285 577 0
-564 -285 578 0
-565 285 578 0
-565 -285 579 0
-566 285 579 0
-566 -285 580 0
-567 285 580 0
-567 -285 581 0
-568 285 581 0
-568 -285 581 0
-569 293 582 0
-569 -293 583 0
-570 293 583 0
-570 -293 584 0
-571 293 584 0
-571 -293 585 0
-572 293 585 0
-572 -293 586 0
-573 293 586 0
-573 -293 587 0
-574 293 587 0
-574 -293 588 0
-575 293 588 0
-575 -293 589 0
-576 293 589 0
-576 -293 590 0
-577 293 590 0
-577 -293 591 0
-578 293 591 0
-578 -293 592 0
-579 293 592 0
-579 -293 593 0
-580 293 593 0
-580 -293 594 0
-581 293 594 0
-581 -293 594 0
-582 301 595 0
-582 -301 596 0
-583 301 596 0
-583 -301 597 0
-584 301 597 0
-584 -301 598 0
-585 301 598 0
-585 -301 599 0
-586 301 599 0
-586 -301 600 0
-587 301 600 0
-587 -301 601 0
-588 301 601 0
-588 -301 602 0
-589 301 602 0
-589 -301 603 0
-590 301 603 0
-590 -301 604 0
-591 301 604 0
-591 -301 605 0
-592 301 605 0
-592 -301 606 0
-593 301 606 0
-593 -301 607 0
-594 301 607 0
-594 -301 607 0
607 0
608 0
609 610 0
-609 -610 0
611 612 0
-611 -612 0
613 614 0
-613 -614 0
615 616 0
-615 -616 0
617 618 0
-617 -618 0
619 620 0
-619 -620 0
621 622 0
-621 -622 0
623 624 0
-623 -624 0
625 626 0
-625 -626 0
627 628 0
-627 -628 0
629 630 0
-629 -630 0
631 632 0
-631 -632 0
633 634 0
-633 -634 0
635 636 0
-635 -636 0
637 638 0
-637 -638 0
639 640 0
-639 -640 0
641 642 0
-641 -642 0
643 644 0
-643 -644 0
645 646 0
-645 -646 0
647 648 0
-647 -648 0
649 650 0
-649 -650 0
651 652 0
-651 -652 0
653 654 0
-653 -654 0
655 656 0
-655 -656 0
657 658 0
-657 -658 0
659 660 0
-659 -660 0
661 662 0
-661 -662 0
663 664 0
-663 -664 0
608 0
-608 -85 609 0
-608 85 610 0
-609 -93 611 0
-609 93 612 0
-610 -93 612 0
-610 93 612 0
-611 -101 613 0
-611 101 614 0
-612 -101 614 0
-612 101 614 0
-613 -109 615 0
-613 109 616 0
-614 -109 616 0
-614 109 616 0
-615 -117 617 0
-615 117 618 0
-616 -117 618 0
-616 117 618 0
-617 -125 619 0
-617 125 620 0
-618 -125 620 0
-618 125 620 0
-619 -133 621 0
-619 133 622 0
-620 -133 622 0
-620 133 622 0
-621 -141 623 0
-621 141 624 0
-622 -141 624 0
-622 141 624 0
-623 -149 625 0
-623 149 626 0
-624 -149 626 0
-624 149 626 0
-625 -157 627 0
-625 157 628 0
-626 -157 628 0
-626 157 628 0
-627 -165 629 0
-627 165 630 0
-628 -165 630 0
-628 165 630 0
-629 -173 631 0
-629 173 632 0
-630 -173 632 0
-630 173 632 0
-631 -181 633 0
-631 181 634 0
-632 -181 634 0
-632 181 634 0
-633 -189 635 0
-633 189 636 0
-634 -189 636 0
-634 189 636 0
-635 -197 637 0
-635 197 638 0
-636 -197 638 0
-636 197 638 0
-637 -205 639 0
-637 205 640 0
-638 -205 640 0
-638 205 640 0
-639 -213 641 0
-639 213 642 0
-640 -213 642 0
-640 213 642 0
-641 -221 643 0
-641 221 644 0
-642 -221 644 0
-642 221 644 0
-643 -229 645 0
-643 229 646 0
-644 -229 646 0
-644 229 646 0
-645 -237 647 0
-645 237 648 0
-646 -237 648 0
-646 237 648 0
-647 -245 649 0
-647 245 650 0
-648 -245 650 0
-648 245 650 0
-649 -253 651 0
-649 253 652 0
-650 -253 652 0
-650 253 652 0
-651 -261 653 0
-651 261 654 0
-652 -261 654 0
-652 261 654 0
-653 -269 655 0
-653 269 656 0
-654 -269 656 0
-654 269 656 0
-655 -277 657 0
-655 277 658 0
-656 -277 658 0
-656 277 658 0
-657 -285 659 0
-657 285 660 0
-658 -285 660 0
-658 285 660 0
-659 -293 661 0
-659 293 662 0
-660 -293 662 0
-660 293 662 0
-661 -301 663 0
-661 301 664 0
-662 -301 664 0
-662 301 664 0
664 0
665 0
666 0
667 0
668 0
669 0
670 0
671 0
672 0
673 0
674 0
675 0
676 0
677 0
678 0
679 0
680 0
681 0
682 0
683 0
684 0
685 0
686 0
687 0
688 0
689 0
690 0
691 0
692 0
693 0
665 0
-665 89 666 0
-665 -89 666 0
-666 97 667 0
-666 -97 667 0
-667 105 668 0
-667 -105 668 0
-668 113 669 0
-668 -113 669 0
-669 121 670 0
-669 -121 670 0
-670 129 671 0
-670 -129 671 0
-671 137 672 0
-671 -137 672 0
-672 145 673 0
-672 -145 673 0
-673 153 674 0
-673 -153 674 0
-674 161 675 0
-674 -161 675 0
-675 169 676 0
-675 -169 676 0
-676 177 677 0
-676 -177 677 0
-677 185 678 0
-677 -185 678 0
-678 193 679 0
-678 -193 679 0
-679 201 680 0
-679 -201 680 0
-680 209 681 0
-680 -209 681 0
-681 217 682 0
-681 -217 682 0
-682 225 683 0
-682 -225 683 0
-683 233 684 0
-683 -233 684 0
-684 241 685 0
-684 -241 685 0
-685 249 686 0
-685 -249 686 0
-686 257 687 0
-686 -257 687 0
-687 265 688 0
-687 -265 688 0
-688 273 689 0
-688 -273 689 0
-689 281 690 0
-689 -281 690 0
-690 289 691 0
-690 -289 691 0
-691 297 692 0
-691 -297 692 0
-692 305 693 0
-692 -305 693 0
693 0
90 98 106 114 122 130 138 0
91 99 107 115 123 131 139 0
92 100 108 116 124 132 140 0
90 146 154 162 170 178 186 0
91 147 155 163 171 179 187 0
92 148 156 164 172 180 188 0
98 146 194 202 210 218 226 0
99 147 195 203 211 219 227 0
100 148 196 204 212 220 228 0
106 154 194 234 242 250 258 0
107 155 195 235 243 251 259 0
108 156 196 236 244 252 260 0
114 162 202 234 266 274 282 0
115 163 203 235 267 275 283 0
116 164 204 236 268 276 284 0
122 170 210 242 266 290 298 0
123 171 211 243 267 291 299 0
124 172 212 244 268 292 300 0
130 178 218 250 274 290 306 0
131 179 219 251 275 291 307 0
132 180 220 252 276 292 308 0
138 186 226 258 282 298 306 0
139 187 227 259 283 299 307 0
140 188 228 260 284 300 308 0
694 -1 -40 -67 -82 0
-694 1 0
-694 40 0
-694 67 0
-694 82 0
695 -1 -40 -70 -79 0
-695 1 0
-695 40 0
-695 70 0
-695 79 0
696 -1 -40 -73 -76 0
-696 1 0
-696 40 0
-696 73 0
-696 76 0
697 -1 -43 -58 -82 0
-697 1 0
-697 43 0
-697 58 0
-697 82 0
698 -1 -43 -61 -79 0
-698 1 0
-698 43 0
-698 61 0
-698 79 0
699 -1 -43 -64 -76 0
-699 1 0
-699 43 0
-699 64 0
-699 76 0
700 -1 -46 -55 -82 0
-700 1 0
-700 46 0
-700 55 0
-700 82 0
701 -1 -46 -61 -73 0
-701 1 0
-701 46 0
-701 61 0
-701 73 0
702 -1 -46 -64 -70 0
-702 1 0
-702 46 0
-702 64 0
-702 70 0
703 -1 -49 -55 -79 0
-703 1 0
-703 49 0
-703 55 0
-703 79 0
704 -1 -49 -58 -73 0
-704 1 0
-704 49 0
-704 58 0
-704 73 0
705 -1 -49 -64 -67 0
-705 1 0
-705 49 0
-705 64 0
-705 67 0
706 -1 -52 -55 -76 0
-706 1 0
-706 52 0
-706 55 0
-706 76 0
707 -1 -52 -58 -70 0
-707 1 0
-707 52 0
-707 58 0
-707 70 0
708 -1 -52 -61 -67 0
-708 1 0
-708 52 0
-708 61 0
-708 67 0
709 -4 -25 -67 -82 0
-709 4 0
-709 25 0
-709 67 0
-709 82 0
710 -4 -25 -70 -79 0
-710 4 0
-710 25 0
-710 70 0
-710 79 0
711 -4 -25 -73 -76 0
-711 4 0
-711 25 0
-711 73 0
-711 76 0
712 -4 -28 -58 -82 0
-712 4 0
-712 28 0
-712 58 0
-712 82 0
713 -4 -28 -61 -79 0
-713 4 0
-713 28 0
-713 61 0
-713 79 0
714 -4 -28 -64 -76 0
-714 4 0
-714 28 0
-714 64 0
-714 76 0
715 -4 -31 -55 -82 0
-715 4 0
-715 31 0
-715 55 0
-715 82 0
716 -4 -31 -61 -73 0
-716 4 0
-716 31 0
-716 61 0
-716 73 0
717 -4 -31 -64 -70 0
-717 4 0
-717 31 0
-717 64 0
-717 70 0
718 -4 -34 -55 -79 0
-718 4 0
-718 34 0
-718 55 0
-718 79 0
719 -4 -34 -58 -73 0
-719 4 0
-719 34 0
-719 58 0
-719 73 0
720 -4 -34 -64 -67 0
-720 4 0
-720 34 0
-720 64 0
-720 67 0
721 -4 -37 -55 -76 0
-721 4 0
-721 37 0
-721 55 0
-721 76 0
722 -4 -37 -58 -70 0
-722 4 0
-722 37 0
-722 58 0
-722 70 0
723 -4 -37 -61 -67 0
-723 4 0
-723 37 0
-723 61 0
-723 67 0
724 -7 -22 -67 -82 0
-724 7 0
-724 22 0
-724 67 0
-724 82 0
725 -7 -22 -70 -79 0
-725 7 0
-725 22 0
-725 70 0
-725 79 0
726 -7 -22 -73 -76 0
-726 7 0
-726 22 0
-726 73 0
-726 76 0
727 -7 -28 -46 -82 0
-727 7 0
-727 28 0
-727 46 0
-727 82 0
728 -7 -28 -49 -79 0
-728 7 0
-728 28 0
-728 49 0
-728 79 0
729 -7 -28 -52 -76 0
-729 7 0
-729 28 0
-729 52 0
-729 76 0
730 -7 -31 -43 -82 0
-730 7 0
-730 31 0
-730 43 0
-730 82 0
731 -7 -31 -49 -73 0
-731 7 0
-731 31 0
-731 49 0
-731 73 0
732 -7 -31 -52 -70 0
-732 7 0
-732 31 0
-732 52 0
-732 70 0
733 -7 -34 -43 -79 0
-733 7 0
-733 34 0
-733 43 0
-733 79 0
734 -7 -34 -46 -73 0
-734 7 0
-734 34 0
-734 46 0
-734 73 0
735 -7 -34 -52 -67 0
-735 7 0
-735 34 0
-735 52 0
-735 67 0
736 -7 -37 -43 -76 0
-736 7 0
-736 37 0
-736 43 0
-736 76 0
737 -7 -37 -46 -70 0
-737 7 0
-737 37 0
-737 46 0
-737 70 0
738 -7 -37 -49 -67 0
-738 7 0
-738 37 0
-738 49 0
-738 67 0
739 -10 -22 -58 -82 0
-739 10 0
-739 22 0
-739 58 0
-739 82 0
740 -10 -22 -61 -79 0
-740 10 0
-740 22 0
-740 61 0
-740 79 0
741 -10 -22 -64 -76 0
-741 10 0
-741 22 0
-741 64 0
-741 76 0
742 -10 -25 -46 -82 0
-742 10 0
-742 25 0
-742 46 0
-742 82 0
743 -10 -25 -49 -79 0
-743 10 0
-743 25 0
-743 49 0
-743 79 0
744 -10 -25 -52 -76 0
-744 10 0
-744 25 0
-744 52 0
-744 76 0
745 -10 -31 -40 -82 0
-745 10 0
-745 31 0
-745 40 0
-745 82 0
746 -10 -31 -49 -64 0
-746 10 0
-746 31 0
-746 49 0
-746 64 0
747 -10 -31 -52 -61 0
-747 10 0
-747 31 0
-747 52 0
-747 61 0
748 -10 -34 -40 -79 0
-748 10 0
-748 34 0
-748 40 0
-748 79 0
749 -10 -34 -46 -64 0
-749 10 0
-749 34 0
-749 46 0
-749 64 0
750 -10 -34 -52 -58 0
-750 10 0
-750 34 0
-750 52 0
-750 58 0
751 -10 -37 -40 -76 0
-751 10 0
-751 37 0
-751 40 0
-751 76 0
752 -10 -37 -46 -61 0
-752 10 0
-752 37 0
-752 46 0
-752 61 0
753 -10 -37 -49 -58 0
-753 10 0
-753 37 0
-753 49 0
-753 58 0
754 -13 -22 -55 -82 0
-754 13 0
-754 22 0
-754 55 0
-754 82 0
755 -13 -22 -61 -73 0
-755 13 0
-755 22 0
-755 61 0
-755 73 0
756 -13 -22 -64 -70 0
-756 13 0
-756 22 0
-756 64 0
-756 70 0
757 -13 -25 -43 -82 0
-757 13 0
-757 25 0
-757 43 0
-757 82 0
758 -13 -25 -49 -73 0
-758 13 0
-758 25 0
-758 49 0
-758 73 0
759 -13 -25 -52 -70 0
-759 13 0
-759 25 0
-759 52 0
-759 70 0
760 -13 -28 -40 -82 0
-760 13 0
-760 28 0
-760 40 0
-760 82 0
761 -13 -28 -49 -64 0
-761 13 0
-761 28 0
-761 49 0
-761 64 0
762 -13 -28 -52 -61 0
-762 13 0
-762 28 0
-762 52 0
-762 61 0
763 -13 -34 -40 -73 0
-763 13 0
-763 34 0
-763 40 0
-763 73 0
764 -13 -34 -43 -64 0
-764 13 0
-764 34 0
-764 43 0
-764 64 0
765 -13 -34 -52 -55 0
-765 13 0
-765 34 0
-765 52 0
-765 55 0
766 -13 -37 -40 -70 0
-766 13 0
-766 37 0
-766 40 0
-766 70 0
767 -13 -37 -43 -61 0
-767 13 0
-767 37 0
-767 43 0
-767 61 0
768 -13 -37 -49 -55 0
-768 13 0
-768 37 0
-768 49 0
-768 55 0
769 -16 -22 -55 -79 0
-769 16 0
-769 22 0
-769 55 0
-769 79 0
770 -16 -22 -58 -73 0
-770 16 0
-770 22 0
-770 58 0
-770 73 0
771 -16 -22 -64 -67 0
-771 16 0
-771 22 0
-771 64 0
-771 67 0
772 -16 -25 -43 -79 0
-772 16 0
-772 25 0
-772 43 0
-772 79 0
773 -16 -25 -46 -73 0
-773 16 0
-773 25 0
-773 46 0
-773 73 0
774 -16 -25 -52 -67 0
-774 16 0
-774 25 0
-774 52 0
-774 67 0
775 -16 -28 -40 -79 0
-775 16 0
-775 28 0
-775 40 0
-775 79 0
776 -16 -28 -46 -64 0
-776 16 0
-776 28 0
-776 46 0
-776 64 0
777 -16 -28 -52 -58 0
-777 16 0
-777 28 0
-777 52 0
-777 58 0
778 -16 -31 -40 -73 0
-778 16 0
-778 31 0
-778 40 0
-778 73 0
779 -16 -31 -43 -64 0
-779 16 0
-779 31 0
-779 43 0
-779 64 0
780 -16 -31 -52 -55 0
-780 16 0
-780 31 0
-780 52 0
-780 55 0
781 -16 -37 -40 -67 0
-781 16 0
-781 37 0
-781 40 0
-781 67 0
782 -16 -37 -43 -58 0
-782 16 0
-782 37 0
-782 43 0
-782 58 0
783 -16 -37 -46 -55 0
-783 16 0
-783 37 0
-783 46 0
-783 55 0
784 -19 -22 -55 -76 0
-784 19 0
-784 22 0
-784 55 0
-784 76 0
785 -19 -22 -58 -70 0
-785 19 0
-785 22 0
-785 58 0
-785 70 0
786 -19 -22 -61 -67 0
-786 19 0
-786 22 0
-786 61 0
-786 67 0
787 -19 -25 -43 -76 0
-787 19 0
-787 25 0
-787 43 0
-787 76 0
788 -19 -25 -46 -70 0
-788 19 0
-788 25 0
-788 46 0
-788 70 0
789 -19 -25 -49 -67 0
-789 19 0
-789 25 0
-789 49 0
-789 67 0
790 -19 -28 -40 -76 0
-790 19 0
-790 28 0
-790 40 0
-790 76 0
791 -19 -28 -46 -61 0
-791 19 0
-791 28 0
-791 46 0
-791 61 0
792 -19 -28 -49 -58 0
-792 19 0
-792 28 0
-792 49 0
-792 58 0
793 -19 -31 -40 -70 0
-793 19 0
-793 31 0
-793 40 0
-793 70 0
794 -19 -31 -43 -61 0
-794 19 0
-794 31 0
-794 43 0
-794 61 0
795 -19 -31 -49 -55 0
-795 19 0
-795 31 0
-795 49 0
-795 55 0
796 -19 -34 -40 -67 0
-796 19 0
-796 34 0
-796 40 0
-796 67 0
797 -19 -34 -43 -58 0
-797 19 0
-797 34 0
-797 43 0
-797 58 0
798 -19 -34 -46 -55 0
-798 19 0
-798 34 0
-798 46 0
-798 55 0
694 695 696 697 698 699 700 701 702 703 704 705 706 707 708 709 710 711 712 713 714 715 716 717 718 719 720 721 722 723 724 725 726 727 728 729 730 731 732 733 734 735 736 737 738 739 740 741 742 743 744 745 746 747 748 749 750 751 752 753 754 755 756 757 758 759 760 761 762 763 764 765 766 767 768 769 770 771 772 773 774 775 776 777 778 779 780 781 782 783 784 785 786 787 788 789 790 791 792 793 794 795 796 797 798 0
799 -1 -40 -67 -83 0
-799 1 0
-799 40 0
-799 67 0
-799 83 0
800 -1 -43 -58 -83 0
-800 1 0
-800 43 0
-800 58 0
-800 83 0
801 -1 -46 -55 -83 0
-801 1 0
-801 46 0
-801 55 0
-801 83 0
802 -4 -25 -67 -83 0
-802 4 0
-802 25 0
-802 67 0
-802 83 0
803 -4 -28 -58 -83 0
-803 4 0
-803 28 0
-803 58 0
-803 83 0
804 -4 -31 -55 -83 0
-804 4 0
-804 31 0
-804 55 0
-804 83 0
805 -7 -22 -67 -83 0
-805 7 0
-805 22 0
-805 67 0
-805 83 0
806 -7 -28 -46 -83 0
-806 7 0
-806 28 0
-806 46 0
-806 83 0
807 -7 -31 -43 -83 0
-807 7 0
-807 31 0
-807 43 0
-807 83 0
808 -10 -22 -58 -83 0
-808 10 0
-808 22 0
-808 58 0
-808 83 0
809 -10 -25 -46 -83 0
-809 10 0
-809 25 0
-809 46 0
-809 83 0
810 -10 -31 -40 -83 0
-810 10 0
-810 31 0
-810 40 0
-810 83 0
811 -13 -22 -55 -83 0
-811 13 0
-811 22 0
-811 55 0
-811 83 0
812 -13 -25 -43 -83 0
-812 13 0
-812 25 0
-812 43 0
-812 83 0
813 -13 -28 -40 -83 0
-813 13 0
-813 28 0
-813 40 0
-813 83 0
-799 800 801 802 803 804 805 806 807 808 809 810 811 812 813 0
-800 799 801 802 803 804 805 806 807 808 809 810 811 812 813 0
-801 799 800 802 803 804 805 806 807 808 809 810 811 812 813 0
-802 799 800 801 803 804 805 806 807 808 809 810 811 812 813 0
-803 799 800 801 802 804 805 806 807 808 809 810 811 812 813 0
-804 799 800 801 802 803 805 806 807 808 809 810 811 812 813 0
-805 799 800 801 802 803 804 806 807 808 809 810 811 812 813 0
-806 799 800 801 802 803 804 805 807 808 809 810 811 812 813 0
-807 799 800 801 802 803 804 805 806 808 809 810 811 812 813 0
-808 799 800 801 802 803 804 805 806 807 809 810 811 812 813 0
-809 799 800 801 802 803 804 805 806 807 808 810 811 812 813 0
-810 799 800 801 802 803 804 805 806 807 808 809 811 812 813 0
-811 799 800 801 802 803 804 805 806 807 808 809 810 812 813 0
-812 799 800 801 802 803 804 805 806 807 808 809 810 811 813 0
-813 799 800 801 802 803 804 805 806 807 808 809 810 811 812 0
814 -1 -40 -67 -84 0
-814 1 0
-814 40 0
-814 67 0
-814 84 0
815 -1 -43 -58 -84 0
-815 1 0
-815 43 0
-815 58 0
-815 84 0
816 -1 -46 -55 -84 0
-816 1 0
-816 46 0
-816 55 0
-816 84 0
817 -4 -25 -67 -84 0
-817 4 0
-817 25 0
-817 67 0
-817 84 0
818 -4 -28 -58 -84 0
-818 4 0
-818 28 0
-818 58 0
-818 84 0
819 -4 -31 -55 -84 0
-819 4 0
-819 31 0
-819 55 0
-819 84 0
820 -7 -22 -67 -84 0
-820 7 0
-820 22 0
-820 67 0
-820 84 0
821 -7 -28 -46 -84 0
-821 7 0
-821 28 0
-821 46 0
-821 84 0
822 -7 -31 -43 -84 0
-822 7 0
-822 31 0
-822 43 0
-822 84 0
823 -10 -22 -58 -84 0
-823 10 0
-823 22 0
-823 58 0
-823 84 0
824 -10 -25 -46 -84 0
-824 10 0
-824 25 0
-824 46 0
-824 84 0
825 -10 -31 -40 -84 0
-825 10 0
-825 31 0
-825 40 0
-825 84 0
826 -13 -22 -55 -84 0
-826 13 0
-826 22 0
-826 55 0
-826 84 0
827 -13 -25 -43 -84 0
-827 13 0
-827 25 0
-827 43 0
-827 84 0
828 -13 -28 -40 -84 0
-828 13 0
-828 28 0
-828 40 0
-828 84 0
-814 815 816 817 818 819 820 821 822 823 824 825 826 827 828 0
-815 814 816 817 818 819 820 821 822 823 824 825 826 827 828 0
-816 814 815 817 818 819 820 821 822 823 824 825 826 827 828 0
-817 814 815 816 818 819 820 821 822 823 824 825 826 827 828 0
-818 814 815 816 817 819 820 821 822 823 824 825 826 827 828 0
-819 814 815 816 817 818 820 821 822 823 824 825 826 827 828 0
-820 814 815 816 817 818 819 821 822 823 824 825 826 827 828 0
-821 814 815 816 817 818 819 820 822 823 824 825 826 827 828 0
-822 814 815 816 817 818 819 820 821 823 824 825 826 827 828 0
-823 814 815 816 817 818 819 820 821 822 824 825 826 827 828 0
-824 814 815 816 817 818 819 820 821 822 823 825 826 827 828 0
-825 814 815 816 817 818 819 820 821 822 823 824 826 827 828 0
-826 814 815 816 817 818 819 820 821 822 823 824 825 827 828 0
-827 814 815 816 817 818 819 820 821 822 823 824 825 826 828 0
-828 814 815 816 817 818 819 820 821 822 823 824 825 826 827 0
829 -1 -40 -68 -82 0
-829 1 0
-829 40 0
-829 68 0
-829 82 0
830 -1 -49 -64 -68 0
-830 1 0
-830 49 0
-830 64 0
-830 68 0
831 -1 -52 -61 -68 0
-831 1 0
-831 52 0
-831 61 0
-831 68 0
832 -4 -25 -68 -82 0
-832 4 0
-832 25 0
-832 68 0
-832 82 0
833 -4 -34 -64 -68 0
-833 4 0
-833 34 0
-833 64 0
-833 68 0
834 -4 -37 -61 -68 0
-834 4 0
-834 37 0
-834 61 0
-834 68 0
835 -7 -22 -68 -82 0
-835 7 0
-835 22 0
-835 68 0
-835 82 0
836 -7 -34 -52 -68 0
-836 7 0
-836 34 0
-836 52 0
-836 68 0
837 -7 -37 -49 -68 0
-837 7 0
-837 37 0
-837 49 0
-837 68 0
838 -16 -22 -64 -68 0
-838 16 0
-838 22 0
-838 64 0
-838 68 0
839 -16 -25 -52 -68 0
-839 16 0
-839 25 0
-839 52 0
-839 68 0
840 -16 -37 -40 -68 0
-840 16 0
-840 37 0
-840 40 0
-840 68 0
841 -19 -22 -61 -68 0
-841 19 0
-841 22 0
-841 61 0
-841 68 0
842 -19 -25 -49 -68 0
-842 19 0
-842 25 0
-842 49 0
-842 68 0
843 -19 -34 -40 -68 0
-843 19 0
-843 34 0
-843 40 0
-843 68 0
-829 830 831 832 833 834 835 836 837 838 839 840 841 842 843 0
-830 829 831 832 833 834 835 836 837 838 839 840 841 842 843 0
-831 829 830 832 833 834 835 836 837 838 839 840 841 842 843 0
-832 829 830 831 833 834 835 836 837 838 839 840 841 842 843 0
-833 829 830 831 832 834 835 836 837 838 839 840 841 842 843 0
-834 829 830 831 832 833 835 836 837 838 839 840 841 842 843 0
-835 829 830 831 832 833 834 836 837 838 839 840 841 842 843 0
-836 829 830 831 832 833 834 835 837 838 839 840 841 842 843 0
-837 829 830 831 832 833 834 835 836 838 839 840 841 842 843 0
-838 829 830 831 832 833 834 835 836 837 839 840 841 842 843 0
-839 829 830 831 832 833 834 835 836 837 838 840 841 842 843 0
-840 829 830 831 832 833 834 835 836 837 838 839 841 842 843 0
-841 829 830 831 832 833 834 835 836 837 838 839 840 842 843 0
-842 829 830 831 832 833 834 835 836 837 838 839 840 841 843 0
-843 829 830 831 832 833 834 835 836 837 838 839 840 841 842 0
844 -1 -40 -68 -83 0
-844 1 0
-844 40 0
-844 68 0
-844 83 0
845 -1 -40 -71 -80 0
-845 1 0
-845 40 0
-845 71 0
-845 80 0
846 -1 -40 -74 -77 0
-846 1 0
-846 40 0
-846 74 0
-846 77 0
847 -4 -25 -68 -83 0
-847 4 0
-847 25 0
-847 68 0
-847 83 0
848 -4 -25 -71 -80 0
-848 4 0
-848 25 0
-848 71 0
-848 80 0
849 -4 -25 -74 -77 0
-849 4 0
-849 25 0
-849 74 0
-849 77 0
850 -7 -22 -68 -83 0
-850 7 0
-850 22 0
-850 68 0
-850 83 0
851 -7 -22 -71 -80 0
-851 7 0
-851 22 0
-851 71 0
-851 80 0
852 -7 -22 -74 -77 0
-852 7 0
-852 22 0
-852 74 0
-852 77 0
-844 845 846 847 848 849 850 851 852 0
-845 844 846 847 848 849 850 851 852 0
-846 844 845 847 848 849 850 851 852 0
-847 844 845 846 848 849 850 851 852 0
-848 844 845 846 847 849 850 851 852 0
-849 844 845 846 847 848 850 851 852 0
-850 844 845 846 847 848 849 851 852 0
-851 844 845 846 847 848 849 850 852 0
-852 844 845 846 847 848 849 850 851 0
853 -1 -40 -68 -84 0
-853 1 0
-853 40 0
-853 68 0
-853 84 0
854 -4 -25 -68 -84 0
-854 4 0
-854 25 0
-854 68 0
-854 84 0
855 -7 -22 -68 -84 0
-855 7 0
-855 22 0
-855 68 0
-855 84 0
-853 854 855 0
-854 853 855 0
-855 853 854 0
856 -1 -40 -69 -82 0
-856 1 0
-856 40 0
-856 69 0
-856 82 0
857 -1 -49 -64 -69 0
-857 1 0
-857 49 0
-857 64 0
-857 69 0
858 -1 -52 -61 -69 0
-858 1 0
-858 52 0
-858 61 0
-858 69 0
859 -4 -25 -69 -82 0
-859 4 0
-859 25 0
-859 69 0
-859 82 0
860 -4 -34 -64 -69 0
-860 4 0
-860 34 0
-860 64 0
-860 69 0
861 -4 -37 -61 -69 0
-861 4 0
-861 37 0
-861 61 0
-861 69 0
862 -7 -22 -69 -82 0
-862 7 0
-862 22 0
-862 69 0
-862 82 0
863 -7 -34 -52 -69 0
-863 7 0
-863 34 0
-863 52 0
-863 69 0
864 -7 -37 -49 -69 0
-864 7 0
-864 37 0
-864 49 0
-864 69 0
865 -16 -22 -64 -69 0
-865 16 0
-865 22 0
-865 64 0
-865 69 0
866 -16 -25 -52 -69 0
-866 16 0
-866 25 0
-866 52 0
-866 69 0
867 -16 -37 -40 -69 0
-867 16 0
-867 37 0
-867 40 0
-867 69 0
868 -19 -22 -61 -69 0
-868 19 0
-868 22 0
-868 61 0
-868 69 0
869 -19 -25 -49 -69 0
-869 19 0
-869 25 0
-869 49 0
-869 69 0
870 -19 -34 -40 -69 0
-870 19 0
-870 34 0
-870 40 0
-870 69 0
-856 857 858 859 860 861 862 863 864 865 866 867 868 869 870 0
-857 856 858 859 860 861 862 863 864 865 866 867 868 869 870 0
-858 856 857 859 860 861 862 863 864 865 866 867 868 869 870 0
-859 856 857 858 860 861 862 863 864 865 866 867 868 869 870 0
-860 856 857 858 859 861 862 863 864 865 866 867 868 869 870 0
-861 856 857 858 859 860 862 863 864 865 866 867 868 869 870 0
-862 856 857 858 859 860 861 863 864 865 866 867 868 869 870 0
-863 856 857 858 859 860 861 862 864 865 866 867 868 869 870 0
-864 856 857 858 859 860 861 862 863 865 866 867 868 869 870 0
-865 856 857 858 859 860 861 862 863 864 866 867 868 869 870 0
-866 856 857 858 859 860 861 862 863 864 865 867 868 869 870 0
-867 856 857 858 859 860 861 862 863 864 865 866 868 869 870 0
-868 856 857 858 859 860 861 862 863 864 865 866 867 869 870 0
-869 856 857 858 859 860 861 862 863 864 865 866 867 868 870 0
-870 856 857 858 859 860 861 862 863 864 865 866 867 868 869 0
871 -1 -40 -69 -83 0
-871 1 0
-871 40 0
-871 69 0
-871 83 0
872 -4 -25 -69 -83 0
-872 4 0
-872 25 0
-872 69 0
-872 83 0
873 -7 -22 -69 -83 0
-873 7 0
-873 22 0
-873 69 0
-873 83 0
-871 872 873 0
-872 871 873 0
-873 871 872 0
874 -1 -40 -69 -84 0
-874 1 0
-874 40 0
-874 69 0
-874 84 0
875 -1 -40 -72 -81 0
-875 1 0
-875 40 0
-875 72 0
-875 81 0
876 -1 -40 -75 -78 0
-876 1 0
-876 40 0
-876 75 0
-876 78 0
877 -4 -25 -69 -84 0
-877 4 0
-877 25 0
-877 69 0
-877 84 0
878 -4 -25 -72 -81 0
-878 4 0
-878 25 0
-878 72 0
-878 81 0
879 -4 -25 -75 -78 0
-879 4 0
-879 25 0
-879 75 0
-879 78 0
880 -7 -22 -69 -84 0
-880 7 0
-880 22 0
-880 69 0
-880 84 0
881 -7 -22 -72 -81 0
-881 7 0
-881 22 0
-881 72 0
-881 81 0
882 -7 -22 -75 -78 0
-882 7 0
-882 22 0
-882 75 0
-882 78 0
-874 875 876 877 878 879 880 881 882 0
-875 874 876 877 878 879 880 881 882 0
-876 874 875 877 878 879 880 881 882 0
-877 874 875 876 878 879 880 881 882 0
-878 874 875 876 877 879 880 881 882 0
-879 874 875 876 877 878 880 881 882 0
-880 874 875 876 877 878 879 881 882 0
-881 874 875 876 877 878 879 880 882 0
-882 874 875 876 877 878 879 880 881 0
883 -1 -41 -67 -82 0
-883 1 0
-883 41 0
-883 67 0
-883 82 0
884 -1 -41 -70 -79 0
-884 1 0
-884 41 0
-884 70 0
-884 79 0
885 -1 -41 -73 -76 0
-885 1 0
-885 41 0
-885 73 0
-885 76 0
886 -10 -31 -41 -82 0
-886 10 0
-886 31 0
-886 41 0
-886 82 0
887 -10 -34 -41 -79 0
-887 10 0
-887 34 0
-887 41 0
-887 79 0
888 -10 -37 -41 -76 0
-888 10 0
-888 37 0
-888 41 0
-888 76 0
889 -13 -28 -41 -82 0
-889 13 0
-889 28 0
-889 41 0
-889 82 0
890 -13 -34 -41 -73 0
-890 13 0
-890 34 0
-890 41 0
-890 73 0
891 -13 -37 -41 -70 0
-891 13 0
-891 37 0
-891 41 0
-891 70 0
892 -16 -28 -41 -79 0
-892 16 0
-892 28 0
-892 41 0
-892 79 0
893 -16 -31 -41 -73 0
-893 16 0
-893 31 0
-893 41 0
-893 73 0
894 -16 -37 -41 -67 0
-894 16 0
-894 37 0
-894 41 0
-894 67 0
895 -19 -28 -41 -76 0
-895 19 0
-895 28 0
-895 41 0
-895 76 0
896 -19 -31 -41 -70 0
-896 19 0
-896 31 0
-896 41 0
-896 70 0
897 -19 -34 -41 -67 0
-897 19 0
-897 34 0
-897 41 0
-897 67 0
-883 884 885 886 887 888 889 890 891 892 893 894 895 896 897 0
-884 883 885 886 887 888 889 890 891 892 893 894 895 896 897 0
-885 883 884 886 887 888 889 890 891 892 893 894 895 896 897 0
-886 883 884 885 887 888 889 890 891 892 893 894 895 896 897 0
-887 883 884 885 886 888 889 890 891 892 893 894 895 896 897 0
-888 883 884 885 886 887 889 890 891 892 893 894 895 896 897 0
-889 883 884 885 886 887 888 890 891 892 893 894 895 896 897 0
-890 883 884 885 886 887 888 889 891 892 893 894 895 896 897 0
-891 883 884 885 886 887 888 889 890 892 893 894 895 896 897 0
-892 883 884 885 886 887 888 889 890 891 893 894 895 896 897 0
-893 883 884 885 886 887 888 889 890 891 892 894 895 896 897 0
-894 883 884 885 886 887 888 889 890 891 892 893 895 896 897 0
-895 883 884 885 886 887 888 889 890 891 892 893 894 896 897 0
-896 883 884 885 886 887 888 889 890 891 892 893 894 895 897 0
-897 883 884 885 886 887 888 889 890 891 892 893 894 895 896 0
898 -1 -41 -67 -83 0
-898 1 0
-898 41 0
-898 67 0
-898 83 0
899 -1 -50 -65 -67 0
-899 1 0
-899 50 0
-899 65 0
-899 67 0
900 -1 -53 -62 -67 0
-900 1 0
-900 53 0
-900 62 0
-900 67 0
901 -10 -31 -41 -83 0
-901 10 0
-901 31 0
-901 41 0
-901 83 0
902 -10 -31 -50 -65 0
-902 10 0
-902 31 0
-902 50 0
-902 65 0
903 -10 -31 -53 -62 0
-903 10 0
-903 31 0
-903 53 0
-903 62 0
904 -13 -28 -41 -83 0
-904 13 0
-904 28 0
-904 41 0
-904 83 0
905 -13 -28 -50 -65 0
-905 13 0
-905 28 0
-905 50 0
-905 65 0
906 -13 -28 -53 -62 0
-906 13 0
-906 28 0
-906 53 0
-906 62 0
-898 899 900 901 902 903 904 905 906 0
-899 898 900 901 902 903 904 905 906 0
-900 898 899 901 902 903 904 905 906 0
-901 898 899 900 902 903 904 905 906 0
-902 898 899 900 901 903 904 905 906 0
-903 898 899 900 901 902 904 905 906 0
-904 898 899 900 901 902 903 905 906 0
-905 898 899 900 901 902 903 904 906 0
-906 898 899 900 901 902 903 904 905 0
907 -1 -41 -67 -84 0
-907 1 0
-907 41 0
-907 67 0
-907 84 0
908 -10 -31 -41 -84 0
-908 10 0
-908 31 0
-908 41 0
-908 84 0
909 -13 -28 -41 -84 0
-909 13 0
-909 28 0
-909 41 0
-909 84 0
-907 908 909 0
-908 907 909 0
-909 907 908 0
910 -1 -41 -68 -82 0
-910 1 0
-910 41 0
-910 68 0
-910 82 0
911 -1 -44 -59 -82 0
-911 1 0
-911 44 0
-911 59 0
-911 82 0
912 -1 -47 -56 -82 0
-912 1 0
-912 47 0
-912 56 0
-912 82 0
913 -16 -37 -41 -68 0
-913 16 0
-913 37 0
-913 41 0
-913 68 0
914 -16 -37 -44 -59 0
-914 16 0
-914 37 0
-914 44 0
-914 59 0
915 -16 -37 -47 -56 0
-915 16 0
-915 37 0
-915 47 0
-915 56 0
916 -19 -34 -41 -68 0
-916 19 0
-916 34 0
-916 41 0
-916 68 0
917 -19 -34 -44 -59 0
-917 19 0
-917 34 0
-917 44 0
-917 59 0
918 -19 -34 -47 -56 0
-918 19 0
-918 34 0
-918 47 0
-918 56 0
-910 911 912 913 914 915 916 917 918 0
-911 910 912 913 914 915 916 917 918 0
-912 910 911 913 914 915 916 917 918 0
-913 910 911 912 914 915 916 917 918 0
-914 910 911 912 913 915 916 917 918 0
-915 910 911 912 913 914 916 917 918 0
-916 910 911 912 913 914 915 917 918 0
-917 910 911 912 913 914 915 916 918 0
-918 910 911 912 913 914 915 916 917 0
919 -1 -41 -68 -83 0
-919 1 0
-919 41 0
-919 68 0
-919 83 0
920 -1 -41 -71 -80 0
-920 1 0
-920 41 0
-920 71 0
-920 80 0
921 -1 -41 -74 -77 0
-921 1 0
-921 41 0
-921 74 0
-921 77 0
922 -1 -44 -59 -83 0
-922 1 0
-922 44 0
-922 59 0
-922 83 0
923 -1 -44 -62 -80 0
-923 1 0
-923 44 0
-923 62 0
-923 80 0
924 -1 -44 -65 -77 0
-924 1 0
-924 44 0
-924 65 0
-924 77 0
925 -1 -47 -56 -83 0
-925 1 0
-925 47 0
-925 56 0
-925 83 0
926 -1 -47 -62 -74 0
-926 1 0
-926 47 0
-926 62 0
-926 74 0
927 -1 -47 -65 -71 0
-927 1 0
-927 47 0
-927 65 0
-927 71 0
928 -1 -50 -56 -80 0
-928 1 0
-928 50 0
-928 56 0
-928 80 0
929 -1 -50 -59 -74 0
-929 1 0
-929 50 0
-929 59 0
-929 74 0
930 -1 -50 -65 -68 0
-930 1 0
-930 50 0
-930 65 0
-930 68 0
931 -1 -53 -56 -77 0
-931 1 0
-931 53 0
-931 56 0
-931 77 0
932 -1 -53 -59 -71 0
-932 1 0
-932 53 0
-932 59 0
-932 71 0
933 -1 -53 -62 -68 0
-933 1 0
-933 53 0
-933 62 0
-933 68 0
-919 920 921 922 923 924 925 926 927 928 929 930 931 932 933 0
-920 919 921 922 923 924 925 926 927 928 929 930 931 932 933 0
-921 919 920 922 923 924 925 926 927 928 929 930 931 932 933 0
-922 919 920 921 923 924 925 926 927 928 929 930 931 932 933 0
-923 919 920 921 922 924 925 926 927 928 929 930 931 932 933 0
-924 919 920 921 922 923 925 926 927 928 929 930 931 932 933 0
-925 919 920 921 922 923 924 926 927 928 929 930 931 932 933 0
-926 919 920 921 922 923 924 925 927 928 929 930 931 932 933 0
-927 919 920 921 922 923 924 925 926 928 929 930 931 932 933 0
-928 919 920 921 922 923 924 925 926 927 929 930 931 932 933 0
-929 919 920 921 922 923 924 925 926 927 928 930 931 932 933 0
-930 919 920 921 922 923 924 925 926 927 928 929 931 932 933 0
-931 919 920 921 922 923 924 925 926 927 928 929 930 932 933 0
-932 919 920 921 922 923 924 925 926 927 928 929 930 931 933 0
-933 919 920 921 922 923 924 925 926 927 928 929 930 931 932 0
934 -1 -41 -68 -84 0
-934 1 0
-934 41 0
-934 68 0
-934 84 0
935 -1 -44 -59 -84 0
-935 1 0
-935 44 0
-935 59 0
-935 84 0
936 -1 -47 -56 -84 0
-936 1 0
-936 47 0
-936 56 0
-936 84 0
-934 935 936 0
-935 934 936 0
-936 934 935 0
937 -1 -41 -69 -82 0
-937 1 0
-937 41 0
-937 69 0
-937 82 0
938 -16 -37 -41 -69 0
-938 16 0
-938 37 0
-938 41 0
-938 69 0
939 -19 -34 -41 -69 0
-939 19 0
-939 34 0
-939 41 0
-939 69 0
-937 938 939 0
-938 937 939 0
-939 937 938 0
940 -1 -41 -69 -83 0
-940 1 0
-940 41 0
-940 69 0
-940 83 0
941 -1 -50 -65 -69 0
-941 1 0
-941 50 0
-941 65 0
-941 69 0
942 -1 -53 -62 -69 0
-942 1 0
-942 53 0
-942 62 0
-942 69 0
-940 941 942 0
-941 940 942 0
-942 940 941 0
943 -1 -41 -69 -84 0
-943 1 0
-943 41 0
-943 69 0
-943 84 0
944 -1 -41 -72 -81 0
-944 1 0
-944 41 0
-944 72 0
-944 81 0
945 -1 -41 -75 -78 0
-945 1 0
-945 41 0
-945 75 0
-945 78 0
-943 944 945 0
-944 943 945 0
-945 943 944 0
946 -1 -42 -67 -82 0
-946 1 0
-946 42 0
-946 67 0
-946 82 0
947 -1 -42 -70 -79 0
-947 1 0
-947 42 0
-947 70 0
-947 79 0
948 -1 -42 -73 -76 0
-948 1 0
-948 42 0
-948 73 0
-948 76 0
949 -10 -31 -42 -82 0
-949 10 0
-949 31 0
-949 42 0
-949 82 0
950 -10 -34 -42 -79 0
-950 10 0
-950 34 0
-950 42 0
-950 79 0
951 -10 -37 -42 -76 0
-951 10 0
-951 37 0
-951 42 0
-951 76 0
952 -13 -28 -42 -82 0
-952 13 0
-952 28 0
-952 42 0
-952 82 0
953 -13 -34 -42 -73 0
-953 13 0
-953 34 0
-953 42 0
-953 73 0
954 -13 -37 -42 -70 0
-954 13 0
-954 37 0
-954 42 0
-954 70 0
955 -16 -28 -42 -79 0
-955 16 0
-955 28 0
-955 42 0
-955 79 0
956 -16 -31 -42 -73 0
-956 16 0
-956 31 0
-956 42 0
-956 73 0
957 -16 -37 -42 -67 0
-957 16 0
-957 37 0
-957 42 0
-957 67 0
958 -19 -28 -42 -76 0
-958 19 0
-958 28 0
-958 42 0
-958 76 0
959 -19 -31 -42 -70 0
-959 19 0
-959 31 0
-959 42 0
-959 70 0
960 -19 -34 -42 -67 0
-960 19 0
-960 34 0
-960 42 0
-960 67 0
-946 947 948 949 950 951 952 953 954 955 956 957 958 959 960 0
-947 946 948 949 950 951 952 953 954 955 956 957 958 959 960 0
-948 946 947 949 950 951 952 953 954 955 956 957 958 959 960 0
-949 946 947 948 950 951 952 953 954 955 956 957 958 959 960 0
-950 946 947 948 949 951 952 953 954 955 956 957 958 959 960 0
-951 946 947 948 949 950 952 953 954 955 956 957 958 959 960 0
-952 946 947 948 949 950 951 953 954 955 956 957 958 959 960 0
-953 946 947 948 949 950 951 952 954 955 956 957 958 959 960 0
-954 946 947 948 949 950 951 952 953 955 956 957 958 959 960 0
-955 946 947 948 949 950 951 952 953 954 956 957 958 959 960 0
-956 946 947 948 949 950 951 952 953 954 955 957 958 959 960 0
-957 946 947 948 949 950 951 952 953 954 955 956 958 959 960 0
-958 946 947 948 949 950 951 952 953 954 955 956 957 959 960 0
-959 946 947 948 949 950 951 952 953 954 955 956 957 958 960 0
-960 946 947 948 949 950 951 952 953 954 955 956 957 958 959 0
961 -1 -42 -67 -83 0
-961 1 0
-961 42 0
-961 67 0
-961 83 0
962 -10 -31 -42 -83 0
-962 10 0
-962 31 0
-962 42 0
-962 83 0
963 -13 -28 -42 -83 0
-963 13 0
-963 28 0
-963 42 0
-963 83 0
-961 962 963 0
-962 961 963 0
-963 961 962 0
964 -1 -42 -67 -84 0
-964 1 0
-964 42 0
-964 67 0
-964 84 0
965 -1 -51 -66 -67 0
-965 1 0
-965 51 0
-965 66 0
-965 67 0
966 -1 -54 -63 -67 0
-966 1 0
-966 54 0
-966 63 0
-966 67 0
967 -10 -31 -42 -84 0
-967 10 0
-967 31 0
-967 42 0
-967 84 0
968 -10 -31 -51 -66 0
-968 10 0
-968 31 0
-968 51 0
-968 66 0
969 -10 -31 -54 -63 0
-969 10 0
-969 31 0
-969 54 0
-969 63 0
970 -13 -28 -42 -84 0
-970 13 0
-970 28 0
-970 42 0
-970 84 0
971 -13 -28 -51 -66 0
-971 13 0
-971 28 0
-971 51 0
-971 66 0
972 -13 -28 -54 -63 0
-972 13 0
-972 28 0
-972 54 0
-972 63 0
-964 965 966 967 968 969 970 971 972 0
-965 964 966 967 968 969 970 971 972 0
-966 964 965 967 968 969 970 971 972 0
-967 964 965 966 968 969 970 971 972 0
-968 964 965 966 967 969 970 971 972 0
-969 964 965 966 967 968 970 971 972 0
-970 964 965 966 967 968 969 971 972 0
-971 964 965 966 967 968 969 970 972 0
-972 964 965 966 967 968 969 970 971 0
973 -1 -42 -68 -82 0
-973 1 0
-973 42 0
-973 68 0
-973 82 0
974 -16 -37 -42 -68 0
-974 16 0
-974 37 0
-974 42 0
-974 68 0
975 -19 -34 -42 -68 0
-975 19 0
-975 34 0
-975 42 0
-975 68 0
-973 974 975 0
-974 973 975 0
-975 973 974 0
976 -1 -42 -68 -83 0
-976 1 0
-976 42 0
-976 68 0
-976 83 0
977 -1 -42 -71 -80 0
-977 1 0
-977 42 0
-977 71 0
-977 80 0
978 -1 -42 -74 -77 0
-978 1 0
-978 42 0
-978 74 0
-978 77 0
-976 977 978 0
-977 976 978 0
-978 976 977 0
979 -1 -42 -68 -84 0
-979 1 0
-979 42 0
-979 68 0
-979 84 0
980 -1 -51 -66 -68 0
-980 1 0
-980 51 0
-980 66 0
-980 68 0
981 -1 -54 -63 -68 0
-981 1 0
-981 54 0
-981 63 0
-981 68 0
-979 980 981 0
-980 979 981 0
-981 979 980 0
982 -1 -42 -69 -82 0
-982 1 0
-982 42 0
-982 69 0
-982 82 0
983 -1 -45 -60 -82 0
-983 1 0
-983 45 0
-983 60 0
-983 82 0
984 -1 -48 -57 -82 0
-984 1 0
-984 48 0
-984 57 0
-984 82 0
985 -16 -37 -42 -69 0
-985 16 0
-985 37 0
-985 42 0
-985 69 0
986 -16 -37 -45 -60 0
-986 16 0
-986 37 0
-986 45 0
-986 60 0
987 -16 -37 -48 -57 0
-987 16 0
-987 37 0
-987 48 0
-987 57 0
988 -19 -34 -42 -69 0
-988 19 0
-988 34 0
-988 42 0
-988 69 0
989 -19 -34 -45 -60 0
-989 19 0
-989 34 0
-989 45 0
-989 60 0
990 -19 -34 -48 -57 0
-990 19 0
-990 34 0
-990 48 0
-990 57 0
-982 983 984 985 986 987 988 989 990 0
-983 982 984 985 986 987 988 989 990 0
-984 982 983 985 986 987 988 989 990 0
-985 982 983 984 986 987 988 989 990 0
-986 982 983 984 985 987 988 989 990 0
-987 982 983 984 985 986 988 989 990 0
-988 982 983 984 985 986 987 989 990 0
-989 982 983 984 985 986 987 988 990 0
-990 982 983 984 985 986 987 988 989 0
991 -1 -42 -69 -83 0
-991 1 0
-991 42 0
-991 69 0
-991 83 0
992 -1 -45 -60 -83 0
-992 1 0
-992 45 0
-992 60 0
-992 83 0
993 -1 -48 -57 -83 0
-993 1 0
-993 48 0
-993 57 0
-993 83 0
-991 992 993 0
-992 991 993 0
-993 991 992 0
994 -1 -42 -69 -84 0
-994 1 0
-994 42 0
-994 69 0
-994 84 0
995 -1 -42 -72 -81 0
-995 1 0
-995 42 0
-995 72 0
-995 81 0
996 -1 -42 -75 -78 0
-996 1 0
-996 42 0
-996 75 0
-996 78 0
997 -1 -45 -60 -84 0
-997 1 0
-997 45 0
-997 60 0
-997 84 0
998 -1 -45 -63 -81 0
-998 1 0
-998 45 0
-998 63 0
-998 81 0
999 -1 -45 -66 -78 0
-999 1 0
-999 45 0
-999 66 0
-999 78 0
1000 -1 -48 -57 -84 0
-1000 1 0
-1000 48 0
-1000 57 0
-1000 84 0
1001 -1 -48 -63 -75 0
-1001 1 0
-1001 48 0
-1001 63 0
-1001 75 0
1002 -1 -48 -66 -72 0
-1002 1 0
-1002 48 0
-1002 66 0
-1002 72 0
1003 -1 -51 -57 -81 0
-1003 1 0
-1003 51 0
-1003 57 0
-1003 81 0
1004 -1 -51 -60 -75 0
-1004 1 0
-1004 51 0
-1004 60 0
-1004 75 0
1005 -1 -51 -66 -69 0
-1005 1 0
-1005 51 0
-1005 66 0
-1005 69 0
1006 -1 -54 -57 -78 0
-1006 1 0
-1006 54 0
-1006 57 0
-1006 78 0
1007 -1 -54 -60 -72 0
-1007 1 0
-1007 54 0
-1007 60 0
-1007 72 0
1008 -1 -54 -63 -69 0
-1008 1 0
-1008 54 0
-1008 63 0
-1008 69 0
-994 995 996 997 998 999 1000 1001 1002 1003 1004 1005 1006 1007 1008 0
-995 994 996 997 998 999 1000 1001 1002 1003 1004 1005 1006 1007 1008 0
-996 994 995 997 998 999 1000 1001 1002 1003 1004 1005 1006 1007 1008 0
-997 994 995 996 998 999 1000 1001 1002 1003 1004 1005 1006 1007 1008 0
-998 994 995 996 997 999 1000 1001 1002 1003 1004 1005 1006 1007 1008 0
-999 994 995 996 997 998 1000 1001 1002 1003 1004 1005 1006 1007 1008 0
-1000 994 995 996 997 998 999 1001 1002 1003 1004 1005 1006 1007 1008 0
-1001 994 995 996 997 998 999 1000 1002 1003 1004 1005 1006 1007 1008 0
-1002 994 995 996 997 998 999 1000 1001 1003 1004 1005 1006 1007 1008 0
-1003 994 995 996 997 998 999 1000 1001 1002 1004 1005 1006 1007 1008 0
-1004 994 995 996 997 998 999 1000 1001 1002 1003 1005 1006 1007 1008 0
-1005 994 995 996 997 998 999 1000 1001 1002 1003 1004 1006 1007 1008 0
-1006 994 995 996 997 998 999 1000 1001 1002 1003 1004 1005 1007 1008 0
-1007 994 995 996 997 998 999 1000 1001 1002 1003 1004 1005 1006 1008 0
-1008 994 995 996 997 998 999 1000 1001 1002 1003 1004 1005 1006 1007 0
1009 -2 -40 -67 -82 0
-1009 2 0
-1009 40 0
-1009 67 0
-1009 82 0
1010 -2 -40 -70 -79 0
-1010 2 0
-1010 40 0
-1010 70 0
-1010 79 0
1011 -2 -40 -73 -76 0
-1011 2 0
-1011 40 0
-1011 73 0
-1011 76 0
1012 -2 -43 -58 -82 0
-1012 2 0
-1012 43 0
-1012 58 0
-1012 82 0
1013 -2 -43 -61 -79 0
-1013 2 0
-1013 43 0
-1013 61 0
-1013 79 0
1014 -2 -43 -64 -76 0
-1014 2 0
-1014 43 0
-1014 64 0
-1014 76 0
1015 -2 -46 -55 -82 0
-1015 2 0
-1015 46 0
-1015 55 0
-1015 82 0
1016 -2 -46 -61 -73 0
-1016 2 0
-1016 46 0
-1016 61 0
-1016 73 0
1017 -2 -46 -64 -70 0
-1017 2 0
-1017 46 0
-1017 64 0
-1017 70 0
1018 -2 -49 -55 -79 0
-1018 2 0
-1018 49 0
-1018 55 0
-1018 79 0
1019 -2 -49 -58 -73 0
-1019 2 0
-1019 49 0
-1019 58 0
-1019 73 0
1020 -2 -49 -64 -67 0
-1020 2 0
-1020 49 0
-1020 64 0
-1020 67 0
1021 -2 -52 -55 -76 0
-1021 2 0
-1021 52 0
-1021 55 0
-1021 76 0
1022 -2 -52 -58 -70 0
-1022 2 0
-1022 52 0
-1022 58 0
-1022 70 0
1023 -2 -52 -61 -67 0
-1023 2 0
-1023 52 0
-1023 61 0
-1023 67 0
-1009 1010 1011 1012 1013 1014 1015 1016 1017 1018 1019 1020 1021 1022 1023 0
-1010 1009 1011 1012 1013 1014 1015 1016 1017 1018 1019 1020 1021 1022 1023 0
-1011 1009 1010 1012 1013 1014 1015 1016 1017 1018 1019 1020 1021 1022 1023 0
-1012 1009 1010 1011 1013 1014 1015 1016 1017 1018 1019 1020 1021 1022 1023 0
-1013 1009 1010 1011 1012 1014 1015 1016 1017 1018 1019 1020 1021 1022 1023 0
-1014 1009 1010 1011 1012 1013 1015 1016 1017 1018 1019 1020 1021 1022 1023 0
-1015 1009 1010 1011 1012 1013 1014 1016 1017 1018 1019 1020 1021 1022 1023 0
-1016 1009 1010 1011 1012 1013 1014 1015 1017 1018 1019 1020 1021 1022 1023 0
-1017 1009 1010 1011 1012 1013 1014 1015 1016 1018 1019 1020 1021 1022 1023 0
-1018 1009 1010 1011 1012 1013 1014 1015 1016 1017 1019 1020 1021 1022 1023 0
-1019 1009 1010 1011 1012 1013 1014 1015 1016 1017 1018 1020 1021 1022 1023 0
-1020 1009 1010 1011 1012 1013 1014 1015 1016 1017 1018 1019 1021 1022 1023 0
-1021 1009 1010 1011 1012 1013 1014 1015 1016 1017 1018 1019 1020 1022 1023 0
-1022 1009 1010 1011 1012 1013 1014 1015 1016 1017 1018 1019 1020 1021 1023 0
-1023 1009 1010 1011 1012 1013 1014 1015 1016 1017 1018 1019 1020 1021 1022 0
1024 -2 -40 -67 -83 0
-1024 2 0
-1024 40 0
-1024 67 0
-1024 83 0
1025 -2 -43 -58 -83 0
-1025 2 0
-1025 43 0
-1025 58 0
-1025 83 0
1026 -2 -46 -55 -83 0
-1026 2 0
-1026 46 0
-1026 55 0
-1026 83 0
1027 -17 -38 -40 -67 0
-1027 17 0
-1027 38 0
-1027 40 0
-1027 67 0
1028 -17 -38 -43 -58 0
-1028 17 0
-1028 38 0
-1028 43 0
-1028 58 0
1029 -17 -38 -46 -55 0
-1029 17 0
-1029 38 0
-1029 46 0
-1029 55 0
1030 -20 -35 -40 -67 0
-1030 20 0
-1030 35 0
-1030 40 0
-1030 67 0
1031 -20 -35 -43 -58 0
-1031 20 0
-1031 35 0
-1031 43 0
-1031 58 0
1032 -20 -35 -46 -55 0
-1032 20 0
-1032 35 0
-1032 46 0
-1032 55 0
-1024 1025 1026 1027 1028 1029 1030 1031 1032 0
-1025 1024 1026 1027 1028 1029 1030 1031 1032 0
-1026 1024 1025 1027 1028 1029 1030 1031 1032 0
-1027 1024 1025 1026 1028 1029 1030 1031 1032 0
-1028 1024 1025 1026 1027 1029 1030 1031 1032 0
-1029 1024 1025 1026 1027 1028 1030 1031 1032 0
-1030 1024 1025 1026 1027 1028 1029 1031 1032 0
-1031 1024 1025 1026 1027 1028 1029 1030 1032 0
-1032 1024 1025 1026 1027 1028 1029 1030 1031 0
1033 -2 -40 -67 -84 0
-1033 2 0
-1033 40 0
-1033 67 0
-1033 84 0
1034 -2 -43 -58 -84 0
-1034 2 0
-1034 43 0
-1034 58 0
-1034 84 0
1035 -2 -46 -55 -84 0
-1035 2 0
-1035 46 0
-1035 55 0
-1035 84 0
-1033 1034 1035 0
-1034 1033 1035 0
-1035 1033 1034 0
1036 -2 -40 -68 -82 0
-1036 2 0
-1036 40 0
-1036 68 0
-1036 82 0
1037 -2 -49 -64 -68 0
-1037 2 0
-1037 49 0
-1037 64 0
-1037 68 0
1038 -2 -52 -61 -68 0
-1038 2 0
-1038 52 0
-1038 61 0
-1038 68 0
1039 -11 -32 -40 -82 0
-1039 11 0
-1039 32 0
-1039 40 0
-1039 82 0
1040 -11 -32 -49 -64 0
-1040 11 0
-1040 32 0
-1040 49 0
-1040 64 0
1041 -11 -32 -52 -61 0
-1041 11 0
-1041 32 0
-1041 52 0
-1041 61 0
1042 -14 -29 -40 -82 0
-1042 14 0
-1042 29 0
-1042 40 0
-1042 82 0
1043 -14 -29 -49 -64 0
-1043 14 0
-1043 29 0
-1043 49 0
-1043 64 0
1044 -14 -29 -52 -61 0
-1044 14 0
-1044 29 0
-1044 52 0
-1044 61 0
-1036 1037 1038 1039 1040 1041 1042 1043 1044 0
-1037 1036 1038 1039 1040 1041 1042 1043 1044 0
-1038 1036 1037 1039 1040 1041 1042 1043 1044 0
-1039 1036 1037 1038 1040 1041 1042 1043 1044 0
-1040 1036 1037 1038 1039 1041 1042 1043 1044 0
-1041 1036 1037 1038 1039 1040 1042 1043 1044 0
-1042 1036 1037 1038 1039 1040 1041 1043 1044 0
-1043 1036 1037 1038 1039 1040 1041 1042 1044 0
-1044 1036 1037 1038 1039 1040 1041 1042 1043 0
1045 -2 -40 -68 -83 0
-1045 2 0
-1045 40 0
-1045 68 0
-1045 83 0
1046 -2 -40 -71 -80 0
-1046 2 0
-1046 40 0
-1046 71 0
-1046 80 0
1047 -2 -40 -74 -77 0
-1047 2 0
-1047 40 0
-1047 74 0
-1047 77 0
1048 -11 -32 -40 -83 0
-1048 11 0
-1048 32 0
-1048 40 0
-1048 83 0
1049 -11 -35 -40 -80 0
-1049 11 0
-1049 35 0
-1049 40 0
-1049 80 0
1050 -11 -38 -40 -77 0
-1050 11 0
-1050 38 0
-1050 40 0
-1050 77 0
1051 -14 -29 -40 -83 0
-1051 14 0
-1051 29 0
-1051 40 0
-1051 83 0
1052 -14 -35 -40 -74 0
-1052 14 0
-1052 35 0
-1052 40 0
-1052 74 0
1053 -14 -38 -40 -71 0
-1053 14 0
-1053 38 0
-1053 40 0
-1053 71 0
1054 -17 -29 -40 -80 0
-1054 17 0
-1054 29 0
-1054 40 0
-1054 80 0
1055 -17 -32 -40 -74 0
-1055 17 0
-1055 32 0
-1055 40 0
-1055 74 0
1056 -17 -38 -40 -68 0
-1056 17 0
-1056 38 0
-1056 40 0
-1056 68 0
1057 -20 -29 -40 -77 0
-1057 20 0
-1057 29 0
-1057 40 0
-1057 77 0
1058 -20 -32 -40 -71 0
-1058 20 0
-1058 32 0
-1058 40 0
-1058 71 0
1059 -20 -35 -40 -68 0
-1059 20 0
-1059 35 0
-1059 40 0
-1059 68 0
-1045 1046 1047 1048 1049 1050 1051 1052 1053 1054 1055 1056 1057 1058 1059 0
-1046 1045 1047 1048 1049 1050 1051 1052 1053 1054 1055 1056 1057 1058 1059 0
-1047 1045 1046 1048 1049 1050 1051 1052 1053 1054 1055 1056 1057 1058 1059 0
-1048 1045 1046 1047 1049 1050 1051 1052 1053 1054 1055 1056 1057 1058 1059 0
-1049 1045 1046 1047 1048 1050 1051 1052 1053 1054 1055 1056 1057 1058 1059 0
-1050 1045 1046 1047 1048 1049 1051 1052 1053 1054 1055 1056 1057 1058 1059 0
-1051 1045 1046 1047 1048 1049 1050 1052 1053 1054 1055 1056 1057 1058 1059 0
-1052 1045 1046 1047 1048 1049 1050 1051 1053 1054 1055 1056 1057 1058 1059 0
-1053 1045 1046 1047 1048 1049 1050 1051 1052 1054 1055 1056 1057 1058 1059 0
-1054 1045 1046 1047 1048 1049 1050 1051 1052 1053 1055 1056 1057 1058 1059 0
-1055 1045 1046 1047 1048 1049 1050 1051 1052 1053 1054 1056 1057 1058 1059 0
-1056 1045 1046 1047 1048 1049 1050 1051 1052 1053 1054 1055 1057 1058 1059 0
-1057 1045 1046 1047 1048 1049 1050 1051 1052 1053 1054 1055 1056 1058 1059 0
-1058 1045 1046 1047 1048 1049 1050 1051 1052 1053 1054 1055 1056 1057 1059 0
-1059 1045 1046 1047 1048 1049 1050 1051 1052 1053 1054 1055 1056 1057 1058 0
1060 -2 -40 -68 -84 0
-1060 2 0
-1060 40 0
-1060 68 0
-1060 84 0
1061 -11 -32 -40 -84 0
-1061 11 0
-1061 32 0
-1061 40 0
-1061 84 0
1062 -14 -29 -40 -84 0
-1062 14 0
-1062 29 0
-1062 40 0
-1062 84 0
-1060 1061 1062 0
-1061 1060 1062 0
-1062 1060 1061 0
1063 -2 -40 -69 -82 0
-1063 2 0
-1063 40 0
-1063 69 0
-1063 82 0
1064 -2 -49 -64 -69 0
-1064 2 0
-1064 49 0
-1064 64 0
-1064 69 0
1065 -2 -52 -61 -69 0
-1065 2 0
-1065 52 0
-1065 61 0
-1065 69 0
-1063 1064 1065 0
-1064 1063 1065 0
-1065 1063 1064 0
1066 -2 -40 -69 -83 0
-1066 2 0
-1066 40 0
-1066 69 0
-1066 83 0
1067 -17 -38 -40 -69 0
-1067 17 0
-1067 38 0
-1067 40 0
-1067 69 0
1068 -20 -35 -40 -69 0
-1068 20 0
-1068 35 0
-1068 40 0
-1068 69 0
-1066 1067 1068 0
-1067 1066 1068 0
-1068 1066 1067 0
1069 -2 -40 -69 -84 0
-1069 2 0
-1069 40 0
-1069 69 0
-1069 84 0
1070 -2 -40 -72 -81 0
-1070 2 0
-1070 40 0
-1070 72 0
-1070 81 0
1071 -2 -40 -75 -78 0
-1071 2 0
-1071 40 0
-1071 75 0
-1071 78 0
-1069 1070 1071 0
-1070 1069 1071 0
-1071 1069 1070 0
1072 -2 -41 -67 -82 0
-1072 2 0
-1072 41 0
-1072 67 0
-1072 82 0
1073 -2 -41 -70 -79 0
-1073 2 0
-1073 41 0
-1073 70 0
-1073 79 0
1074 -2 -41 -73 -76 0
-1074 2 0
-1074 41 0
-1074 73 0
-1074 76 0
1075 -5 -26 -67 -82 0
-1075 5 0
-1075 26 0
-1075 67 0
-1075 82 0
1076 -5 -26 -70 -79 0
-1076 5 0
-1076 26 0
-1076 70 0
-1076 79 0
1077 -5 -26 -73 -76 0
-1077 5 0
-1077 26 0
-1077 73 0
-1077 76 0
1078 -8 -23 -67 -82 0
-1078 8 0
-1078 23 0
-1078 67 0
-1078 82 0
1079 -8 -23 -70 -79 0
-1079 8 0
-1079 23 0
-1079 70 0
-1079 79 0
1080 -8 -23 -73 -76 0
-1080 8 0
-1080 23 0
-1080 73 0
-1080 76 0
-1072 1073 1074 1075 1076 1077 1078 1079 1080 0
-1073 1072 1074 1075 1076 1077 1078 1079 1080 0
-1074 1072 1073 1075 1076 1077 1078 1079 1080 0
-1075 1072 1073 1074 1076 1077 1078 1079 1080 0
-1076 1072 1073 1074 1075 1077 1078 1079 1080 0
-1077 1072 1073 1074 1075 1076 1078 1079 1080 0
-1078 1072 1073 1074 1075 1076 1077 1079 1080 0
-1079 1072 1073 1074 1075 1076 1077 1078 1080 0
-1080 1072 1073 1074 1075 1076 1077 1078 1079 0
1081 -2 -41 -67 -83 0
-1081 2 0
-1081 41 0
-1081 67 0
-1081 83 0
1082 -2 -50 -65 -67 0
-1082 2 0
-1082 50 0
-1082 65 0
-1082 67 0
1083 -2 -53 -62 -67 0
-1083 2 0
-1083 53 0
-1083 62 0
-1083 67 0
1084 -5 -26 -67 -83 0
-1084 5 0
-1084 26 0
-1084 67 0
-1084 83 0
1085 -5 -35 -65 -67 0
-1085 5 0
-1085 35 0
-1085 65 0
-1085 67 0
1086 -5 -38 -62 -67 0
-1086 5 0
-1086 38 0
-1086 62 0
-1086 67 0
1087 -8 -23 -67 -83 0
-1087 8 0
-1087 23 0
-1087 67 0
-1087 83 0
1088 -8 -35 -53 -67 0
-1088 8 0
-1088 35 0
-1088 53 0
-1088 67 0
1089 -8 -38 -50 -67 0
-1089 8 0
-1089 38 0
-1089 50 0
-1089 67 0
1090 -17 -23 -65 -67 0
-1090 17 0
-1090 23 0
-1090 65 0
-1090 67 0
1091 -17 -26 -53 -67 0
-1091 17 0
-1091 26 0
-1091 53 0
-1091 67 0
1092 -17 -38 -41 -67 0
-1092 17 0
-1092 38 0
-1092 41 0
-1092 67 0
1093 -20 -23 -62 -67 0
-1093 20 0
-1093 23 0
-1093 62 0
-1093 67 0
1094 -20 -26 -50 -67 0
-1094 20 0
-1094 26 0
-1094 50 0
-1094 67 0
1095 -20 -35 -41 -67 0
-1095 20 0
-1095 35 0
-1095 41 0
-1095 67 0
-1081 1082 1083 1084 1085 1086 1087 1088 1089 1090 1091 1092 1093 1094 1095 0
-1082 1081 1083 1084 1085 1086 1087 1088 1089 1090 1091 1092 1093 1094 1095 0
-1083 1081 1082 1084 1085 1086 1087 1088 1089 1090 1091 1092 1093 1094 1095 0
-1084 1081 1082 1083 1085 1086 1087 1088 1089 1090 1091 1092 1093 1094 1095 0
-1085 1081 1082 1083 1084 1086 1087 1088 1089 1090 1091 1092 1093 1094 1095 0
-1086 1081 1082 1083 1084 1085 1087 1088 1089 1090 1091 1092 1093 1094 1095 0
-1087 1081 1082 1083 1084 1085 1086 1088 1089 1090 1091 1092 1093 1094 1095 0
-1088 1081 1082 1083 1084 1085 1086 1087 1089 1090 1091 1092 1093 1094 1095 0
-1089 1081 1082 1083 1084 1085 1086 1087 1088 1090 1091 1092 1093 1094 1095 0
-1090 1081 1082 1083 1084 1085 1086 1087 1088 1089 1091 1092 1093 1094 1095 0
-1091 1081 1082 1083 1084 1085 1086 1087 1088 1089 1090 1092 1093 1094 1095 0
-1092 1081 1082 1083 1084 1085 1086 1087 1088 1089 1090 1091 1093 1094 1095 0
-1093 1081 1082 1083 1084 1085 1086 1087 1088 1089 1090 1091 1092 1094 1095 0
-1094 1081 1082 1083 1084 1085 1086 1087 1088 1089 1090 1091 1092 1093 1095 0
-1095 1081 1082 1083 1084 1085 1086 1087 1088 1089 1090 1091 1092 1093 1094 0
1096 -2 -41 -67 -84 0
-1096 2 0
-1096 41 0
-1096 67 0
-1096 84 0
1097 -5 -26 -67 -84 0
-1097 5 0
-1097 26 0
-1097 67 0
-1097 84 0
1098 -8 -23 -67 -84 0
-1098 8 0
-1098 23 0
-1098 67 0
-1098 84 0
-1096 1097 1098 0
-1097 1096 1098 0
-1098 1096 1097 0
1099 -2 -41 -68 -82 0
-1099 2 0
-1099 41 0
-1099 68 0
-1099 82 0
1100 -2 -44 -59 -82 0
-1100 2 0
-1100 44 0
-1100 59 0
-1100 82 0
1101 -2 -47 -56 -82 0
-1101 2 0
-1101 47 0
-1101 56 0
-1101 82 0
1102 -5 -26 -68 -82 0
-1102 5 0
-1102 26 0
-1102 68 0
-1102 82 0
1103 -5 -29 -59 -82 0
-1103 5 0
-1103 29 0
-1103 59 0
-1103 82 0
1104 -5 -32 -56 -82 0
-1104 5 0
-1104 32 0
-1104 56 0
-1104 82 0
1105 -8 -23 -68 -82 0
-1105 8 0
-1105 23 0
-1105 68 0
-1105 82 0
1106 -8 -29 -47 -82 0
-1106 8 0
-1106 29 0
-1106 47 0
-1106 82 0
1107 -8 -32 -44 -82 0
-1107 8 0
-1107 32 0
-1107 44 0
-1107 82 0
1108 -11 -23 -59 -82 0
-1108 11 0
-1108 23 0
-1108 59 0
-1108 82 0
1109 -11 -26 -47 -82 0
-1109 11 0
-1109 26 0
-1109 47 0
-1109 82 0
1110 -11 -32 -41 -82 0
-1110 11 0
-1110 32 0
-1110 41 0
-1110 82 0
1111 -14 -23 -56 -82 0
-1111 14 0
-1111 23 0
-1111 56 0
-1111 82 0
1112 -14 -26 -44 -82 0
-1112 14 0
-1112 26 0
-1112 44 0
-1112 82 0
1113 -14 -29 -41 -82 0
-1113 14 0
-1113 29 0
-1113 41 0
-1113 82 0
-1099 1100 1101 1102 1103 1104 1105 1106 1107 1108 1109 1110 1111 1112 1113 0
-1100 1099 1101 1102 1103 1104 1105 1106 1107 1108 1109 1110 1111 1112 1113 0
-1101 1099 1100 1102 1103 1104 1105 1106 1107 1108 1109 1110 1111 1112 1113 0
-1102 1099 1100 1101 1103 1104 1105 1106 1107 1108 1109 1110 1111 1112 1113 0
-1103 1099 1100 1101 1102 1104 1105 1106 1107 1108 1109 1110 1111 1112 1113 0
-1104 1099 1100 1101 1102 1103 1105 1106 1107 1108 1109 1110 1111 1112 1113 0
-1105 1099 1100 1101 1102 1103 1104 1106 1107 1108 1109 1110 1111 1112 1113 0
-1106 1099 1100 1101 1102 1103 1104 1105 1107 1108 1109 1110 1111 1112 1113 0
-1107 1099 1100 1101 1102 1103 1104 1105 1106 1108 1109 1110 1111 1112 1113 0
-1108 1099 1100 1101 1102 1103 1104 1105 1106 1107 1109 1110 1111 1112 1113 0
-1109 1099 1100 1101 1102 1103 1104 1105 1106 1107 1108 1110 1111 1112 1113 0
-1110 1099 1100 1101 1102 1103 1104 1105 1106 1107 1108 1109 1111 1112 1113 0
-1111 1099 1100 1101 1102 1103 1104 1105 1106 1107 1108 1109 1110 1112 1113 0
-1112 1099 1100 1101 1102 1103 1104 1105 1106 1107 1108 1109 1110 1111 1113 0
-1113 1099 1100 1101 1102 1103 1104 1105 1106 1107 1108 1109 1110 1111 1112 0
1114 -2 -41 -68 -83 0
-1114 2 0
-1114 41 0
-1114 68 0
-1114 83 0
1115 -2 -41 -71 -80 0
-1115 2 0
-1115 41 0
-1115 71 0
-1115 80 0
1116 -2 -41 -74 -77 0
-1116 2 0
-1116 41 0
-1116 74 0
-1116 77 0
1117 -2 -44 -59 -83 0
-1117 2 0
-1117 44 0
-1117 59 0
-1117 83 0
1118 -2 -44 -62 -80 0
-1118 2 0
-1118 44 0
-1118 62 0
-1118 80 0
1119 -2 -44 -65 -77 0
-1119 2 0
-1119 44 0
-1119 65 0
-1119 77 0
1120 -2 -47 -56 -83 0
-1120 2 0
-1120 47 0
-1120 56 0
-1120 83 0
1121 -2 -47 -62 -74 0
-1121 2 0
-1121 47 0
-1121 62 0
-1121 74 0
1122 -2 -47 -65 -71 0
-1122 2 0
-1122 47 0
-1122 65 0
-1122 71 0
1123 -2 -50 -56 -80 0
-1123 2 0
-1123 50 0
-1123 56 0
-1123 80 0
1124 -2 -50 -59 -74 0
-1124 2 0
-1124 50 0
-1124 59 0
-1124 74 0
1125 -2 -50 -65 -68 0
-1125 2 0
-1125 50 0
-1125 65 0
-1125 68 0
1126 -2 -53 -56 -77 0
-1126 2 0
-1126 53 0
-1126 56 0
-1126 77 0
1127 -2 -53 -59 -71 0
-1127 2 0
-1127 53 0
-1127 59 0
-1127 71 0
1128 -2 -53 -62 -68 0
-1128 2 0
-1128 53 0
-1128 62 0
-1128 68 0
1129 -5 -26 -68 -83 0
-1129 5 0
-1129 26 0
-1129 68 0
-1129 83 0
1130 -5 -26 -71 -80 0
-1130 5 0
-1130 26 0
-1130 71 0
-1130 80 0
1131 -5 -26 -74 -77 0
-1131 5 0
-1131 26 0
-1131 74 0
-1131 77 0
1132 -5 -29 -59 -83 0
-1132 5 0
-1132 29 0
-1132 59 0
-1132 83 0
1133 -5 -29 -62 -80 0
-1133 5 0
-1133 29 0
-1133 62 0
-1133 80 0
1134 -5 -29 -65 -77 0
-1134 5 0
-1134 29 0
-1134 65 0
-1134 77 0
1135 -5 -32 -56 -83 0
-1135 5 0
-1135 32 0
-1135 56 0
-1135 83 0
1136 -5 -32 -62 -74 0
-1136 5 0
-1136 32 0
-1136 62 0
-1136 74 0
1137 -5 -32 -65 -71 0
-1137 5 0
-1137 32 0
-1137 65 0
-1137 71 0
1138 -5 -35 -56 -80 0
-1138 5 0
-1138 35 0
-1138 56 0
-1138 80 0
1139 -5 -35 -59 -74 0
-1139 5 0
-1139 35 0
-1139 59 0
-1139 74 0
1140 -5 -35 -65 -68 0
-1140 5 0
-1140 35 0
-1140 65 0
-1140 68 0
1141 -5 -38 -56 -77 0
-1141 5 0
-1141 38 0
-1141 56 0
-1141 77 0
1142 -5 -38 -59 -71 0
-1142 5 0
-1142 38 0
-1142 59 0
-1142 71 0
1143 -5 -38 -62 -68 0
-1143 5 0
-1143 38 0
-1143 62 0
-1143 68 0
1144 -8 -23 -68 -83 0
-1144 8 0
-1144 23 0
-1144 68 0
-1144 83 0
1145 -8 -23 -71 -80 0
-1145 8 0
-1145 23 0
-1145 71 0
-1145 80 0
1146 -8 -23 -74 -77 0
-1146 8 0
-1146 23 0
-1146 74 0
-1146 77 0
1147 -8 -29 -47 -83 0
-1147 8 0
-1147 29 0
-1147 47 0
-1147 83 0
1148 -8 -29 -50 -80 0
-1148 8 0
-1148 29 0
-1148 50 0
-1148 80 0
1149 -8 -29 -53 -77 0
-1149 8 0
-1149 29 0
-1149 53 0
-1149 77 0
1150 -8 -32 -44 -83 0
-1150 8 0
-1150 32 0
-1150 44 0
-1150 83 0
1151 -8 -32 -50 -74 0
-1151 8 0
-1151 32 0
-1151 50 0
-1151 74 0
1152 -8 -32 -53 -71 0
-1152 8 0
-1152 32 0
-1152 53 0
-1152 71 0
1153 -8 -35 -44 -80 0
-1153 8 0
-1153 35 0
-1153 44 0
-1153 80 0
1154 -8 -35 -47 -74 0
-1154 8 0
-1154 35 0
-1154 47 0
-1154 74 0
1155 -8 -35 -53 -68 0
-1155 8 0
-1155 35 0
-1155 53 0
-1155 68 0
1156 -8 -38 -44 -77 0
-1156 8 0
-1156 38 0
-1156 44 0
-1156 77 0
1157 -8 -38 -47 -71 0
-1157 8 0
-1157 38 0
-1157 47 0
-1157 71 0
1158 -8 -38 -50 -68 0
-1158 8 0
-1158 38 0
-1158 50 0
-1158 68 0
1159 -11 -23 -59 -83 0
-1159 11 0
-1159 23 0
-1159 59 0
-1159 83 0
1160 -11 -23 -62 -80 0
-1160 11 0
-1160 23 0
-1160 62 0
-1160 80 0
1161 -11 -23 -65 -77 0
-1161 11 0
-1161 23 0
-1161 65 0
-1161 77 0
1162 -11 -26 -47 -83 0
-1162 11 0
-1162 26 0
-1162 47 0
-1162 83 0
1163 -11 -26 -50 -80 0
-1163 11 0
-1163 26 0
-1163 50 0
-1163 80 0
1164 -11 -26 -53 -77 0
-1164 11 0
-1164 26 0
-1164 53 0
-1164 77 0
1165 -11 -32 -41 -83 0
-1165 11 0
-1165 32 0
-1165 41 0
-1165 83 0
1166 -11 -32 -50 -65 0
-1166 11 0
-1166 32 0
-1166 50 0
-1166 65 0
1167 -11 -32 -53 -62 0
-1167 11 0
-1167 32 0
-1167 53 0
-1167 62 0
1168 -11 -35 -41 -80 0
-1168 11 0
-1168 35 0
-1168 41 0
-1168 80 0
1169 -11 -35 -47 -65 0
-1169 11 0
-1169 35 0
-1169 47 0
-1169 65 0
1170 -11 -35 -53 -59 0
-1170 11 0
-1170 35 0
-1170 53 0
-1170 59 0
1171 -11 -38 -41 -77 0
-1171 11 0
-1171 38 0
-1171 41 0
-1171 77 0
1172 -11 -38 -47 -62 0
-1172 11 0
-1172 38 0
-1172 47 0
-1172 62 0
1173 -11 -38 -50 -59 0
-1173 11 0
-1173 38 0
-1173 50 0
-1173 59 0
1174 -14 -23 -56 -83 0
-1174 14 0
-1174 23 0
-1174 56 0
-1174 83 0
1175 -14 -23 -62 -74 0
-1175 14 0
-1175 23 0
-1175 62 0
-1175 74 0
1176 -14 -23 -65 -71 0
-1176 14 0
-1176 23 0
-1176 65 0
-1176 71 0
1177 -14 -26 -44 -83 0
-1177 14 0
-1177 26 0
-1177 44 0
-1177 83 0
1178 -14 -26 -50 -74 0
-1178 14 0
-1178 26 0
-1178 50 0
-1178 74 0
1179 -14 -26 -53 -71 0
-1179 14 0
-1179 26 0
-1179 53 0
-1179 71 0
1180 -14 -29 -41 -83 0
-1180 14 0
-1180 29 0
-1180 41 0
-1180 83 0
1181 -14 -29 -50 -65 0
-1181 14 0
-1181 29 0
-1181 50 0
-1181 65 0
1182 -14 -29 -53 -62 0
-1182 14 0
-1182 29 0
-1182 53 0
-1182 62 0
1183 -14 -35 -41 -74 0
-1183 14 0
-1183 35 0
-1183 41 0
-1183 74 0
1184 -14 -35 -44 -65 0
-1184 14 0
-1184 35 0
-1184 44 0
-1184 65 0
1185 -14 -35 -53 -56 0
-1185 14 0
-1185 35 0
-1185 53 0
-1185 56 0
1186 -14 -38 -41 -71 0
-1186 14 0
-1186 38 0
-1186 41 0
-1186 71 0
1187 -14 -38 -44 -62 0
-1187 14 0
-1187 38 0
-1187 44 0
-1187 62 0
1188 -14 -38 -50 -56 0
-1188 14 0
-1188 38 0
-1188 50 0
-1188 56 0
1189 -17 -23 -56 -80 0
-1189 17 0
-1189 23 0
-1189 56 0
-1189 80 0
1190 -17 -23 -59 -74 0
-1190 17 0
-1190 23 0
-1190 59 0
-1190 74 0
1191 -17 -23 -65 -68 0
-1191 17 0
-1191 23 0
-1191 65 0
-1191 68 0
1192 -17 -26 -44 -80 0
-1192 17 0
-1192 26 0
-1192 44 0
-1192 80 0
1193 -17 -26 -47 -74 0
-1193 17 0
-1193 26 0
-1193 47 0
-1193 74 0
1194 -17 -26 -53 -68 0
-1194 17 0
-1194 26 0
-1194 53 0
-1194 68 0
1195 -17 -29 -41 -80 0
-1195 17 0
-1195 29 0
-1195 41 0
-1195 80 0
1196 -17 -29 -47 -65 0
-1196 17 0
-1196 29 0
-1196 47 0
-1196 65 0
1197 -17 -29 -53 -59 0
-1197 17 0
-1197 29 0
-1197 53 0
-1197 59 0
1198 -17 -32 -41 -74 0
-1198 17 0
-1198 32 0
-1198 41 0
-1198 74 0
1199 -17 -32 -44 -65 0
-1199 17 0
-1199 32 0
-1199 44 0
-1199 65 0
1200 -17 -32 -53 -56 0
-1200 17 0
-1200 32 0
-1200 53 0
-1200 56 0
1201 -17 -38 -41 -68 0
-1201 17 0
-1201 38 0
-1201 41 0
-1201 68 0
1202 -17 -38 -44 -59 0
-1202 17 0
-1202 38 0
-1202 44 0
-1202 59 0
1203 -17 -38 -47 -56 0
-1203 17 0
-1203 38 0
-1203 47 0
-1203 56 0
1204 -20 -23 -56 -77 0
-1204 20 0
-1204 23 0
-1204 56 0
-1204 77 0
1205 -20 -23 -59 -71 0
-1205 20 0
-1205 23 0
-1205 59 0
-1205 71 0
1206 -20 -23 -62 -68 0
-1206 20 0
-1206 23 0
-1206 62 0
-1206 68 0
1207 -20 -26 -44 -77 0
-1207 20 0
-1207 26 0
-1207 44 0
-1207 77 0
1208 -20 -26 -47 -71 0
-1208 20 0
-1208 26 0
-1208 47 0
-1208 71 0
1209 -20 -26 -50 -68 0
-1209 20 0
-1209 26 0
-1209 50 0
-1209 68 0
1210 -20 -29 -41 -77 0
-1210 20 0
-1210 29 0
-1210 41 0
-1210 77 0
1211 -20 -29 -47 -62 0
-1211 20 0
-1211 29 0
-1211 47 0
-1211 62 0
1212 -20 -29 -50 -59 0
-1212 20 0
-1212 29 0
-1212 50 0
-1212 59 0
1213 -20 -32 -41 -71 0
-1213 20 0
-1213 32 0
-1213 41 0
-1213 71 0
1214 -20 -32 -44 -62 0
-1214 20 0
-1214 32 0
-1214 44 0
-1214 62 0
1215 -20 -32 -50 -56 0
-1215 20 0
-1215 32 0
-1215 50 0
-1215 56 0
1216 -20 -35 -41 -68 0
-1216 20 0
-1216 35 0
-1216 41 0
-1216 68 0
1217 -20 -35 -44 -59 0
-1217 20 0
-1217 35 0
-1217 44 0
-1217 59 0
1218 -20 -35 -47 -56 0
-1218 20 0
-1218 35 0
-1218 47 0
-1218 56 0
1114 1115 1116 1117 1118 1119 1120 1121 1122 1123 1124 1125 1126 1127 1128 1129 1130 1131 1132 1133 1134 1135 1136 1137 1138 1139 1140 1141 1142 1143 1144 1145 1146 1147 1148 1149 1150 1151 1152 1153 1154 1155 1156 1157 1158 1159 1160 1161 1162 1163 1164 1165 1166 1167 1168 1169 1170 1171 1172 1173 1174 1175 1176 1177 1178 1179 1180 1181 1182 1183 1184 1185 1186 1187 1188 1189 1190 1191 1192 1193 1194 1195 1196 1197 1198 1199 1200 1201 1202 1203 1204 1205 1206 1207 1208 1209 1210 1211 1212 1213 1214 1215 1216 1217 1218 0
1219 -2 -41 -68 -84 0
-1219 2 0
-1219 41 0
-1219 68 0
-1219 84 0
1220 -2 -44 -59 -84 0
-1220 2 0
-1220 44 0
-1220 59 0
-1220 84 0
1221 -2 -47 -56 -84 0
-1221 2 0
-1221 47 0
-1221 56 0
-1221 84 0
1222 -5 -26 -68 -84 0
-1222 5 0
-1222 26 0
-1222 68 0
-1222 84 0
1223 -5 -29 -59 -84 0
-1223 5 0
-1223 29 0
-1223 59 0
-1223 84 0
1224 -5 -32 -56 -84 0
-1224 5 0
-1224 32 0
-1224 56 0
-1224 84 0
1225 -8 -23 -68 -84 0
-1225 8 0
-1225 23 0
-1225 68 0
-1225 84 0
1226 -8 -29 -47 -84 0
-1226 8 0
-1226 29 0
-1226 47 0
-1226 84 0
1227 -8 -32 -44 -84 0
-1227 8 0
-1227 32 0
-1227 44 0
-1227 84 0
1228 -11 -23 -59 -84 0
-1228 11 0
-1228 23 0
-1228 59 0
-1228 84 0
1229 -11 -26 -47 -84 0
-1229 11 0
-1229 26 0
-1229 47 0
-1229 84 0
1230 -11 -32 -41 -84 0
-1230 11 0
-1230 32 0
-1230 41 0
-1230 84 0
1231 -14 -23 -56 -84 0
-1231 14 0
-1231 23 0
-1231 56 0
-1231 84 0
1232 -14 -26 -44 -84 0
-1232 14 0
-1232 26 0
-1232 44 0
-1232 84 0
1233 -14 -29 -41 -84 0
-1233 14 0
-1233 29 0
-1233 41 0
-1233 84 0
-1219 1220 1221 1222 1223 1224 1225 1226 1227 1228 1229 1230 1231 1232 1233 0
-1220 1219 1221 1222 1223 1224 1225 1226 1227 1228 1229 1230 1231 1232 1233 0
-1221 1219 1220 1222 1223 1224 1225 1226 1227 1228 1229 1230 1231 1232 1233 0
-1222 1219 1220 1221 1223 1224 1225 1226 1227 1228 1229 1230 1231 1232 1233 0
-1223 1219 1220 1221 1222 1224 1225 1226 1227 1228 1229 1230 1231 1232 1233 0
-1224 1219 1220 1221 1222 1223 1225 1226 1227 1228 1229 1230 1231 1232 1233 0
-1225 1219 1220 1221 1222 1223 1224 1226 1227 1228 1229 1230 1231 1232 1233 0
-1226 1219 1220 1221 1222 1223 1224 1225 1227 1228 1229 1230 1231 1232 1233 0
-1227 1219 1220 1221 1222 1223 1224 1225 1226 1228 1229 1230 1231 1232 1233 0
-1228 1219 1220 1221 1222 1223 1224 1225 1226 1227 1229 1230 1231 1232 1233 0
-1229 1219 1220 1221 1222 1223 1224 1225 1226 1227 1228 1230 1231 1232 1233 0
-1230 1219 1220 1221 1222 1223 1224 1225 1226 1227 1228 1229 1231 1232 1233 0
-1231 1219 1220 1221 1222 1223 1224 1225 1226 1227 1228 1229 1230 1232 1233 0
-1232 1219 1220 1221 1222 1223 1224 1225 1226 1227 1228 1229 1230 1231 1233 0
-1233 1219 1220 1221 1222 1223 1224 1225 1226 1227 1228 1229 1230 1231 1232 0
1234 -2 -41 -69 -82 0
-1234 2 0
-1234 41 0
-1234 69 0
-1234 82 0
1235 -5 -26 -69 -82 0
-1235 5 0
-1235 26 0
-1235 69 0
-1235 82 0
1236 -8 -23 -69 -82 0
-1236 8 0
-1236 23 0
-1236 69 0
-1236 82 0
-1234 1235 1236 0
-1235 1234 1236 0
-1236 1234 1235 0
1237 -2 -41 -69 -83 0
-1237 2 0
-1237 41 0
-1237 69 0
-1237 83 0
1238 -2 -50 -65 -69 0
-1238 2 0
-1238 50 0
-1238 65 0
-1238 69 0
1239 -2 -53 -62 -69 0
-1239 2 0
-1239 53 0
-1239 62 0
-1239 69 0
1240 -5 -26 -69 -83 0
-1240 5 0
-1240 26 0
-1240 69 0
-1240 83 0
1241 -5 -35 -65 -69 0
-1241 5 0
-1241 35 0
-1241 65 0
-1241 69 0
1242 -5 -38 -62 -69 0
-1242 5 0
-1242 38 0
-1242 62 0
-1242 69 0
1243 -8 -23 -69 -83 0
-1243 8 0
-1243 23 0
-1243 69 0
-1243 83 0
1244 -8 -35 -53 -69 0
-1244 8 0
-1244 35 0
-1244 53 0
-1244 69 0
1245 -8 -38 -50 -69 0
-1245 8 0
-1245 38 0
-1245 50 0
-1245 69 0
1246 -17 -23 -65 -69 0
-1246 17 0
-1246 23 0
-1246 65 0
-1246 69 0
1247 -17 -26 -53 -69 0
-1247 17 0
-1247 26 0
-1247 53 0
-1247 69 0
1248 -17 -38 -41 -69 0
-1248 17 0
-1248 38 0
-1248 41 0
-1248 69 0
1249 -20 -23 -62 -69 0
-1249 20 0
-1249 23 0
-1249 62 0
-1249 69 0
1250 -20 -26 -50 -69 0
-1250 20 0
-1250 26 0
-1250 50 0
-1250 69 0
1251 -20 -35 -41 -69 0
-1251 20 0
-1251 35 0
-1251 41 0
-1251 69 0
-1237 1238 1239 1240 1241 1242 1243 1244 1245 1246 1247 1248 1249 1250 1251 0
-1238 1237 1239 1240 1241 1242 1243 1244 1245 1246 1247 1248 1249 1250 1251 0
-1239 1237 1238 1240 1241 1242 1243 1244 1245 1246 1247 1248 1249 1250 1251 0
-1240 1237 1238 1239 1241 1242 1243 1244 1245 1246 1247 1248 1249 1250 1251 0
-1241 1237 1238 1239 1240 1242 1243 1244 1245 1246 1247 1248 1249 1250 1251 0
-1242 1237 1238 1239 1240 1241 1243 1244 1245 1246 1247 1248 1249 1250 1251 0
-1243 1237 1238 1239 1240 1241 1242 1244 1245 1246 1247 1248 1249 1250 1251 0
-1244 1237 1238 1239 1240 1241 1242 1243 1245 1246 1247 1248 1249 1250 1251 0
-1245 1237 1238 1239 1240 1241 1242 1243 1244 1246 1247 1248 1249 1250 1251 0
-1246 1237 1238 1239 1240 1241 1242 1243 1244 1245 1247 1248 1249 1250 1251 0
-1247 1237 1238 1239 1240 1241 1242 1243 1244 1245 1246 1248 1249 1250 1251 0
-1248 1237 1238 1239 1240 1241 1242 1243 1244 1245 1246 1247 1249 1250 1251 0
-1249 1237 1238 1239 1240 1241 1242 1243 1244 1245 1246 1247 1248 1250 1251 0
-1250 1237 1238 1239 1240 1241 1242 1243 1244 1245 1246 1247 1248 1249 1251 0
-1251 1237 1238 1239 1240 1241 1242 1243 1244 1245 1246 1247 1248 1249 1250 0
1252 -2 -41 -69 -84 0
-1252 2 0
-1252 41 0
-1252 69 0
-1252 84 0
1253 -2 -41 -72 -81 0
-1253 2 0
-1253 41 0
-1253 72 0
-1253 81 0
1254 -2 -41 -75 -78 0
-1254 2 0
-1254 41 0
-1254 75 0
-1254 78 0
1255 -5 -26 -69 -84 0
-1255 5 0
-1255 26 0
-1255 69 0
-1255 84 0
1256 -5 -26 -72 -81 0
-1256 5 0
-1256 26 0
-1256 72 0
-1256 81 0
1257 -5 -26 -75 -78 0
-1257 5 0
-1257 26 0
-1257 75 0
-1257 78 0
1258 -8 -23 -69 -84 0
-1258 8 0
-1258 23 0
-1258 69 0
-1258 84 0
1259 -8 -23 -72 -81 0
-1259 8 0
-1259 23 0
-1259 72 0
-1259 81 0
1260 -8 -23 -75 -78 0
-1260 8 0
-1260 23 0
-1260 75 0
-1260 78 0
-1252 1253 1254 1255 1256 1257 1258 1259 1260 0
-1253 1252 1254 1255 1256 1257 1258 1259 1260 0
-1254 1252 1253 1255 1256 1257 1258 1259 1260 0
-1255 1252 1253 1254 1256 1257 1258 1259 1260 0
-1256 1252 1253 1254 1255 1257 1258 1259 1260 0
-1257 1252 1253 1254 1255 1256 1258 1259 1260 0
-1258 1252 1253 1254 1255 1256 1257 1259 1260 0
-1259 1252 1253 1254 1255 1256 1257 1258 1260 0
-1260 1252 1253 1254 1255 1256 1257 1258 1259 0
1261 -2 -42 -67 -82 0
-1261 2 0
-1261 42 0
-1261 67 0
-1261 82 0
1262 -2 -42 -70 -79 0
-1262 2 0
-1262 42 0
-1262 70 0
-1262 79 0
1263 -2 -42 -73 -76 0
-1263 2 0
-1263 42 0
-1263 73 0
-1263 76 0
-1261 1262 1263 0
-1262 1261 1263 0
-1263 1261 1262 0
1264 -2 -42 -67 -83 0
-1264 2 0
-1264 42 0
-1264 67 0
-1264 83 0
1265 -17 -38 -42 -67 0
-1265 17 0
-1265 38 0
-1265 42 0
-1265 67 0
1266 -20 -35 -42 -67 0
-1266 20 0
-1266 35 0
-1266 42 0
-1266 67 0
-1264 1265 1266 0
-1265 1264 1266 0
-1266 1264 1265 0
1267 -2 -42 -67 -84 0
-1267 2 0
-1267 42 0
-1267 67 0
-1267 84 0
1268 -2 -51 -66 -67 0
-1268 2 0
-1268 51 0
-1268 66 0
-1268 67 0
1269 -2 -54 -63 -67 0
-1269 2 0
-1269 54 0
-1269 63 0
-1269 67 0
-1267 1268 1269 0
-1268 1267 1269 0
-1269 1267 1268 0
1270 -2 -42 -68 -82 0
-1270 2 0
-1270 42 0
-1270 68 0
-1270 82 0
1271 -11 -32 -42 -82 0
-1271 11 0
-1271 32 0
-1271 42 0
-1271 82 0
1272 -14 -29 -42 -82 0
-1272 14 0
-1272 29 0
-1272 42 0
-1272 82 0
-1270 1271 1272 0
-1271 1270 1272 0
-1272 1270 1271 0
1273 -2 -42 -68 -83 0
-1273 2 0
-1273 42 0
-1273 68 0
-1273 83 0
1274 -2 -42 -71 -80 0
-1274 2 0
-1274 42 0
-1274 71 0
-1274 80 0
1275 -2 -42 -74 -77 0
-1275 2 0
-1275 42 0
-1275 74 0
-1275 77 0
1276 -11 -32 -42 -83 0
-1276 11 0
-1276 32 0
-1276 42 0
-1276 83 0
1277 -11 -35 -42 -80 0
-1277 11 0
-1277 35 0
-1277 42 0
-1277 80 0
1278 -11 -38 -42 -77 0
-1278 11 0
-1278 38 0
-1278 42 0
-1278 77 0
1279 -14 -29 -42 -83 0
-1279 14 0
-1279 29 0
-1279 42 0
-1279 83 0
1280 -14 -35 -42 -74 0
-1280 14 0
-1280 35 0
-1280 42 0
-1280 74 0
1281 -14 -38 -42 -71 0
-1281 14 0
-1281 38 0
-1281 42 0
-1281 71 0
1282 -17 -29 -42 -80 0
-1282 17 0
-1282 29 0
-1282 42 0
-1282 80 0
1283 -17 -32 -42 -74 0
-1283 17 0
-1283 32 0
-1283 42 0
-1283 74 0
1284 -17 -38 -42 -68 0
-1284 17 0
-1284 38 0
-1284 42 0
-1284 68 0
1285 -20 -29 -42 -77 0
-1285 20 0
-1285 29 0
-1285 42 0
-1285 77 0
1286 -20 -32 -42 -71 0
-1286 20 0
-1286 32 0
-1286 42 0
-1286 71 0
1287 -20 -35 -42 -68 0
-1287 20 0
-1287 35 0
-1287 42 0
-1287 68 0
-1273 1274 1275 1276 1277 1278 1279 1280 1281 1282 1283 1284 1285 1286 1287 0
-1274 1273 1275 1276 1277 1278 1279 1280 1281 1282 1283 1284 1285 1286 1287 0
-1275 1273 1274 1276 1277 1278 1279 1280 1281 1282 1283 1284 1285 1286 1287 0
-1276 1273 1274 1275 1277 1278 1279 1280 1281 1282 1283 1284 1285 1286 1287 0
-1277 1273 1274 1275 1276 1278 1279 1280 1281 1282 1283 1284 1285 1286 1287 0
-1278 1273 1274 1275 1276 1277 1279 1280 1281 1282 1283 1284 1285 1286 1287 0
-1279 1273 1274 1275 1276 1277 1278 1280 1281 1282 1283 1284 1285 1286 1287 0
-1280 1273 1274 1275 1276 1277 1278 1279 1281 1282 1283 1284 1285 1286 1287 0
-1281 1273 1274 1275 1276 1277 1278 1279 1280 1282 1283 1284 1285 1286 1287 0
-1282 1273 1274 1275 1276 1277 1278 1279 1280 1281 1283 1284 1285 1286 1287 0
-1283 1273 1274 1275 1276 1277 1278 1279 1280 1281 1282 1284 1285 1286 1287 0
-1284 1273 1274 1275 1276 1277 1278 1279 1280 1281 1282 1283 1285 1286 1287 0
-1285 1273 1274 1275 1276 1277 1278 1279 1280 1281 1282 1283 1284 1286 1287 0
-1286 1273 1274 1275 1276 1277 1278 1279 1280 1281 1282 1283 1284 1285 1287 0
-1287 1273 1274 1275 1276 1277 1278 1279 1280 1281 1282 1283 1284 1285 1286 0
1288 -2 -42 -68 -84 0
-1288 2 0
-1288 42 0
-1288 68 0
-1288 84 0
1289 -2 -51 -66 -68 0
-1289 2 0
-1289 51 0
-1289 66 0
-1289 68 0
1290 -2 -54 -63 -68 0
-1290 2 0
-1290 54 0
-1290 63 0
-1290 68 0
1291 -11 -32 -42 -84 0
-1291 11 0
-1291 32 0
-1291 42 0
-1291 84 0
1292 -11 -32 -51 -66 0
-1292 11 0
-1292 32 0
-1292 51 0
-1292 66 0
1293 -11 -32 -54 -63 0
-1293 11 0
-1293 32 0
-1293 54 0
-1293 63 0
1294 -14 -29 -42 -84 0
-1294 14 0
-1294 29 0
-1294 42 0
-1294 84 0
1295 -14 -29 -51 -66 0
-1295 14 0
-1295 29 0
-1295 51 0
-1295 66 0
1296 -14 -29 -54 -63 0
-1296 14 0
-1296 29 0
-1296 54 0
-1296 63 0
-1288 1289 1290 1291 1292 1293 1294 1295 1296 0
-1289 1288 1290 1291 1292 1293 1294 1295 1296 0
-1290 1288 1289 1291 1292 1293 1294 1295 1296 0
-1291 1288 1289 1290 1292 1293 1294 1295 1296 0
-1292 1288 1289 1290 1291 1293 1294 1295 1296 0
-1293 1288 1289 1290 1291 1292 1294 1295 1296 0
-1294 1288 1289 1290 1291 1292 1293 1295 1296 0
-1295 1288 1289 1290 1291 1292 1293 1294 1296 0
-1296 1288 1289 1290 1291 1292 1293 1294 1295 0
1297 -2 -42 -69 -82 0
-1297 2 0
-1297 42 0
-1297 69 0
-1297 82 0
1298 -2 -45 -60 -82 0
-1298 2 0
-1298 45 0
-1298 60 0
-1298 82 0
1299 -2 -48 -57 -82 0
-1299 2 0
-1299 48 0
-1299 57 0
-1299 82 0
-1297 1298 1299 0
-1298 1297 1299 0
-1299 1297 1298 0
1300 -2 -42 -69 -83 0
-1300 2 0
-1300 42 0
-1300 69 0
-1300 83 0
1301 -2 -45 -60 -83 0
-1301 2 0
-1301 45 0
-1301 60 0
-1301 83 0
1302 -2 -48 -57 -83 0
-1302 2 0
-1302 48 0
-1302 57 0
-1302 83 0
1303 -17 -38 -42 -69 0
-1303 17 0
-1303 38 0
-1303 42 0
-1303 69 0
1304 -17 -38 -45 -60 0
-1304 17 0
-1304 38 0
-1304 45 0
-1304 60 0
1305 -17 -38 -48 -57 0
-1305 17 0
-1305 38 0
-1305 48 0
-1305 57 0
1306 -20 -35 -42 -69 0
-1306 20 0
-1306 35 0
-1306 42 0
-1306 69 0
1307 -20 -35 -45 -60 0
-1307 20 0
-1307 35 0
-1307 45 0
-1307 60 0
1308 -20 -35 -48 -57 0
-1308 20 0
-1308 35 0
-1308 48 0
-1308 57 0
-1300 1301 1302 1303 1304 1305 1306 1307 1308 0
-1301 1300 1302 1303 1304 1305 1306 1307 1308 0
-1302 1300 1301 1303 1304 1305 1306 1307 1308 0
-1303 1300 1301 1302 1304 1305 1306 1307 1308 0
-1304 1300 1301 1302 1303 1305 1306 1307 1308 0
-1305 1300 1301 1302 1303 1304 1306 1307 1308 0
-1306 1300 1301 1302 1303 1304 1305 1307 1308 0
-1307 1300 1301 1302 1303 1304 1305 1306 1308 0
-1308 1300 1301 1302 1303 1304 1305 1306 1307 0
1309 -2 -42 -69 -84 0
-1309 2 0
-1309 42 0
-1309 69 0
-1309 84 0
1310 -2 -42 -72 -81 0
-1310 2 0
-1310 42 0
-1310 72 0
-1310 81 0
1311 -2 -42 -75 -78 0
-1311 2 0
-1311 42 0
-1311 75 0
-1311 78 0
1312 -2 -45 -60 -84 0
-1312 2 0
-1312 45 0
-1312 60 0
-1312 84 0
1313 -2 -45 -63 -81 0
-1313 2 0
-1313 45 0
-1313 63 0
-1313 81 0
1314 -2 -45 -66 -78 0
-1314 2 0
-1314 45 0
-1314 66 0
-1314 78 0
1315 -2 -48 -57 -84 0
-1315 2 0
-1315 48 0
-1315 57 0
-1315 84 0
1316 -2 -48 -63 -75 0
-1316 2 0
-1316 48 0
-1316 63 0
-1316 75 0
1317 -2 -48 -66 -72 0
-1317 2 0
-1317 48 0
-1317 66 0
-1317 72 0
1318 -2 -51 -57 -81 0
-1318 2 0
-1318 51 0
-1318 57 0
-1318 81 0
1319 -2 -51 -60 -75 0
-1319 2 0
-1319 51 0
-1319 60 0
-1319 75 0
1320 -2 -51 -66 -69 0
-1320 2 0
-1320 51 0
-1320 66 0
-1320 69 0
1321 -2 -54 -57 -78 0
-1321 2 0
-1321 54 0
-1321 57 0
-1321 78 0
1322 -2 -54 -60 -72 0
-1322 2 0
-1322 54 0
-1322 60 0
-1322 72 0
1323 -2 -54 -63 -69 0
-1323 2 0
-1323 54 0
-1323 63 0
-1323 69 0
-1309 1310 1311 1312 1313 1314 1315 1316 1317 1318 1319 1320 1321 1322 1323 0
-1310 1309 1311 1312 1313 1314 1315 1316 1317 1318 1319 1320 1321 1322 1323 0
-1311 1309 1310 1312 1313 1314 1315 1316 1317 1318 1319 1320 1321 1322 1323 0
-1312 1309 1310 1311 1313 1314 1315 1316 1317 1318 1319 1320 1321 1322 1323 0
-1313 1309 1310 1311 1312 1314 1315 1316 1317 1318 1319 1320 1321 1322 1323 0
-1314 1309 1310 1311 1312 1313 1315 1316 1317 1318 1319 1320 1321 1322 1323 0
-1315 1309 1310 1311 1312 1313 1314 1316 1317 1318 1319 1320 1321 1322 1323 0
-1316 1309 1310 1311 1312 1313 1314 1315 1317 1318 1319 1320 1321 1322 1323 0
-1317 1309 1310 1311 1312 1313 1314 1315 1316 1318 1319 1320 1321 1322 1323 0
-1318 1309 1310 1311 1312 1313 1314 1315 1316 1317 1319 1320 1321 1322 1323 0
-1319 1309 1310 1311 1312 1313 1314 1315 1316 1317 1318 1320 1321 1322 1323 0
-1320 1309 1310 1311 1312 1313 1314 1315 1316 1317 1318 1319 1321 1322 1323 0
-1321 1309 1310 1311 1312 1313 1314 1315 1316 1317 1318 1319 1320 1322 1323 0
-1322 1309 1310 1311 1312 1313 1314 1315 1316 1317 1318 1319 1320 1321 1323 0
-1323 1309 1310 1311 1312 1313 1314 1315 1316 1317 1318 1319 1320 1321 1322 0
1324 -3 -40 -67 -82 0
-1324 3 0
-1324 40 0
-1324 67 0
-1324 82 0
1325 -3 -40 -70 -79 0
-1325 3 0
-1325 40 0
-1325 70 0
-1325 79 0
1326 -3 -40 -73 -76 0
-1326 3 0
-1326 40 0
-1326 73 0
-1326 76 0
1327 -3 -43 -58 -82 0
-1327 3 0
-1327 43 0
-1327 58 0
-1327 82 0
1328 -3 -43 -61 -79 0
-1328 3 0
-1328 43 0
-1328 61 0
-1328 79 0
1329 -3 -43 -64 -76 0
-1329 3 0
-1329 43 0
-1329 64 0
-1329 76 0
1330 -3 -46 -55 -82 0
-1330 3 0
-1330 46 0
-1330 55 0
-1330 82 0
1331 -3 -46 -61 -73 0
-1331 3 0
-1331 46 0
-1331 61 0
-1331 73 0
1332 -3 -46 -64 -70 0
-1332 3 0
-1332 46 0
-1332 64 0
-1332 70 0
1333 -3 -49 -55 -79 0
-1333 3 0
-1333 49 0
-1333 55 0
-1333 79 0
1334 -3 -49 -58 -73 0
-1334 3 0
-1334 49 0
-1334 58 0
-1334 73 0
1335 -3 -49 -64 -67 0
-1335 3 0
-1335 49 0
-1335 64 0
-1335 67 0
1336 -3 -52 -55 -76 0
-1336 3 0
-1336 52 0
-1336 55 0
-1336 76 0
1337 -3 -52 -58 -70 0
-1337 3 0
-1337 52 0
-1337 58 0
-1337 70 0
1338 -3 -52 -61 -67 0
-1338 3 0
-1338 52 0
-1338 61 0
-1338 67 0
-1324 1325 1326 1327 1328 1329 1330 1331 1332 1333 1334 1335 1336 1337 1338 0
-1325 1324 1326 1327 1328 1329 1330 1331 1332 1333 1334 1335 1336 1337 1338 0
-1326 1324 1325 1327 1328 1329 1330 1331 1332 1333 1334 1335 1336 1337 1338 0
-1327 1324 1325 1326 1328 1329 1330 1331 1332 1333 1334 1335 1336 1337 1338 0
-1328 1324 1325 1326 1327 1329 1330 1331 1332 1333 1334 1335 1336 1337 1338 0
-1329 1324 1325 1326 1327 1328 1330 1331 1332 1333 1334 1335 1336 1337 1338 0
-1330 1324 1325 1326 1327 1328 1329 1331 1332 1333 1334 1335 1336 1337 1338 0
-1331 1324 1325 1326 1327 1328 1329 1330 1332 1333 1334 1335 1336 1337 1338 0
-1332 1324 1325 1326 1327 1328 1329 1330 1331 1333 1334 1335 1336 1337 1338 0
-1333 1324 1325 1326 1327 1328 1329 1330 1331 1332 1334 1335 1336 1337 1338 0
-1334 1324 1325 1326 1327 1328 1329 1330 1331 1332 1333 1335 1336 1337 1338 0
-1335 1324 1325 1326 1327 1328 1329 1330 1331 1332 1333 1334 1336 1337 1338 0
-1336 1324 1325 1326 1327 1328 1329 1330 1331 1332 1333 1334 1335 1337 1338 0
-1337 1324 1325 1326 1327 1328 1329 1330 1331 1332 1333 1334 1335 1336 1338 0
-1338 1324 1325 1326 1327 1328 1329 1330 1331 1332 1333 1334 1335 1336 1337 0
1339 -3 -40 -67 -83 0
-1339 3 0
-1339 40 0
-1339 67 0
-1339 83 0
1340 -3 -43 -58 -83 0
-1340 3 0
-1340 43 0
-1340 58 0
-1340 83 0
1341 -3 -46 -55 -83 0
-1341 3 0
-1341 46 0
-1341 55 0
-1341 83 0
-1339 1340 1341 0
-1340 1339 1341 0
-1341 1339 1340 0
1342 -3 -40 -67 -84 0
-1342 3 0
-1342 40 0
-1342 67 0
-1342 84 0
1343 -3 -43 -58 -84 0
-1343 3 0
-1343 43 0
-1343 58 0
-1343 84 0
1344 -3 -46 -55 -84 0
-1344 3 0
-1344 46 0
-1344 55 0
-1344 84 0
1345 -18 -39 -40 -67 0
-1345 18 0
-1345 39 0
-1345 40 0
-1345 67 0
1346 -18 -39 -43 -58 0
-1346 18 0
-1346 39 0
-1346 43 0
-1346 58 0
1347 -18 -39 -46 -55 0
-1347 18 0
-1347 39 0
-1347 46 0
-1347 55 0
1348 -21 -36 -40 -67 0
-1348 21 0
-1348 36 0
-1348 40 0
-1348 67 0
1349 -21 -36 -43 -58 0
-1349 21 0
-1349 36 0
-1349 43 0
-1349 58 0
1350 -21 -36 -46 -55 0
-1350 21 0
-1350 36 0
-1350 46 0
-1350 55 0
-1342 1343 1344 1345 1346 1347 1348 1349 1350 0
-1343 1342 1344 1345 1346 1347 1348 1349 1350 0
-1344 1342 1343 1345 1346 1347 1348 1349 1350 0
-1345 1342 1343 1344 1346 1347 1348 1349 1350 0
-1346 1342 1343 1344 1345 1347 1348 1349 1350 0
-1347 1342 1343 1344 1345 1346 1348 1349 1350 0
-1348 1342 1343 1344 1345 1346 1347 1349 1350 0
-1349 1342 1343 1344 1345 1346 1347 1348 1350 0
-1350 1342 1343 1344 1345 1346 1347 1348 1349 0
1351 -3 -40 -68 -82 0
-1351 3 0
-1351 40 0
-1351 68 0
-1351 82 0
1352 -3 -49 -64 -68 0
-1352 3 0
-1352 49 0
-1352 64 0
-1352 68 0
1353 -3 -52 -61 -68 0
-1353 3 0
-1353 52 0
-1353 61 0
-1353 68 0
-1351 1352 1353 0
-1352 1351 1353 0
-1353 1351 1352 0
1354 -3 -40 -68 -83 0
-1354 3 0
-1354 40 0
-1354 68 0
-1354 83 0
1355 -3 -40 -71 -80 0
-1355 3 0
-1355 40 0
-1355 71 0
-1355 80 0
1356 -3 -40 -74 -77 0
-1356 3 0
-1356 40 0
-1356 74 0
-1356 77 0
-1354 1355 1356 0
-1355 1354 1356 0
-1356 1354 1355 0
1357 -3 -40 -68 -84 0
-1357 3 0
-1357 40 0
-1357 68 0
-1357 84 0
1358 -18 -39 -40 -68 0
-1358 18 0
-1358 39 0
-1358 40 0
-1358 68 0
1359 -21 -36 -40 -68 0
-1359 21 0
-1359 36 0
-1359 40 0
-1359 68 0
-1357 1358 1359 0
-1358 1357 1359 0
-1359 1357 1358 0
1360 -3 -40 -69 -82 0
-1360 3 0
-1360 40 0
-1360 69 0
-1360 82 0
1361 -3 -49 -64 -69 0
-1361 3 0
-1361 49 0
-1361 64 0
-1361 69 0
1362 -3 -52 -61 -69 0
-1362 3 0
-1362 52 0
-1362 61 0
-1362 69 0
1363 -12 -33 -40 -82 0
-1363 12 0
-1363 33 0
-1363 40 0
-1363 82 0
1364 -12 -33 -49 -64 0
-1364 12 0
-1364 33 0
-1364 49 0
-1364 64 0
1365 -12 -33 -52 -61 0
-1365 12 0
-1365 33 0
-1365 52 0
-1365 61 0
1366 -15 -30 -40 -82 0
-1366 15 0
-1366 30 0
-1366 40 0
-1366 82 0
1367 -15 -30 -49 -64 0
-1367 15 0
-1367 30 0
-1367 49 0
-1367 64 0
1368 -15 -30 -52 -61 0
-1368 15 0
-1368 30 0
-1368 52 0
-1368 61 0
-1360 1361 1362 1363 1364 1365 1366 1367 1368 0
-1361 1360 1362 1363 1364 1365 1366 1367 1368 0
-1362 1360 1361 1363 1364 1365 1366 1367 1368 0
-1363 1360 1361 1362 1364 1365 1366 1367 1368 0
-1364 1360 1361 1362 1363 1365 1366 1367 1368 0
-1365 1360 1361 1362 1363 1364 1366 1367 1368 0
-1366 1360 1361 1362 1363 1364 1365 1367 1368 0
-1367 1360 1361 1362 1363 1364 1365 1366 1368 0
-1368 1360 1361 1362 1363 1364 1365 1366 1367 0
1369 -3 -40 -69 -83 0
-1369 3 0
-1369 40 0
-1369 69 0
-1369 83 0
1370 -12 -33 -40 -83 0
-1370 12 0
-1370 33 0
-1370 40 0
-1370 83 0
1371 -15 -30 -40 -83 0
-1371 15 0
-1371 30 0
-1371 40 0
-1371 83 0
-1369 1370 1371 0
-1370 1369 1371 0
-1371 1369 1370 0
1372 -3 -40 -69 -84 0
-1372 3 0
-1372 40 0
-1372 69 0
-1372 84 0
1373 -3 -40 -72 -81 0
-1373 3 0
-1373 40 0
-1373 72 0
-1373 81 0
1374 -3 -40 -75 -78 0
-1374 3 0
-1374 40 0
-1374 75 0
-1374 78 0
1375 -12 -33 -40 -84 0
-1375 12 0
-1375 33 0
-1375 40 0
-1375 84 0
1376 -12 -36 -40 -81 0
-1376 12 0
-1376 36 0
-1376 40 0
-1376 81 0
1377 -12 -39 -40 -78 0
-1377 12 0
-1377 39 0
-1377 40 0
-1377 78 0
1378 -15 -30 -40 -84 0
-1378 15 0
-1378 30 0
-1378 40 0
-1378 84 0
1379 -15 -36 -40 -75 0
-1379 15 0
-1379 36 0
-1379 40 0
-1379 75 0
1380 -15 -39 -40 -72 0
-1380 15 0
-1380 39 0
-1380 40 0
-1380 72 0
1381 -18 -30 -40 -81 0
-1381 18 0
-1381 30 0
-1381 40 0
-1381 81 0
1382 -18 -33 -40 -75 0
-1382 18 0
-1382 33 0
-1382 40 0
-1382 75 0
1383 -18 -39 -40 -69 0
-1383 18 0
-1383 39 0
-1383 40 0
-1383 69 0
1384 -21 -30 -40 -78 0
-1384 21 0
-1384 30 0
-1384 40 0
-1384 78 0
1385 -21 -33 -40 -72 0
-1385 21 0
-1385 33 0
-1385 40 0
-1385 72 0
1386 -21 -36 -40 -69 0
-1386 21 0
-1386 36 0
-1386 40 0
-1386 69 0
-1372 1373 1374 1375 1376 1377 1378 1379 1380 1381 1382 1383 1384 1385 1386 0
-1373 1372 1374 1375 1376 1377 1378 1379 1380 1381 1382 1383 1384 1385 1386 0
-1374 1372 1373 1375 1376 1377 1378 1379 1380 1381 1382 1383 1384 1385 1386 0
-1375 1372 1373 1374 1376 1377 1378 1379 1380 1381 1382 1383 1384 1385 1386 0
-1376 1372 1373 1374 1375 1377 1378 1379 1380 1381 1382 1383 1384 1385 1386 0
-1377 1372 1373 1374 1375 1376 1378 1379 1380 1381 1382 1383 1384 1385 1386 0
-1378 1372 1373 1374 1375 1376 1377 1379 1380 1381 1382 1383 1384 1385 1386 0
-1379 1372 1373 1374 1375 1376 1377 1378 1380 1381 1382 1383 1384 1385 1386 0
-1380 1372 1373 1374 1375 1376 1377 1378 1379 1381 1382 1383 1384 1385 1386 0
-1381 1372 1373 1374 1375 1376 1377 1378 1379 1380 1382 1383 1384 1385 1386 0
-1382 1372 1373 1374 1375 1376 1377 1378 1379 1380 1381 1383 1384 1385 1386 0
-1383 1372 1373 1374 1375 1376 1377 1378 1379 1380 1381 1382 1384 1385 1386 0
-1384 1372 1373 1374 1375 1376 1377 1378 1379 1380 1381 1382 1383 1385 1386 0
-1385 1372 1373 1374 1375 1376 1377 1378 1379 1380 1381 1382 1383 1384 1386 0
-1386 1372 1373 1374 1375 1376 1377 1378 1379 1380 1381 1382 1383 1384 1385 0
1387 -3 -41 -67 -82 0
-1387 3 0
-1387 41 0
-1387 67 0
-1387 82 0
1388 -3 -41 -70 -79 0
-1388 3 0
-1388 41 0
-1388 70 0
-1388 79 0
1389 -3 -41 -73 -76 0
-1389 3 0
-1389 41 0
-1389 73 0
-1389 76 0
-1387 1388 1389 0
-1388 1387 1389 0
-1389 1387 1388 0
1390 -3 -41 -67 -83 0
-1390 3 0
-1390 41 0
-1390 67 0
-1390 83 0
1391 -3 -50 -65 -67 0
-1391 3 0
-1391 50 0
-1391 65 0
-1391 67 0
1392 -3 -53 -62 -67 0
-1392 3 0
-1392 53 0
-1392 62 0
-1392 67 0
-1390 1391 1392 0
-1391 1390 1392 0
-1392 1390 1391 0
1393 -3 -41 -67 -84 0
-1393 3 0
-1393 41 0
-1393 67 0
-1393 84 0
1394 -18 -39 -41 -67 0
-1394 18 0
-1394 39 0
-1394 41 0
-1394 67 0
1395 -21 -36 -41 -67 0
-1395 21 0
-1395 36 0
-1395 41 0
-1395 67 0
-1393 1394 1395 0
-1394 1393 1395 0
-1395 1393 1394 0
1396 -3 -41 -68 -82 0
-1396 3 0
-1396 41 0
-1396 68 0
-1396 82 0
1397 -3 -44 -59 -82 0
-1397 3 0
-1397 44 0
-1397 59 0
-1397 82 0
1398 -3 -47 -56 -82 0
-1398 3 0
-1398 47 0
-1398 56 0
-1398 82 0
-1396 1397 1398 0
-1397 1396 1398 0
-1398 1396 1397 0
1399 -3 -41 -68 -83 0
-1399 3 0
-1399 41 0
-1399 68 0
-1399 83 0
1400 -3 -41 -71 -80 0
-1400 3 0
-1400 41 0
-1400 71 0
-1400 80 0
1401 -3 -41 -74 -77 0
-1401 3 0
-1401 41 0
-1401 74 0
-1401 77 0
1402 -3 -44 -59 -83 0
-1402 3 0
-1402 44 0
-1402 59 0
-1402 83 0
1403 -3 -44 -62 -80 0
-1403 3 0
-1403 44 0
-1403 62 0
-1403 80 0
1404 -3 -44 -65 -77 0
-1404 3 0
-1404 44 0
-1404 65 0
-1404 77 0
1405 -3 -47 -56 -83 0
-1405 3 0
-1405 47 0
-1405 56 0
-1405 83 0
1406 -3 -47 -62 -74 0
-1406 3 0
-1406 47 0
-1406 62 0
-1406 74 0
1407 -3 -47 -65 -71 0
-1407 3 0
-1407 47 0
-1407 65 0
-1407 71 0
1408 -3 -50 -56 -80 0
-1408 3 0
-1408 50 0
-1408 56 0
-1408 80 0
1409 -3 -50 -59 -74 0
-1409 3 0
-1409 50 0
-1409 59 0
-1409 74 0
1410 -3 -50 -65 -68 0
-1410 3 0
-1410 50 0
-1410 65 0
-1410 68 0
1411 -3 -53 -56 -77 0
-1411 3 0
-1411 53 0
-1411 56 0
-1411 77 0
1412 -3 -53 -59 -71 0
-1412 3 0
-1412 53 0
-1412 59 0
-1412 71 0
1413 -3 -53 -62 -68 0
-1413 3 0
-1413 53 0
-1413 62 0
-1413 68 0
-1399 1400 1401 1402 1403 1404 1405 1406 1407 1408 1409 1410 1411 1412 1413 0
-1400 1399 1401 1402 1403 1404 1405 1406 1407 1408 1409 1410 1411 1412 1413 0
-1401 1399 1400 1402 1403 1404 1405 1406 1407 1408 1409 1410 1411 1412 1413 0
-1402 1399 1400 1401 1403 1404 1405 1406 1407 1408 1409 1410 1411 1412 1413 0
-1403 1399 1400 1401 1402 1404 1405 1406 1407 1408 1409 1410 1411 1412 1413 0
-1404 1399 1400 1401 1402 1403 1405 1406 1407 1408 1409 1410 1411 1412 1413 0
-1405 1399 1400 1401 1402 1403 1404 1406 1407 1408 1409 1410 1411 1412 1413 0
-1406 1399 1400 1401 1402 1403 1404 1405 1407 1408 1409 1410 1411 1412 1413 0
-1407 1399 1400 1401 1402 1403 1404 1405 1406 1408 1409 1410 1411 1412 1413 0
-1408 1399 1400 1401 1402 1403 1404 1405 1406 1407 1409 1410 1411 1412 1413 0
-1409 1399 1400 1401 1402 1403 1404 1405 1406 1407 1408 1410 1411 1412 1413 0
-1410 1399 1400 1401 1402 1403 1404 1405 1406 1407 1408 1409 1411 1412 1413 0
-1411 1399 1400 1401 1402 1403 1404 1405 1406 1407 1408 1409 1410 1412 1413 0
-1412 1399 1400 1401 1402 1403 1404 1405 1406 1407 1408 1409 1410 1411 1413 0
-1413 1399 1400 1401 1402 1403 1404 1405 1406 1407 1408 1409 1410 1411 1412 0
1414 -3 -41 -68 -84 0
-1414 3 0
-1414 41 0
-1414 68 0
-1414 84 0
1415 -3 -44 -59 -84 0
-1415 3 0
-1415 44 0
-1415 59 0
-1415 84 0
1416 -3 -47 -56 -84 0
-1416 3 0
-1416 47 0
-1416 56 0
-1416 84 0
1417 -18 -39 -41 -68 0
-1417 18 0
-1417 39 0
-1417 41 0
-1417 68 0
1418 -18 -39 -44 -59 0
-1418 18 0
-1418 39 0
-1418 44 0
-1418 59 0
1419 -18 -39 -47 -56 0
-1419 18 0
-1419 39 0
-1419 47 0
-1419 56 0
1420 -21 -36 -41 -68 0
-1420 21 0
-1420 36 0
-1420 41 0
-1420 68 0
1421 -21 -36 -44 -59 0
-1421 21 0
-1421 36 0
-1421 44 0
-1421 59 0
1422 -21 -36 -47 -56 0
-1422 21 0
-1422 36 0
-1422 47 0
-1422 56 0
-1414 1415 1416 1417 1418 1419 1420 1421 1422 0
-1415 1414 1416 1417 1418 1419 1420 1421 1422 0
-1416 1414 1415 1417 1418 1419 1420 1421 1422 0
-1417 1414 1415 1416 1418 1419 1420 1421 1422 0
-1418 1414 1415 1416 1417 1419 1420 1421 1422 0
-1419 1414 1415 1416 1417 1418 1420 1421 1422 0
-1420 1414 1415 1416 1417 1418 1419 1421 1422 0
-1421 1414 1415 1416 1417 1418 1419 1420 1422 0
-1422 1414 1415 1416 1417 1418 1419 1420 1421 0
1423 -3 -41 -69 -82 0
-1423 3 0
-1423 41 0
-1423 69 0
-1423 82 0
1424 -12 -33 -41 -82 0
-1424 12 0
-1424 33 0
-1424 41 0
-1424 82 0
1425 -15 -30 -41 -82 0
-1425 15 0
-1425 30 0
-1425 41 0
-1425 82 0
-1423 1424 1425 0
-1424 1423 1425 0
-1425 1423 1424 0
1426 -3 -41 -69 -83 0
-1426 3 0
-1426 41 0
-1426 69 0
-1426 83 0
1427 -3 -50 -65 -69 0
-1427 3 0
-1427 50 0
-1427 65 0
-1427 69 0
1428 -3 -53 -62 -69 0
-1428 3 0
-1428 53 0
-1428 62 0
-1428 69 0
1429 -12 -33 -41 -83 0
-1429 12 0
-1429 33 0
-1429 41 0
-1429 83 0
1430 -12 -33 -50 -65 0
-1430 12 0
-1430 33 0
-1430 50 0
-1430 65 0
1431 -12 -33 -53 -62 0
-1431 12 0
-1431 33 0
-1431 53 0
-1431 62 0
1432 -15 -30 -41 -83 0
-1432 15 0
-1432 30 0
-1432 41 0
-1432 83 0
1433 -15 -30 -50 -65 0
-1433 15 0
-1433 30 0
-1433 50 0
-1433 65 0
1434 -15 -30 -53 -62 0
-1434 15 0
-1434 30 0
-1434 53 0
-1434 62 0
-1426 1427 1428 1429 1430 1431 1432 1433 1434 0
-1427 1426 1428 1429 1430 1431 1432 1433 1434 0
-1428 1426 1427 1429 1430 1431 1432 1433 1434 0
-1429 1426 1427 1428 1430 1431 1432 1433 1434 0
-1430 1426 1427 1428 1429 1431 1432 1433 1434 0
-1431 1426 1427 1428 1429 1430 1432 1433 1434 0
-1432 1426 1427 1428 1429 1430 1431 1433 1434 0
-1433 1426 1427 1428 1429 1430 1431 1432 1434 0
-1434 1426 1427 1428 1429 1430 1431 1432 1433 0
1435 -3 -41 -69 -84 0
-1435 3 0
-1435 41 0
-1435 69 0
-1435 84 0
1436 -3 -41 -72 -81 0
-1436 3 0
-1436 41 0
-1436 72 0
-1436 81 0
1437 -3 -41 -75 -78 0
-1437 3 0
-1437 41 0
-1437 75 0
-1437 78 0
1438 -12 -33 -41 -84 0
-1438 12 0
-1438 33 0
-1438 41 0
-1438 84 0
1439 -12 -36 -41 -81 0
-1439 12 0
-1439 36 0
-1439 41 0
-1439 81 0
1440 -12 -39 -41 -78 0
-1440 12 0
-1440 39 0
-1440 41 0
-1440 78 0
1441 -15 -30 -41 -84 0
-1441 15 0
-1441 30 0
-1441 41 0
-1441 84 0
1442 -15 -36 -41 -75 0
-1442 15 0
-1442 36 0
-1442 41 0
-1442 75 0
1443 -15 -39 -41 -72 0
-1443 15 0
-1443 39 0
-1443 41 0
-1443 72 0
1444 -18 -30 -41 -81 0
-1444 18 0
-1444 30 0
-1444 41 0
-1444 81 0
1445 -18 -33 -41 -75 0
-1445 18 0
-1445 33 0
-1445 41 0
-1445 75 0
1446 -18 -39 -41 -69 0
-1446 18 0
-1446 39 0
-1446 41 0
-1446 69 0
1447 -21 -30 -41 -78 0
-1447 21 0
-1447 30 0
-1447 41 0
-1447 78 0
1448 -21 -33 -41 -72 0
-1448 21 0
-1448 33 0
-1448 41 0
-1448 72 0
1449 -21 -36 -41 -69 0
-1449 21 0
-1449 36 0
-1449 41 0
-1449 69 0
-1435 1436 1437 1438 1439 1440 1441 1442 1443 1444 1445 1446 1447 1448 1449 0
-1436 1435 1437 1438 1439 1440 1441 1442 1443 1444 1445 1446 1447 1448 1449 0
-1437 1435 1436 1438 1439 1440 1441 1442 1443 1444 1445 1446 1447 1448 1449 0
-1438 1435 1436 1437 1439 1440 1441 1442 1443 1444 1445 1446 1447 1448 1449 0
-1439 1435 1436 1437 1438 1440 1441 1442 1443 1444 1445 1446 1447 1448 1449 0
-1440 1435 1436 1437 1438 1439 1441 1442 1443 1444 1445 1446 1447 1448 1449 0
-1441 1435 1436 1437 1438 1439 1440 1442 1443 1444 1445 1446 1447 1448 1449 0
-1442 1435 1436 1437 1438 1439 1440 1441 1443 1444 1445 1446 1447 1448 1449 0
-1443 1435 1436 1437 1438 1439 1440 1441 1442 1444 1445 1446 1447 1448 1449 0
-1444 1435 1436 1437 1438 1439 1440 1441 1442 1443 1445 1446 1447 1448 1449 0
-1445 1435 1436 1437 1438 1439 1440 1441 1442 1443 1444 1446 1447 1448 1449 0
-1446 1435 1436 1437 1438 1439 1440 1441 1442 1443 1444 1445 1447 1448 1449 0
-1447 1435 1436 1437 1438 1439 1440 1441 1442 1443 1444 1445 1446 1448 1449 0
-1448 1435 1436 1437 1438 1439 1440 1441 1442 1443 1444 1445 1446 1447 1449 0
-1449 1435 1436 1437 1438 1439 1440 1441 1442 1443 1444 1445 1446 1447 1448 0
1450 -3 -42 -67 -82 0
-1450 3 0
-1450 42 0
-1450 67 0
-1450 82 0
1451 -3 -42 -70 -79 0
-1451 3 0
-1451 42 0
-1451 70 0
-1451 79 0
1452 -3 -42 -73 -76 0
-1452 3 0
-1452 42 0
-1452 73 0
-1452 76 0
1453 -6 -27 -67 -82 0
-1453 6 0
-1453 27 0
-1453 67 0
-1453 82 0
1454 -6 -27 -70 -79 0
-1454 6 0
-1454 27 0
-1454 70 0
-1454 79 0
1455 -6 -27 -73 -76 0
-1455 6 0
-1455 27 0
-1455 73 0
-1455 76 0
1456 -9 -24 -67 -82 0
-1456 9 0
-1456 24 0
-1456 67 0
-1456 82 0
1457 -9 -24 -70 -79 0
-1457 9 0
-1457 24 0
-1457 70 0
-1457 79 0
1458 -9 -24 -73 -76 0
-1458 9 0
-1458 24 0
-1458 73 0
-1458 76 0
-1450 1451 1452 1453 1454 1455 1456 1457 1458 0
-1451 1450 1452 1453 1454 1455 1456 1457 1458 0
-1452 1450 1451 1453 1454 1455 1456 1457 1458 0
-1453 1450 1451 1452 1454 1455 1456 1457 1458 0
-1454 1450 1451 1452 1453 1455 1456 1457 1458 0
-1455 1450 1451 1452 1453 1454 1456 1457 1458 0
-1456 1450 1451 1452 1453 1454 1455 1457 1458 0
-1457 1450 1451 1452 1453 1454 1455 1456 1458 0
-1458 1450 1451 1452 1453 1454 1455 1456 1457 0
1459 -3 -42 -67 -83 0
-1459 3 0
-1459 42 0
-1459 67 0
-1459 83 0
1460 -6 -27 -67 -83 0
-1460 6 0
-1460 27 0
-1460 67 0
-1460 83 0
1461 -9 -24 -67 -83 0
-1461 9 0
-1461 24 0
-1461 67 0
-1461 83 0
-1459 1460 1461 0
-1460 1459 1461 0
-1461 1459 1460 0
1462 -3 -42 -67 -84 0
-1462 3 0
-1462 42 0
-1462 67 0
-1462 84 0
1463 -3 -51 -66 -67 0
-1463 3 0
-1463 51 0
-1463 66 0
-1463 67 0
1464 -3 -54 -63 -67 0
-1464 3 0
-1464 54 0
-1464 63 0
-1464 67 0
1465 -6 -27 -67 -84 0
-1465 6 0
-1465 27 0
-1465 67 0
-1465 84 0
1466 -6 -36 -66 -67 0
-1466 6 0
-1466 36 0
-1466 66 0
-1466 67 0
1467 -6 -39 -63 -67 0
-1467 6 0
-1467 39 0
-1467 63 0
-1467 67 0
1468 -9 -24 -67 -84 0
-1468 9 0
-1468 24 0
-1468 67 0
-1468 84 0
1469 -9 -36 -54 -67 0
-1469 9 0
-1469 36 0
-1469 54 0
-1469 67 0
1470 -9 -39 -51 -67 0
-1470 9 0
-1470 39 0
-1470 51 0
-1470 67 0
1471 -18 -24 -66 -67 0
-1471 18 0
-1471 24 0
-1471 66 0
-1471 67 0
1472 -18 -27 -54 -67 0
-1472 18 0
-1472 27 0
-1472 54 0
-1472 67 0
1473 -18 -39 -42 -67 0
-1473 18 0
-1473 39 0
-1473 42 0
-1473 67 0
1474 -21 -24 -63 -67 0
-1474 21 0
-1474 24 0
-1474 63 0
-1474 67 0
1475 -21 -27 -51 -67 0
-1475 21 0
-1475 27 0
-1475 51 0
-1475 67 0
1476 -21 -36 -42 -67 0
-1476 21 0
-1476 36 0
-1476 42 0
-1476 67 0
-1462 1463 1464 1465 1466 1467 1468 1469 1470 1471 1472 1473 1474 1475 1476 0
-1463 1462 1464 1465 1466 1467 1468 1469 1470 1471 1472 1473 1474 1475 1476 0
-1464 1462 1463 1465 1466 1467 1468 1469 1470 1471 1472 1473 1474 1475 1476 0
-1465 1462 1463 1464 1466 1467 1468 1469 1470 1471 1472 1473 1474 1475 1476 0
-1466 1462 1463 1464 1465 1467 1468 1469 1470 1471 1472 1473 1474 1475 1476 0
-1467 1462 1463 1464 1465 1466 1468 1469 1470 1471 1472 1473 1474 1475 1476 0
-1468 1462 1463 1464 1465 1466 1467 1469 1470 1471 1472 1473 1474 1475 1476 0
-1469 1462 1463 1464 1465 1466 1467 1468 1470 1471 1472 1473 1474 1475 1476 0
-1470 1462 1463 1464 1465 1466 1467 1468 1469 1471 1472 1473 1474 1475 1476 0
-1471 1462 1463 1464 1465 1466 1467 1468 1469 1470 1472 1473 1474 1475 1476 0
-1472 1462 1463 1464 1465 1466 1467 1468 1469 1470 1471 1473 1474 1475 1476 0
-1473 1462 1463 1464 1465 1466 1467 1468 1469 1470 1471 1472 1474 1475 1476 0
-1474 1462 1463 1464 1465 1466 1467 1468 1469 1470 1471 1472 1473 1475 1476 0
-1475 1462 1463 1464 1465 1466 1467 1468 1469 1470 1471 1472 1473 1474 1476 0
-1476 1462 1463 1464 1465 1466 1467 1468 1469 1470 1471 1472 1473 1474 1475 0
1477 -3 -42 -68 -82 0
-1477 3 0
-1477 42 0
-1477 68 0
-1477 82 0
1478 -6 -27 -68 -82 0
-1478 6 0
-1478 27 0
-1478 68 0
-1478 82 0
1479 -9 -24 -68 -82 0
-1479 9 0
-1479 24 0
-1479 68 0
-1479 82 0
-1477 1478 1479 0
-1478 1477 1479 0
-1479 1477 1478 0
1480 -3 -42 -68 -83 0
-1480 3 0
-1480 42 0
-1480 68 0
-1480 83 0
1481 -3 -42 -71 -80 0
-1481 3 0
-1481 42 0
-1481 71 0
-1481 80 0
1482 -3 -42 -74 -77 0
-1482 3 0
-1482 42 0
-1482 74 0
-1482 77 0
1483 -6 -27 -68 -83 0
-1483 6 0
-1483 27 0
-1483 68 0
-1483 83 0
1484 -6 -27 -71 -80 0
-1484 6 0
-1484 27 0
-1484 71 0
-1484 80 0
1485 -6 -27 -74 -77 0
-1485 6 0
-1485 27 0
-1485 74 0
-1485 77 0
1486 -9 -24 -68 -83 0
-1486 9 0
-1486 24 0
-1486 68 0
-1486 83 0
1487 -9 -24 -71 -80 0
-1487 9 0
-1487 24 0
-1487 71 0
-1487 80 0
1488 -9 -24 -74 -77 0
-1488 9 0
-1488 24 0
-1488 74 0
-1488 77 0
-1480 1481 1482 1483 1484 1485 1486 1487 1488 0
-1481 1480 1482 1483 1484 1485 1486 1487 1488 0
-1482 1480 1481 1483 1484 1485 1486 1487 1488 0
-1483 1480 1481 1482 1484 1485 1486 1487 1488 0
-1484 1480 1481 1482 1483 1485 1486 1487 1488 0
-1485 1480 1481 1482 1483 1484 1486 1487 1488 0
-1486 1480 1481 1482 1483 1484 1485 1487 1488 0
-1487 1480 1481 1482 1483 1484 1485 1486 1488 0
-1488 1480 1481 1482 1483 1484 1485 1486 1487 0
1489 -3 -42 -68 -84 0
-1489 3 0
-1489 42 0
-1489 68 0
-1489 84 0
1490 -3 -51 -66 -68 0
-1490 3 0
-1490 51 0
-1490 66 0
-1490 68 0
1491 -3 -54 -63 -68 0
-1491 3 0
-1491 54 0
-1491 63 0
-1491 68 0
1492 -6 -27 -68 -84 0
-1492 6 0
-1492 27 0
-1492 68 0
-1492 84 0
1493 -6 -36 -66 -68 0
-1493 6 0
-1493 36 0
-1493 66 0
-1493 68 0
1494 -6 -39 -63 -68 0
-1494 6 0
-1494 39 0
-1494 63 0
-1494 68 0
1495 -9 -24 -68 -84 0
-1495 9 0
-1495 24 0
-1495 68 0
-1495 84 0
1496 -9 -36 -54 -68 0
-1496 9 0
-1496 36 0
-1496 54 0
-1496 68 0
1497 -9 -39 -51 -68 0
-1497 9 0
-1497 39 0
-1497 51 0
-1497 68 0
1498 -18 -24 -66 -68 0
-1498 18 0
-1498 24 0
-1498 66 0
-1498 68 0
1499 -18 -27 -54 -68 0
-1499 18 0
-1499 27 0
-1499 54 0
-1499 68 0
1500 -18 -39 -42 -68 0
-1500 18 0
-1500 39 0
-1500 42 0
-1500 68 0
1501 -21 -24 -63 -68 0
-1501 21 0
-1501 24 0
-1501 63 0
-1501 68 0
1502 -21 -27 -51 -68 0
-1502 21 0
-1502 27 0
-1502 51 0
-1502 68 0
1503 -21 -36 -42 -68 0
-1503 21 0
-1503 36 0
-1503 42 0
-1503 68 0
-1489 1490 1491 1492 1493 1494 1495 1496 1497 1498 1499 1500 1501 1502 1503 0
-1490 1489 1491 1492 1493 1494 1495 1496 1497 1498 1499 1500 1501 1502 1503 0
-1491 1489 1490 1492 1493 1494 1495 1496 1497 1498 1499 1500 1501 1502 1503 0
-1492 1489 1490 1491 1493 1494 1495 1496 1497 1498 1499 1500 1501 1502 1503 0
-1493 1489 1490 1491 1492 1494 1495 1496 1497 1498 1499 1500 1501 1502 1503 0
-1494 1489 1490 1491 1492 1493 1495 1496 1497 1498 1499 1500 1501 1502 1503 0
-1495 1489 1490 1491 1492 1493 1494 1496 1497 1498 1499 1500 1501 1502 1503 0
-1496 1489 1490 1491 1492 1493 1494 1495 1497 1498 1499 1500 1501 1502 1503 0
-1497 1489 1490 1491 1492 1493 1494 1495 1496 1498 1499 1500 1501 1502 1503 0
-1498 1489 1490 1491 1492 1493 1494 1495 1496 1497 1499 1500 1501 1502 1503 0
-1499 1489 1490 1491 1492 1493 1494 1495 1496 1497 1498 1500 1501 1502 1503 0
-1500 1489 1490 1491 1492 1493 1494 1495 1496 1497 1498 1499 1501 1502 1503 0
-1501 1489 1490 1491 1492 1493 1494 1495 1496 1497 1498 1499 1500 1502 1503 0
-1502 1489 1490 1491 1492 1493 1494 1495 1496 1497 1498 1499 1500 1501 1503 0
-1503 1489 1490 1491 1492 1493 1494 1495 1496 1497 1498 1499 1500 1501 1502 0
1504 -3 -42 -69 -82 0
-1504 3 0
-1504 42 0
-1504 69 0
-1504 82 0
1505 -3 -45 -60 -82 0
-1505 3 0
-1505 45 0
-1505 60 0
-1505 82 0
1506 -3 -48 -57 -82 0
-1506 3 0
-1506 48 0
-1506 57 0
-1506 82 0
1507 -6 -27 -69 -82 0
-1507 6 0
-1507 27 0
-1507 69 0
-1507 82 0
1508 -6 -30 -60 -82 0
-1508 6 0
-1508 30 0
-1508 60 0
-1508 82 0
1509 -6 -33 -57 -82 0
-1509 6 0
-1509 33 0
-1509 57 0
-1509 82 0
1510 -9 -24 -69 -82 0
-1510 9 0
-1510 24 0
-1510 69 0
-1510 82 0
1511 -9 -30 -48 -82 0
-1511 9 0
-1511 30 0
-1511 48 0
-1511 82 0
1512 -9 -33 -45 -82 0
-1512 9 0
-1512 33 0
-1512 45 0
-1512 82 0
1513 -12 -24 -60 -82 0
-1513 12 0
-1513 24 0
-1513 60 0
-1513 82 0
1514 -12 -27 -48 -82 0
-1514 12 0
-1514 27 0
-1514 48 0
-1514 82 0
1515 -12 -33 -42 -82 0
-1515 12 0
-1515 33 0
-1515 42 0
-1515 82 0
1516 -15 -24 -57 -82 0
-1516 15 0
-1516 24 0
-1516 57 0
-1516 82 0
1517 -15 -27 -45 -82 0
-1517 15 0
-1517 27 0
-1517 45 0
-1517 82 0
1518 -15 -30 -42 -82 0
-1518 15 0
-1518 30 0
-1518 42 0
-1518 82 0
-1504 1505 1506 1507 1508 1509 1510 1511 1512 1513 1514 1515 1516 1517 1518 0
-1505 1504 1506 1507 1508 1509 1510 1511 1512 1513 1514 1515 1516 1517 1518 0
-1506 1504 1505 1507 1508 1509 1510 1511 1512 1513 1514 1515 1516 1517 1518 0
-1507 1504 1505 1506 1508 1509 1510 1511 1512 1513 1514 1515 1516 1517 1518 0
-1508 1504 1505 1506 1507 1509 1510 1511 1512 1513 1514 1515 1516 1517 1518 0
-1509 1504 1505 1506 1507 1508 1510 1511 1512 1513 1514 1515 1516 1517 1518 0
-1510 1504 1505 1506 1507 1508 1509 1511 1512 1513 1514 1515 1516 1517 1518 0
-1511 1504 1505 1506 1507 1508 1509 1510 1512 1513 1514 1515 1516 1517 1518 0
-1512 1504 1505 1506 1507 1508 1509 1510 1511 1513 1514 1515 1516 1517 1518 0
-1513 1504 1505 1506 1507 1508 1509 1510 1511 1512 1514 1515 1516 1517 1518 0
-1514 1504 1505 1506 1507 1508 1509 1510 1511 1512 1513 1515 1516 1517 1518 0
-1515 1504 1505 1506 1507 1508 1509 1510 1511 1512 1513 1514 1516 1517 1518 0
-1516 1504 1505 1506 1507 1508 1509 1510 1511 1512 1513 1514 1515 1517 1518 0
-1517 1504 1505 1506 1507 1508 1509 1510 1511 1512 1513 1514 1515 1516 1518 0
-1518 1504 1505 1506 1507 1508 1509 1510 1511 1512 1513 1514 1515 1516 1517 0
1519 -3 -42 -69 -83 0
-1519 3 0
-1519 42 0
-1519 69 0
-1519 83 0
1520 -3 -45 -60 -83 0
-1520 3 0
-1520 45 0
-1520 60 0
-1520 83 0
1521 -3 -48 -57 -83 0
-1521 3 0
-1521 48 0
-1521 57 0
-1521 83 0
1522 -6 -27 -69 -83 0
-1522 6 0
-1522 27 0
-1522 69 0
-1522 83 0
1523 -6 -30 -60 -83 0
-1523 6 0
-1523 30 0
-1523 60 0
-1523 83 0
1524 -6 -33 -57 -83 0
-1524 6 0
-1524 33 0
-1524 57 0
-1524 83 0
1525 -9 -24 -69 -83 0
-1525 9 0
-1525 24 0
-1525 69 0
-1525 83 0
1526 -9 -30 -48 -83 0
-1526 9 0
-1526 30 0
-1526 48 0
-1526 83 0
1527 -9 -33 -45 -83 0
-1527 9 0
-1527 33 0
-1527 45 0
-1527 83 0
1528 -12 -24 -60 -83 0
-1528 12 0
-1528 24 0
-1528 60 0
-1528 83 0
1529 -12 -27 -48 -83 0
-1529 12 0
-1529 27 0
-1529 48 0
-1529 83 0
1530 -12 -33 -42 -83 0
-1530 12 0
-1530 33 0
-1530 42 0
-1530 83 0
1531 -15 -24 -57 -83 0
-1531 15 0
-1531 24 0
-1531 57 0
-1531 83 0
1532 -15 -27 -45 -83 0
-1532 15 0
-1532 27 0
-1532 45 0
-1532 83 0
1533 -15 -30 -42 -83 0
-1533 15 0
-1533 30 0
-1533 42 0
-1533 83 0
-1519 1520 1521 1522 1523 1524 1525 1526 1527 1528 1529 1530 1531 1532 1533 0
-1520 1519 1521 1522 1523 1524 1525 1526 1527 1528 1529 1530 1531 1532 1533 0
-1521 1519 1520 1522 1523 1524 1525 1526 1527 1528 1529 1530 1531 1532 1533 0
-1522 1519 1520 1521 1523 1524 1525 1526 1527 1528 1529 1530 1531 1532 1533 0
-1523 1519 1520 1521 1522 1524 1525 1526 1527 1528 1529 1530 1531 1532 1533 0
-1524 1519 1520 1521 1522 1523 1525 1526 1527 1528 1529 1530 1531 1532 1533 0
-1525 1519 1520 1521 1522 1523 1524 1526 1527 1528 1529 1530 1531 1532 1533 0
-1526 1519 1520 1521 1522 1523 1524 1525 1527 1528 1529 1530 1531 1532 1533 0
-1527 1519 1520 1521 1522 1523 1524 1525 1526 1528 1529 1530 1531 1532 1533 0
-1528 1519 1520 1521 1522 1523 1524 1525 1526 1527 1529 1530 1531 1532 1533 0
-1529 1519 1520 1521 1522 1523 1524 1525 1526 1527 1528 1530 1531 1532 1533 0
-1530 1519 1520 1521 1522 1523 1524 1525 1526 1527 1528 1529 1531 1532 1533 0
-1531 1519 1520 1521 1522 1523 1524 1525 1526 1527 1528 1529 1530 1532 1533 0
-1532 1519 1520 1521 1522 1523 1524 1525 1526 1527 1528 1529 1530 1531 1533 0
-1533 1519 1520 1521 1522 1523 1524 1525 1526 1527 1528 1529 1530 1531 1532 0
1534 -3 -42 -69 -84 0
-1534 3 0
-1534 42 0
-1534 69 0
-1534 84 0
1535 -3 -42 -72 -81 0
-1535 3 0
-1535 42 0
-1535 72 0
-1535 81 0
1536 -3 -42 -75 -78 0
-1536 3 0
-1536 42 0
-1536 75 0
-1536 78 0
1537 -3 -45 -60 -84 0
-1537 3 0
-1537 45 0
-1537 60 0
-1537 84 0
1538 -3 -45 -63 -81 0
-1538 3 0
-1538 45 0
-1538 63 0
-1538 81 0
1539 -3 -45 -66 -78 0
-1539 3 0
-1539 45 0
-1539 66 0
-1539 78 0
1540 -3 -48 -57 -84 0
-1540 3 0
-1540 48 0
-1540 57 0
-1540 84 0
1541 -3 -48 -63 -75 0
-1541 3 0
-1541 48 0
-1541 63 0
-1541 75 0
1542 -3 -48 -66 -72 0
-1542 3 0
-1542 48 0
-1542 66 0
-1542 72 0
1543 -3 -51 -57 -81 0
-1543 3 0
-1543 51 0
-1543 57 0
-1543 81 0
1544 -3 -51 -60 -75 0
-1544 3 0
-1544 51 0
-1544 60 0
-1544 75 0
1545 -3 -51 -66 -69 0
-1545 3 0
-1545 51 0
-1545 66 0
-1545 69 0
1546 -3 -54 -57 -78 0
-1546 3 0
-1546 54 0
-1546 57 0
-1546 78 0
1547 -3 -54 -60 -72 0
-1547 3 0
-1547 54 0
-1547 60 0
-1547 72 0
1548 -3 -54 -63 -69 0
-1548 3 0
-1548 54 0
-1548 63 0
-1548 69 0
1549 -6 -27 -69 -84 0
-1549 6 0
-1549 27 0
-1549 69 0
-1549 84 0
1550 -6 -27 -72 -81 0
-1550 6 0
-1550 27 0
-1550 72 0
-1550 81 0
1551 -6 -27 -75 -78 0
-1551 6 0
-1551 27 0
-1551 75 0
-1551 78 0
1552 -6 -30 -60 -84 0
-1552 6 0
-1552 30 0
-1552 60 0
-1552 84 0
1553 -6 -30 -63 -81 0
-1553 6 0
-1553 30 0
-1553 63 0
-1553 81 0
1554 -6 -30 -66 -78 0
-1554 6 0
-1554 30 0
-1554 66 0
-1554 78 0
1555 -6 -33 -57 -84 0
-1555 6 0
-1555 33 0
-1555 57 0
-1555 84 0
1556 -6 -33 -63 -75 0
-1556 6 0
-1556 33 0
-1556 63 0
-1556 75 0
1557 -6 -33 -66 -72 0
-1557 6 0
-1557 33 0
-1557 66 0
-1557 72 0
1558 -6 -36 -57 -81 0
-1558 6 0
-1558 36 0
-1558 57 0
-1558 81 0
1559 -6 -36 -60 -75 0
-1559 6 0
-1559 36 0
-1559 60 0
-1559 75 0
1560 -6 -36 -66 -69 0
-1560 6 0
-1560 36 0
-1560 66 0
-1560 69 0
1561 -6 -39 -57 -78 0
-1561 6 0
-1561 39 0
-1561 57 0
-1561 78 0
1562 -6 -39 -60 -72 0
-1562 6 0
-1562 39 0
-1562 60 0
-1562 72 0
1563 -6 -39 -63 -69 0
-1563 6 0
-1563 39 0
-1563 63 0
-1563 69 0
1564 -9 -24 -69 -84 0
-1564 9 0
-1564 24 0
-1564 69 0
-1564 84 0
1565 -9 -24 -72 -81 0
-1565 9 0
-1565 24 0
-1565 72 0
-1565 81 0
1566 -9 -24 -75 -78 0
-1566 9 0
-1566 24 0
-1566 75 0
-1566 78 0
1567 -9 -30 -48 -84 0
-1567 9 0
-1567 30 0
-1567 48 0
-1567 84 0
1568 -9 -30 -51 -81 0
-1568 9 0
-1568 30 0
-1568 51 0
-1568 81 0
1569 -9 -30 -54 -78 0
-1569 9 0
-1569 30 0
-1569 54 0
-1569 78 0
1570 -9 -33 -45 -84 0
-1570 9 0
-1570 33 0
-1570 45 0
-1570 84 0
1571 -9 -33 -51 -75 0
-1571 9 0
-1571 33 0
-1571 51 0
-1571 75 0
1572 -9 -33 -54 -72 0
-1572 9 0
-1572 33 0
-1572 54 0
-1572 72 0
1573 -9 -36 -45 -81 0
-1573 9 0
-1573 36 0
-1573 45 0
-1573 81 0
1574 -9 -36 -48 -75 0
-1574 9 0
-1574 36 0
-1574 48 0
-1574 75 0
1575 -9 -36 -54 -69 0
-1575 9 0
-1575 36 0
-1575 54 0
-1575 69 0
1576 -9 -39 -45 -78 0
-1576 9 0
-1576 39 0
-1576 45 0
-1576 78 0
1577 -9 -39 -48 -72 0
-1577 9 0
-1577 39 0
-1577 48 0
-1577 72 0
1578 -9 -39 -51 -69 0
-1578 9 0
-1578 39 0
-1578 51 0
-1578 69 0
1579 -12 -24 -60 -84 0
-1579 12 0
-1579 24 0
-1579 60 0
-1579 84 0
1580 -12 -24 -63 -81 0
-1580 12 0
-1580 24 0
-1580 63 0
-1580 81 0
1581 -12 -24 -66 -78 0
-1581 12 0
-1581 24 0
-1581 66 0
-1581 78 0
1582 -12 -27 -48 -84 0
-1582 12 0
-1582 27 0
-1582 48 0
-1582 84 0
1583 -12 -27 -51 -81 0
-1583 12 0
-1583 27 0
-1583 51 0
-1583 81 0
1584 -12 -27 -54 -78 0
-1584 12 0
-1584 27 0
-1584 54 0
-1584 78 0
1585 -12 -33 -42 -84 0
-1585 12 0
-1585 33 0
-1585 42 0
-1585 84 0
1586 -12 -33 -51 -66 0
-1586 12 0
-1586 33 0
-1586 51 0
-1586 66 0
1587 -12 -33 -54 -63 0
-1587 12 0
-1587 33 0
-1587 54 0
-1587 63 0
1588 -12 -36 -42 -81 0
-1588 12 0
-1588 36 0
-1588 42 0
-1588 81 0
1589 -12 -36 -48 -66 0
-1589 12 0
-1589 36 0
-1589 48 0
-1589 66 0
1590 -12 -36 -54 -60 0
-1590 12 0
-1590 36 0
-1590 54 0
-1590 60 0
1591 -12 -39 -42 -78 0
-1591 12 0
-1591 39 0
-1591 42 0
-1591 78 0
1592 -12 -39 -48 -63 0
-1592 12 0
-1592 39 0
-1592 48 0
-1592 63 0
1593 -12 -39 -51 -60 0
-1593 12 0
-1593 39 0
-1593 51 0
-1593 60 0
1594 -15 -24 -57 -84 0
-1594 15 0
-1594 24 0
-1594 57 0
-1594 84 0
1595 -15 -24 -63 -75 0
-1595 15 0
-1595 24 0
-1595 63 0
-1595 75 0
1596 -15 -24 -66 -72 0
-1596 15 0
-1596 24 0
-1596 66 0
-1596 72 0
1597 -15 -27 -45 -84 0
-1597 15 0
-1597 27 0
-1597 45 0
-1597 84 0
1598 -15 -27 -51 -75 0
-1598 15 0
-1598 27 0
-1598 51 0
-1598 75 0
1599 -15 -27 -54 -72 0
-1599 15 0
-1599 27 0
-1599 54 0
-1599 72 0
1600 -15 -30 -42 -84 0
-1600 15 0
-1600 30 0
-1600 42 0
-1600 84 0
1601 -15 -30 -51 -66 0
-1601 15 0
-1601 30 0
-1601 51 0
-1601 66 0
1602 -15 -30 -54 -63 0
-1602 15 0
-1602 30 0
-1602 54 0
-1602 63 0
1603 -15 -36 -42 -75 0
-1603 15 0
-1603 36 0
-1603 42 0
-1603 75 0
1604 -15 -36 -45 -66 0
-1604 15 0
-1604 36 0
-1604 45 0
-1604 66 0
1605 -15 -36 -54 -57 0
-1605 15 0
-1605 36 0
-1605 54 0
-1605 57 0
1606 -15 -39 -42 -72 0
-1606 15 0
-1606 39 0
-1606 42 0
-1606 72 0
1607 -15 -39 -45 -63 0
-1607 15 0
-1607 39 0
-1607 45 0
-1607 63 0
1608 -15 -39 -51 -57 0
-1608 15 0
-1608 39 0
-1608 51 0
-1608 57 0
1609 -18 -24 -57 -81 0
-1609 18 0
-1609 24 0
-1609 57 0
-1609 81 0
1610 -18 -24 -60 -75 0
-1610 18 0
-1610 24 0
-1610 60 0
-1610 75 0
1611 -18 -24 -66 -69 0
-1611 18 0
-1611 24 0
-1611 66 0
-1611 69 0
1612 -18 -27 -45 -81 0
-1612 18 0
-1612 27 0
-1612 45 0
-1612 81 0
1613 -18 -27 -48 -75 0
-1613 18 0
-1613 27 0
-1613 48 0
-1613 75 0
1614 -18 -27 -54 -69 0
-1614 18 0
-1614 27 0
-1614 54 0
-1614 69 0
1615 -18 -30 -42 -81 0
-1615 18 0
-1615 30 0
-1615 42 0
-1615 81 0
1616 -18 -30 -48 -66 0
-1616 18 0
-1616 30 0
-1616 48 0
-1616 66 0
1617 -18 -30 -54 -60 0
-1617 18 0
-1617 30 0
-1617 54 0
-1617 60 0
1618 -18 -33 -42 -75 0
-1618 18 0
-1618 33 0
-1618 42 0
-1618 75 0
1619 -18 -33 -45 -66 0
-1619 18 0
-1619 33 0
-1619 45 0
-1619 66 0
1620 -18 -33 -54 -57 0
-1620 18 0
-1620 33 0
-1620 54 0
-1620 57 0
1621 -18 -39 -42 -69 0
-1621 18 0
-1621 39 0
-1621 42 0
-1621 69 0
1622 -18 -39 -45 -60 0
-1622 18 0
-1622 39 0
-1622 45 0
-1622 60 0
1623 -18 -39 -48 -57 0
-1623 18 0
-1623 39 0
-1623 48 0
-1623 57 0
1624 -21 -24 -57 -78 0
-1624 21 0
-1624 24 0
-1624 57 0
-1624 78 0
1625 -21 -24 -60 -72 0
-1625 21 0
-1625 24 0
-1625 60 0
-1625 72 0
1626 -21 -24 -63 -69 0
-1626 21 0
-1626 24 0
-1626 63 0
-1626 69 0
1627 -21 -27 -45 -78 0
-1627 21 0
-1627 27 0
-1627 45 0
-1627 78 0
1628 -21 -27 -48 -72 0
-1628 21 0
-1628 27 0
-1628 48 0
-1628 72 0
1629 -21 -27 -51 -69 0
-1629 21 0
-1629 27 0
-1629 51 0
-1629 69 0
1630 -21 -30 -42 -78 0
-1630 21 0
-1630 30 0
-1630 42 0
-1630 78 0
1631 -21 -30 -48 -63 0
-1631 21 0
-1631 30 0
-1631 48 0
-1631 63 0
1632 -21 -30 -51 -60 0
-1632 21 0
-1632 30 0
-1632 51 0
-1632 60 0
1633 -21 -33 -42 -72 0
-1633 21 0
-1633 33 0
-1633 42 0
-1633 72 0
1634 -21 -33 -45 -63 0
-1634 21 0
-1634 33 0
-1634 45 0
-1634 63 0
1635 -21 -33 -51 -57 0
-1635 21 0
-1635 33 0
-1635 51 0
-1635 57 0
1636 -21 -36 -42 -69 0
-1636 21 0
-1636 36 0
-1636 42 0
-1636 69 0
1637 -21 -36 -45 -60 0
-1637 21 0
-1637 36 0
-1637 45 0
-1637 60 0
1638 -21 -36 -48 -57 0
-1638 21 0
-1638 36 0
-1638 48 0
-1638 57 0
1534 1535 1536 1537 1538 1539 1540 1541 1542 1543 1544 1545 1546 1547 1548 1549 1550 1551 1552 1553 1554 1555 1556 1557 1558 1559 1560 1561 1562 1563 1564 1565 1566 1567 1568 1569 1570 1571 1572 1573 1574 1575 1576 1577 1578 1579 1580 1581 1582 1583 1584 1585 1586 1587 1588 1589 1590 1591 1592 1593 1594 1595 1596 1597 1598 1599 1600 1601 1602 1603 1604 1605 1606 1607 1608 1609 1610 1611 1612 1613 1614 1615 1616 1617 1618 1619 1620 1621 1622 1623 1624 1625 1626 1627 1628 1629 1630 1631 1632 1633 1634 1635 1636 1637 1638 0
1639 -1 -40 -70 -80 0
-1639 1 0
-1639 40 0
-1639 70 0
-1639 80 0
1640 -1 -43 -61 -80 0
-1640 1 0
-1640 43 0
-1640 61 0
-1640 80 0
1641 -1 -49 -55 -80 0
-1641 1 0
-1641 49 0
-1641 55 0
-1641 80 0
1642 -4 -25 -70 -80 0
-1642 4 0
-1642 25 0
-1642 70 0
-1642 80 0
1643 -4 -28 -61 -80 0
-1643 4 0
-1643 28 0
-1643 61 0
-1643 80 0
1644 -4 -34 -55 -80 0
-1644 4 0
-1644 34 0
-1644 55 0
-1644 80 0
1645 -7 -22 -70 -80 0
-1645 7 0
-1645 22 0
-1645 70 0
-1645 80 0
1646 -7 -28 -49 -80 0
-1646 7 0
-1646 28 0
-1646 49 0
-1646 80 0
1647 -7 -34 -43 -80 0
-1647 7 0
-1647 34 0
-1647 43 0
-1647 80 0
1648 -10 -22 -61 -80 0
-1648 10 0
-1648 22 0
-1648 61 0
-1648 80 0
1649 -10 -25 -49 -80 0
-1649 10 0
-1649 25 0
-1649 49 0
-1649 80 0
1650 -10 -34 -40 -80 0
-1650 10 0
-1650 34 0
-1650 40 0
-1650 80 0
1651 -16 -22 -55 -80 0
-1651 16 0
-1651 22 0
-1651 55 0
-1651 80 0
1652 -16 -25 -43 -80 0
-1652 16 0
-1652 25 0
-1652 43 0
-1652 80 0
1653 -16 -28 -40 -80 0
-1653 16 0
-1653 28 0
-1653 40 0
-1653 80 0
-1639 1640 1641 1642 1643 1644 1645 1646 1647 1648 1649 1650 1651 1652 1653 0
-1640 1639 1641 1642 1643 1644 1645 1646 1647 1648 1649 1650 1651 1652 1653 0
-1641 1639 1640 1642 1643 1644 1645 1646 1647 1648 1649 1650 1651 1652 1653 0
-1642 1639 1640 1641 1643 1644 1645 1646 1647 1648 1649 1650 1651 1652 1653 0
-1643 1639 1640 1641 1642 1644 1645 1646 1647 1648 1649 1650 1651 1652 1653 0
-1644 1639 1640 1641 1642 1643 1645 1646 1647 1648 1649 1650 1651 1652 1653 0
-1645 1639 1640 1641 1642 1643 1644 1646 1647 1648 1649 1650 1651 1652 1653 0
-1646 1639 1640 1641 1642 1643 1644 1645 1647 1648 1649 1650 1651 1652 1653 0
-1647 1639 1640 1641 1642 1643 1644 1645 1646 1648 1649 1650 1651 1652 1653 0
-1648 1639 1640 1641 1642 1643 1644 1645 1646 1647 1649 1650 1651 1652 1653 0
-1649 1639 1640 1641 1642 1643 1644 1645 1646 1647 1648 1650 1651 1652 1653 0
-1650 1639 1640 1641 1642 1643 1644 1645 1646 1647 1648 1649 1651 1652 1653 0
-1651 1639 1640 1641 1642 1643 1644 1645 1646 1647 1648 1649 1650 1652 1653 0
-1652 1639 1640 1641 1642 1643 1644 1645 1646 1647 1648 1649 1650 1651 1653 0
-1653 1639 1640 1641 1642 1643 1644 1645 1646 1647 1648 1649 1650 1651 1652 0
1654 -1 -40 -70 -81 0
-1654 1 0
-1654 40 0
-1654 70 0
-1654 81 0
1655 -1 -43 -61 -81 0
-1655 1 0
-1655 43 0
-1655 61 0
-1655 81 0
1656 -1 -49 -55 -81 0
-1656 1 0
-1656 49 0
-1656 55 0
-1656 81 0
1657 -4 -25 -70 -81 0
-1657 4 0
-1657 25 0
-1657 70 0
-1657 81 0
1658 -4 -28 -61 -81 0
-1658 4 0
-1658 28 0
-1658 61 0
-1658 81 0
1659 -4 -34 -55 -81 0
-1659 4 0
-1659 34 0
-1659 55 0
-1659 81 0
1660 -7 -22 -70 -81 0
-1660 7 0
-1660 22 0
-1660 70 0
-1660 81 0
1661 -7 -28 -49 -81 0
-1661 7 0
-1661 28 0
-1661 49 0
-1661 81 0
1662 -7 -34 -43 -81 0
-1662 7 0
-1662 34 0
-1662 43 0
-1662 81 0
1663 -10 -22 -61 -81 0
-1663 10 0
-1663 22 0
-1663 61 0
-1663 81 0
1664 -10 -25 -49 -81 0
-1664 10 0
-1664 25 0
-1664 49 0
-1664 81 0
1665 -10 -34 -40 -81 0
-1665 10 0
-1665 34 0
-1665 40 0
-1665 81 0
1666 -16 -22 -55 -81 0
-1666 16 0
-1666 22 0
-1666 55 0
-1666 81 0
1667 -16 -25 -43 -81 0
-1667 16 0
-1667 25 0
-1667 43 0
-1667 81 0
1668 -16 -28 -40 -81 0
-1668 16 0
-1668 28 0
-1668 40 0
-1668 81 0
-1654 1655 1656 1657 1658 1659 1660 1661 1662 1663 1664 1665 1666 1667 1668 0
-1655 1654 1656 1657 1658 1659 1660 1661 1662 1663 1664 1665 1666 1667 1668 0
-1656 1654 1655 1657 1658 1659 1660 1661 1662 1663 1664 1665 1666 1667 1668 0
-1657 1654 1655 1656 1658 1659 1660 1661 1662 1663 1664 1665 1666 1667 1668 0
-1658 1654 1655 1656 1657 1659 1660 1661 1662 1663 1664 1665 1666 1667 1668 0
-1659 1654 1655 1656 1657 1658 1660 1661 1662 1663 1664 1665 1666 1667 1668 0
-1660 1654 1655 1656 1657 1658 1659 1661 1662 1663 1664 1665 1666 1667 1668 0
-1661 1654 1655 1656 1657 1658 1659 1660 1662 1663 1664 1665 1666 1667 1668 0
-1662 1654 1655 1656 1657 1658 1659 1660 1661 1663 1664 1665 1666 1667 1668 0
-1663 1654 1655 1656 1657 1658 1659 1660 1661 1662 1664 1665 1666 1667 1668 0
-1664 1654 1655 1656 1657 1658 1659 1660 1661 1662 1663 1665 1666 1667 1668 0
-1665 1654 1655 1656 1657 1658 1659 1660 1661 1662 1663 1664 1666 1667 1668 0
-1666 1654 1655 1656 1657 1658 1659 1660 1661 1662 1663 1664 1665 1667 1668 0
-1667 1654 1655 1656 1657 1658 1659 1660 1661 1662 1663 1664 1665 1666 1668 0
-1668 1654 1655 1656 1657 1658 1659 1660 1661 1662 1663 1664 1665 1666 1667 0
1669 -1 -40 -71 -79 0
-1669 1 0
-1669 40 0
-1669 71 0
-1669 79 0
1670 -1 -46 -64 -71 0
-1670 1 0
-1670 46 0
-1670 64 0
-1670 71 0
1671 -1 -52 -58 -71 0
-1671 1 0
-1671 52 0
-1671 58 0
-1671 71 0
1672 -4 -25 -71 -79 0
-1672 4 0
-1672 25 0
-1672 71 0
-1672 79 0
1673 -4 -31 -64 -71 0
-1673 4 0
-1673 31 0
-1673 64 0
-1673 71 0
1674 -4 -37 -58 -71 0
-1674 4 0
-1674 37 0
-1674 58 0
-1674 71 0
1675 -7 -22 -71 -79 0
-1675 7 0
-1675 22 0
-1675 71 0
-1675 79 0
1676 -7 -31 -52 -71 0
-1676 7 0
-1676 31 0
-1676 52 0
-1676 71 0
1677 -7 -37 -46 -71 0
-1677 7 0
-1677 37 0
-1677 46 0
-1677 71 0
1678 -13 -22 -64 -71 0
-1678 13 0
-1678 22 0
-1678 64 0
-1678 71 0
1679 -13 -25 -52 -71 0
-1679 13 0
-1679 25 0
-1679 52 0
-1679 71 0
1680 -13 -37 -40 -71 0
-1680 13 0
-1680 37 0
-1680 40 0
-1680 71 0
1681 -19 -22 -58 -71 0
-1681 19 0
-1681 22 0
-1681 58 0
-1681 71 0
1682 -19 -25 -46 -71 0
-1682 19 0
-1682 25 0
-1682 46 0
-1682 71 0
1683 -19 -31 -40 -71 0
-1683 19 0
-1683 31 0
-1683 40 0
-1683 71 0
-1669 1670 1671 1672 1673 1674 1675 1676 1677 1678 1679 1680 1681 1682 1683 0
-1670 1669 1671 1672 1673 1674 1675 1676 1677 1678 1679 1680 1681 1682 1683 0
-1671 1669 1670 1672 1673 1674 1675 1676 1677 1678 1679 1680 1681 1682 1683 0
-1672 1669 1670 1671 1673 1674 1675 1676 1677 1678 1679 1680 1681 1682 1683 0
-1673 1669 1670 1671 1672 1674 1675 1676 1677 1678 1679 1680 1681 1682 1683 0
-1674 1669 1670 1671 1672 1673 1675 1676 1677 1678 1679 1680 1681 1682 1683 0
-1675 1669 1670 1671 1672 1673 1674 1676 1677 1678 1679 1680 1681 1682 1683 0
-1676 1669 1670 1671 1672 1673 1674 1675 1677 1678 1679 1680 1681 1682 1683 0
-1677 1669 1670 1671 1672 1673 1674 1675 1676 1678 1679 1680 1681 1682 1683 0
-1678 1669 1670 1671 1672 1673 1674 1675 1676 1677 1679 1680 1681 1682 1683 0
-1679 1669 1670 1671 1672 1673 1674 1675 1676 1677 1678 1680 1681 1682 1683 0
-1680 1669 1670 1671 1672 1673 1674 1675 1676 1677 1678 1679 1681 1682 1683 0
-1681 1669 1670 1671 1672 1673 1674 1675 1676 1677 1678 1679 1680 1682 1683 0
-1682 1669 1670 1671 1672 1673 1674 1675 1676 1677 1678 1679 1680 1681 1683 0
-1683 1669 1670 1671 1672 1673 1674 1675 1676 1677 1678 1679 1680 1681 1682 0
1684 -1 -40 -71 -81 0
-1684 1 0
-1684 40 0
-1684 71 0
-1684 81 0
1685 -4 -25 -71 -81 0
-1685 4 0
-1685 25 0
-1685 71 0
-1685 81 0
1686 -7 -22 -71 -81 0
-1686 7 0
-1686 22 0
-1686 71 0
-1686 81 0
-1684 1685 1686 0
-1685 1684 1686 0
-1686 1684 1685 0
1687 -1 -40 -72 -79 0
-1687 1 0
-1687 40 0
-1687 72 0
-1687 79 0
1688 -1 -46 -64 -72 0
-1688 1 0
-1688 46 0
-1688 64 0
-1688 72 0
1689 -1 -52 -58 -72 0
-1689 1 0
-1689 52 0
-1689 58 0
-1689 72 0
1690 -4 -25 -72 -79 0
-1690 4 0
-1690 25 0
-1690 72 0
-1690 79 0
1691 -4 -31 -64 -72 0
-1691 4 0
-1691 31 0
-1691 64 0
-1691 72 0
1692 -4 -37 -58 -72 0
-1692 4 0
-1692 37 0
-1692 58 0
-1692 72 0
1693 -7 -22 -72 -79 0
-1693 7 0
-1693 22 0
-1693 72 0
-1693 79 0
1694 -7 -31 -52 -72 0
-1694 7 0
-1694 31 0
-1694 52 0
-1694 72 0
1695 -7 -37 -46 -72 0
-1695 7 0
-1695 37 0
-1695 46 0
-1695 72 0
1696 -13 -22 -64 -72 0
-1696 13 0
-1696 22 0
-1696 64 0
-1696 72 0
1697 -13 -25 -52 -72 0
-1697 13 0
-1697 25 0
-1697 52 0
-1697 72 0
1698 -13 -37 -40 -72 0
-1698 13 0
-1698 37 0
-1698 40 0
-1698 72 0
1699 -19 -22 -58 -72 0
-1699 19 0
-1699 22 0
-1699 58 0
-1699 72 0
1700 -19 -25 -46 -72 0
-1700 19 0
-1700 25 0
-1700 46 0
-1700 72 0
1701 -19 -31 -40 -72 0
-1701 19 0
-1701 31 0
-1701 40 0
-1701 72 0
-1687 1688 1689 1690 1691 1692 1693 1694 1695 1696 1697 1698 1699 1700 1701 0
-1688 1687 1689 1690 1691 1692 1693 1694 1695 1696 1697 1698 1699 1700 1701 0
-1689 1687 1688 1690 1691 1692 1693 1694 1695 1696 1697 1698 1699 1700 1701 0
-1690 1687 1688 1689 1691 1692 1693 1694 1695 1696 1697 1698 1699 1700 1701 0
-1691 1687 1688 1689 1690 1692 1693 1694 1695 1696 1697 1698 1699 1700 1701 0
-1692 1687 1688 1689 1690 1691 1693 1694 1695 1696 1697 1698 1699 1700 1701 0
-1693 1687 1688 1689 1690 1691 1692 1694 1695 1696 1697 1698 1699 1700 1701 0
-1694 1687 1688 1689 1690 1691 1692 1693 1695 1696 1697 1698 1699 1700 1701 0
-1695 1687 1688 1689 1690 1691 1692 1693 1694 1696 1697 1698 1699 1700 1701 0
-1696 1687 1688 1689 1690 1691 1692 1693 1694 1695 1697 1698 1699 1700 1701 0
-1697 1687 1688 1689 1690 1691 1692 1693 1694 1695 1696 1698 1699 1700 1701 0
-1698 1687 1688 1689 1690 1691 1692 1693 1694 1695 1696 1697 1699 1700 1701 0
-1699 1687 1688 1689 1690 1691 1692 1693 1694 1695 1696 1697 1698 1700 1701 0
-1700 1687 1688 1689 1690 1691 1692 1693 1694 1695 1696 1697 1698 1699 1701 0
-1701 1687 1688 1689 1690 1691 1692 1693 1694 1695 1696 1697 1698 1699 1700 0
1702 -1 -40 -72 -80 0
-1702 1 0
-1702 40 0
-1702 72 0
-1702 80 0
1703 -4 -25 -72 -80 0
-1703 4 0
-1703 25 0
-1703 72 0
-1703 80 0
1704 -7 -22 -72 -80 0
-1704 7 0
-1704 22 0
-1704 72 0
-1704 80 0
-1702 1703 1704 0
-1703 1702 1704 0
-1704 1702 1703 0
1705 -1 -41 -70 -80 0
-1705 1 0
-1705 41 0
-1705 70 0
-1705 80 0
1706 -1 -47 -65 -70 0
-1706 1 0
-1706 47 0
-1706 65 0
-1706 70 0
1707 -1 -53 -59 -70 0
-1707 1 0
-1707 53 0
-1707 59 0
-1707 70 0
1708 -10 -34 -41 -80 0
-1708 10 0
-1708 34 0
-1708 41 0
-1708 80 0
1709 -10 -34 -47 -65 0
-1709 10 0
-1709 34 0
-1709 47 0
-1709 65 0
1710 -10 -34 -53 -59 0
-1710 10 0
-1710 34 0
-1710 53 0
-1710 59 0
1711 -16 -28 -41 -80 0
-1711 16 0
-1711 28 0
-1711 41 0
-1711 80 0
1712 -16 -28 -47 -65 0
-1712 16 0
-1712 28 0
-1712 47 0
-1712 65 0
1713 -16 -28 -53 -59 0
-1713 16 0
-1713 28 0
-1713 53 0
-1713 59 0
-1705 1706 1707 1708 1709 1710 1711 1712 1713 0
-1706 1705 1707 1708 1709 1710 1711 1712 1713 0
-1707 1705 1706 1708 1709 1710 1711 1712 1713 0
-1708 1705 1706 1707 1709 1710 1711 1712 1713 0
-1709 1705 1706 1707 1708 1710 1711 1712 1713 0
-1710 1705 1706 1707 1708 1709 1711 1712 1713 0
-1711 1705 1706 1707 1708 1709 1710 1712 1713 0
-1712 1705 1706 1707 1708 1709 1710 1711 1713 0
-1713 1705 1706 1707 1708 1709 1710 1711 1712 0
1714 -1 -41 -70 -81 0
-1714 1 0
-1714 41 0
-1714 70 0
-1714 81 0
1715 -10 -34 -41 -81 0
-1715 10 0
-1715 34 0
-1715 41 0
-1715 81 0
1716 -16 -28 -41 -81 0
-1716 16 0
-1716 28 0
-1716 41 0
-1716 81 0
-1714 1715 1716 0
-1715 1714 1716 0
-1716 1714 1715 0
1717 -1 -41 -71 -79 0
-1717 1 0
-1717 41 0
-1717 71 0
-1717 79 0
1718 -1 -44 -62 -79 0
-1718 1 0
-1718 44 0
-1718 62 0
-1718 79 0
1719 -1 -50 -56 -79 0
-1719 1 0
-1719 50 0
-1719 56 0
-1719 79 0
1720 -13 -37 -41 -71 0
-1720 13 0
-1720 37 0
-1720 41 0
-1720 71 0
1721 -13 -37 -44 -62 0
-1721 13 0
-1721 37 0
-1721 44 0
-1721 62 0
1722 -13 -37 -50 -56 0
-1722 13 0
-1722 37 0
-1722 50 0
-1722 56 0
1723 -19 -31 -41 -71 0
-1723 19 0
-1723 31 0
-1723 41 0
-1723 71 0
1724 -19 -31 -44 -62 0
-1724 19 0
-1724 31 0
-1724 44 0
-1724 62 0
1725 -19 -31 -50 -56 0
-1725 19 0
-1725 31 0
-1725 50 0
-1725 56 0
-1717 1718 1719 1720 1721 1722 1723 1724 1725 0
-1718 1717 1719 1720 1721 1722 1723 1724 1725 0
-1719 1717 1718 1720 1721 1722 1723 1724 1725 0
-1720 1717 1718 1719 1721 1722 1723 1724 1725 0
-1721 1717 1718 1719 1720 1722 1723 1724 1725 0
-1722 1717 1718 1719 1720 1721 1723 1724 1725 0
-1723 1717 1718 1719 1720 1721 1722 1724 1725 0
-1724 1717 1718 1719 1720 1721 1722 1723 1725 0
-1725 1717 1718 1719 1720 1721 1722 1723 1724 0
1726 -1 -41 -71 -81 0
-1726 1 0
-1726 41 0
-1726 71 0
-1726 81 0
1727 -1 -44 -62 -81 0
-1727 1 0
-1727 44 0
-1727 62 0
-1727 81 0
1728 -1 -50 -56 -81 0
-1728 1 0
-1728 50 0
-1728 56 0
-1728 81 0
-1726 1727 1728 0
-1727 1726 1728 0
-1728 1726 1727 0
1729 -1 -41 -72 -79 0
-1729 1 0
-1729 41 0
-1729 72 0
-1729 79 0
1730 -13 -37 -41 -72 0
-1730 13 0
-1730 37 0
-1730 41 0
-1730 72 0
1731 -19 -31 -41 -72 0
-1731 19 0
-1731 31 0
-1731 41 0
-1731 72 0
-1729 1730 1731 0
-1730 1729 1731 0
-1731 1729 1730 0
1732 -1 -41 -72 -80 0
-1732 1 0
-1732 41 0
-1732 72 0
-1732 80 0
1733 -1 -47 -65 -72 0
-1733 1 0
-1733 47 0
-1733 65 0
-1733 72 0
1734 -1 -53 -59 -72 0
-1734 1 0
-1734 53 0
-1734 59 0
-1734 72 0
-1732 1733 1734 0
-1733 1732 1734 0
-1734 1732 1733 0
1735 -1 -42 -70 -80 0
-1735 1 0
-1735 42 0
-1735 70 0
-1735 80 0
1736 -10 -34 -42 -80 0
-1736 10 0
-1736 34 0
-1736 42 0
-1736 80 0
1737 -16 -28 -42 -80 0
-1737 16 0
-1737 28 0
-1737 42 0
-1737 80 0
-1735 1736 1737 0
-1736 1735 1737 0
-1737 1735 1736 0
1738 -1 -42 -70 -81 0
-1738 1 0
-1738 42 0
-1738 70 0
-1738 81 0
1739 -1 -48 -66 -70 0
-1739 1 0
-1739 48 0
-1739 66 0
-1739 70 0
1740 -1 -54 -60 -70 0
-1740 1 0
-1740 54 0
-1740 60 0
-1740 70 0
1741 -10 -34 -42 -81 0
-1741 10 0
-1741 34 0
-1741 42 0
-1741 81 0
1742 -10 -34 -48 -66 0
-1742 10 0
-1742 34 0
-1742 48 0
-1742 66 0
1743 -10 -34 -54 -60 0
-1743 10 0
-1743 34 0
-1743 54 0
-1743 60 0
1744 -16 -28 -42 -81 0
-1744 16 0
-1744 28 0
-1744 42 0
-1744 81 0
1745 -16 -28 -48 -66 0
-1745 16 0
-1745 28 0
-1745 48 0
-1745 66 0
1746 -16 -28 -54 -60 0
-1746 16 0
-1746 28 0
-1746 54 0
-1746 60 0
-1738 1739 1740 1741 1742 1743 1744 1745 1746 0
-1739 1738 1740 1741 1742 1743 1744 1745 1746 0
-1740 1738 1739 1741 1742 1743 1744 1745 1746 0
-1741 1738 1739 1740 1742 1743 1744 1745 1746 0
-1742 1738 1739 1740 1741 1743 1744 1745 1746 0
-1743 1738 1739 1740 1741 1742 1744 1745 1746 0
-1744 1738 1739 1740 1741 1742 1743 1745 1746 0
-1745 1738 1739 1740 1741 1742 1743 1744 1746 0
-1746 1738 1739 1740 1741 1742 1743 1744 1745 0
1747 -1 -42 -71 -79 0
-1747 1 0
-1747 42 0
-1747 71 0
-1747 79 0
1748 -13 -37 -42 -71 0
-1748 13 0
-1748 37 0
-1748 42 0
-1748 71 0
1749 -19 -31 -42 -71 0
-1749 19 0
-1749 31 0
-1749 42 0
-1749 71 0
-1747 1748 1749 0
-1748 1747 1749 0
-1749 1747 1748 0
1750 -1 -42 -71 -81 0
-1750 1 0
-1750 42 0
-1750 71 0
-1750 81 0
1751 -1 -48 -66 -71 0
-1751 1 0
-1751 48 0
-1751 66 0
-1751 71 0
1752 -1 -54 -60 -71 0
-1752 1 0
-1752 54 0
-1752 60 0
-1752 71 0
-1750 1751 1752 0
-1751 1750 1752 0
-1752 1750 1751 0
1753 -1 -42 -72 -79 0
-1753 1 0
-1753 42 0
-1753 72 0
-1753 79 0
1754 -1 -45 -63 -79 0
-1754 1 0
-1754 45 0
-1754 63 0
-1754 79 0
1755 -1 -51 -57 -79 0
-1755 1 0
-1755 51 0
-1755 57 0
-1755 79 0
1756 -13 -37 -42 -72 0
-1756 13 0
-1756 37 0
-1756 42 0
-1756 72 0
1757 -13 -37 -45 -63 0
-1757 13 0
-1757 37 0
-1757 45 0
-1757 63 0
1758 -13 -37 -51 -57 0
-1758 13 0
-1758 37 0
-1758 51 0
-1758 57 0
1759 -19 -31 -42 -72 0
-1759 19 0
-1759 31 0
-1759 42 0
-1759 72 0
1760 -19 -31 -45 -63 0
-1760 19 0
-1760 31 0
-1760 45 0
-1760 63 0
1761 -19 -31 -51 -57 0
-1761 19 0
-1761 31 0
-1761 51 0
-1761 57 0
-1753 1754 1755 1756 1757 1758 1759 1760 1761 0
-1754 1753 1755 1756 1757 1758 1759 1760 1761 0
-1755 1753 1754 1756 1757 1758 1759 1760 1761 0
-1756 1753 1754 1755 1757 1758 1759 1760 1761 0
-1757 1753 1754 1755 1756 1758 1759 1760 1761 0
-1758 1753 1754 1755 1756 1757 1759 1760 1761 0
-1759 1753 1754 1755 1756 1757 1758 1760 1761 0
-1760 1753 1754 1755 1756 1757 1758 1759 1761 0
-1761 1753 1754 1755 1756 1757 1758 1759 1760 0
1762 -1 -42 -72 -80 0
-1762 1 0
-1762 42 0
-1762 72 0
-1762 80 0
1763 -1 -45 -63 -80 0
-1763 1 0
-1763 45 0
-1763 63 0
-1763 80 0
1764 -1 -51 -57 -80 0
-1764 1 0
-1764 51 0
-1764 57 0
-1764 80 0
-1762 1763 1764 0
-1763 1762 1764 0
-1764 1762 1763 0
1765 -2 -40 -70 -80 0
-1765 2 0
-1765 40 0
-1765 70 0
-1765 80 0
1766 -2 -43 -61 -80 0
-1766 2 0
-1766 43 0
-1766 61 0
-1766 80 0
1767 -2 -49 -55 -80 0
-1767 2 0
-1767 49 0
-1767 55 0
-1767 80 0
1768 -14 -38 -40 -70 0
-1768 14 0
-1768 38 0
-1768 40 0
-1768 70 0
1769 -14 -38 -43 -61 0
-1769 14 0
-1769 38 0
-1769 43 0
-1769 61 0
1770 -14 -38 -49 -55 0
-1770 14 0
-1770 38 0
-1770 49 0
-1770 55 0
1771 -20 -32 -40 -70 0
-1771 20 0
-1771 32 0
-1771 40 0
-1771 70 0
1772 -20 -32 -43 -61 0
-1772 20 0
-1772 32 0
-1772 43 0
-1772 61 0
1773 -20 -32 -49 -55 0
-1773 20 0
-1773 32 0
-1773 49 0
-1773 55 0
-1765 1766 1767 1768 1769 1770 1771 1772 1773 0
-1766 1765 1767 1768 1769 1770 1771 1772 1773 0
-1767 1765 1766 1768 1769 1770 1771 1772 1773 0
-1768 1765 1766 1767 1769 1770 1771 1772 1773 0
-1769 1765 1766 1767 1768 1770 1771 1772 1773 0
-1770 1765 1766 1767 1768 1769 1771 1772 1773 0
-1771 1765 1766 1767 1768 1769 1770 1772 1773 0
-1772 1765 1766 1767 1768 1769 1770 1771 1773 0
-1773 1765 1766 1767 1768 1769 1770 1771 1772 0
1774 -2 -40 -70 -81 0
-1774 2 0
-1774 40 0
-1774 70 0
-1774 81 0
1775 -2 -43 -61 -81 0
-1775 2 0
-1775 43 0
-1775 61 0
-1775 81 0
1776 -2 -49 -55 -81 0
-1776 2 0
-1776 49 0
-1776 55 0
-1776 81 0
-1774 1775 1776 0
-1775 1774 1776 0
-1776 1774 1775 0
1777 -2 -40 -71 -79 0
-1777 2 0
-1777 40 0
-1777 71 0
-1777 79 0
1778 -2 -46 -64 -71 0
-1778 2 0
-1778 46 0
-1778 64 0
-1778 71 0
1779 -2 -52 -58 -71 0
-1779 2 0
-1779 52 0
-1779 58 0
-1779 71 0
1780 -11 -35 -40 -79 0
-1780 11 0
-1780 35 0
-1780 40 0
-1780 79 0
1781 -11 -35 -46 -64 0
-1781 11 0
-1781 35 0
-1781 46 0
-1781 64 0
1782 -11 -35 -52 -58 0
-1782 11 0
-1782 35 0
-1782 52 0
-1782 58 0
1783 -17 -29 -40 -79 0
-1783 17 0
-1783 29 0
-1783 40 0
-1783 79 0
1784 -17 -29 -46 -64 0
-1784 17 0
-1784 29 0
-1784 46 0
-1784 64 0
1785 -17 -29 -52 -58 0
-1785 17 0
-1785 29 0
-1785 52 0
-1785 58 0
-1777 1778 1779 1780 1781 1782 1783 1784 1785 0
-1778 1777 1779 1780 1781 1782 1783 1784 1785 0
-1779 1777 1778 1780 1781 1782 1783 1784 1785 0
-1780 1777 1778 1779 1781 1782 1783 1784 1785 0
-1781 1777 1778 1779 1780 1782 1783 1784 1785 0
-1782 1777 1778 1779 1780 1781 1783 1784 1785 0
-1783 1777 1778 1779 1780 1781 1782 1784 1785 0
-1784 1777 1778 1779 1780 1781 1782 1783 1785 0
-1785 1777 1778 1779 1780 1781 1782 1783 1784 0
1786 -2 -40 -71 -81 0
-1786 2 0
-1786 40 0
-1786 71 0
-1786 81 0
1787 -11 -35 -40 -81 0
-1787 11 0
-1787 35 0
-1787 40 0
-1787 81 0
1788 -17 -29 -40 -81 0
-1788 17 0
-1788 29 0
-1788 40 0
-1788 81 0
-1786 1787 1788 0
-1787 1786 1788 0
-1788 1786 1787 0
1789 -2 -40 -72 -79 0
-1789 2 0
-1789 40 0
-1789 72 0
-1789 79 0
1790 -2 -46 -64 -72 0
-1790 2 0
-1790 46 0
-1790 64 0
-1790 72 0
1791 -2 -52 -58 -72 0
-1791 2 0
-1791 52 0
-1791 58 0
-1791 72 0
-1789 1790 1791 0
-1790 1789 1791 0
-1791 1789 1790 0
1792 -2 -40 -72 -80 0
-1792 2 0
-1792 40 0
-1792 72 0
-1792 80 0
1793 -14 -38 -40 -72 0
-1793 14 0
-1793 38 0
-1793 40 0
-1793 72 0
1794 -20 -32 -40 -72 0
-1794 20 0
-1794 32 0
-1794 40 0
-1794 72 0
-1792 1793 1794 0
-1793 1792 1794 0
-1794 1792 1793 0
1795 -2 -41 -70 -80 0
-1795 2 0
-1795 41 0
-1795 70 0
-1795 80 0
1796 -2 -47 -65 -70 0
-1796 2 0
-1796 47 0
-1796 65 0
-1796 70 0
1797 -2 -53 -59 -70 0
-1797 2 0
-1797 53 0
-1797 59 0
-1797 70 0
1798 -5 -26 -70 -80 0
-1798 5 0
-1798 26 0
-1798 70 0
-1798 80 0
1799 -5 -32 -65 -70 0
-1799 5 0
-1799 32 0
-1799 65 0
-1799 70 0
1800 -5 -38 -59 -70 0
-1800 5 0
-1800 38 0
-1800 59 0
-1800 70 0
1801 -8 -23 -70 -80 0
-1801 8 0
-1801 23 0
-1801 70 0
-1801 80 0
1802 -8 -32 -53 -70 0
-1802 8 0
-1802 32 0
-1802 53 0
-1802 70 0
1803 -8 -38 -47 -70 0
-1803 8 0
-1803 38 0
-1803 47 0
-1803 70 0
1804 -14 -23 -65 -70 0
-1804 14 0
-1804 23 0
-1804 65 0
-1804 70 0
1805 -14 -26 -53 -70 0
-1805 14 0
-1805 26 0
-1805 53 0
-1805 70 0
1806 -14 -38 -41 -70 0
-1806 14 0
-1806 38 0
-1806 41 0
-1806 70 0
1807 -20 -23 -59 -70 0
-1807 20 0
-1807 23 0
-1807 59 0
-1807 70 0
1808 -20 -26 -47 -70 0
-1808 20 0
-1808 26 0
-1808 47 0
-1808 70 0
1809 -20 -32 -41 -70 0
-1809 20 0
-1809 32 0
-1809 41 0
-1809 70 0
-1795 1796 1797 1798 1799 1800 1801 1802 1803 1804 1805 1806 1807 1808 1809 0
-1796 1795 1797 1798 1799 1800 1801 1802 1803 1804 1805 1806 1807 1808 1809 0
-1797 1795 1796 1798 1799 1800 1801 1802 1803 1804 1805 1806 1807 1808 1809 0
-1798 1795 1796 1797 1799 1800 1801 1802 1803 1804 1805 1806 1807 1808 1809 0
-1799 1795 1796 1797 1798 1800 1801 1802 1803 1804 1805 1806 1807 1808 1809 0
-1800 1795 1796 1797 1798 1799 1801 1802 1803 1804 1805 1806 1807 1808 1809 0
-1801 1795 1796 1797 1798 1799 1800 1802 1803 1804 1805 1806 1807 1808 1809 0
-1802 1795 1796 1797 1798 1799 1800 1801 1803 1804 1805 1806 1807 1808 1809 0
-1803 1795 1796 1797 1798 1799 1800 1801 1802 1804 1805 1806 1807 1808 1809 0
-1804 1795 1796 1797 1798 1799 1800 1801 1802 1803 1805 1806 1807 1808 1809 0
-1805 1795 1796 1797 1798 1799 1800 1801 1802 1803 1804 1806 1807 1808 1809 0
-1806 1795 1796 1797 1798 1799 1800 1801 1802 1803 1804 1805 1807 1808 1809 0
-1807 1795 1796 1797 1798 1799 1800 1801 1802 1803 1804 1805 1806 1808 1809 0
-1808 1795 1796 1797 1798 1799 1800 1801 1802 1803 1804 1805 1806 1807 1809 0
-1809 1795 1796 1797 1798 1799 1800 1801 1802 1803 1804 1805 1806 1807 1808 0
1810 -2 -41 -70 -81 0
-1810 2 0
-1810 41 0
-1810 70 0
-1810 81 0
1811 -5 -26 -70 -81 0
-1811 5 0
-1811 26 0
-1811 70 0
-1811 81 0
1812 -8 -23 -70 -81 0
-1812 8 0
-1812 23 0
-1812 70 0
-1812 81 0
-1810 1811 1812 0
-1811 1810 1812 0
-1812 1810 1811 0
1813 -2 -41 -71 -79 0
-1813 2 0
-1813 41 0
-1813 71 0
-1813 79 0
1814 -2 -44 -62 -79 0
-1814 2 0
-1814 44 0
-1814 62 0
-1814 79 0
1815 -2 -50 -56 -79 0
-1815 2 0
-1815 50 0
-1815 56 0
-1815 79 0
1816 -5 -26 -71 -79 0
-1816 5 0
-1816 26 0
-1816 71 0
-1816 79 0
1817 -5 -29 -62 -79 0
-1817 5 0
-1817 29 0
-1817 62 0
-1817 79 0
1818 -5 -35 -56 -79 0
-1818 5 0
-1818 35 0
-1818 56 0
-1818 79 0
1819 -8 -23 -71 -79 0
-1819 8 0
-1819 23 0
-1819 71 0
-1819 79 0
1820 -8 -29 -50 -79 0
-1820 8 0
-1820 29 0
-1820 50 0
-1820 79 0
1821 -8 -35 -44 -79 0
-1821 8 0
-1821 35 0
-1821 44 0
-1821 79 0
1822 -11 -23 -62 -79 0
-1822 11 0
-1822 23 0
-1822 62 0
-1822 79 0
1823 -11 -26 -50 -79 0
-1823 11 0
-1823 26 0
-1823 50 0
-1823 79 0
1824 -11 -35 -41 -79 0
-1824 11 0
-1824 35 0
-1824 41 0
-1824 79 0
1825 -17 -23 -56 -79 0
-1825 17 0
-1825 23 0
-1825 56 0
-1825 79 0
1826 -17 -26 -44 -79 0
-1826 17 0
-1826 26 0
-1826 44 0
-1826 79 0
1827 -17 -29 -41 -79 0
-1827 17 0
-1827 29 0
-1827 41 0
-1827 79 0
-1813 1814 1815 1816 1817 1818 1819 1820 1821 1822 1823 1824 1825 1826 1827 0
-1814 1813 1815 1816 1817 1818 1819 1820 1821 1822 1823 1824 1825 1826 1827 0
-1815 1813 1814 1816 1817 1818 1819 1820 1821 1822 1823 1824 1825 1826 1827 0
-1816 1813 1814 1815 1817 1818 1819 1820 1821 1822 1823 1824 1825 1826 1827 0
-1817 1813 1814 1815 1816 1818 1819 1820 1821 1822 1823 1824 1825 1826 1827 0
-1818 1813 1814 1815 1816 1817 1819 1820 1821 1822 1823 1824 1825 1826 1827 0
-1819 1813 1814 1815 1816 1817 1818 1820 1821 1822 1823 1824 1825 1826 1827 0
-1820 1813 1814 1815 1816 1817 1818 1819 1821 1822 1823 1824 1825 1826 1827 0
-1821 1813 1814 1815 1816 1817 1818 1819 1820 1822 1823 1824 1825 1826 1827 0
-1822 1813 1814 1815 1816 1817 1818 1819 1820 1821 1823 1824 1825 1826 1827 0
-1823 1813 1814 1815 1816 1817 1818 1819 1820 1821 1822 1824 1825 1826 1827 0
-1824 1813 1814 1815 1816 1817 1818 1819 1820 1821 1822 1823 1825 1826 1827 0
-1825 1813 1814 1815 1816 1817 1818 1819 1820 1821 1822 1823 1824 1826 1827 0
-1826 1813 1814 1815 1816 1817 1818 1819 1820 1821 1822 1823 1824 1825 1827 0
-1827 1813 1814 1815 1816 1817 1818 1819 1820 1821 1822 1823 1824 1825 1826 0
1828 -2 -41 -71 -81 0
-1828 2 0
-1828 41 0
-1828 71 0
-1828 81 0
1829 -2 -44 -62 -81 0
-1829 2 0
-1829 44 0
-1829 62 0
-1829 81 0
1830 -2 -50 -56 -81 0
-1830 2 0
-1830 50 0
-1830 56 0
-1830 81 0
1831 -5 -26 -71 -81 0
-1831 5 0
-1831 26 0
-1831 71 0
-1831 81 0
1832 -5 -29 -62 -81 0
-1832 5 0
-1832 29 0
-1832 62 0
-1832 81 0
1833 -5 -35 -56 -81 0
-1833 5 0
-1833 35 0
-1833 56 0
-1833 81 0
1834 -8 -23 -71 -81 0
-1834 8 0
-1834 23 0
-1834 71 0
-1834 81 0
1835 -8 -29 -50 -81 0
-1835 8 0
-1835 29 0
-1835 50 0
-1835 81 0
1836 -8 -35 -44 -81 0
-1836 8 0
-1836 35 0
-1836 44 0
-1836 81 0
1837 -11 -23 -62 -81 0
-1837 11 0
-1837 23 0
-1837 62 0
-1837 81 0
1838 -11 -26 -50 -81 0
-1838 11 0
-1838 26 0
-1838 50 0
-1838 81 0
1839 -11 -35 -41 -81 0
-1839 11 0
-1839 35 0
-1839 41 0
-1839 81 0
1840 -17 -23 -56 -81 0
-1840 17 0
-1840 23 0
-1840 56 0
-1840 81 0
1841 -17 -26 -44 -81 0
-1841 17 0
-1841 26 0
-1841 44 0
-1841 81 0
1842 -17 -29 -41 -81 0
-1842 17 0
-1842 29 0
-1842 41 0
-1842 81 0
-1828 1829 1830 1831 1832 1833 1834 1835 1836 1837 1838 1839 1840 1841 1842 0
-1829 1828 1830 1831 1832 1833 1834 1835 1836 1837 1838 1839 1840 1841 1842 0
-1830 1828 1829 1831 1832 1833 1834 1835 1836 1837 1838 1839 1840 1841 1842 0
-1831 1828 1829 1830 1832 1833 1834 1835 1836 1837 1838 1839 1840 1841 1842 0
-1832 1828 1829 1830 1831 1833 1834 1835 1836 1837 1838 1839 1840 1841 1842 0
-1833 1828 1829 1830 1831 1832 1834 1835 1836 1837 1838 1839 1840 1841 1842 0
-1834 1828 1829 1830 1831 1832 1833 1835 1836 1837 1838 1839 1840 1841 1842 0
-1835 1828 1829 1830 1831 1832 1833 1834 1836 1837 1838 1839 1840 1841 1842 0
-1836 1828 1829 1830 1831 1832 1833 1834 1835 1837 1838 1839 1840 1841 1842 0
-1837 1828 1829 1830 1831 1832 1833 1834 1835 1836 1838 1839 1840 1841 1842 0
-1838 1828 1829 1830 1831 1832 1833 1834 1835 1836 1837 1839 1840 1841 1842 0
-1839 1828 1829 1830 1831 1832 1833 1834 1835 1836 1837 1838 1840 1841 1842 0
-1840 1828 1829 1830 1831 1832 1833 1834 1835 1836 1837 1838 1839 1841 1842 0
-1841 1828 1829 1830 1831 1832 1833 1834 1835 1836 1837 1838 1839 1840 1842 0
-1842 1828 1829 1830 1831 1832 1833 1834 1835 1836 1837 1838 1839 1840 1841 0
1843 -2 -41 -72 -79 0
-1843 2 0
-1843 41 0
-1843 72 0
-1843 79 0
1844 -5 -26 -72 -79 0
-1844 5 0
-1844 26 0
-1844 72 0
-1844 79 0
1845 -8 -23 -72 -79 0
-1845 8 0
-1845 23 0
-1845 72 0
-1845 79 0
-1843 1844 1845 0
-1844 1843 1845 0
-1845 1843 1844 0
1846 -2 -41 -72 -80 0
-1846 2 0
-1846 41 0
-1846 72 0
-1846 80 0
1847 -2 -47 -65 -72 0
-1847 2 0
-1847 47 0
-1847 65 0
-1847 72 0
1848 -2 -53 -59 -72 0
-1848 2 0
-1848 53 0
-1848 59 0
-1848 72 0
1849 -5 -26 -72 -80 0
-1849 5 0
-1849 26 0
-1849 72 0
-1849 80 0
1850 -5 -32 -65 -72 0
-1850 5 0
-1850 32 0
-1850 65 0
-1850 72 0
1851 -5 -38 -59 -72 0
-1851 5 0
-1851 38 0
-1851 59 0
-1851 72 0
1852 -8 -23 -72 -80 0
-1852 8 0
-1852 23 0
-1852 72 0
-1852 80 0
1853 -8 -32 -53 -72 0
-1853 8 0
-1853 32 0
-1853 53 0
-1853 72 0
1854 -8 -38 -47 -72 0
-1854 8 0
-1854 38 0
-1854 47 0
-1854 72 0
1855 -14 -23 -65 -72 0
-1855 14 0
-1855 23 0
-1855 65 0
-1855 72 0
1856 -14 -26 -53 -72 0
-1856 14 0
-1856 26 0
-1856 53 0
-1856 72 0
1857 -14 -38 -41 -72 0
-1857 14 0
-1857 38 0
-1857 41 0
-1857 72 0
1858 -20 -23 -59 -72 0
-1858 20 0
-1858 23 0
-1858 59 0
-1858 72 0
1859 -20 -26 -47 -72 0
-1859 20 0
-1859 26 0
-1859 47 0
-1859 72 0
1860 -20 -32 -41 -72 0
-1860 20 0
-1860 32 0
-1860 41 0
-1860 72 0
-1846 1847 1848 1849 1850 1851 1852 1853 1854 1855 1856 1857 1858 1859 1860 0
-1847 1846 1848 1849 1850 1851 1852 1853 1854 1855 1856 1857 1858 1859 1860 0
-1848 1846 1847 1849 1850 1851 1852 1853 1854 1855 1856 1857 1858 1859 1860 0
-1849 1846 1847 1848 1850 1851 1852 1853 1854 1855 1856 1857 1858 1859 1860 0
-1850 1846 1847 1848 1849 1851 1852 1853 1854 1855 1856 1857 1858 1859 1860 0
-1851 1846 1847 1848 1849 1850 1852 1853 1854 1855 1856 1857 1858 1859 1860 0
-1852 1846 1847 1848 1849 1850 1851 1853 1854 1855 1856 1857 1858 1859 1860 0
-1853 1846 1847 1848 1849 1850 1851 1852 1854 1855 1856 1857 1858 1859 1860 0
-1854 1846 1847 1848 1849 1850 1851 1852 1853 1855 1856 1857 1858 1859 1860 0
-1855 1846 1847 1848 1849 1850 1851 1852 1853 1854 1856 1857 1858 1859 1860 0
-1856 1846 1847 1848 1849 1850 1851 1852 1853 1854 1855 1857 1858 1859 1860 0
-1857 1846 1847 1848 1849 1850 1851 1852 1853 1854 1855 1856 1858 1859 1860 0
-1858 1846 1847 1848 1849 1850 1851 1852 1853 1854 1855 1856 1857 1859 1860 0
-1859 1846 1847 1848 1849 1850 1851 1852 1853 1854 1855 1856 1857 1858 1860 0
-1860 1846 1847 1848 1849 1850 1851 1852 1853 1854 1855 1856 1857 1858 1859 0
1861 -2 -42 -70 -80 0
-1861 2 0
-1861 42 0
-1861 70 0
-1861 80 0
1862 -14 -38 -42 -70 0
-1862 14 0
-1862 38 0
-1862 42 0
-1862 70 0
1863 -20 -32 -42 -70 0
-1863 20 0
-1863 32 0
-1863 42 0
-1863 70 0
-1861 1862 1863 0
-1862 1861 1863 0
-1863 1861 1862 0
1864 -2 -42 -70 -81 0
-1864 2 0
-1864 42 0
-1864 70 0
-1864 81 0
1865 -2 -48 -66 -70 0
-1865 2 0
-1865 48 0
-1865 66 0
-1865 70 0
1866 -2 -54 -60 -70 0
-1866 2 0
-1866 54 0
-1866 60 0
-1866 70 0
-1864 1865 1866 0
-1865 1864 1866 0
-1866 1864 1865 0
1867 -2 -42 -71 -79 0
-1867 2 0
-1867 42 0
-1867 71 0
-1867 79 0
1868 -11 -35 -42 -79 0
-1868 11 0
-1868 35 0
-1868 42 0
-1868 79 0
1869 -17 -29 -42 -79 0
-1869 17 0
-1869 29 0
-1869 42 0
-1869 79 0
-1867 1868 1869 0
-1868 1867 1869 0
-1869 1867 1868 0
1870 -2 -42 -71 -81 0
-1870 2 0
-1870 42 0
-1870 71 0
-1870 81 0
1871 -2 -48 -66 -71 0
-1871 2 0
-1871 48 0
-1871 66 0
-1871 71 0
1872 -2 -54 -60 -71 0
-1872 2 0
-1872 54 0
-1872 60 0
-1872 71 0
1873 -11 -35 -42 -81 0
-1873 11 0
-1873 35 0
-1873 42 0
-1873 81 0
1874 -11 -35 -48 -66 0
-1874 11 0
-1874 35 0
-1874 48 0
-1874 66 0
1875 -11 -35 -54 -60 0
-1875 11 0
-1875 35 0
-1875 54 0
-1875 60 0
1876 -17 -29 -42 -81 0
-1876 17 0
-1876 29 0
-1876 42 0
-1876 81 0
1877 -17 -29 -48 -66 0
-1877 17 0
-1877 29 0
-1877 48 0
-1877 66 0
1878 -17 -29 -54 -60 0
-1878 17 0
-1878 29 0
-1878 54 0
-1878 60 0
-1870 1871 1872 1873 1874 1875 1876 1877 1878 0
-1871 1870 1872 1873 1874 1875 1876 1877 1878 0
-1872 1870 1871 1873 1874 1875 1876 1877 1878 0
-1873 1870 1871 1872 1874 1875 1876 1877 1878 0
-1874 1870 1871 1872 1873 1875 1876 1877 1878 0
-1875 1870 1871 1872 1873 1874 1876 1877 1878 0
-1876 1870 1871 1872 1873 1874 1875 1877 1878 0
-1877 1870 1871 1872 1873 1874 1875 1876 1878 0
-1878 1870 1871 1872 1873 1874 1875 1876 1877 0
1879 -2 -42 -72 -79 0
-1879 2 0
-1879 42 0
-1879 72 0
-1879 79 0
1880 -2 -45 -63 -79 0
-1880 2 0
-1880 45 0
-1880 63 0
-1880 79 0
1881 -2 -51 -57 -79 0
-1881 2 0
-1881 51 0
-1881 57 0
-1881 79 0
-1879 1880 1881 0
-1880 1879 1881 0
-1881 1879 1880 0
1882 -2 -42 -72 -80 0
-1882 2 0
-1882 42 0
-1882 72 0
-1882 80 0
1883 -2 -45 -63 -80 0
-1883 2 0
-1883 45 0
-1883 63 0
-1883 80 0
1884 -2 -51 -57 -80 0
-1884 2 0
-1884 51 0
-1884 57 0
-1884 80 0
1885 -14 -38 -42 -72 0
-1885 14 0
-1885 38 0
-1885 42 0
-1885 72 0
1886 -14 -38 -45 -63 0
-1886 14 0
-1886 38 0
-1886 45 0
-1886 63 0
1887 -14 -38 -51 -57 0
-1887 14 0
-1887 38 0
-1887 51 0
-1887 57 0
1888 -20 -32 -42 -72 0
-1888 20 0
-1888 32 0
-1888 42 0
-1888 72 0
1889 -20 -32 -45 -63 0
-1889 20 0
-1889 32 0
-1889 45 0
-1889 63 0
1890 -20 -32 -51 -57 0
-1890 20 0
-1890 32 0
-1890 51 0
-1890 57 0
-1882 1883 1884 1885 1886 1887 1888 1889 1890 0
-1883 1882 1884 1885 1886 1887 1888 1889 1890 0
-1884 1882 1883 1885 1886 1887 1888 1889 1890 0
-1885 1882 1883 1884 1886 1887 1888 1889 1890 0
-1886 1882 1883 1884 1885 1887 1888 1889 1890 0
-1887 1882 1883 1884 1885 1886 1888 1889 1890 0
-1888 1882 1883 1884 1885 1886 1887 1889 1890 0
-1889 1882 1883 1884 1885 1886 1887 1888 1890 0
-1890 1882 1883 1884 1885 1886 1887 1888 1889 0
1891 -3 -40 -70 -80 0
-1891 3 0
-1891 40 0
-1891 70 0
-1891 80 0
1892 -3 -43 -61 -80 0
-1892 3 0
-1892 43 0
-1892 61 0
-1892 80 0
1893 -3 -49 -55 -80 0
-1893 3 0
-1893 49 0
-1893 55 0
-1893 80 0
-1891 1892 1893 0
-1892 1891 1893 0
-1893 1891 1892 0
1894 -3 -40 -70 -81 0
-1894 3 0
-1894 40 0
-1894 70 0
-1894 81 0
1895 -3 -43 -61 -81 0
-1895 3 0
-1895 43 0
-1895 61 0
-1895 81 0
1896 -3 -49 -55 -81 0
-1896 3 0
-1896 49 0
-1896 55 0
-1896 81 0
1897 -15 -39 -40 -70 0
-1897 15 0
-1897 39 0
-1897 40 0
-1897 70 0
1898 -15 -39 -43 -61 0
-1898 15 0
-1898 39 0
-1898 43 0
-1898 61 0
1899 -15 -39 -49 -55 0
-1899 15 0
-1899 39 0
-1899 49 0
-1899 55 0
1900 -21 -33 -40 -70 0
-1900 21 0
-1900 33 0
-1900 40 0
-1900 70 0
1901 -21 -33 -43 -61 0
-1901 21 0
-1901 33 0
-1901 43 0
-1901 61 0
1902 -21 -33 -49 -55 0
-1902 21 0
-1902 33 0
-1902 49 0
-1902 55 0
-1894 1895 1896 1897 1898 1899 1900 1901 1902 0
-1895 1894 1896 1897 1898 1899 1900 1901 1902 0
-1896 1894 1895 1897 1898 1899 1900 1901 1902 0
-1897 1894 1895 1896 1898 1899 1900 1901 1902 0
-1898 1894 1895 1896 1897 1899 1900 1901 1902 0
-1899 1894 1895 1896 1897 1898 1900 1901 1902 0
-1900 1894 1895 1896 1897 1898 1899 1901 1902 0
-1901 1894 1895 1896 1897 1898 1899 1900 1902 0
-1902 1894 1895 1896 1897 1898 1899 1900 1901 0
1903 -3 -40 -71 -79 0
-1903 3 0
-1903 40 0
-1903 71 0
-1903 79 0
1904 -3 -46 -64 -71 0
-1904 3 0
-1904 46 0
-1904 64 0
-1904 71 0
1905 -3 -52 -58 -71 0
-1905 3 0
-1905 52 0
-1905 58 0
-1905 71 0
-1903 1904 1905 0
-1904 1903 1905 0
-1905 1903 1904 0
1906 -3 -40 -71 -81 0
-1906 3 0
-1906 40 0
-1906 71 0
-1906 81 0
1907 -15 -39 -40 -71 0
-1907 15 0
-1907 39 0
-1907 40 0
-1907 71 0
1908 -21 -33 -40 -71 0
-1908 21 0
-1908 33 0
-1908 40 0
-1908 71 0
-1906 1907 1908 0
-1907 1906 1908 0
-1908 1906 1907 0
1909 -3 -40 -72 -79 0
-1909 3 0
-1909 40 0
-1909 72 0
-1909 79 0
1910 -3 -46 -64 -72 0
-1910 3 0
-1910 46 0
-1910 64 0
-1910 72 0
1911 -3 -52 -58 -72 0
-1911 3 0
-1911 52 0
-1911 58 0
-1911 72 0
1912 -12 -36 -40 -79 0
-1912 12 0
-1912 36 0
-1912 40 0
-1912 79 0
1913 -12 -36 -46 -64 0
-1913 12 0
-1913 36 0
-1913 46 0
-1913 64 0
1914 -12 -36 -52 -58 0
-1914 12 0
-1914 36 0
-1914 52 0
-1914 58 0
1915 -18 -30 -40 -79 0
-1915 18 0
-1915 30 0
-1915 40 0
-1915 79 0
1916 -18 -30 -46 -64 0
-1916 18 0
-1916 30 0
-1916 46 0
-1916 64 0
1917 -18 -30 -52 -58 0
-1917 18 0
-1917 30 0
-1917 52 0
-1917 58 0
-1909 1910 1911 1912 1913 1914 1915 1916 1917 0
-1910 1909 1911 1912 1913 1914 1915 1916 1917 0
-1911 1909 1910 1912 1913 1914 1915 1916 1917 0
-1912 1909 1910 1911 1913 1914 1915 1916 1917 0
-1913 1909 1910 1911 1912 1914 1915 1916 1917 0
-1914 1909 1910 1911 1912 1913 1915 1916 1917 0
-1915 1909 1910 1911 1912 1913 1914 1916 1917 0
-1916 1909 1910 1911 1912 1913 1914 1915 1917 0
-1917 1909 1910 1911 1912 1913 1914 1915 1916 0
1918 -3 -40 -72 -80 0
-1918 3 0
-1918 40 0
-1918 72 0
-1918 80 0
1919 -12 -36 -40 -80 0
-1919 12 0
-1919 36 0
-1919 40 0
-1919 80 0
1920 -18 -30 -40 -80 0
-1920 18 0
-1920 30 0
-1920 40 0
-1920 80 0
-1918 1919 1920 0
-1919 1918 1920 0
-1920 1918 1919 0
1921 -3 -41 -70 -80 0
-1921 3 0
-1921 41 0
-1921 70 0
-1921 80 0
1922 -3 -47 -65 -70 0
-1922 3 0
-1922 47 0
-1922 65 0
-1922 70 0
1923 -3 -53 -59 -70 0
-1923 3 0
-1923 53 0
-1923 59 0
-1923 70 0
-1921 1922 1923 0
-1922 1921 1923 0
-1923 1921 1922 0
1924 -3 -41 -70 -81 0
-1924 3 0
-1924 41 0
-1924 70 0
-1924 81 0
1925 -15 -39 -41 -70 0
-1925 15 0
-1925 39 0
-1925 41 0
-1925 70 0
1926 -21 -33 -41 -70 0
-1926 21 0
-1926 33 0
-1926 41 0
-1926 70 0
-1924 1925 1926 0
-1925 1924 1926 0
-1926 1924 1925 0
1927 -3 -41 -71 -79 0
-1927 3 0
-1927 41 0
-1927 71 0
-1927 79 0
1928 -3 -44 -62 -79 0
-1928 3 0
-1928 44 0
-1928 62 0
-1928 79 0
1929 -3 -50 -56 -79 0
-1929 3 0
-1929 50 0
-1929 56 0
-1929 79 0
-1927 1928 1929 0
-1928 1927 1929 0
-1929 1927 1928 0
1930 -3 -41 -71 -81 0
-1930 3 0
-1930 41 0
-1930 71 0
-1930 81 0
1931 -3 -44 -62 -81 0
-1931 3 0
-1931 44 0
-1931 62 0
-1931 81 0
1932 -3 -50 -56 -81 0
-1932 3 0
-1932 50 0
-1932 56 0
-1932 81 0
1933 -15 -39 -41 -71 0
-1933 15 0
-1933 39 0
-1933 41 0
-1933 71 0
1934 -15 -39 -44 -62 0
-1934 15 0
-1934 39 0
-1934 44 0
-1934 62 0
1935 -15 -39 -50 -56 0
-1935 15 0
-1935 39 0
-1935 50 0
-1935 56 0
1936 -21 -33 -41 -71 0
-1936 21 0
-1936 33 0
-1936 41 0
-1936 71 0
1937 -21 -33 -44 -62 0
-1937 21 0
-1937 33 0
-1937 44 0
-1937 62 0
1938 -21 -33 -50 -56 0
-1938 21 0
-1938 33 0
-1938 50 0
-1938 56 0
-1930 1931 1932 1933 1934 1935 1936 1937 1938 0
-1931 1930 1932 1933 1934 1935 1936 1937 1938 0
-1932 1930 1931 1933 1934 1935 1936 1937 1938 0
-1933 1930 1931 1932 1934 1935 1936 1937 1938 0
-1934 1930 1931 1932 1933 1935 1936 1937 1938 0
-1935 1930 1931 1932 1933 1934 1936 1937 1938 0
-1936 1930 1931 1932 1933 1934 1935 1937 1938 0
-1937 1930 1931 1932 1933 1934 1935 1936 1938 0
-1938 1930 1931 1932 1933 1934 1935 1936 1937 0
1939 -3 -41 -72 -79 0
-1939 3 0
-1939 41 0
-1939 72 0
-1939 79 0
1940 -12 -36 -41 -79 0
-1940 12 0
-1940 36 0
-1940 41 0
-1940 79 0
1941 -18 -30 -41 -79 0
-1941 18 0
-1941 30 0
-1941 41 0
-1941 79 0
-1939 1940 1941 0
-1940 1939 1941 0
-1941 1939 1940 0
1942 -3 -41 -72 -80 0
-1942 3 0
-1942 41 0
-1942 72 0
-1942 80 0
1943 -3 -47 -65 -72 0
-1943 3 0
-1943 47 0
-1943 65 0
-1943 72 0
1944 -3 -53 -59 -72 0
-1944 3 0
-1944 53 0
-1944 59 0
-1944 72 0
1945 -12 -36 -41 -80 0
-1945 12 0
-1945 36 0
-1945 41 0
-1945 80 0
1946 -12 -36 -47 -65 0
-1946 12 0
-1946 36 0
-1946 47 0
-1946 65 0
1947 -12 -36 -53 -59 0
-1947 12 0
-1947 36 0
-1947 53 0
-1947 59 0
1948 -18 -30 -41 -80 0
-1948 18 0
-1948 30 0
-1948 41 0
-1948 80 0
1949 -18 -30 -47 -65 0
-1949 18 0
-1949 30 0
-1949 47 0
-1949 65 0
1950 -18 -30 -53 -59 0
-1950 18 0
-1950 30 0
-1950 53 0
-1950 59 0
-1942 1943 1944 1945 1946 1947 1948 1949 1950 0
-1943 1942 1944 1945 1946 1947 1948 1949 1950 0
-1944 1942 1943 1945 1946 1947 1948 1949 1950 0
-1945 1942 1943 1944 1946 1947 1948 1949 1950 0
-1946 1942 1943 1944 1945 1947 1948 1949 1950 0
-1947 1942 1943 1944 1945 1946 1948 1949 1950 0
-1948 1942 1943 1944 1945 1946 1947 1949 1950 0
-1949 1942 1943 1944 1945 1946 1947 1948 1950 0
-1950 1942 1943 1944 1945 1946 1947 1948 1949 0
1951 -3 -42 -70 -80 0
-1951 3 0
-1951 42 0
-1951 70 0
-1951 80 0
1952 -6 -27 -70 -80 0
-1952 6 0
-1952 27 0
-1952 70 0
-1952 80 0
1953 -9 -24 -70 -80 0
-1953 9 0
-1953 24 0
-1953 70 0
-1953 80 0
-1951 1952 1953 0
-1952 1951 1953 0
-1953 1951 1952 0
1954 -3 -42 -70 -81 0
-1954 3 0
-1954 42 0
-1954 70 0
-1954 81 0
1955 -3 -48 -66 -70 0
-1955 3 0
-1955 48 0
-1955 66 0
-1955 70 0
1956 -3 -54 -60 -70 0
-1956 3 0
-1956 54 0
-1956 60 0
-1956 70 0
1957 -6 -27 -70 -81 0
-1957 6 0
-1957 27 0
-1957 70 0
-1957 81 0
1958 -6 -33 -66 -70 0
-1958 6 0
-1958 33 0
-1958 66 0
-1958 70 0
1959 -6 -39 -60 -70 0
-1959 6 0
-1959 39 0
-1959 60 0
-1959 70 0
1960 -9 -24 -70 -81 0
-1960 9 0
-1960 24 0
-1960 70 0
-1960 81 0
1961 -9 -33 -54 -70 0
-1961 9 0
-1961 33 0
-1961 54 0
-1961 70 0
1962 -9 -39 -48 -70 0
-1962 9 0
-1962 39 0
-1962 48 0
-1962 70 0
1963 -15 -24 -66 -70 0
-1963 15 0
-1963 24 0
-1963 66 0
-1963 70 0
1964 -15 -27 -54 -70 0
-1964 15 0
-1964 27 0
-1964 54 0
-1964 70 0
1965 -15 -39 -42 -70 0
-1965 15 0
-1965 39 0
-1965 42 0
-1965 70 0
1966 -21 -24 -60 -70 0
-1966 21 0
-1966 24 0
-1966 60 0
-1966 70 0
1967 -21 -27 -48 -70 0
-1967 21 0
-1967 27 0
-1967 48 0
-1967 70 0
1968 -21 -33 -42 -70 0
-1968 21 0
-1968 33 0
-1968 42 0
-1968 70 0
-1954 1955 1956 1957 1958 1959 1960 1961 1962 1963 1964 1965 1966 1967 1968 0
-1955 1954 1956 1957 1958 1959 1960 1961 1962 1963 1964 1965 1966 1967 1968 0
-1956 1954 1955 1957 1958 1959 1960 1961 1962 1963 1964 1965 1966 1967 1968 0
-1957 1954 1955 1956 1958 1959 1960 1961 1962 1963 1964 1965 1966 1967 1968 0
-1958 1954 1955 1956 1957 1959 1960 1961 1962 1963 1964 1965 1966 1967 1968 0
-1959 1954 1955 1956 1957 1958 1960 1961 1962 1963 1964 1965 1966 1967 1968 0
-1960 1954 1955 1956 1957 1958 1959 1961 1962 1963 1964 1965 1966 1967 1968 0
-1961 1954 1955 1956 1957 1958 1959 1960 1962 1963 1964 1965 1966 1967 1968 0
-1962 1954 1955 1956 1957 1958 1959 1960 1961 1963 1964 1965 1966 1967 1968 0
-1963 1954 1955 1956 1957 1958 1959 1960 1961 1962 1964 1965 1966 1967 1968 0
-1964 1954 1955 1956 1957 1958 1959 1960 1961 1962 1963 1965 1966 1967 1968 0
-1965 1954 1955 1956 1957 1958 1959 1960 1961 1962 1963 1964 1966 1967 1968 0
-1966 1954 1955 1956 1957 1958 1959 1960 1961 1962 1963 1964 1965 1967 1968 0
-1967 1954 1955 1956 1957 1958 1959 1960 1961 1962 1963 1964 1965 1966 1968 0
-1968 1954 1955 1956 1957 1958 1959 1960 1961 1962 1963 1964 1965 1966 1967 0
1969 -3 -42 -71 -79 0
-1969 3 0
-1969 42 0
-1969 71 0
-1969 79 0
1970 -6 -27 -71 -79 0
-1970 6 0
-1970 27 0
-1970 71 0
-1970 79 0
1971 -9 -24 -71 -79 0
-1971 9 0
-1971 24 0
-1971 71 0
-1971 79 0
-1969 1970 1971 0
-1970 1969 1971 0
-1971 1969 1970 0
1972 -3 -42 -71 -81 0
-1972 3 0
-1972 42 0
-1972 71 0
-1972 81 0
1973 -3 -48 -66 -71 0
-1973 3 0
-1973 48 0
-1973 66 0
-1973 71 0
1974 -3 -54 -60 -71 0
-1974 3 0
-1974 54 0
-1974 60 0
-1974 71 0
1975 -6 -27 -71 -81 0
-1975 6 0
-1975 27 0
-1975 71 0
-1975 81 0
1976 -6 -33 -66 -71 0
-1976 6 0
-1976 33 0
-1976 66 0
-1976 71 0
1977 -6 -39 -60 -71 0
-1977 6 0
-1977 39 0
-1977 60 0
-1977 71 0
1978 -9 -24 -71 -81 0
-1978 9 0
-1978 24 0
-1978 71 0
-1978 81 0
1979 -9 -33 -54 -71 0
-1979 9 0
-1979 33 0
-1979 54 0
-1979 71 0
1980 -9 -39 -48 -71 0
-1980 9 0
-1980 39 0
-1980 48 0
-1980 71 0
1981 -15 -24 -66 -71 0
-1981 15 0
-1981 24 0
-1981 66 0
-1981 71 0
1982 -15 -27 -54 -71 0
-1982 15 0
-1982 27 0
-1982 54 0
-1982 71 0
1983 -15 -39 -42 -71 0
-1983 15 0
-1983 39 0
-1983 42 0
-1983 71 0
1984 -21 -24 -60 -71 0
-1984 21 0
-1984 24 0
-1984 60 0
-1984 71 0
1985 -21 -27 -48 -71 0
-1985 21 0
-1985 27 0
-1985 48 0
-1985 71 0
1986 -21 -33 -42 -71 0
-1986 21 0
-1986 33 0
-1986 42 0
-1986 71 0
-1972 1973 1974 1975 1976 1977 1978 1979 1980 1981 1982 1983 1984 1985 1986 0
-1973 1972 1974 1975 1976 1977 1978 1979 1980 1981 1982 1983 1984 1985 1986 0
-1974 1972 1973 1975 1976 1977 1978 1979 1980 1981 1982 1983 1984 1985 1986 0
-1975 1972 1973 1974 1976 1977 1978 1979 1980 1981 1982 1983 1984 1985 1986 0
-1976 1972 1973 1974 1975 1977 1978 1979 1980 1981 1982 1983 1984 1985 1986 0
-1977 1972 1973 1974 1975 1976 1978 1979 1980 1981 1982 1983 1984 1985 1986 0
-1978 1972 1973 1974 1975 1976 1977 1979 1980 1981 1982 1983 1984 1985 1986 0
-1979 1972 1973 1974 1975 1976 1977 1978 1980 1981 1982 1983 1984 1985 1986 0
-1980 1972 1973 1974 1975 1976 1977 1978 1979 1981 1982 1983 1984 1985 1986 0
-1981 1972 1973 1974 1975 1976 1977 1978 1979 1980 1982 1983 1984 1985 1986 0
-1982 1972 1973 1974 1975 1976 1977 1978 1979 1980 1981 1983 1984 1985 1986 0
-1983 1972 1973 1974 1975 1976 1977 1978 1979 1980 1981 1982 1984 1985 1986 0
-1984 1972 1973 1974 1975 1976 1977 1978 1979 1980 1981 1982 1983 1985 1986 0
-1985 1972 1973 1974 1975 1976 1977 1978 1979 1980 1981 1982 1983 1984 1986 0
-1986 1972 1973 1974 1975 1976 1977 1978 1979 1980 1981 1982 1983 1984 1985 0
1987 -3 -42 -72 -79 0
-1987 3 0
-1987 42 0
-1987 72 0
-1987 79 0
1988 -3 -45 -63 -79 0
-1988 3 0
-1988 45 0
-1988 63 0
-1988 79 0
1989 -3 -51 -57 -79 0
-1989 3 0
-1989 51 0
-1989 57 0
-1989 79 0
1990 -6 -27 -72 -79 0
-1990 6 0
-1990 27 0
-1990 72 0
-1990 79 0
1991 -6 -30 -63 -79 0
-1991 6 0
-1991 30 0
-1991 63 0
-1991 79 0
1992 -6 -36 -57 -79 0
-1992 6 0
-1992 36 0
-1992 57 0
-1992 79 0
1993 -9 -24 -72 -79 0
-1993 9 0
-1993 24 0
-1993 72 0
-1993 79 0
1994 -9 -30 -51 -79 0
-1994 9 0
-1994 30 0
-1994 51 0
-1994 79 0
1995 -9 -36 -45 -79 0
-1995 9 0
-1995 36 0
-1995 45 0
-1995 79 0
1996 -12 -24 -63 -79 0
-1996 12 0
-1996 24 0
-1996 63 0
-1996 79 0
1997 -12 -27 -51 -79 0
-1997 12 0
-1997 27 0
-1997 51 0
-1997 79 0
1998 -12 -36 -42 -79 0
-1998 12 0
-1998 36 0
-1998 42 0
-1998 79 0
1999 -18 -24 -57 -79 0
-1999 18 0
-1999 24 0
-1999 57 0
-1999 79 0
2000 -18 -27 -45 -79 0
-2000 18 0
-2000 27 0
-2000 45 0
-2000 79 0
2001 -18 -30 -42 -79 0
-2001 18 0
-2001 30 0
-2001 42 0
-2001 79 0
-1987 1988 1989 1990 1991 1992 1993 1994 1995 1996 1997 1998 1999 2000 2001 0
-1988 1987 1989 1990 1991 1992 1993 1994 1995 1996 1997 1998 1999 2000 2001 0
-1989 1987 1988 1990 1991 1992 1993 1994 1995 1996 1997 1998 1999 2000 2001 0
-1990 1987 1988 1989 1991 1992 1993 1994 1995 1996 1997 1998 1999 2000 2001 0
-1991 1987 1988 1989 1990 1992 1993 1994 1995 1996 1997 1998 1999 2000 2001 0
-1992 1987 1988 1989 1990 1991 1993 1994 1995 1996 1997 1998 1999 2000 2001 0
-1993 1987 1988 1989 1990 1991 1992 1994 1995 1996 1997 1998 1999 2000 2001 0
-1994 1987 1988 1989 1990 1991 1992 1993 1995 1996 1997 1998 1999 2000 2001 0
-1995 1987 1988 1989 1990 1991 1992 1993 1994 1996 1997 1998 1999 2000 2001 0
-1996 1987 1988 1989 1990 1991 1992 1993 1994 1995 1997 1998 1999 2000 2001 0
-1997 1987 1988 1989 1990 1991 1992 1993 1994 1995 1996 1998 1999 2000 2001 0
-1998 1987 1988 1989 1990 1991 1992 1993 1994 1995 1996 1997 1999 2000 2001 0
-1999 1987 1988 1989 1990 1991 1992 1993 1994 1995 1996 1997 1998 2000 2001 0
-2000 1987 1988 1989 1990 1991 1992 1993 1994 1995 1996 1997 1998 1999 2001 0
-2001 1987 1988 1989 1990 1991 1992 1993 1994 1995 1996 1997 1998 1999 2000 0
2002 -3 -42 -72 -80 0
-2002 3 0
-2002 42 0
-2002 72 0
-2002 80 0
2003 -3 -45 -63 -80 0
-2003 3 0
-2003 45 0
-2003 63 0
-2003 80 0
2004 -3 -51 -57 -80 0
-2004 3 0
-2004 51 0
-2004 57 0
-2004 80 0
2005 -6 -27 -72 -80 0
-2005 6 0
-2005 27 0
-2005 72 0
-2005 80 0
2006 -6 -30 -63 -80 0
-2006 6 0
-2006 30 0
-2006 63 0
-2006 80 0
2007 -6 -36 -57 -80 0
-2007 6 0
-2007 36 0
-2007 57 0
-2007 80 0
2008 -9 -24 -72 -80 0
-2008 9 0
-2008 24 0
-2008 72 0
-2008 80 0
2009 -9 -30 -51 -80 0
-2009 9 0
-2009 30 0
-2009 51 0
-2009 80 0
2010 -9 -36 -45 -80 0
-2010 9 0
-2010 36 0
-2010 45 0
-2010 80 0
2011 -12 -24 -63 -80 0
-2011 12 0
-2011 24 0
-2011 63 0
-2011 80 0
2012 -12 -27 -51 -80 0
-2012 12 0
-2012 27 0
-2012 51 0
-2012 80 0
2013 -12 -36 -42 -80 0
-2013 12 0
-2013 36 0
-2013 42 0
-2013 80 0
2014 -18 -24 -57 -80 0
-2014 18 0
-2014 24 0
-2014 57 0
-2014 80 0
2015 -18 -27 -45 -80 0
-2015 18 0
-2015 27 0
-2015 45 0
-2015 80 0
2016 -18 -30 -42 -80 0
-2016 18 0
-2016 30 0
-2016 42 0
-2016 80 0
-2002 2003 2004 2005 2006 2007 2008 2009 2010 2011 2012 2013 2014 2015 2016 0
-2003 2002 2004 2005 2006 2007 2008 2009 2010 2011 2012 2013 2014 2015 2016 0
-2004 2002 2003 2005 2006 2007 2008 2009 2010 2011 2012 2013 2014 2015 2016 0
-2005 2002 2003 2004 2006 2007 2008 2009 2010 2011 2012 2013 2014 2015 2016 0
-2006 2002 2003 2004 2005 2007 2008 2009 2010 2011 2012 2013 2014 2015 2016 0
-2007 2002 2003 2004 2005 2006 2008 2009 2010 2011 2012 2013 2014 2015 2016 0
-2008 2002 2003 2004 2005 2006 2007 2009 2010 2011 2012 2013 2014 2015 2016 0
-2009 2002 2003 2004 2005 2006 2007 2008 2010 2011 2012 2013 2014 2015 2016 0
-2010 2002 2003 2004 2005 2006 2007 2008 2009 2011 2012 2013 2014 2015 2016 0
-2011 2002 2003 2004 2005 2006 2007 2008 2009 2010 2012 2013 2014 2015 2016 0
-2012 2002 2003 2004 2005 2006 2007 2008 2009 2010 2011 2013 2014 2015 2016 0
-2013 2002 2003 2004 2005 2006 2007 2008 2009 2010 2011 2012 2014 2015 2016 0
-2014 2002 2003 2004 2005 2006 2007 2008 2009 2010 2011 2012 2013 2015 2016 0
-2015 2002 2003 2004 2005 2006 2007 2008 2009 2010 2011 2012 2013 2014 2016 0
-2016 2002 2003 2004 2005 2006 2007 2008 2009 2010 2011 2012 2013 2014 2015 0
2017 -1 -40 -73 -77 0
-2017 1 0
-2017 40 0
-2017 73 0
-2017 77 0
2018 -1 -43 -64 -77 0
-2018 1 0
-2018 43 0
-2018 64 0
-2018 77 0
2019 -1 -52 -55 -77 0
-2019 1 0
-2019 52 0
-2019 55 0
-2019 77 0
2020 -4 -25 -73 -77 0
-2020 4 0
-2020 25 0
-2020 73 0
-2020 77 0
2021 -4 -28 -64 -77 0
-2021 4 0
-2021 28 0
-2021 64 0
-2021 77 0
2022 -4 -37 -55 -77 0
-2022 4 0
-2022 37 0
-2022 55 0
-2022 77 0
2023 -7 -22 -73 -77 0
-2023 7 0
-2023 22 0
-2023 73 0
-2023 77 0
2024 -7 -28 -52 -77 0
-2024 7 0
-2024 28 0
-2024 52 0
-2024 77 0
2025 -7 -37 -43 -77 0
-2025 7 0
-2025 37 0
-2025 43 0
-2025 77 0
2026 -10 -22 -64 -77 0
-2026 10 0
-2026 22 0
-2026 64 0
-2026 77 0
2027 -10 -25 -52 -77 0
-2027 10 0
-2027 25 0
-2027 52 0
-2027 77 0
2028 -10 -37 -40 -77 0
-2028 10 0
-2028 37 0
-2028 40 0
-2028 77 0
2029 -19 -22 -55 -77 0
-2029 19 0
-2029 22 0
-2029 55 0
-2029 77 0
2030 -19 -25 -43 -77 0
-2030 19 0
-2030 25 0
-2030 43 0
-2030 77 0
2031 -19 -28 -40 -77 0
-2031 19 0
-2031 28 0
-2031 40 0
-2031 77 0
-2017 2018 2019 2020 2021 2022 2023 2024 2025 2026 2027 2028 2029 2030 2031 0
-2018 2017 2019 2020 2021 2022 2023 2024 2025 2026 2027 2028 2029 2030 2031 0
-2019 2017 2018 2020 2021 2022 2023 2024 2025 2026 2027 2028 2029 2030 2031 0
-2020 2017 2018 2019 2021 2022 2023 2024 2025 2026 2027 2028 2029 2030 2031 0
-2021 2017 2018 2019 2020 2022 2023 2024 2025 2026 2027 2028 2029 2030 2031 0
-2022 2017 2018 2019 2020 2021 2023 2024 2025 2026 2027 2028 2029 2030 2031 0
-2023 2017 2018 2019 2020 2021 2022 2024 2025 2026 2027 2028 2029 2030 2031 0
-2024 2017 2018 2019 2020 2021 2022 2023 2025 2026 2027 2028 2029 2030 2031 0
-2025 2017 2018 2019 2020 2021 2022 2023 2024 2026 2027 2028 2029 2030 2031 0
-2026 2017 2018 2019 2020 2021 2022 2023 2024 2025 2027 2028 2029 2030 2031 0
-2027 2017 2018 2019 2020 2021 2022 2023 2024 2025 2026 2028 2029 2030 2031 0
-2028 2017 2018 2019 2020 2021 2022 2023 2024 2025 2026 2027 2029 2030 2031 0
-2029 2017 2018 2019 2020 2021 2022 2023 2024 2025 2026 2027 2028 2030 2031 0
-2030 2017 2018 2019 2020 2021 2022 2023 2024 2025 2026 2027 2028 2029 2031 0
-2031 2017 2018 2019 2020 2021 2022 2023 2024 2025 2026 2027 2028 2029 2030 0
2032 -1 -40 -73 -78 0
-2032 1 0
-2032 40 0
-2032 73 0
-2032 78 0
2033 -1 -43 -64 -78 0
-2033 1 0
-2033 43 0
-2033 64 0
-2033 78 0
2034 -1 -52 -55 -78 0
-2034 1 0
-2034 52 0
-2034 55 0
-2034 78 0
2035 -4 -25 -73 -78 0
-2035 4 0
-2035 25 0
-2035 73 0
-2035 78 0
2036 -4 -28 -64 -78 0
-2036 4 0
-2036 28 0
-2036 64 0
-2036 78 0
2037 -4 -37 -55 -78 0
-2037 4 0
-2037 37 0
-2037 55 0
-2037 78 0
2038 -7 -22 -73 -78 0
-2038 7 0
-2038 22 0
-2038 73 0
-2038 78 0
2039 -7 -28 -52 -78 0
-2039 7 0
-2039 28 0
-2039 52 0
-2039 78 0
2040 -7 -37 -43 -78 0
-2040 7 0
-2040 37 0
-2040 43 0
-2040 78 0
2041 -10 -22 -64 -78 0
-2041 10 0
-2041 22 0
-2041 64 0
-2041 78 0
2042 -10 -25 -52 -78 0
-2042 10 0
-2042 25 0
-2042 52 0
-2042 78 0
2043 -10 -37 -40 -78 0
-2043 10 0
-2043 37 0
-2043 40 0
-2043 78 0
2044 -19 -22 -55 -78 0
-2044 19 0
-2044 22 0
-2044 55 0
-2044 78 0
2045 -19 -25 -43 -78 0
-2045 19 0
-2045 25 0
-2045 43 0
-2045 78 0
2046 -19 -28 -40 -78 0
-2046 19 0
-2046 28 0
-2046 40 0
-2046 78 0
-2032 2033 2034 2035 2036 2037 2038 2039 2040 2041 2042 2043 2044 2045 2046 0
-2033 2032 2034 2035 2036 2037 2038 2039 2040 2041 2042 2043 2044 2045 2046 0
-2034 2032 2033 2035 2036 2037 2038 2039 2040 2041 2042 2043 2044 2045 2046 0
-2035 2032 2033 2034 2036 2037 2038 2039 2040 2041 2042 2043 2044 2045 2046 0
-2036 2032 2033 2034 2035 2037 2038 2039 2040 2041 2042 2043 2044 2045 2046 0
-2037 2032 2033 2034 2035 2036 2038 2039 2040 2041 2042 2043 2044 2045 2046 0
-2038 2032 2033 2034 2035 2036 2037 2039 2040 2041 2042 2043 2044 2045 2046 0
-2039 2032 2033 2034 2035 2036 2037 2038 2040 2041 2042 2043 2044 2045 2046 0
-2040 2032 2033 2034 2035 2036 2037 2038 2039 2041 2042 2043 2044 2045 2046 0
-2041 2032 2033 2034 2035 2036 2037 2038 2039 2040 2042 2043 2044 2045 2046 0
-2042 2032 2033 2034 2035 2036 2037 2038 2039 2040 2041 2043 2044 2045 2046 0
-2043 2032 2033 2034 2035 2036 2037 2038 2039 2040 2041 2042 2044 2045 2046 0
-2044 2032 2033 2034 2035 2036 2037 2038 2039 2040 2041 2042 2043 2045 2046 0
-2045 2032 2033 2034 2035 2036 2037 2038 2039 2040 2041 2042 2043 2044 2046 0
-2046 2032 2033 2034 2035 2036 2037 2038 2039 2040 2041 2042 2043 2044 2045 0
2047 -1 -40 -74 -76 0
-2047 1 0
-2047 40 0
-2047 74 0
-2047 76 0
2048 -1 -46 -61 -74 0
-2048 1 0
-2048 46 0
-2048 61 0
-2048 74 0
2049 -1 -49 -58 -74 0
-2049 1 0
-2049 49 0
-2049 58 0
-2049 74 0
2050 -4 -25 -74 -76 0
-2050 4 0
-2050 25 0
-2050 74 0
-2050 76 0
2051 -4 -31 -61 -74 0
-2051 4 0
-2051 31 0
-2051 61 0
-2051 74 0
2052 -4 -34 -58 -74 0
-2052 4 0
-2052 34 0
-2052 58 0
-2052 74 0
2053 -7 -22 -74 -76 0
-2053 7 0
-2053 22 0
-2053 74 0
-2053 76 0
2054 -7 -31 -49 -74 0
-2054 7 0
-2054 31 0
-2054 49 0
-2054 74 0
2055 -7 -34 -46 -74 0
-2055 7 0
-2055 34 0
-2055 46 0
-2055 74 0
2056 -13 -22 -61 -74 0
-2056 13 0
-2056 22 0
-2056 61 0
-2056 74 0
2057 -13 -25 -49 -74 0
-2057 13 0
-2057 25 0
-2057 49 0
-2057 74 0
2058 -13 -34 -40 -74 0
-2058 13 0
-2058 34 0
-2058 40 0
-2058 74 0
2059 -16 -22 -58 -74 0
-2059 16 0
-2059 22 0
-2059 58 0
-2059 74 0
2060 -16 -25 -46 -74 0
-2060 16 0
-2060 25 0
-2060 46 0
-2060 74 0
2061 -16 -31 -40 -74 0
-2061 16 0
-2061 31 0
-2061 40 0
-2061 74 0
-2047 2048 2049 2050 2051 2052 2053 2054 2055 2056 2057 2058 2059 2060 2061 0
-2048 2047 2049 2050 2051 2052 2053 2054 2055 2056 2057 2058 2059 2060 2061 0
-2049 2047 2048 2050 2051 2052 2053 2054 2055 2056 2057 2058 2059 2060 2061 0
-2050 2047 2048 2049 2051 2052 2053 2054 2055 2056 2057 2058 2059 2060 2061 0
-2051 2047 2048 2049 2050 2052 2053 2054 2055 2056 2057 2058 2059 2060 2061 0
-2052 2047 2048 2049 2050 2051 2053 2054 2055 2056 2057 2058 2059 2060 2061 0
-2053 2047 2048 2049 2050 2051 2052 2054 2055 2056 2057 2058 2059 2060 2061 0
-2054 2047 2048 2049 2050 2051 2052 2053 2055 2056 2057 2058 2059 2060 2061 0
-2055 2047 2048 2049 2050 2051 2052 2053 2054 2056 2057 2058 2059 2060 2061 0
-2056 2047 2048 2049 2050 2051 2052 2053 2054 2055 2057 2058 2059 2060 2061 0
-2057 2047 2048 2049 2050 2051 2052 2053 2054 2055 2056 2058 2059 2060 2061 0
-2058 2047 2048 2049 2050 2051 2052 2053 2054 2055 2056 2057 2059 2060 2061 0
-2059 2047 2048 2049 2050 2051 2052 2053 2054 2055 2056 2057 2058 2060 2061 0
-2060 2047 2048 2049 2050 2051 2052 2053 2054 2055 2056 2057 2058 2059 2061 0
-2061 2047 2048 2049 2050 2051 2052 2053 2054 2055 2056 2057 2058 2059 2060 0
2062 -1 -40 -74 -78 0
-2062 1 0
-2062 40 0
-2062 74 0
-2062 78 0
2063 -4 -25 -74 -78 0
-2063 4 0
-2063 25 0
-2063 74 0
-2063 78 0
2064 -7 -22 -74 -78 0
-2064 7 0
-2064 22 0
-2064 74 0
-2064 78 0
-2062 2063 2064 0
-2063 2062 2064 0
-2064 2062 2063 0
2065 -1 -40 -75 -76 0
-2065 1 0
-2065 40 0
-2065 75 0
-2065 76 0
2066 -1 -46 -61 -75 0
-2066 1 0
-2066 46 0
-2066 61 0
-2066 75 0
2067 -1 -49 -58 -75 0
-2067 1 0
-2067 49 0
-2067 58 0
-2067 75 0
2068 -4 -25 -75 -76 0
-2068 4 0
-2068 25 0
-2068 75 0
-2068 76 0
2069 -4 -31 -61 -75 0
-2069 4 0
-2069 31 0
-2069 61 0
-2069 75 0
2070 -4 -34 -58 -75 0
-2070 4 0
-2070 34 0
-2070 58 0
-2070 75 0
2071 -7 -22 -75 -76 0
-2071 7 0
-2071 22 0
-2071 75 0
-2071 76 0
2072 -7 -31 -49 -75 0
-2072 7 0
-2072 31 0
-2072 49 0
-2072 75 0
2073 -7 -34 -46 -75 0
-2073 7 0
-2073 34 0
-2073 46 0
-2073 75 0
2074 -13 -22 -61 -75 0
-2074 13 0
-2074 22 0
-2074 61 0
-2074 75 0
2075 -13 -25 -49 -75 0
-2075 13 0
-2075 25 0
-2075 49 0
-2075 75 0
2076 -13 -34 -40 -75 0
-2076 13 0
-2076 34 0
-2076 40 0
-2076 75 0
2077 -16 -22 -58 -75 0
-2077 16 0
-2077 22 0
-2077 58 0
-2077 75 0
2078 -16 -25 -46 -75 0
-2078 16 0
-2078 25 0
-2078 46 0
-2078 75 0
2079 -16 -31 -40 -75 0
-2079 16 0
-2079 31 0
-2079 40 0
-2079 75 0
-2065 2066 2067 2068 2069 2070 2071 2072 2073 2074 2075 2076 2077 2078 2079 0
-2066 2065 2067 2068 2069 2070 2071 2072 2073 2074 2075 2076 2077 2078 2079 0
-2067 2065 2066 2068 2069 2070 2071 2072 2073 2074 2075 2076 2077 2078 2079 0
-2068 2065 2066 2067 2069 2070 2071 2072 2073 2074 2075 2076 2077 2078 2079 0
-2069 2065 2066 2067 2068 2070 2071 2072 2073 2074 2075 2076 2077 2078 2079 0
-2070 2065 2066 2067 2068 2069 2071 2072 2073 2074 2075 2076 2077 2078 2079 0
-2071 2065 2066 2067 2068 2069 2070 2072 2073 2074 2075 2076 2077 2078 2079 0
-2072 2065 2066 2067 2068 2069 2070 2071 2073 2074 2075 2076 2077 2078 2079 0
-2073 2065 2066 2067 2068 2069 2070 2071 2072 2074 2075 2076 2077 2078 2079 0
-2074 2065 2066 2067 2068 2069 2070 2071 2072 2073 2075 2076 2077 2078 2079 0
-2075 2065 2066 2067 2068 2069 2070 2071 2072 2073 2074 2076 2077 2078 2079 0
-2076 2065 2066 2067 2068 2069 2070 2071 2072 2073 2074 2075 2077 2078 2079 0
-2077 2065 2066 2067 2068 2069 2070 2071 2072 2073 2074 2075 2076 2078 2079 0
-2078 2065 2066 2067 2068 2069 2070 2071 2072 2073 2074 2075 2076 2077 2079 0
-2079 2065 2066 2067 2068 2069 2070 2071 2072 2073 2074 2075 2076 2077 2078 0
2080 -1 -40 -75 -77 0
-2080 1 0
-2080 40 0
-2080 75 0
-2080 77 0
2081 -4 -25 -75 -77 0
-2081 4 0
-2081 25 0
-2081 75 0
-2081 77 0
2082 -7 -22 -75 -77 0
-2082 7 0
-2082 22 0
-2082 75 0
-2082 77 0
-2080 2081 2082 0
-2081 2080 2082 0
-2082 2080 2081 0
2083 -1 -41 -73 -77 0
-2083 1 0
-2083 41 0
-2083 73 0
-2083 77 0
2084 -1 -47 -62 -73 0
-2084 1 0
-2084 47 0
-2084 62 0
-2084 73 0
2085 -1 -50 -59 -73 0
-2085 1 0
-2085 50 0
-2085 59 0
-2085 73 0
2086 -10 -37 -41 -77 0
-2086 10 0
-2086 37 0
-2086 41 0
-2086 77 0
2087 -10 -37 -47 -62 0
-2087 10 0
-2087 37 0
-2087 47 0
-2087 62 0
2088 -10 -37 -50 -59 0
-2088 10 0
-2088 37 0
-2088 50 0
-2088 59 0
2089 -19 -28 -41 -77 0
-2089 19 0
-2089 28 0
-2089 41 0
-2089 77 0
2090 -19 -28 -47 -62 0
-2090 19 0
-2090 28 0
-2090 47 0
-2090 62 0
2091 -19 -28 -50 -59 0
-2091 19 0
-2091 28 0
-2091 50 0
-2091 59 0
-2083 2084 2085 2086 2087 2088 2089 2090 2091 0
-2084 2083 2085 2086 2087 2088 2089 2090 2091 0
-2085 2083 2084 2086 2087 2088 2089 2090 2091 0
-2086 2083 2084 2085 2087 2088 2089 2090 2091 0
-2087 2083 2084 2085 2086 2088 2089 2090 2091 0
-2088 2083 2084 2085 2086 2087 2089 2090 2091 0
-2089 2083 2084 2085 2086 2087 2088 2090 2091 0
-2090 2083 2084 2085 2086 2087 2088 2089 2091 0
-2091 2083 2084 2085 2086 2087 2088 2089 2090 0
2092 -1 -41 -73 -78 0
-2092 1 0
-2092 41 0
-2092 73 0
-2092 78 0
2093 -10 -37 -41 -78 0
-2093 10 0
-2093 37 0
-2093 41 0
-2093 78 0
2094 -19 -28 -41 -78 0
-2094 19 0
-2094 28 0
-2094 41 0
-2094 78 0
-2092 2093 2094 0
-2093 2092 2094 0
-2094 2092 2093 0
2095 -1 -41 -74 -76 0
-2095 1 0
-2095 41 0
-2095 74 0
-2095 76 0
2096 -1 -44 -65 -76 0
-2096 1 0
-2096 44 0
-2096 65 0
-2096 76 0
2097 -1 -53 -56 -76 0
-2097 1 0
-2097 53 0
-2097 56 0
-2097 76 0
2098 -13 -34 -41 -74 0
-2098 13 0
-2098 34 0
-2098 41 0
-2098 74 0
2099 -13 -34 -44 -65 0
-2099 13 0
-2099 34 0
-2099 44 0
-2099 65 0
2100 -13 -34 -53 -56 0
-2100 13 0
-2100 34 0
-2100 53 0
-2100 56 0
2101 -16 -31 -41 -74 0
-2101 16 0
-2101 31 0
-2101 41 0
-2101 74 0
2102 -16 -31 -44 -65 0
-2102 16 0
-2102 31 0
-2102 44 0
-2102 65 0
2103 -16 -31 -53 -56 0
-2103 16 0
-2103 31 0
-2103 53 0
-2103 56 0
-2095 2096 2097 2098 2099 2100 2101 2102 2103 0
-2096 2095 2097 2098 2099 2100 2101 2102 2103 0
-2097 2095 2096 2098 2099 2100 2101 2102 2103 0
-2098 2095 2096 2097 2099 2100 2101 2102 2103 0
-2099 2095 2096 2097 2098 2100 2101 2102 2103 0
-2100 2095 2096 2097 2098 2099 2101 2102 2103 0
-2101 2095 2096 2097 2098 2099 2100 2102 2103 0
-2102 2095 2096 2097 2098 2099 2100 2101 2103 0
-2103 2095 2096 2097 2098 2099 2100 2101 2102 0
2104 -1 -41 -74 -78 0
-2104 1 0
-2104 41 0
-2104 74 0
-2104 78 0
2105 -1 -44 -65 -78 0
-2105 1 0
-2105 44 0
-2105 65 0
-2105 78 0
2106 -1 -53 -56 -78 0
-2106 1 0
-2106 53 0
-2106 56 0
-2106 78 0
-2104 2105 2106 0
-2105 2104 2106 0
-2106 2104 2105 0
2107 -1 -41 -75 -76 0
-2107 1 0
-2107 41 0
-2107 75 0
-2107 76 0
2108 -13 -34 -41 -75 0
-2108 13 0
-2108 34 0
-2108 41 0
-2108 75 0
2109 -16 -31 -41 -75 0
-2109 16 0
-2109 31 0
-2109 41 0
-2109 75 0
-2107 2108 2109 0
-2108 2107 2109 0
-2109 2107 2108 0
2110 -1 -41 -75 -77 0
-2110 1 0
-2110 41 0
-2110 75 0
-2110 77 0
2111 -1 -47 -62 -75 0
-2111 1 0
-2111 47 0
-2111 62 0
-2111 75 0
2112 -1 -50 -59 -75 0
-2112 1 0
-2112 50 0
-2112 59 0
-2112 75 0
-2110 2111 2112 0
-2111 2110 2112 0
-2112 2110 2111 0
2113 -1 -42 -73 -77 0
-2113 1 0
-2113 42 0
-2113 73 0
-2113 77 0
2114 -10 -37 -42 -77 0
-2114 10 0
-2114 37 0
-2114 42 0
-2114 77 0
2115 -19 -28 -42 -77 0
-2115 19 0
-2115 28 0
-2115 42 0
-2115 77 0
-2113 2114 2115 0
-2114 2113 2115 0
-2115 2113 2114 0
2116 -1 -42 -73 -78 0
-2116 1 0
-2116 42 0
-2116 73 0
-2116 78 0
2117 -1 -48 -63 -73 0
-2117 1 0
-2117 48 0
-2117 63 0
-2117 73 0
2118 -1 -51 -60 -73 0
-2118 1 0
-2118 51 0
-2118 60 0
-2118 73 0
2119 -10 -37 -42 -78 0
-2119 10 0
-2119 37 0
-2119 42 0
-2119 78 0
2120 -10 -37 -48 -63 0
-2120 10 0
-2120 37 0
-2120 48 0
-2120 63 0
2121 -10 -37 -51 -60 0
-2121 10 0
-2121 37 0
-2121 51 0
-2121 60 0
2122 -19 -28 -42 -78 0
-2122 19 0
-2122 28 0
-2122 42 0
-2122 78 0
2123 -19 -28 -48 -63 0
-2123 19 0
-2123 28 0
-2123 48 0
-2123 63 0
2124 -19 -28 -51 -60 0
-2124 19 0
-2124 28 0
-2124 51 0
-2124 60 0
-2116 2117 2118 2119 2120 2121 2122 2123 2124 0
-2117 2116 2118 2119 2120 2121 2122 2123 2124 0
-2118 2116 2117 2119 2120 2121 2122 2123 2124 0
-2119 2116 2117 2118 2120 2121 2122 2123 2124 0
-2120 2116 2117 2118 2119 2121 2122 2123 2124 0
-2121 2116 2117 2118 2119 2120 2122 2123 2124 0
-2122 2116 2117 2118 2119 2120 2121 2123 2124 0
-2123 2116 2117 2118 2119 2120 2121 2122 2124 0
-2124 2116 2117 2118 2119 2120 2121 2122 2123 0
2125 -1 -42 -74 -76 0
-2125 1 0
-2125 42 0
-2125 74 0
-2125 76 0
2126 -13 -34 -42 -74 0
-2126 13 0
-2126 34 0
-2126 42 0
-2126 74 0
2127 -16 -31 -42 -74 0
-2127 16 0
-2127 31 0
-2127 42 0
-2127 74 0
-2125 2126 2127 0
-2126 2125 2127 0
-2127 2125 2126 0
2128 -1 -42 -74 -78 0
-2128 1 0
-2128 42 0
-2128 74 0
-2128 78 0
2129 -1 -48 -63 -74 0
-2129 1 0
-2129 48 0
-2129 63 0
-2129 74 0
2130 -1 -51 -60 -74 0
-2130 1 0
-2130 51 0
-2130 60 0
-2130 74 0
-2128 2129 2130 0
-2129 2128 2130 0
-2130 2128 2129 0
2131 -1 -42 -75 -76 0
-2131 1 0
-2131 42 0
-2131 75 0
-2131 76 0
2132 -1 -45 -66 -76 0
-2132 1 0
-2132 45 0
-2132 66 0
-2132 76 0
2133 -1 -54 -57 -76 0
-2133 1 0
-2133 54 0
-2133 57 0
-2133 76 0
2134 -13 -34 -42 -75 0
-2134 13 0
-2134 34 0
-2134 42 0
-2134 75 0
2135 -13 -34 -45 -66 0
-2135 13 0
-2135 34 0
-2135 45 0
-2135 66 0
2136 -13 -34 -54 -57 0
-2136 13 0
-2136 34 0
-2136 54 0
-2136 57 0
2137 -16 -31 -42 -75 0
-2137 16 0
-2137 31 0
-2137 42 0
-2137 75 0
2138 -16 -31 -45 -66 0
-2138 16 0
-2138 31 0
-2138 45 0
-2138 66 0
2139 -16 -31 -54 -57 0
-2139 16 0
-2139 31 0
-2139 54 0
-2139 57 0
-2131 2132 2133 2134 2135 2136 2137 2138 2139 0
-2132 2131 2133 2134 2135 2136 2137 2138 2139 0
-2133 2131 2132 2134 2135 2136 2137 2138 2139 0
-2134 2131 2132 2133 2135 2136 2137 2138 2139 0
-2135 2131 2132 2133 2134 2136 2137 2138 2139 0
-2136 2131 2132 2133 2134 2135 2137 2138 2139 0
-2137 2131 2132 2133 2134 2135 2136 2138 2139 0
-2138 2131 2132 2133 2134 2135 2136 2137 2139 0
-2139 2131 2132 2133 2134 2135 2136 2137 2138 0
2140 -1 -42 -75 -77 0
-2140 1 0
-2140 42 0
-2140 75 0
-2140 77 0
2141 -1 -45 -66 -77 0
-2141 1 0
-2141 45 0
-2141 66 0
-2141 77 0
2142 -1 -54 -57 -77 0
-2142 1 0
-2142 54 0
-2142 57 0
-2142 77 0
-2140 2141 2142 0
-2141 2140 2142 0
-2142 2140 2141 0
2143 -2 -40 -73 -77 0
-2143 2 0
-2143 40 0
-2143 73 0
-2143 77 0
2144 -2 -43 -64 -77 0
-2144 2 0
-2144 43 0
-2144 64 0
-2144 77 0
2145 -2 -52 -55 -77 0
-2145 2 0
-2145 52 0
-2145 55 0
-2145 77 0
2146 -14 -35 -40 -73 0
-2146 14 0
-2146 35 0
-2146 40 0
-2146 73 0
2147 -14 -35 -43 -64 0
-2147 14 0
-2147 35 0
-2147 43 0
-2147 64 0
2148 -14 -35 -52 -55 0
-2148 14 0
-2148 35 0
-2148 52 0
-2148 55 0
2149 -17 -32 -40 -73 0
-2149 17 0
-2149 32 0
-2149 40 0
-2149 73 0
2150 -17 -32 -43 -64 0
-2150 17 0
-2150 32 0
-2150 43 0
-2150 64 0
2151 -17 -32 -52 -55 0
-2151 17 0
-2151 32 0
-2151 52 0
-2151 55 0
-2143 2144 2145 2146 2147 2148 2149 2150 2151 0
-2144 2143 2145 2146 2147 2148 2149 2150 2151 0
-2145 2143 2144 2146 2147 2148 2149 2150 2151 0
-2146 2143 2144 2145 2147 2148 2149 2150 2151 0
-2147 2143 2144 2145 2146 2148 2149 2150 2151 0
-2148 2143 2144 2145 2146 2147 2149 2150 2151 0
-2149 2143 2144 2145 2146 2147 2148 2150 2151 0
-2150 2143 2144 2145 2146 2147 2148 2149 2151 0
-2151 2143 2144 2145 2146 2147 2148 2149 2150 0
2152 -2 -40 -73 -78 0
-2152 2 0
-2152 40 0
-2152 73 0
-2152 78 0
2153 -2 -43 -64 -78 0
-2153 2 0
-2153 43 0
-2153 64 0
-2153 78 0
2154 -2 -52 -55 -78 0
-2154 2 0
-2154 52 0
-2154 55 0
-2154 78 0
-2152 2153 2154 0
-2153 2152 2154 0
-2154 2152 2153 0
2155 -2 -40 -74 -76 0
-2155 2 0
-2155 40 0
-2155 74 0
-2155 76 0
2156 -2 -46 -61 -74 0
-2156 2 0
-2156 46 0
-2156 61 0
-2156 74 0
2157 -2 -49 -58 -74 0
-2157 2 0
-2157 49 0
-2157 58 0
-2157 74 0
2158 -11 -38 -40 -76 0
-2158 11 0
-2158 38 0
-2158 40 0
-2158 76 0
2159 -11 -38 -46 -61 0
-2159 11 0
-2159 38 0
-2159 46 0
-2159 61 0
2160 -11 -38 -49 -58 0
-2160 11 0
-2160 38 0
-2160 49 0
-2160 58 0
2161 -20 -29 -40 -76 0
-2161 20 0
-2161 29 0
-2161 40 0
-2161 76 0
2162 -20 -29 -46 -61 0
-2162 20 0
-2162 29 0
-2162 46 0
-2162 61 0
2163 -20 -29 -49 -58 0
-2163 20 0
-2163 29 0
-2163 49 0
-2163 58 0
-2155 2156 2157 2158 2159 2160 2161 2162 2163 0
-2156 2155 2157 2158 2159 2160 2161 2162 2163 0
-2157 2155 2156 2158 2159 2160 2161 2162 2163 0
-2158 2155 2156 2157 2159 2160 2161 2162 2163 0
-2159 2155 2156 2157 2158 2160 2161 2162 2163 0
-2160 2155 2156 2157 2158 2159 2161 2162 2163 0
-2161 2155 2156 2157 2158 2159 2160 2162 2163 0
-2162 2155 2156 2157 2158 2159 2160 2161 2163 0
-2163 2155 2156 2157 2158 2159 2160 2161 2162 0
2164 -2 -40 -74 -78 0
-2164 2 0
-2164 40 0
-2164 74 0
-2164 78 0
2165 -11 -38 -40 -78 0
-2165 11 0
-2165 38 0
-2165 40 0
-2165 78 0
2166 -20 -29 -40 -78 0
-2166 20 0
-2166 29 0
-2166 40 0
-2166 78 0
-2164 2165 2166 0
-2165 2164 2166 0
-2166 2164 2165 0
2167 -2 -40 -75 -76 0
-2167 2 0
-2167 40 0
-2167 75 0
-2167 76 0
2168 -2 -46 -61 -75 0
-2168 2 0
-2168 46 0
-2168 61 0
-2168 75 0
2169 -2 -49 -58 -75 0
-2169 2 0
-2169 49 0
-2169 58 0
-2169 75 0
-2167 2168 2169 0
-2168 2167 2169 0
-2169 2167 2168 0
2170 -2 -40 -75 -77 0
-2170 2 0
-2170 40 0
-2170 75 0
-2170 77 0
2171 -14 -35 -40 -75 0
-2171 14 0
-2171 35 0
-2171 40 0
-2171 75 0
2172 -17 -32 -40 -75 0
-2172 17 0
-2172 32 0
-2172 40 0
-2172 75 0
-2170 2171 2172 0
-2171 2170 2172 0
-2172 2170 2171 0
2173 -2 -41 -73 -77 0
-2173 2 0
-2173 41 0
-2173 73 0
-2173 77 0
2174 -2 -47 -62 -73 0
-2174 2 0
-2174 47 0
-2174 62 0
-2174 73 0
2175 -2 -50 -59 -73 0
-2175 2 0
-2175 50 0
-2175 59 0
-2175 73 0
2176 -5 -26 -73 -77 0
-2176 5 0
-2176 26 0
-2176 73 0
-2176 77 0
2177 -5 -32 -62 -73 0
-2177 5 0
-2177 32 0
-2177 62 0
-2177 73 0
2178 -5 -35 -59 -73 0
-2178 5 0
-2178 35 0
-2178 59 0
-2178 73 0
2179 -8 -23 -73 -77 0
-2179 8 0
-2179 23 0
-2179 73 0
-2179 77 0
2180 -8 -32 -50 -73 0
-2180 8 0
-2180 32 0
-2180 50 0
-2180 73 0
2181 -8 -35 -47 -73 0
-2181 8 0
-2181 35 0
-2181 47 0
-2181 73 0
2182 -14 -23 -62 -73 0
-2182 14 0
-2182 23 0
-2182 62 0
-2182 73 0
2183 -14 -26 -50 -73 0
-2183 14 0
-2183 26 0
-2183 50 0
-2183 73 0
2184 -14 -35 -41 -73 0
-2184 14 0
-2184 35 0
-2184 41 0
-2184 73 0
2185 -17 -23 -59 -73 0
-2185 17 0
-2185 23 0
-2185 59 0
-2185 73 0
2186 -17 -26 -47 -73 0
-2186 17 0
-2186 26 0
-2186 47 0
-2186 73 0
2187 -17 -32 -41 -73 0
-2187 17 0
-2187 32 0
-2187 41 0
-2187 73 0
-2173 2174 2175 2176 2177 2178 2179 2180 2181 2182 2183 2184 2185 2186 2187 0
-2174 2173 2175 2176 2177 2178 2179 2180 2181 2182 2183 2184 2185 2186 2187 0
-2175 2173 2174 2176 2177 2178 2179 2180 2181 2182 2183 2184 2185 2186 2187 0
-2176 2173 2174 2175 2177 2178 2179 2180 2181 2182 2183 2184 2185 2186 2187 0
-2177 2173 2174 2175 2176 2178 2179 2180 2181 2182 2183 2184 2185 2186 2187 0
-2178 2173 2174 2175 2176 2177 2179 2180 2181 2182 2183 2184 2185 2186 2187 0
-2179 2173 2174 2175 2176 2177 2178 2180 2181 2182 2183 2184 2185 2186 2187 0
-2180 2173 2174 2175 2176 2177 2178 2179 2181 2182 2183 2184 2185 2186 2187 0
-2181 2173 2174 2175 2176 2177 2178 2179 2180 2182 2183 2184 2185 2186 2187 0
-2182 2173 2174 2175 2176 2177 2178 2179 2180 2181 2183 2184 2185 2186 2187 0
-2183 2173 2174 2175 2176 2177 2178 2179 2180 2181 2182 2184 2185 2186 2187 0
-2184 2173 2174 2175 2176 2177 2178 2179 2180 2181 2182 2183 2185 2186 2187 0
-2185 2173 2174 2175 2176 2177 2178 2179 2180 2181 2182 2183 2184 2186 2187 0
-2186 2173 2174 2175 2176 2177 2178 2179 2180 2181 2182 2183 2184 2185 2187 0
-2187 2173 2174 2175 2176 2177 2178 2179 2180 2181 2182 2183 2184 2185 2186 0
2188 -2 -41 -73 -78 0
-2188 2 0
-2188 41 0
-2188 73 0
-2188 78 0
2189 -5 -26 -73 -78 0
-2189 5 0
-2189 26 0
-2189 73 0
-2189 78 0
2190 -8 -23 -73 -78 0
-2190 8 0
-2190 23 0
-2190 73 0
-2190 78 0
-2188 2189 2190 0
-2189 2188 2190 0
-2190 2188 2189 0
2191 -2 -41 -74 -76 0
-2191 2 0
-2191 41 0
-2191 74 0
-2191 76 0
2192 -2 -44 -65 -76 0
-2192 2 0
-2192 44 0
-2192 65 0
-2192 76 0
2193 -2 -53 -56 -76 0
-2193 2 0
-2193 53 0
-2193 56 0
-2193 76 0
2194 -5 -26 -74 -76 0
-2194 5 0
-2194 26 0
-2194 74 0
-2194 76 0
2195 -5 -29 -65 -76 0
-2195 5 0
-2195 29 0
-2195 65 0
-2195 76 0
2196 -5 -38 -56 -76 0
-2196 5 0
-2196 38 0
-2196 56 0
-2196 76 0
2197 -8 -23 -74 -76 0
-2197 8 0
-2197 23 0
-2197 74 0
-2197 76 0
2198 -8 -29 -53 -76 0
-2198 8 0
-2198 29 0
-2198 53 0
-2198 76 0
2199 -8 -38 -44 -76 0
-2199 8 0
-2199 38 0
-2199 44 0
-2199 76 0
2200 -11 -23 -65 -76 0
-2200 11 0
-2200 23 0
-2200 65 0
-2200 76 0
2201 -11 -26 -53 -76 0
-2201 11 0
-2201 26 0
-2201 53 0
-2201 76 0
2202 -11 -38 -41 -76 0
-2202 11 0
-2202 38 0
-2202 41 0
-2202 76 0
2203 -20 -23 -56 -76 0
-2203 20 0
-2203 23 0
-2203 56 0
-2203 76 0
2204 -20 -26 -44 -76 0
-2204 20 0
-2204 26 0
-2204 44 0
-2204 76 0
2205 -20 -29 -41 -76 0
-2205 20 0
-2205 29 0
-2205 41 0
-2205 76 0
-2191 2192 2193 2194 2195 2196 2197 2198 2199 2200 2201 2202 2203 2204 2205 0
-2192 2191 2193 2194 2195 2196 2197 2198 2199 2200 2201 2202 2203 2204 2205 0
-2193 2191 2192 2194 2195 2196 2197 2198 2199 2200 2201 2202 2203 2204 2205 0
-2194 2191 2192 2193 2195 2196 2197 2198 2199 2200 2201 2202 2203 2204 2205 0
-2195 2191 2192 2193 2194 2196 2197 2198 2199 2200 2201 2202 2203 2204 2205 0
-2196 2191 2192 2193 2194 2195 2197 2198 2199 2200 2201 2202 2203 2204 2205 0
-2197 2191 2192 2193 2194 2195 2196 2198 2199 2200 2201 2202 2203 2204 2205 0
-2198 2191 2192 2193 2194 2195 2196 2197 2199 2200 2201 2202 2203 2204 2205 0
-2199 2191 2192 2193 2194 2195 2196 2197 2198 2200 2201 2202 2203 2204 2205 0
-2200 2191 2192 2193 2194 2195 2196 2197 2198 2199 2201 2202 2203 2204 2205 0
-2201 2191 2192 2193 2194 2195 2196 2197 2198 2199 2200 2202 2203 2204 2205 0
-2202 2191 2192 2193 2194 2195 2196 2197 2198 2199 2200 2201 2203 2204 2205 0
-2203 2191 2192 2193 2194 2195 2196 2197 2198 2199 2200 2201 2202 2204 2205 0
-2204 2191 2192 2193 2194 2195 2196 2197 2198 2199 2200 2201 2202 2203 2205 0
-2205 2191 2192 2193 2194 2195 2196 2197 2198 2199 2200 2201 2202 2203 2204 0
2206 -2 -41 -74 -78 0
-2206 2 0
-2206 41 0
-2206 74 0
-2206 78 0
2207 -2 -44 -65 -78 0
-2207 2 0
-2207 44 0
-2207 65 0
-2207 78 0
2208 -2 -53 -56 -78 0
-2208 2 0
-2208 53 0
-2208 56 0
-2208 78 0
2209 -5 -26 -74 -78 0
-2209 5 0
-2209 26 0
-2209 74 0
-2209 78 0
2210 -5 -29 -65 -78 0
-2210 5 0
-2210 29 0
-2210 65 0
-2210 78 0
2211 -5 -38 -56 -78 0
-2211 5 0
-2211 38 0
-2211 56 0
-2211 78 0
2212 -8 -23 -74 -78 0
-2212 8 0
-2212 23 0
-2212 74 0
-2212 78 0
2213 -8 -29 -53 -78 0
-2213 8 0
-2213 29 0
-2213 53 0
-2213 78 0
2214 -8 -38 -44 -78 0
-2214 8 0
-2214 38 0
-2214 44 0
-2214 78 0
2215 -11 -23 -65 -78 0
-2215 11 0
-2215 23 0
-2215 65 0
-2215 78 0
2216 -11 -26 -53 -78 0
-2216 11 0
-2216 26 0
-2216 53 0
-2216 78 0
2217 -11 -38 -41 -78 0
-2217 11 0
-2217 38 0
-2217 41 0
-2217 78 0
2218 -20 -23 -56 -78 0
-2218 20 0
-2218 23 0
-2218 56 0
-2218 78 0
2219 -20 -26 -44 -78 0
-2219 20 0
-2219 26 0
-2219 44 0
-2219 78 0
2220 -20 -29 -41 -78 0
-2220 20 0
-2220 29 0
-2220 41 0
-2220 78 0
-2206 2207 2208 2209 2210 2211 2212 2213 2214 2215 2216 2217 2218 2219 2220 0
-2207 2206 2208 2209 2210 2211 2212 2213 2214 2215 2216 2217 2218 2219 2220 0
-2208 2206 2207 2209 2210 2211 2212 2213 2214 2215 2216 2217 2218 2219 2220 0
-2209 2206 2207 2208 2210 2211 2212 2213 2214 2215 2216 2217 2218 2219 2220 0
-2210 2206 2207 2208 2209 2211 2212 2213 2214 2215 2216 2217 2218 2219 2220 0
-2211 2206 2207 2208 2209 2210 2212 2213 2214 2215 2216 2217 2218 2219 2220 0
-2212 2206 2207 2208 2209 2210 2211 2213 2214 2215 2216 2217 2218 2219 2220 0
-2213 2206 2207 2208 2209 2210 2211 2212 2214 2215 2216 2217 2218 2219 2220 0
-2214 2206 2207 2208 2209 2210 2211 2212 2213 2215 2216 2217 2218 2219 2220 0
-2215 2206 2207 2208 2209 2210 2211 2212 2213 2214 2216 2217 2218 2219 2220 0
-2216 2206 2207 2208 2209 2210 2211 2212 2213 2214 2215 2217 2218 2219 2220 0
-2217 2206 2207 2208 2209 2210 2211 2212 2213 2214 2215 2216 2218 2219 2220 0
-2218 2206 2207 2208 2209 2210 2211 2212 2213 2214 2215 2216 2217 2219 2220 0
-2219 2206 2207 2208 2209 2210 2211 2212 2213 2214 2215 2216 2217 2218 2220 0
-2220 2206 2207 2208 2209 2210 2211 2212 2213 2214 2215 2216 2217 2218 2219 0
2221 -2 -41 -75 -76 0
-2221 2 0
-2221 41 0
-2221 75 0
-2221 76 0
2222 -5 -26 -75 -76 0
-2222 5 0
-2222 26 0
-2222 75 0
-2222 76 0
2223 -8 -23 -75 -76 0
-2223 8 0
-2223 23 0
-2223 75 0
-2223 76 0
-2221 2222 2223 0
-2222 2221 2223 0
-2223 2221 2222 0
2224 -2 -41 -75 -77 0
-2224 2 0
-2224 41 0
-2224 75 0
-2224 77 0
2225 -2 -47 -62 -75 0
-2225 2 0
-2225 47 0
-2225 62 0
-2225 75 0
2226 -2 -50 -59 -75 0
-2226 2 0
-2226 50 0
-2226 59 0
-2226 75 0
2227 -5 -26 -75 -77 0
-2227 5 0
-2227 26 0
-2227 75 0
-2227 77 0
2228 -5 -32 -62 -75 0
-2228 5 0
-2228 32 0
-2228 62 0
-2228 75 0
2229 -5 -35 -59 -75 0
-2229 5 0
-2229 35 0
-2229 59 0
-2229 75 0
2230 -8 -23 -75 -77 0
-2230 8 0
-2230 23 0
-2230 75 0
-2230 77 0
2231 -8 -32 -50 -75 0
-2231 8 0
-2231 32 0
-2231 50 0
-2231 75 0
2232 -8 -35 -47 -75 0
-2232 8 0
-2232 35 0
-2232 47 0
-2232 75 0
2233 -14 -23 -62 -75 0
-2233 14 0
-2233 23 0
-2233 62 0
-2233 75 0
2234 -14 -26 -50 -75 0
-2234 14 0
-2234 26 0
-2234 50 0
-2234 75 0
2235 -14 -35 -41 -75 0
-2235 14 0
-2235 35 0
-2235 41 0
-2235 75 0
2236 -17 -23 -59 -75 0
-2236 17 0
-2236 23 0
-2236 59 0
-2236 75 0
2237 -17 -26 -47 -75 0
-2237 17 0
-2237 26 0
-2237 47 0
-2237 75 0
2238 -17 -32 -41 -75 0
-2238 17 0
-2238 32 0
-2238 41 0
-2238 75 0
-2224 2225 2226 2227 2228 2229 2230 2231 2232 2233 2234 2235 2236 2237 2238 0
-2225 2224 2226 2227 2228 2229 2230 2231 2232 2233 2234 2235 2236 2237 2238 0
-2226 2224 2225 2227 2228 2229 2230 2231 2232 2233 2234 2235 2236 2237 2238 0
-2227 2224 2225 2226 2228 2229 2230 2231 2232 2233 2234 2235 2236 2237 2238 0
-2228 2224 2225 2226 2227 2229 2230 2231 2232 2233 2234 2235 2236 2237 2238 0
-2229 2224 2225 2226 2227 2228 2230 2231 2232 2233 2234 2235 2236 2237 2238 0
-2230 2224 2225 2226 2227 2228 2229 2231 2232 2233 2234 2235 2236 2237 2238 0
-2231 2224 2225 2226 2227 2228 2229 2230 2232 2233 2234 2235 2236 2237 2238 0
-2232 2224 2225 2226 2227 2228 2229 2230 2231 2233 2234 2235 2236 2237 2238 0
-2233 2224 2225 2226 2227 2228 2229 2230 2231 2232 2234 2235 2236 2237 2238 0
-2234 2224 2225 2226 2227 2228 2229 2230 2231 2232 2233 2235 2236 2237 2238 0
-2235 2224 2225 2226 2227 2228 2229 2230 2231 2232 2233 2234 2236 2237 2238 0
-2236 2224 2225 2226 2227 2228 2229 2230 2231 2232 2233 2234 2235 2237 2238 0
-2237 2224 2225 2226 2227 2228 2229 2230 2231 2232 2233 2234 2235 2236 2238 0
-2238 2224 2225 2226 2227 2228 2229 2230 2231 2232 2233 2234 2235 2236 2237 0
2239 -2 -42 -73 -77 0
-2239 2 0
-2239 42 0
-2239 73 0
-2239 77 0
2240 -14 -35 -42 -73 0
-2240 14 0
-2240 35 0
-2240 42 0
-2240 73 0
2241 -17 -32 -42 -73 0
-2241 17 0
-2241 32 0
-2241 42 0
-2241 73 0
-2239 2240 2241 0
-2240 2239 2241 0
-2241 2239 2240 0
2242 -2 -42 -73 -78 0
-2242 2 0
-2242 42 0
-2242 73 0
-2242 78 0
2243 -2 -48 -63 -73 0
-2243 2 0
-2243 48 0
-2243 63 0
-2243 73 0
2244 -2 -51 -60 -73 0
-2244 2 0
-2244 51 0
-2244 60 0
-2244 73 0
-2242 2243 2244 0
-2243 2242 2244 0
-2244 2242 2243 0
2245 -2 -42 -74 -76 0
-2245 2 0
-2245 42 0
-2245 74 0
-2245 76 0
2246 -11 -38 -42 -76 0
-2246 11 0
-2246 38 0
-2246 42 0
-2246 76 0
2247 -20 -29 -42 -76 0
-2247 20 0
-2247 29 0
-2247 42 0
-2247 76 0
-2245 2246 2247 0
-2246 2245 2247 0
-2247 2245 2246 0
2248 -2 -42 -74 -78 0
-2248 2 0
-2248 42 0
-2248 74 0
-2248 78 0
2249 -2 -48 -63 -74 0
-2249 2 0
-2249 48 0
-2249 63 0
-2249 74 0
2250 -2 -51 -60 -74 0
-2250 2 0
-2250 51 0
-2250 60 0
-2250 74 0
2251 -11 -38 -42 -78 0
-2251 11 0
-2251 38 0
-2251 42 0
-2251 78 0
2252 -11 -38 -48 -63 0
-2252 11 0
-2252 38 0
-2252 48 0
-2252 63 0
2253 -11 -38 -51 -60 0
-2253 11 0
-2253 38 0
-2253 51 0
-2253 60 0
2254 -20 -29 -42 -78 0
-2254 20 0
-2254 29 0
-2254 42 0
-2254 78 0
2255 -20 -29 -48 -63 0
-2255 20 0
-2255 29 0
-2255 48 0
-2255 63 0
2256 -20 -29 -51 -60 0
-2256 20 0
-2256 29 0
-2256 51 0
-2256 60 0
-2248 2249 2250 2251 2252 2253 2254 2255 2256 0
-2249 2248 2250 2251 2252 2253 2254 2255 2256 0
-2250 2248 2249 2251 2252 2253 2254 2255 2256 0
-2251 2248 2249 2250 2252 2253 2254 2255 2256 0
-2252 2248 2249 2250 2251 2253 2254 2255 2256 0
-2253 2248 2249 2250 2251 2252 2254 2255 2256 0
-2254 2248 2249 2250 2251 2252 2253 2255 2256 0
-2255 2248 2249 2250 2251 2252 2253 2254 2256 0
-2256 2248 2249 2250 2251 2252 2253 2254 2255 0
2257 -2 -42 -75 -76 0
-2257 2 0
-2257 42 0
-2257 75 0
-2257 76 0
2258 -2 -45 -66 -76 0
-2258 2 0
-2258 45 0
-2258 66 0
-2258 76 0
2259 -2 -54 -57 -76 0
-2259 2 0
-2259 54 0
-2259 57 0
-2259 76 0
-2257 2258 2259 0
-2258 2257 2259 0
-2259 2257 2258 0
2260 -2 -42 -75 -77 0
-2260 2 0
-2260 42 0
-2260 75 0
-2260 77 0
2261 -2 -45 -66 -77 0
-2261 2 0
-2261 45 0
-2261 66 0
-2261 77 0
2262 -2 -54 -57 -77 0
-2262 2 0
-2262 54 0
-2262 57 0
-2262 77 0
2263 -14 -35 -42 -75 0
-2263 14 0
-2263 35 0
-2263 42 0
-2263 75 0
2264 -14 -35 -45 -66 0
-2264 14 0
-2264 35 0
-2264 45 0
-2264 66 0
2265 -14 -35 -54 -57 0
-2265 14 0
-2265 35 0
-2265 54 0
-2265 57 0
2266 -17 -32 -42 -75 0
-2266 17 0
-2266 32 0
-2266 42 0
-2266 75 0
2267 -17 -32 -45 -66 0
-2267 17 0
-2267 32 0
-2267 45 0
-2267 66 0
2268 -17 -32 -54 -57 0
-2268 17 0
-2268 32 0
-2268 54 0
-2268 57 0
-2260 2261 2262 2263 2264 2265 2266 2267 2268 0
-2261 2260 2262 2263 2264 2265 2266 2267 2268 0
-2262 2260 2261 2263 2264 2265 2266 2267 2268 0
-2263 2260 2261 2262 2264 2265 2266 2267 2268 0
-2264 2260 2261 2262 2263 2265 2266 2267 2268 0
-2265 2260 2261 2262 2263 2264 2266 2267 2268 0
-2266 2260 2261 2262 2263 2264 2265 2267 2268 0
-2267 2260 2261 2262 2263 2264 2265 2266 2268 0
-2268 2260 2261 2262 2263 2264 2265 2266 2267 0
2269 -3 -40 -73 -77 0
-2269 3 0
-2269 40 0
-2269 73 0
-2269 77 0
2270 -3 -43 -64 -77 0
-2270 3 0
-2270 43 0
-2270 64 0
-2270 77 0
2271 -3 -52 -55 -77 0
-2271 3 0
-2271 52 0
-2271 55 0
-2271 77 0
-2269 2270 2271 0
-2270 2269 2271 0
-2271 2269 2270 0
2272 -3 -40 -73 -78 0
-2272 3 0
-2272 40 0
-2272 73 0
-2272 78 0
2273 -3 -43 -64 -78 0
-2273 3 0
-2273 43 0
-2273 64 0
-2273 78 0
2274 -3 -52 -55 -78 0
-2274 3 0
-2274 52 0
-2274 55 0
-2274 78 0
2275 -15 -36 -40 -73 0
-2275 15 0
-2275 36 0
-2275 40 0
-2275 73 0
2276 -15 -36 -43 -64 0
-2276 15 0
-2276 36 0
-2276 43 0
-2276 64 0
2277 -15 -36 -52 -55 0
-2277 15 0
-2277 36 0
-2277 52 0
-2277 55 0
2278 -18 -33 -40 -73 0
-2278 18 0
-2278 33 0
-2278 40 0
-2278 73 0
2279 -18 -33 -43 -64 0
-2279 18 0
-2279 33 0
-2279 43 0
-2279 64 0
2280 -18 -33 -52 -55 0
-2280 18 0
-2280 33 0
-2280 52 0
-2280 55 0
-2272 2273 2274 2275 2276 2277 2278 2279 2280 0
-2273 2272 2274 2275 2276 2277 2278 2279 2280 0
-2274 2272 2273 2275 2276 2277 2278 2279 2280 0
-2275 2272 2273 2274 2276 2277 2278 2279 2280 0
-2276 2272 2273 2274 2275 2277 2278 2279 2280 0
-2277 2272 2273 2274 2275 2276 2278 2279 2280 0
-2278 2272 2273 2274 2275 2276 2277 2279 2280 0
-2279 2272 2273 2274 2275 2276 2277 2278 2280 0
-2280 2272 2273 2274 2275 2276 2277 2278 2279 0
2281 -3 -40 -74 -76 0
-2281 3 0
-2281 40 0
-2281 74 0
-2281 76 0
2282 -3 -46 -61 -74 0
-2282 3 0
-2282 46 0
-2282 61 0
-2282 74 0
2283 -3 -49 -58 -74 0
-2283 3 0
-2283 49 0
-2283 58 0
-2283 74 0
-2281 2282 2283 0
-2282 2281 2283 0
-2283 2281 2282 0
2284 -3 -40 -74 -78 0
-2284 3 0
-2284 40 0
-2284 74 0
-2284 78 0
2285 -15 -36 -40 -74 0
-2285 15 0
-2285 36 0
-2285 40 0
-2285 74 0
2286 -18 -33 -40 -74 0
-2286 18 0
-2286 33 0
-2286 40 0
-2286 74 0
-2284 2285 2286 0
-2285 2284 2286 0
-2286 2284 2285 0
2287 -3 -40 -75 -76 0
-2287 3 0
-2287 40 0
-2287 75 0
-2287 76 0
2288 -3 -46 -61 -75 0
-2288 3 0
-2288 46 0
-2288 61 0
-2288 75 0
2289 -3 -49 -58 -75 0
-2289 3 0
-2289 49 0
-2289 58 0
-2289 75 0
2290 -12 -39 -40 -76 0
-2290 12 0
-2290 39 0
-2290 40 0
-2290 76 0
2291 -12 -39 -46 -61 0
-2291 12 0
-2291 39 0
-2291 46 0
-2291 61 0
2292 -12 -39 -49 -58 0
-2292 12 0
-2292 39 0
-2292 49 0
-2292 58 0
2293 -21 -30 -40 -76 0
-2293 21 0
-2293 30 0
-2293 40 0
-2293 76 0
2294 -21 -30 -46 -61 0
-2294 21 0
-2294 30 0
-2294 46 0
-2294 61 0
2295 -21 -30 -49 -58 0
-2295 21 0
-2295 30 0
-2295 49 0
-2295 58 0
-2287 2288 2289 2290 2291 2292 2293 2294 2295 0
-2288 2287 2289 2290 2291 2292 2293 2294 2295 0
-2289 2287 2288 2290 2291 2292 2293 2294 2295 0
-2290 2287 2288 2289 2291 2292 2293 2294 2295 0
-2291 2287 2288 2289 2290 2292 2293 2294 2295 0
-2292 2287 2288 2289 2290 2291 2293 2294 2295 0
-2293 2287 2288 2289 2290 2291 2292 2294 2295 0
-2294 2287 2288 2289 2290 2291 2292 2293 2295 0
-2295 2287 2288 2289 2290 2291 2292 2293 2294 0
2296 -3 -40 -75 -77 0
-2296 3 0
-2296 40 0
-2296 75 0
-2296 77 0
2297 -12 -39 -40 -77 0
-2297 12 0
-2297 39 0
-2297 40 0
-2297 77 0
2298 -21 -30 -40 -77 0
-2298 21 0
-2298 30 0
-2298 40 0
-2298 77 0
-2296 2297 2298 0
-2297 2296 2298 0
-2298 2296 2297 0
2299 -3 -41 -73 -77 0
-2299 3 0
-2299 41 0
-2299 73 0
-2299 77 0
2300 -3 -47 -62 -73 0
-2300 3 0
-2300 47 0
-2300 62 0
-2300 73 0
2301 -3 -50 -59 -73 0
-2301 3 0
-2301 50 0
-2301 59 0
-2301 73 0
-2299 2300 2301 0
-2300 2299 2301 0
-2301 2299 2300 0
2302 -3 -41 -73 -78 0
-2302 3 0
-2302 41 0
-2302 73 0
-2302 78 0
2303 -15 -36 -41 -73 0
-2303 15 0
-2303 36 0
-2303 41 0
-2303 73 0
2304 -18 -33 -41 -73 0
-2304 18 0
-2304 33 0
-2304 41 0
-2304 73 0
-2302 2303 2304 0
-2303 2302 2304 0
-2304 2302 2303 0
2305 -3 -41 -74 -76 0
-2305 3 0
-2305 41 0
-2305 74 0
-2305 76 0
2306 -3 -44 -65 -76 0
-2306 3 0
-2306 44 0
-2306 65 0
-2306 76 0
2307 -3 -53 -56 -76 0
-2307 3 0
-2307 53 0
-2307 56 0
-2307 76 0
-2305 2306 2307 0
-2306 2305 2307 0
-2307 2305 2306 0
2308 -3 -41 -74 -78 0
-2308 3 0
-2308 41 0
-2308 74 0
-2308 78 0
2309 -3 -44 -65 -78 0
-2309 3 0
-2309 44 0
-2309 65 0
-2309 78 0
2310 -3 -53 -56 -78 0
-2310 3 0
-2310 53 0
-2310 56 0
-2310 78 0
2311 -15 -36 -41 -74 0
-2311 15 0
-2311 36 0
-2311 41 0
-2311 74 0
2312 -15 -36 -44 -65 0
-2312 15 0
-2312 36 0
-2312 44 0
-2312 65 0
2313 -15 -36 -53 -56 0
-2313 15 0
-2313 36 0
-2313 53 0
-2313 56 0
2314 -18 -33 -41 -74 0
-2314 18 0
-2314 33 0
-2314 41 0
-2314 74 0
2315 -18 -33 -44 -65 0
-2315 18 0
-2315 33 0
-2315 44 0
-2315 65 0
2316 -18 -33 -53 -56 0
-2316 18 0
-2316 33 0
-2316 53 0
-2316 56 0
-2308 2309 2310 2311 2312 2313 2314 2315 2316 0
-2309 2308 2310 2311 2312 2313 2314 2315 2316 0
-2310 2308 2309 2311 2312 2313 2314 2315 2316 0
-2311 2308 2309 2310 2312 2313 2314 2315 2316 0
-2312 2308 2309 2310 2311 2313 2314 2315 2316 0
-2313 2308 2309 2310 2311 2312 2314 2315 2316 0
-2314 2308 2309 2310 2311 2312 2313 2315 2316 0
-2315 2308 2309 2310 2311 2312 2313 2314 2316 0
-2316 2308 2309 2310 2311 2312 2313 2314 2315 0
2317 -3 -41 -75 -76 0
-2317 3 0
-2317 41 0
-2317 75 0
-2317 76 0
2318 -12 -39 -41 -76 0
-2318 12 0
-2318 39 0
-2318 41 0
-2318 76 0
2319 -21 -30 -41 -76 0
-2319 21 0
-2319 30 0
-2319 41 0
-2319 76 0
-2317 2318 2319 0
-2318 2317 2319 0
-2319 2317 2318 0
2320 -3 -41 -75 -77 0
-2320 3 0
-2320 41 0
-2320 75 0
-2320 77 0
2321 -3 -47 -62 -75 0
-2321 3 0
-2321 47 0
-2321 62 0
-2321 75 0
2322 -3 -50 -59 -75 0
-2322 3 0
-2322 50 0
-2322 59 0
-2322 75 0
2323 -12 -39 -41 -77 0
-2323 12 0
-2323 39 0
-2323 41 0
-2323 77 0
2324 -12 -39 -47 -62 0
-2324 12 0
-2324 39 0
-2324 47 0
-2324 62 0
2325 -12 -39 -50 -59 0
-2325 12 0
-2325 39 0
-2325 50 0
-2325 59 0
2326 -21 -30 -41 -77 0
-2326 21 0
-2326 30 0
-2326 41 0
-2326 77 0
2327 -21 -30 -47 -62 0
-2327 21 0
-2327 30 0
-2327 47 0
-2327 62 0
2328 -21 -30 -50 -59 0
-2328 21 0
-2328 30 0
-2328 50 0
-2328 59 0
-2320 2321 2322 2323 2324 2325 2326 2327 2328 0
-2321 2320 2322 2323 2324 2325 2326 2327 2328 0
-2322 2320 2321 2323 2324 2325 2326 2327 2328 0
-2323 2320 2321 2322 2324 2325 2326 2327 2328 0
-2324 2320 2321 2322 2323 2325 2326 2327 2328 0
-2325 2320 2321 2322 2323 2324 2326 2327 2328 0
-2326 2320 2321 2322 2323 2324 2325 2327 2328 0
-2327 2320 2321 2322 2323 2324 2325 2326 2328 0
-2328 2320 2321 2322 2323 2324 2325 2326 2327 0
2329 -3 -42 -73 -77 0
-2329 3 0
-2329 42 0
-2329 73 0
-2329 77 0
2330 -6 -27 -73 -77 0
-2330 6 0
-2330 27 0
-2330 73 0
-2330 77 0
2331 -9 -24 -73 -77 0
-2331 9 0
-2331 24 0
-2331 73 0
-2331 77 0
-2329 2330 2331 0
-2330 2329 2331 0
-2331 2329 2330 0
2332 -3 -42 -73 -78 0
-2332 3 0
-2332 42 0
-2332 73 0
-2332 78 0
2333 -3 -48 -63 -73 0
-2333 3 0
-2333 48 0
-2333 63 0
-2333 73 0
2334 -3 -51 -60 -73 0
-2334 3 0
-2334 51 0
-2334 60 0
-2334 73 0
2335 -6 -27 -73 -78 0
-2335 6 0
-2335 27 0
-2335 73 0
-2335 78 0
2336 -6 -33 -63 -73 0
-2336 6 0
-2336 33 0
-2336 63 0
-2336 73 0
2337 -6 -36 -60 -73 0
-2337 6 0
-2337 36 0
-2337 60 0
-2337 73 0
2338 -9 -24 -73 -78 0
-2338 9 0
-2338 24 0
-2338 73 0
-2338 78 0
2339 -9 -33 -51 -73 0
-2339 9 0
-2339 33 0
-2339 51 0
-2339 73 0
2340 -9 -36 -48 -73 0
-2340 9 0
-2340 36 0
-2340 48 0
-2340 73 0
2341 -15 -24 -63 -73 0
-2341 15 0
-2341 24 0
-2341 63 0
-2341 73 0
2342 -15 -27 -51 -73 0
-2342 15 0
-2342 27 0
-2342 51 0
-2342 73 0
2343 -15 -36 -42 -73 0
-2343 15 0
-2343 36 0
-2343 42 0
-2343 73 0
2344 -18 -24 -60 -73 0
-2344 18 0
-2344 24 0
-2344 60 0
-2344 73 0
2345 -18 -27 -48 -73 0
-2345 18 0
-2345 27 0
-2345 48 0
-2345 73 0
2346 -18 -33 -42 -73 0
-2346 18 0
-2346 33 0
-2346 42 0
-2346 73 0
-2332 2333 2334 2335 2336 2337 2338 2339 2340 2341 2342 2343 2344 2345 2346 0
-2333 2332 2334 2335 2336 2337 2338 2339 2340 2341 2342 2343 2344 2345 2346 0
-2334 2332 2333 2335 2336 2337 2338 2339 2340 2341 2342 2343 2344 2345 2346 0
-2335 2332 2333 2334 2336 2337 2338 2339 2340 2341 2342 2343 2344 2345 2346 0
-2336 2332 2333 2334 2335 2337 2338 2339 2340 2341 2342 2343 2344 2345 2346 0
-2337 2332 2333 2334 2335 2336 2338 2339 2340 2341 2342 2343 2344 2345 2346 0
-2338 2332 2333 2334 2335 2336 2337 2339 2340 2341 2342 2343 2344 2345 2346 0
-2339 2332 2333 2334 2335 2336 2337 2338 2340 2341 2342 2343 2344 2345 2346 0
-2340 2332 2333 2334 2335 2336 2337 2338 2339 2341 2342 2343 2344 2345 2346 0
-2341 2332 2333 2334 2335 2336 2337 2338 2339 2340 2342 2343 2344 2345 2346 0
-2342 2332 2333 2334 2335 2336 2337 2338 2339 2340 2341 2343 2344 2345 2346 0
-2343 2332 2333 2334 2335 2336 2337 2338 2339 2340 2341 2342 2344 2345 2346 0
-2344 2332 2333 2334 2335 2336 2337 2338 2339 2340 2341 2342 2343 2345 2346 0
-2345 2332 2333 2334 2335 2336 2337 2338 2339 2340 2341 2342 2343 2344 2346 0
-2346 2332 2333 2334 2335 2336 2337 2338 2339 2340 2341 2342 2343 2344 2345 0
2347 -3 -42 -74 -76 0
-2347 3 0
-2347 42 0
-2347 74 0
-2347 76 0
2348 -6 -27 -74 -76 0
-2348 6 0
-2348 27 0
-2348 74 0
-2348 76 0
2349 -9 -24 -74 -76 0
-2349 9 0
-2349 24 0
-2349 74 0
-2349 76 0
-2347 2348 2349 0
-2348 2347 2349 0
-2349 2347 2348 0
2350 -3 -42 -74 -78 0
-2350 3 0
-2350 42 0
-2350 74 0
-2350 78 0
2351 -3 -48 -63 -74 0
-2351 3 0
-2351 48 0
-2351 63 0
-2351 74 0
2352 -3 -51 -60 -74 0
-2352 3 0
-2352 51 0
-2352 60 0
-2352 74 0
2353 -6 -27 -74 -78 0
-2353 6 0
-2353 27 0
-2353 74 0
-2353 78 0
2354 -6 -33 -63 -74 0
-2354 6 0
-2354 33 0
-2354 63 0
-2354 74 0
2355 -6 -36 -60 -74 0
-2355 6 0
-2355 36 0
-2355 60 0
-2355 74 0
2356 -9 -24 -74 -78 0
-2356 9 0
-2356 24 0
-2356 74 0
-2356 78 0
2357 -9 -33 -51 -74 0
-2357 9 0
-2357 33 0
-2357 51 0
-2357 74 0
2358 -9 -36 -48 -74 0
-2358 9 0
-2358 36 0
-2358 48 0
-2358 74 0
2359 -15 -24 -63 -74 0
-2359 15 0
-2359 24 0
-2359 63 0
-2359 74 0
2360 -15 -27 -51 -74 0
-2360 15 0
-2360 27 0
-2360 51 0
-2360 74 0
2361 -15 -36 -42 -74 0
-2361 15 0
-2361 36 0
-2361 42 0
-2361 74 0
2362 -18 -24 -60 -74 0
-2362 18 0
-2362 24 0
-2362 60 0
-2362 74 0
2363 -18 -27 -48 -74 0
-2363 18 0
-2363 27 0
-2363 48 0
-2363 74 0
2364 -18 -33 -42 -74 0
-2364 18 0
-2364 33 0
-2364 42 0
-2364 74 0
-2350 2351 2352 2353 2354 2355 2356 2357 2358 2359 2360 2361 2362 2363 2364 0
-2351 2350 2352 2353 2354 2355 2356 2357 2358 2359 2360 2361 2362 2363 2364 0
-2352 2350 2351 2353 2354 2355 2356 2357 2358 2359 2360 2361 2362 2363 2364 0
-2353 2350 2351 2352 2354 2355 2356 2357 2358 2359 2360 2361 2362 2363 2364 0
-2354 2350 2351 2352 2353 2355 2356 2357 2358 2359 2360 2361 2362 2363 2364 0
-2355 2350 2351 2352 2353 2354 2356 2357 2358 2359 2360 2361 2362 2363 2364 0
-2356 2350 2351 2352 2353 2354 2355 2357 2358 2359 2360 2361 2362 2363 2364 0
-2357 2350 2351 2352 2353 2354 2355 2356 2358 2359 2360 2361 2362 2363 2364 0
-2358 2350 2351 2352 2353 2354 2355 2356 2357 2359 2360 2361 2362 2363 2364 0
-2359 2350 2351 2352 2353 2354 2355 2356 2357 2358 2360 2361 2362 2363 2364 0
-2360 2350 2351 2352 2353 2354 2355 2356 2357 2358 2359 2361 2362 2363 2364 0
-2361 2350 2351 2352 2353 2354 2355 2356 2357 2358 2359 2360 2362 2363 2364 0
-2362 2350 2351 2352 2353 2354 2355 2356 2357 2358 2359 2360 2361 2363 2364 0
-2363 2350 2351 2352 2353 2354 2355 2356 2357 2358 2359 2360 2361 2362 2364 0
-2364 2350 2351 2352 2353 2354 2355 2356 2357 2358 2359 2360 2361 2362 2363 0
2365 -3 -42 -75 -76 0
-2365 3 0
-2365 42 0
-2365 75 0
-2365 76 0
2366 -3 -45 -66 -76 0
-2366 3 0
-2366 45 0
-2366 66 0
-2366 76 0
2367 -3 -54 -57 -76 0
-2367 3 0
-2367 54 0
-2367 57 0
-2367 76 0
2368 -6 -27 -75 -76 0
-2368 6 0
-2368 27 0
-2368 75 0
-2368 76 0
2369 -6 -30 -66 -76 0
-2369 6 0
-2369 30 0
-2369 66 0
-2369 76 0
2370 -6 -39 -57 -76 0
-2370 6 0
-2370 39 0
-2370 57 0
-2370 76 0
2371 -9 -24 -75 -76 0
-2371 9 0
-2371 24 0
-2371 75 0
-2371 76 0
2372 -9 -30 -54 -76 0
-2372 9 0
-2372 30 0
-2372 54 0
-2372 76 0
2373 -9 -39 -45 -76 0
-2373 9 0
-2373 39 0
-2373 45 0
-2373 76 0
2374 -12 -24 -66 -76 0
-2374 12 0
-2374 24 0
-2374 66 0
-2374 76 0
2375 -12 -27 -54 -76 0
-2375 12 0
-2375 27 0
-2375 54 0
-2375 76 0
2376 -12 -39 -42 -76 0
-2376 12 0
-2376 39 0
-2376 42 0
-2376 76 0
2377 -21 -24 -57 -76 0
-2377 21 0
-2377 24 0
-2377 57 0
-2377 76 0
2378 -21 -27 -45 -76 0
-2378 21 0
-2378 27 0
-2378 45 0
-2378 76 0
2379 -21 -30 -42 -76 0
-2379 21 0
-2379 30 0
-2379 42 0
-2379 76 0
-2365 2366 2367 2368 2369 2370 2371 2372 2373 2374 2375 2376 2377 2378 2379 0
-2366 2365 2367 2368 2369 2370 2371 2372 2373 2374 2375 2376 2377 2378 2379 0
-2367 2365 2366 2368 2369 2370 2371 2372 2373 2374 2375 2376 2377 2378 2379 0
-2368 2365 2366 2367 2369 2370 2371 2372 2373 2374 2375 2376 2377 2378 2379 0
-2369 2365 2366 2367 2368 2370 2371 2372 2373 2374 2375 2376 2377 2378 2379 0
-2370 2365 2366 2367 2368 2369 2371 2372 2373 2374 2375 2376 2377 2378 2379 0
-2371 2365 2366 2367 2368 2369 2370 2372 2373 2374 2375 2376 2377 2378 2379 0
-2372 2365 2366 2367 2368 2369 2370 2371 2373 2374 2375 2376 2377 2378 2379 0
-2373 2365 2366 2367 2368 2369 2370 2371 2372 2374 2375 2376 2377 2378 2379 0
-2374 2365 2366 2367 2368 2369 2370 2371 2372 2373 2375 2376 2377 2378 2379 0
-2375 2365 2366 2367 2368 2369 2370 2371 2372 2373 2374 2376 2377 2378 2379 0
-2376 2365 2366 2367 2368 2369 2370 2371 2372 2373 2374 2375 2377 2378 2379 0
-2377 2365 2366 2367 2368 2369 2370 2371 2372 2373 2374 2375 2376 2378 2379 0
-2378 2365 2366 2367 2368 2369 2370 2371 2372 2373 2374 2375 2376 2377 2379 0
-2379 2365 2366 2367 2368 2369 2370 2371 2372 2373 2374 2375 2376 2377 2378 0
2380 -3 -42 -75 -77 0
-2380 3 0
-2380 42 0
-2380 75 0
-2380 77 0
2381 -3 -45 -66 -77 0
-2381 3 0
-2381 45 0
-2381 66 0
-2381 77 0
2382 -3 -54 -57 -77 0
-2382 3 0
-2382 54 0
-2382 57 0
-2382 77 0
2383 -6 -27 -75 -77 0
-2383 6 0
-2383 27 0
-2383 75 0
-2383 77 0
2384 -6 -30 -66 -77 0
-2384 6 0
-2384 30 0
-2384 66 0
-2384 77 0
2385 -6 -39 -57 -77 0
-2385 6 0
-2385 39 0
-2385 57 0
-2385 77 0
2386 -9 -24 -75 -77 0
-2386 9 0
-2386 24 0
-2386 75 0
-2386 77 0
2387 -9 -30 -54 -77 0
-2387 9 0
-2387 30 0
-2387 54 0
-2387 77 0
2388 -9 -39 -45 -77 0
-2388 9 0
-2388 39 0
-2388 45 0
-2388 77 0
2389 -12 -24 -66 -77 0
-2389 12 0
-2389 24 0
-2389 66 0
-2389 77 0
2390 -12 -27 -54 -77 0
-2390 12 0
-2390 27 0
-2390 54 0
-2390 77 0
2391 -12 -39 -42 -77 0
-2391 12 0
-2391 39 0
-2391 42 0
-2391 77 0
2392 -21 -24 -57 -77 0
-2392 21 0
-2392 24 0
-2392 57 0
-2392 77 0
2393 -21 -27 -45 -77 0
-2393 21 0
-2393 27 0
-2393 45 0
-2393 77 0
2394 -21 -30 -42 -77 0
-2394 21 0
-2394 30 0
-2394 42 0
-2394 77 0
-2380 2381 2382 2383 2384 2385 2386 2387 2388 2389 2390 2391 2392 2393 2394 0
-2381 2380 2382 2383 2384 2385 2386 2387 2388 2389 2390 2391 2392 2393 2394 0
-2382 2380 2381 2383 2384 2385 2386 2387 2388 2389 2390 2391 2392 2393 2394 0
-2383 2380 2381 2382 2384 2385 2386 2387 2388 2389 2390 2391 2392 2393 2394 0
-2384 2380 2381 2382 2383 2385 2386 2387 2388 2389 2390 2391 2392 2393 2394 0
-2385 2380 2381 2382 2383 2384 2386 2387 2388 2389 2390 2391 2392 2393 2394 0
-2386 2380 2381 2382 2383 2384 2385 2387 2388 2389 2390 2391 2392 2393 2394 0
-2387 2380 2381 2382 2383 2384 2385 2386 2388 2389 2390 2391 2392 2393 2394 0
-2388 2380 2381 2382 2383 2384 2385 2386 2387 2389 2390 2391 2392 2393 2394 0
-2389 2380 2381 2382 2383 2384 2385 2386 2387 2388 2390 2391 2392 2393 2394 0
-2390 2380 2381 2382 2383 2384 2385 2386 2387 2388 2389 2391 2392 2393 2394 0
-2391 2380 2381 2382 2383 2384 2385 2386 2387 2388 2389 2390 2392 2393 2394 0
-2392 2380 2381 2382 2383 2384 2385 2386 2387 2388 2389 2390 2391 2393 2394 0
-2393 2380 2381 2382 2383 2384 2385 2386 2387 2388 2389 2390 2391 2392 2394 0
-2394 2380 2381 2382 2383 2384 2385 2386 2387 2388 2389 2390 2391 2392 2393 0
2395 -1 -43 -59 -82 0
-2395 1 0
-2395 43 0
-2395 59 0
-2395 82 0
2396 -1 -49 -59 -73 0
-2396 1 0
-2396 49 0
-2396 59 0
-2396 73 0
2397 -1 -52 -59 -70 0
-2397 1 0
-2397 52 0
-2397 59 0
-2397 70 0
2398 -4 -28 -59 -82 0
-2398 4 0
-2398 28 0
-2398 59 0
-2398 82 0
2399 -4 -34 -59 -73 0
-2399 4 0
-2399 34 0
-2399 59 0
-2399 73 0
2400 -4 -37 -59 -70 0
-2400 4 0
-2400 37 0
-2400 59 0
-2400 70 0
2401 -10 -22 -59 -82 0
-2401 10 0
-2401 22 0
-2401 59 0
-2401 82 0
2402 -10 -34 -52 -59 0
-2402 10 0
-2402 34 0
-2402 52 0
-2402 59 0
2403 -10 -37 -49 -59 0
-2403 10 0
-2403 37 0
-2403 49 0
-2403 59 0
2404 -16 -22 -59 -73 0
-2404 16 0
-2404 22 0
-2404 59 0
-2404 73 0
2405 -16 -28 -52 -59 0
-2405 16 0
-2405 28 0
-2405 52 0
-2405 59 0
2406 -16 -37 -43 -59 0
-2406 16 0
-2406 37 0
-2406 43 0
-2406 59 0
2407 -19 -22 -59 -70 0
-2407 19 0
-2407 22 0
-2407 59 0
-2407 70 0
2408 -19 -28 -49 -59 0
-2408 19 0
-2408 28 0
-2408 49 0
-2408 59 0
2409 -19 -34 -43 -59 0
-2409 19 0
-2409 34 0
-2409 43 0
-2409 59 0
-2395 2396 2397 2398 2399 2400 2401 2402 2403 2404 2405 2406 2407 2408 2409 0
-2396 2395 2397 2398 2399 2400 2401 2402 2403 2404 2405 2406 2407 2408 2409 0
-2397 2395 2396 2398 2399 2400 2401 2402 2403 2404 2405 2406 2407 2408 2409 0
-2398 2395 2396 2397 2399 2400 2401 2402 2403 2404 2405 2406 2407 2408 2409 0
-2399 2395 2396 2397 2398 2400 2401 2402 2403 2404 2405 2406 2407 2408 2409 0
-2400 2395 2396 2397 2398 2399 2401 2402 2403 2404 2405 2406 2407 2408 2409 0
-2401 2395 2396 2397 2398 2399 2400 2402 2403 2404 2405 2406 2407 2408 2409 0
-2402 2395 2396 2397 2398 2399 2400 2401 2403 2404 2405 2406 2407 2408 2409 0
-2403 2395 2396 2397 2398 2399 2400 2401 2402 2404 2405 2406 2407 2408 2409 0
-2404 2395 2396 2397 2398 2399 2400 2401 2402 2403 2405 2406 2407 2408 2409 0
-2405 2395 2396 2397 2398 2399 2400 2401 2402 2403 2404 2406 2407 2408 2409 0
-2406 2395 2396 2397 2398 2399 2400 2401 2402 2403 2404 2405 2407 2408 2409 0
-2407 2395 2396 2397 2398 2399 2400 2401 2402 2403 2404 2405 2406 2408 2409 0
-2408 2395 2396 2397 2398 2399 2400 2401 2402 2403 2404 2405 2406 2407 2409 0
-2409 2395 2396 2397 2398 2399 2400 2401 2402 2403 2404 2405 2406 2407 2408 0
2410 -1 -43 -59 -83 0
-2410 1 0
-2410 43 0
-2410 59 0
-2410 83 0
2411 -1 -43 -62 -80 0
-2411 1 0
-2411 43 0
-2411 62 0
-2411 80 0
2412 -1 -43 -65 -77 0
-2412 1 0
-2412 43 0
-2412 65 0
-2412 77 0
2413 -4 -28 -59 -83 0
-2413 4 0
-2413 28 0
-2413 59 0
-2413 83 0
2414 -4 -28 -62 -80 0
-2414 4 0
-2414 28 0
-2414 62 0
-2414 80 0
2415 -4 -28 -65 -77 0
-2415 4 0
-2415 28 0
-2415 65 0
-2415 77 0
2416 -10 -22 -59 -83 0
-2416 10 0
-2416 22 0
-2416 59 0
-2416 83 0
2417 -10 -22 -62 -80 0
-2417 10 0
-2417 22 0
-2417 62 0
-2417 80 0
2418 -10 -22 -65 -77 0
-2418 10 0
-2418 22 0
-2418 65 0
-2418 77 0
-2410 2411 2412 2413 2414 2415 2416 2417 2418 0
-2411 2410 2412 2413 2414 2415 2416 2417 2418 0
-2412 2410 2411 2413 2414 2415 2416 2417 2418 0
-2413 2410 2411 2412 2414 2415 2416 2417 2418 0
-2414 2410 2411 2412 2413 2415 2416 2417 2418 0
-2415 2410 2411 2412 2413 2414 2416 2417 2418 0
-2416 2410 2411 2412 2413 2414 2415 2417 2418 0
-2417 2410 2411 2412 2413 2414 2415 2416 2418 0
-2418 2410 2411 2412 2413 2414 2415 2416 2417 0
2419 -1 -43 -59 -84 0
-2419 1 0
-2419 43 0
-2419 59 0
-2419 84 0
2420 -4 -28 -59 -84 0
-2420 4 0
-2420 28 0
-2420 59 0
-2420 84 0
2421 -10 -22 -59 -84 0
-2421 10 0
-2421 22 0
-2421 59 0
-2421 84 0
-2419 2420 2421 0
-2420 2419 2421 0
-2421 2419 2420 0
2422 -1 -43 -60 -82 0
-2422 1 0
-2422 43 0
-2422 60 0
-2422 82 0
2423 -1 -49 -60 -73 0
-2423 1 0
-2423 49 0
-2423 60 0
-2423 73 0
2424 -1 -52 -60 -70 0
-2424 1 0
-2424 52 0
-2424 60 0
-2424 70 0
2425 -4 -28 -60 -82 0
-2425 4 0
-2425 28 0
-2425 60 0
-2425 82 0
2426 -4 -34 -60 -73 0
-2426 4 0
-2426 34 0
-2426 60 0
-2426 73 0
2427 -4 -37 -60 -70 0
-2427 4 0
-2427 37 0
-2427 60 0
-2427 70 0
2428 -10 -22 -60 -82 0
-2428 10 0
-2428 22 0
-2428 60 0
-2428 82 0
2429 -10 -34 -52 -60 0
-2429 10 0
-2429 34 0
-2429 52 0
-2429 60 0
2430 -10 -37 -49 -60 0
-2430 10 0
-2430 37 0
-2430 49 0
-2430 60 0
2431 -16 -22 -60 -73 0
-2431 16 0
-2431 22 0
-2431 60 0
-2431 73 0
2432 -16 -28 -52 -60 0
-2432 16 0
-2432 28 0
-2432 52 0
-2432 60 0
2433 -16 -37 -43 -60 0
-2433 16 0
-2433 37 0
-2433 43 0
-2433 60 0
2434 -19 -22 -60 -70 0
-2434 19 0
-2434 22 0
-2434 60 0
-2434 70 0
2435 -19 -28 -49 -60 0
-2435 19 0
-2435 28 0
-2435 49 0
-2435 60 0
2436 -19 -34 -43 -60 0
-2436 19 0
-2436 34 0
-2436 43 0
-2436 60 0
-2422 2423 2424 2425 2426 2427 2428 2429 2430 2431 2432 2433 2434 2435 2436 0
-2423 2422 2424 2425 2426 2427 2428 2429 2430 2431 2432 2433 2434 2435 2436 0
-2424 2422 2423 2425 2426 2427 2428 2429 2430 2431 2432 2433 2434 2435 2436 0
-2425 2422 2423 2424 2426 2427 2428 2429 2430 2431 2432 2433 2434 2435 2436 0
-2426 2422 2423 2424 2425 2427 2428 2429 2430 2431 2432 2433 2434 2435 2436 0
-2427 2422 2423 2424 2425 2426 2428 2429 2430 2431 2432 2433 2434 2435 2436 0
-2428 2422 2423 2424 2425 2426 2427 2429 2430 2431 2432 2433 2434 2435 2436 0
-2429 2422 2423 2424 2425 2426 2427 2428 2430 2431 2432 2433 2434 2435 2436 0
-2430 2422 2423 2424 2425 2426 2427 2428 2429 2431 2432 2433 2434 2435 2436 0
-2431 2422 2423 2424 2425 2426 2427 2428 2429 2430 2432 2433 2434 2435 2436 0
-2432 2422 2423 2424 2425 2426 2427 2428 2429 2430 2431 2433 2434 2435 2436 0
-2433 2422 2423 2424 2425 2426 2427 2428 2429 2430 2431 2432 2434 2435 2436 0
-2434 2422 2423 2424 2425 2426 2427 2428 2429 2430 2431 2432 2433 2435 2436 0
-2435 2422 2423 2424 2425 2426 2427 2428 2429 2430 2431 2432 2433 2434 2436 0
-2436 2422 2423 2424 2425 2426 2427 2428 2429 2430 2431 2432 2433 2434 2435 0
2437 -1 -43 -60 -83 0
-2437 1 0
-2437 43 0
-2437 60 0
-2437 83 0
2438 -4 -28 -60 -83 0
-2438 4 0
-2438 28 0
-2438 60 0
-2438 83 0
2439 -10 -22 -60 -83 0
-2439 10 0
-2439 22 0
-2439 60 0
-2439 83 0
-2437 2438 2439 0
-2438 2437 2439 0
-2439 2437 2438 0
2440 -1 -43 -60 -84 0
-2440 1 0
-2440 43 0
-2440 60 0
-2440 84 0
2441 -1 -43 -63 -81 0
-2441 1 0
-2441 43 0
-2441 63 0
-2441 81 0
2442 -1 -43 -66 -78 0
-2442 1 0
-2442 43 0
-2442 66 0
-2442 78 0
2443 -4 -28 -60 -84 0
-2443 4 0
-2443 28 0
-2443 60 0
-2443 84 0
2444 -4 -28 -63 -81 0
-2444 4 0
-2444 28 0
-2444 63 0
-2444 81 0
2445 -4 -28 -66 -78 0
-2445 4 0
-2445 28 0
-2445 66 0
-2445 78 0
2446 -10 -22 -60 -84 0
-2446 10 0
-2446 22 0
-2446 60 0
-2446 84 0
2447 -10 -22 -63 -81 0
-2447 10 0
-2447 22 0
-2447 63 0
-2447 81 0
2448 -10 -22 -66 -78 0
-2448 10 0
-2448 22 0
-2448 66 0
-2448 78 0
-2440 2441 2442 2443 2444 2445 2446 2447 2448 0
-2441 2440 2442 2443 2444 2445 2446 2447 2448 0
-2442 2440 2441 2443 2444 2445 2446 2447 2448 0
-2443 2440 2441 2442 2444 2445 2446 2447 2448 0
-2444 2440 2441 2442 2443 2445 2446 2447 2448 0
-2445 2440 2441 2442 2443 2444 2446 2447 2448 0
-2446 2440 2441 2442 2443 2444 2445 2447 2448 0
-2447 2440 2441 2442 2443 2444 2445 2446 2448 0
-2448 2440 2441 2442 2443 2444 2445 2446 2447 0
2449 -1 -44 -58 -82 0
-2449 1 0
-2449 44 0
-2449 58 0
-2449 82 0
2450 -1 -44 -61 -79 0
-2450 1 0
-2450 44 0
-2450 61 0
-2450 79 0
2451 -1 -44 -64 -76 0
-2451 1 0
-2451 44 0
-2451 64 0
-2451 76 0
2452 -7 -31 -44 -82 0
-2452 7 0
-2452 31 0
-2452 44 0
-2452 82 0
2453 -7 -34 -44 -79 0
-2453 7 0
-2453 34 0
-2453 44 0
-2453 79 0
2454 -7 -37 -44 -76 0
-2454 7 0
-2454 37 0
-2454 44 0
-2454 76 0
2455 -13 -25 -44 -82 0
-2455 13 0
-2455 25 0
-2455 44 0
-2455 82 0
2456 -13 -34 -44 -64 0
-2456 13 0
-2456 34 0
-2456 44 0
-2456 64 0
2457 -13 -37 -44 -61 0
-2457 13 0
-2457 37 0
-2457 44 0
-2457 61 0
2458 -16 -25 -44 -79 0
-2458 16 0
-2458 25 0
-2458 44 0
-2458 79 0
2459 -16 -31 -44 -64 0
-2459 16 0
-2459 31 0
-2459 44 0
-2459 64 0
2460 -16 -37 -44 -58 0
-2460 16 0
-2460 37 0
-2460 44 0
-2460 58 0
2461 -19 -25 -44 -76 0
-2461 19 0
-2461 25 0
-2461 44 0
-2461 76 0
2462 -19 -31 -44 -61 0
-2462 19 0
-2462 31 0
-2462 44 0
-2462 61 0
2463 -19 -34 -44 -58 0
-2463 19 0
-2463 34 0
-2463 44 0
-2463 58 0
-2449 2450 2451 2452 2453 2454 2455 2456 2457 2458 2459 2460 2461 2462 2463 0
-2450 2449 2451 2452 2453 2454 2455 2456 2457 2458 2459 2460 2461 2462 2463 0
-2451 2449 2450 2452 2453 2454 2455 2456 2457 2458 2459 2460 2461 2462 2463 0
-2452 2449 2450 2451 2453 2454 2455 2456 2457 2458 2459 2460 2461 2462 2463 0
-2453 2449 2450 2451 2452 2454 2455 2456 2457 2458 2459 2460 2461 2462 2463 0
-2454 2449 2450 2451 2452 2453 2455 2456 2457 2458 2459 2460 2461 2462 2463 0
-2455 2449 2450 2451 2452 2453 2454 2456 2457 2458 2459 2460 2461 2462 2463 0
-2456 2449 2450 2451 2452 2453 2454 2455 2457 2458 2459 2460 2461 2462 2463 0
-2457 2449 2450 2451 2452 2453 2454 2455 2456 2458 2459 2460 2461 2462 2463 0
-2458 2449 2450 2451 2452 2453 2454 2455 2456 2457 2459 2460 2461 2462 2463 0
-2459 2449 2450 2451 2452 2453 2454 2455 2456 2457 2458 2460 2461 2462 2463 0
-2460 2449 2450 2451 2452 2453 2454 2455 2456 2457 2458 2459 2461 2462 2463 0
-2461 2449 2450 2451 2452 2453 2454 2455 2456 2457 2458 2459 2460 2462 2463 0
-2462 2449 2450 2451 2452 2453 2454 2455 2456 2457 2458 2459 2460 2461 2463 0
-2463 2449 2450 2451 2452 2453 2454 2455 2456 2457 2458 2459 2460 2461 2462 0
2464 -1 -44 -58 -83 0
-2464 1 0
-2464 44 0
-2464 58 0
-2464 83 0
2465 -1 -50 -58 -74 0
-2465 1 0
-2465 50 0
-2465 58 0
-2465 74 0
2466 -1 -53 -58 -71 0
-2466 1 0
-2466 53 0
-2466 58 0
-2466 71 0
2467 -7 -31 -44 -83 0
-2467 7 0
-2467 31 0
-2467 44 0
-2467 83 0
2468 -7 -31 -50 -74 0
-2468 7 0
-2468 31 0
-2468 50 0
-2468 74 0
2469 -7 -31 -53 -71 0
-2469 7 0
-2469 31 0
-2469 53 0
-2469 71 0
2470 -13 -25 -44 -83 0
-2470 13 0
-2470 25 0
-2470 44 0
-2470 83 0
2471 -13 -25 -50 -74 0
-2471 13 0
-2471 25 0
-2471 50 0
-2471 74 0
2472 -13 -25 -53 -71 0
-2472 13 0
-2472 25 0
-2472 53 0
-2472 71 0
-2464 2465 2466 2467 2468 2469 2470 2471 2472 0
-2465 2464 2466 2467 2468 2469 2470 2471 2472 0
-2466 2464 2465 2467 2468 2469 2470 2471 2472 0
-2467 2464 2465 2466 2468 2469 2470 2471 2472 0
-2468 2464 2465 2466 2467 2469 2470 2471 2472 0
-2469 2464 2465 2466 2467 2468 2470 2471 2472 0
-2470 2464 2465 2466 2467 2468 2469 2471 2472 0
-2471 2464 2465 2466 2467 2468 2469 2470 2472 0
-2472 2464 2465 2466 2467 2468 2469 2470 2471 0
2473 -1 -44 -58 -84 0
-2473 1 0
-2473 44 0
-2473 58 0
-2473 84 0
2474 -7 -31 -44 -84 0
-2474 7 0
-2474 31 0
-2474 44 0
-2474 84 0
2475 -13 -25 -44 -84 0
-2475 13 0
-2475 25 0
-2475 44 0
-2475 84 0
-2473 2474 2475 0
-2474 2473 2475 0
-2475 2473 2474 0
2476 -1 -44 -60 -82 0
-2476 1 0
-2476 44 0
-2476 60 0
-2476 82 0
2477 -16 -37 -44 -60 0
-2477 16 0
-2477 37 0
-2477 44 0
-2477 60 0
2478 -19 -34 -44 -60 0
-2478 19 0
-2478 34 0
-2478 44 0
-2478 60 0
-2476 2477 2478 0
-2477 2476 2478 0
-2478 2476 2477 0
2479 -1 -44 -60 -83 0
-2479 1 0
-2479 44 0
-2479 60 0
-2479 83 0
2480 -1 -50 -60 -74 0
-2480 1 0
-2480 50 0
-2480 60 0
-2480 74 0
2481 -1 -53 -60 -71 0
-2481 1 0
-2481 53 0
-2481 60 0
-2481 71 0
-2479 2480 2481 0
-2480 2479 2481 0
-2481 2479 2480 0
2482 -1 -44 -60 -84 0
-2482 1 0
-2482 44 0
-2482 60 0
-2482 84 0
2483 -1 -44 -63 -81 0
-2483 1 0
-2483 44 0
-2483 63 0
-2483 81 0
2484 -1 -44 -66 -78 0
-2484 1 0
-2484 44 0
-2484 66 0
-2484 78 0
-2482 2483 2484 0
-2483 2482 2484 0
-2484 2482 2483 0
2485 -1 -45 -58 -82 0
-2485 1 0
-2485 45 0
-2485 58 0
-2485 82 0
2486 -1 -45 -61 -79 0
-2486 1 0
-2486 45 0
-2486 61 0
-2486 79 0
2487 -1 -45 -64 -76 0
-2487 1 0
-2487 45 0
-2487 64 0
-2487 76 0
2488 -7 -31 -45 -82 0
-2488 7 0
-2488 31 0
-2488 45 0
-2488 82 0
2489 -7 -34 -45 -79 0
-2489 7 0
-2489 34 0
-2489 45 0
-2489 79 0
2490 -7 -37 -45 -76 0
-2490 7 0
-2490 37 0
-2490 45 0
-2490 76 0
2491 -13 -25 -45 -82 0
-2491 13 0
-2491 25 0
-2491 45 0
-2491 82 0
2492 -13 -34 -45 -64 0
-2492 13 0
-2492 34 0
-2492 45 0
-2492 64 0
2493 -13 -37 -45 -61 0
-2493 13 0
-2493 37 0
-2493 45 0
-2493 61 0
2494 -16 -25 -45 -79 0
-2494 16 0
-2494 25 0
-2494 45 0
-2494 79 0
2495 -16 -31 -45 -64 0
-2495 16 0
-2495 31 0
-2495 45 0
-2495 64 0
2496 -16 -37 -45 -58 0
-2496 16 0
-2496 37 0
-2496 45 0
-2496 58 0
2497 -19 -25 -45 -76 0
-2497 19 0
-2497 25 0
-2497 45 0
-2497 76 0
2498 -19 -31 -45 -61 0
-2498 19 0
-2498 31 0
-2498 45 0
-2498 61 0
2499 -19 -34 -45 -58 0
-2499 19 0
-2499 34 0
-2499 45 0
-2499 58 0
-2485 2486 2487 2488 2489 2490 2491 2492 2493 2494 2495 2496 2497 2498 2499 0
-2486 2485 2487 2488 2489 2490 2491 2492 2493 2494 2495 2496 2497 2498 2499 0
-2487 2485 2486 2488 2489 2490 2491 2492 2493 2494 2495 2496 2497 2498 2499 0
-2488 2485 2486 2487 2489 2490 2491 2492 2493 2494 2495 2496 2497 2498 2499 0
-2489 2485 2486 2487 2488 2490 2491 2492 2493 2494 2495 2496 2497 2498 2499 0
-2490 2485 2486 2487 2488 2489 2491 2492 2493 2494 2495 2496 2497 2498 2499 0
-2491 2485 2486 2487 2488 2489 2490 2492 2493 2494 2495 2496 2497 2498 2499 0
-2492 2485 2486 2487 2488 2489 2490 2491 2493 2494 2495 2496 2497 2498 2499 0
-2493 2485 2486 2487 2488 2489 2490 2491 2492 2494 2495 2496 2497 2498 2499 0
-2494 2485 2486 2487 2488 2489 2490 2491 2492 2493 2495 2496 2497 2498 2499 0
-2495 2485 2486 2487 2488 2489 2490 2491 2492 2493 2494 2496 2497 2498 2499 0
-2496 2485 2486 2487 2488 2489 2490 2491 2492 2493 2494 2495 2497 2498 2499 0
-2497 2485 2486 2487 2488 2489 2490 2491 2492 2493 2494 2495 2496 2498 2499 0
-2498 2485 2486 2487 2488 2489 2490 2491 2492 2493 2494 2495 2496 2497 2499 0
-2499 2485 2486 2487 2488 2489 2490 2491 2492 2493 2494 2495 2496 2497 2498 0
2500 -1 -45 -58 -83 0
-2500 1 0
-2500 45 0
-2500 58 0
-2500 83 0
2501 -7 -31 -45 -83 0
-2501 7 0
-2501 31 0
-2501 45 0
-2501 83 0
2502 -13 -25 -45 -83 0
-2502 13 0
-2502 25 0
-2502 45 0
-2502 83 0
-2500 2501 2502 0
-2501 2500 2502 0
-2502 2500 2501 0
2503 -1 -45 -58 -84 0
-2503 1 0
-2503 45 0
-2503 58 0
-2503 84 0
2504 -1 -51 -58 -75 0
-2504 1 0
-2504 51 0
-2504 58 0
-2504 75 0
2505 -1 -54 -58 -72 0
-2505 1 0
-2505 54 0
-2505 58 0
-2505 72 0
2506 -7 -31 -45 -84 0
-2506 7 0
-2506 31 0
-2506 45 0
-2506 84 0
2507 -7 -31 -51 -75 0
-2507 7 0
-2507 31 0
-2507 51 0
-2507 75 0
2508 -7 -31 -54 -72 0
-2508 7 0
-2508 31 0
-2508 54 0
-2508 72 0
2509 -13 -25 -45 -84 0
-2509 13 0
-2509 25 0
-2509 45 0
-2509 84 0
2510 -13 -25 -51 -75 0
-2510 13 0
-2510 25 0
-2510 51 0
-2510 75 0
2511 -13 -25 -54 -72 0
-2511 13 0
-2511 25 0
-2511 54 0
-2511 72 0
-2503 2504 2505 2506 2507 2508 2509 2510 2511 0
-2504 2503 2505 2506 2507 2508 2509 2510 2511 0
-2505 2503 2504 2506 2507 2508 2509 2510 2511 0
-2506 2503 2504 2505 2507 2508 2509 2510 2511 0
-2507 2503 2504 2505 2506 2508 2509 2510 2511 0
-2508 2503 2504 2505 2506 2507 2509 2510 2511 0
-2509 2503 2504 2505 2506 2507 2508 2510 2511 0
-2510 2503 2504 2505 2506 2507 2508 2509 2511 0
-2511 2503 2504 2505 2506 2507 2508 2509 2510 0
2512 -1 -45 -59 -82 0
-2512 1 0
-2512 45 0
-2512 59 0
-2512 82 0
2513 -16 -37 -45 -59 0
-2513 16 0
-2513 37 0
-2513 45 0
-2513 59 0
2514 -19 -34 -45 -59 0
-2514 19 0
-2514 34 0
-2514 45 0
-2514 59 0
-2512 2513 2514 0
-2513 2512 2514 0
-2514 2512 2513 0
2515 -1 -45 -59 -83 0
-2515 1 0
-2515 45 0
-2515 59 0
-2515 83 0
2516 -1 -45 -62 -80 0
-2516 1 0
-2516 45 0
-2516 62 0
-2516 80 0
2517 -1 -45 -65 -77 0
-2517 1 0
-2517 45 0
-2517 65 0
-2517 77 0
-2515 2516 2517 0
-2516 2515 2517 0
-2517 2515 2516 0
2518 -1 -45 -59 -84 0
-2518 1 0
-2518 45 0
-2518 59 0
-2518 84 0
2519 -1 -51 -59 -75 0
-2519 1 0
-2519 51 0
-2519 59 0
-2519 75 0
2520 -1 -54 -59 -72 0
-2520 1 0
-2520 54 0
-2520 59 0
-2520 72 0
-2518 2519 2520 0
-2519 2518 2520 0
-2520 2518 2519 0
2521 -2 -43 -59 -82 0
-2521 2 0
-2521 43 0
-2521 59 0
-2521 82 0
2522 -2 -49 -59 -73 0
-2522 2 0
-2522 49 0
-2522 59 0
-2522 73 0
2523 -2 -52 -59 -70 0
-2523 2 0
-2523 52 0
-2523 59 0
-2523 70 0
2524 -8 -32 -43 -82 0
-2524 8 0
-2524 32 0
-2524 43 0
-2524 82 0
2525 -8 -32 -49 -73 0
-2525 8 0
-2525 32 0
-2525 49 0
-2525 73 0
2526 -8 -32 -52 -70 0
-2526 8 0
-2526 32 0
-2526 52 0
-2526 70 0
2527 -14 -26 -43 -82 0
-2527 14 0
-2527 26 0
-2527 43 0
-2527 82 0
2528 -14 -26 -49 -73 0
-2528 14 0
-2528 26 0
-2528 49 0
-2528 73 0
2529 -14 -26 -52 -70 0
-2529 14 0
-2529 26 0
-2529 52 0
-2529 70 0
-2521 2522 2523 2524 2525 2526 2527 2528 2529 0
-2522 2521 2523 2524 2525 2526 2527 2528 2529 0
-2523 2521 2522 2524 2525 2526 2527 2528 2529 0
-2524 2521 2522 2523 2525 2526 2527 2528 2529 0
-2525 2521 2522 2523 2524 2526 2527 2528 2529 0
-2526 2521 2522 2523 2524 2525 2527 2528 2529 0
-2527 2521 2522 2523 2524 2525 2526 2528 2529 0
-2528 2521 2522 2523 2524 2525 2526 2527 2529 0
-2529 2521 2522 2523 2524 2525 2526 2527 2528 0
2530 -2 -43 -59 -83 0
-2530 2 0
-2530 43 0
-2530 59 0
-2530 83 0
2531 -2 -43 -62 -80 0
-2531 2 0
-2531 43 0
-2531 62 0
-2531 80 0
2532 -2 -43 -65 -77 0
-2532 2 0
-2532 43 0
-2532 65 0
-2532 77 0
2533 -8 -32 -43 -83 0
-2533 8 0
-2533 32 0
-2533 43 0
-2533 83 0
2534 -8 -35 -43 -80 0
-2534 8 0
-2534 35 0
-2534 43 0
-2534 80 0
2535 -8 -38 -43 -77 0
-2535 8 0
-2535 38 0
-2535 43 0
-2535 77 0
2536 -14 -26 -43 -83 0
-2536 14 0
-2536 26 0
-2536 43 0
-2536 83 0
2537 -14 -35 -43 -65 0
-2537 14 0
-2537 35 0
-2537 43 0
-2537 65 0
2538 -14 -38 -43 -62 0
-2538 14 0
-2538 38 0
-2538 43 0
-2538 62 0
2539 -17 -26 -43 -80 0
-2539 17 0
-2539 26 0
-2539 43 0
-2539 80 0
2540 -17 -32 -43 -65 0
-2540 17 0
-2540 32 0
-2540 43 0
-2540 65 0
2541 -17 -38 -43 -59 0
-2541 17 0
-2541 38 0
-2541 43 0
-2541 59 0
2542 -20 -26 -43 -77 0
-2542 20 0
-2542 26 0
-2542 43 0
-2542 77 0
2543 -20 -32 -43 -62 0
-2543 20 0
-2543 32 0
-2543 43 0
-2543 62 0
2544 -20 -35 -43 -59 0
-2544 20 0
-2544 35 0
-2544 43 0
-2544 59 0
-2530 2531 2532 2533 2534 2535 2536 2537 2538 2539 2540 2541 2542 2543 2544 0
-2531 2530 2532 2533 2534 2535 2536 2537 2538 2539 2540 2541 2542 2543 2544 0
-2532 2530 2531 2533 2534 2535 2536 2537 2538 2539 2540 2541 2542 2543 2544 0
-2533 2530 2531 2532 2534 2535 2536 2537 2538 2539 2540 2541 2542 2543 2544 0
-2534 2530 2531 2532 2533 2535 2536 2537 2538 2539 2540 2541 2542 2543 2544 0
-2535 2530 2531 2532 2533 2534 2536 2537 2538 2539 2540 2541 2542 2543 2544 0
-2536 2530 2531 2532 2533 2534 2535 2537 2538 2539 2540 2541 2542 2543 2544 0
-2537 2530 2531 2532 2533 2534 2535 2536 2538 2539 2540 2541 2542 2543 2544 0
-2538 2530 2531 2532 2533 2534 2535 2536 2537 2539 2540 2541 2542 2543 2544 0
-2539 2530 2531 2532 2533 2534 2535 2536 2537 2538 2540 2541 2542 2543 2544 0
-2540 2530 2531 2532 2533 2534 2535 2536 2537 2538 2539 2541 2542 2543 2544 0
-2541 2530 2531 2532 2533 2534 2535 2536 2537 2538 2539 2540 2542 2543 2544 0
-2542 2530 2531 2532 2533 2534 2535 2536 2537 2538 2539 2540 2541 2543 2544 0
-2543 2530 2531 2532 2533 2534 2535 2536 2537 2538 2539 2540 2541 2542 2544 0
-2544 2530 2531 2532 2533 2534 2535 2536 2537 2538 2539 2540 2541 2542 2543 0
2545 -2 -43 -59 -84 0
-2545 2 0
-2545 43 0
-2545 59 0
-2545 84 0
2546 -8 -32 -43 -84 0
-2546 8 0
-2546 32 0
-2546 43 0
-2546 84 0
2547 -14 -26 -43 -84 0
-2547 14 0
-2547 26 0
-2547 43 0
-2547 84 0
-2545 2546 2547 0
-2546 2545 2547 0
-2547 2545 2546 0
2548 -2 -43 -60 -82 0
-2548 2 0
-2548 43 0
-2548 60 0
-2548 82 0
2549 -2 -49 -60 -73 0
-2549 2 0
-2549 49 0
-2549 60 0
-2549 73 0
2550 -2 -52 -60 -70 0
-2550 2 0
-2550 52 0
-2550 60 0
-2550 70 0
-2548 2549 2550 0
-2549 2548 2550 0
-2550 2548 2549 0
2551 -2 -43 -60 -83 0
-2551 2 0
-2551 43 0
-2551 60 0
-2551 83 0
2552 -17 -38 -43 -60 0
-2552 17 0
-2552 38 0
-2552 43 0
-2552 60 0
2553 -20 -35 -43 -60 0
-2553 20 0
-2553 35 0
-2553 43 0
-2553 60 0
-2551 2552 2553 0
-2552 2551 2553 0
-2553 2551 2552 0
2554 -2 -43 -60 -84 0
-2554 2 0
-2554 43 0
-2554 60 0
-2554 84 0
2555 -2 -43 -63 -81 0
-2555 2 0
-2555 43 0
-2555 63 0
-2555 81 0
2556 -2 -43 -66 -78 0
-2556 2 0
-2556 43 0
-2556 66 0
-2556 78 0
-2554 2555 2556 0
-2555 2554 2556 0
-2556 2554 2555 0
2557 -2 -44 -58 -82 0
-2557 2 0
-2557 44 0
-2557 58 0
-2557 82 0
2558 -2 -44 -61 -79 0
-2558 2 0
-2558 44 0
-2558 61 0
-2558 79 0
2559 -2 -44 -64 -76 0
-2559 2 0
-2559 44 0
-2559 64 0
-2559 76 0
2560 -5 -29 -58 -82 0
-2560 5 0
-2560 29 0
-2560 58 0
-2560 82 0
2561 -5 -29 -61 -79 0
-2561 5 0
-2561 29 0
-2561 61 0
-2561 79 0
2562 -5 -29 -64 -76 0
-2562 5 0
-2562 29 0
-2562 64 0
-2562 76 0
2563 -11 -23 -58 -82 0
-2563 11 0
-2563 23 0
-2563 58 0
-2563 82 0
2564 -11 -23 -61 -79 0
-2564 11 0
-2564 23 0
-2564 61 0
-2564 79 0
2565 -11 -23 -64 -76 0
-2565 11 0
-2565 23 0
-2565 64 0
-2565 76 0
-2557 2558 2559 2560 2561 2562 2563 2564 2565 0
-2558 2557 2559 2560 2561 2562 2563 2564 2565 0
-2559 2557 2558 2560 2561 2562 2563 2564 2565 0
-2560 2557 2558 2559 2561 2562 2563 2564 2565 0
-2561 2557 2558 2559 2560 2562 2563 2564 2565 0
-2562 2557 2558 2559 2560 2561 2563 2564 2565 0
-2563 2557 2558 2559 2560 2561 2562 2564 2565 0
-2564 2557 2558 2559 2560 2561 2562 2563 2565 0
-2565 2557 2558 2559 2560 2561 2562 2563 2564 0
2566 -2 -44 -58 -83 0
-2566 2 0
-2566 44 0
-2566 58 0
-2566 83 0
2567 -2 -50 -58 -74 0
-2567 2 0
-2567 50 0
-2567 58 0
-2567 74 0
2568 -2 -53 -58 -71 0
-2568 2 0
-2568 53 0
-2568 58 0
-2568 71 0
2569 -5 -29 -58 -83 0
-2569 5 0
-2569 29 0
-2569 58 0
-2569 83 0
2570 -5 -35 -58 -74 0
-2570 5 0
-2570 35 0
-2570 58 0
-2570 74 0
2571 -5 -38 -58 -71 0
-2571 5 0
-2571 38 0
-2571 58 0
-2571 71 0
2572 -11 -23 -58 -83 0
-2572 11 0
-2572 23 0
-2572 58 0
-2572 83 0
2573 -11 -35 -53 -58 0
-2573 11 0
-2573 35 0
-2573 53 0
-2573 58 0
2574 -11 -38 -50 -58 0
-2574 11 0
-2574 38 0
-2574 50 0
-2574 58 0
2575 -17 -23 -58 -74 0
-2575 17 0
-2575 23 0
-2575 58 0
-2575 74 0
2576 -17 -29 -53 -58 0
-2576 17 0
-2576 29 0
-2576 53 0
-2576 58 0
2577 -17 -38 -44 -58 0
-2577 17 0
-2577 38 0
-2577 44 0
-2577 58 0
2578 -20 -23 -58 -71 0
-2578 20 0
-2578 23 0
-2578 58 0
-2578 71 0
2579 -20 -29 -50 -58 0
-2579 20 0
-2579 29 0
-2579 50 0
-2579 58 0
2580 -20 -35 -44 -58 0
-2580 20 0
-2580 35 0
-2580 44 0
-2580 58 0
-2566 2567 2568 2569 2570 2571 2572 2573 2574 2575 2576 2577 2578 2579 2580 0
-2567 2566 2568 2569 2570 2571 2572 2573 2574 2575 2576 2577 2578 2579 2580 0
-2568 2566 2567 2569 2570 2571 2572 2573 2574 2575 2576 2577 2578 2579 2580 0
-2569 2566 2567 2568 2570 2571 2572 2573 2574 2575 2576 2577 2578 2579 2580 0
-2570 2566 2567 2568 2569 2571 2572 2573 2574 2575 2576 2577 2578 2579 2580 0
-2571 2566 2567 2568 2569 2570 2572 2573 2574 2575 2576 2577 2578 2579 2580 0
-2572 2566 2567 2568 2569 2570 2571 2573 2574 2575 2576 2577 2578 2579 2580 0
-2573 2566 2567 2568 2569 2570 2571 2572 2574 2575 2576 2577 2578 2579 2580 0
-2574 2566 2567 2568 2569 2570 2571 2572 2573 2575 2576 2577 2578 2579 2580 0
-2575 2566 2567 2568 2569 2570 2571 2572 2573 2574 2576 2577 2578 2579 2580 0
-2576 2566 2567 2568 2569 2570 2571 2572 2573 2574 2575 2577 2578 2579 2580 0
-2577 2566 2567 2568 2569 2570 2571 2572 2573 2574 2575 2576 2578 2579 2580 0
-2578 2566 2567 2568 2569 2570 2571 2572 2573 2574 2575 2576 2577 2579 2580 0
-2579 2566 2567 2568 2569 2570 2571 2572 2573 2574 2575 2576 2577 2578 2580 0
-2580 2566 2567 2568 2569 2570 2571 2572 2573 2574 2575 2576 2577 2578 2579 0
2581 -2 -44 -58 -84 0
-2581 2 0
-2581 44 0
-2581 58 0
-2581 84 0
2582 -5 -29 -58 -84 0
-2582 5 0
-2582 29 0
-2582 58 0
-2582 84 0
2583 -11 -23 -58 -84 0
-2583 11 0
-2583 23 0
-2583 58 0
-2583 84 0
-2581 2582 2583 0
-2582 2581 2583 0
-2583 2581 2582 0
2584 -2 -44 -60 -82 0
-2584 2 0
-2584 44 0
-2584 60 0
-2584 82 0
2585 -5 -29 -60 -82 0
-2585 5 0
-2585 29 0
-2585 60 0
-2585 82 0
2586 -11 -23 -60 -82 0
-2586 11 0
-2586 23 0
-2586 60 0
-2586 82 0
-2584 2585 2586 0
-2585 2584 2586 0
-2586 2584 2585 0
2587 -2 -44 -60 -83 0
-2587 2 0
-2587 44 0
-2587 60 0
-2587 83 0
2588 -2 -50 -60 -74 0
-2588 2 0
-2588 50 0
-2588 60 0
-2588 74 0
2589 -2 -53 -60 -71 0
-2589 2 0
-2589 53 0
-2589 60 0
-2589 71 0
2590 -5 -29 -60 -83 0
-2590 5 0
-2590 29 0
-2590 60 0
-2590 83 0
2591 -5 -35 -60 -74 0
-2591 5 0
-2591 35 0
-2591 60 0
-2591 74 0
2592 -5 -38 -60 -71 0
-2592 5 0
-2592 38 0
-2592 60 0
-2592 71 0
2593 -11 -23 -60 -83 0
-2593 11 0
-2593 23 0
-2593 60 0
-2593 83 0
2594 -11 -35 -53 -60 0
-2594 11 0
-2594 35 0
-2594 53 0
-2594 60 0
2595 -11 -38 -50 -60 0
-2595 11 0
-2595 38 0
-2595 50 0
-2595 60 0
2596 -17 -23 -60 -74 0
-2596 17 0
-2596 23 0
-2596 60 0
-2596 74 0
2597 -17 -29 -53 -60 0
-2597 17 0
-2597 29 0
-2597 53 0
-2597 60 0
2598 -17 -38 -44 -60 0
-2598 17 0
-2598 38 0
-2598 44 0
-2598 60 0
2599 -20 -23 -60 -71 0
-2599 20 0
-2599 23 0
-2599 60 0
-2599 71 0
2600 -20 -29 -50 -60 0
-2600 20 0
-2600 29 0
-2600 50 0
-2600 60 0
2601 -20 -35 -44 -60 0
-2601 20 0
-2601 35 0
-2601 44 0
-2601 60 0
-2587 2588 2589 2590 2591 2592 2593 2594 2595 2596 2597 2598 2599 2600 2601 0
-2588 2587 2589 2590 2591 2592 2593 2594 2595 2596 2597 2598 2599 2600 2601 0
-2589 2587 2588 2590 2591 2592 2593 2594 2595 2596 2597 2598 2599 2600 2601 0
-2590 2587 2588 2589 2591 2592 2593 2594 2595 2596 2597 2598 2599 2600 2601 0
-2591 2587 2588 2589 2590 2592 2593 2594 2595 2596 2597 2598 2599 2600 2601 0
-2592 2587 2588 2589 2590 2591 2593 2594 2595 2596 2597 2598 2599 2600 2601 0
-2593 2587 2588 2589 2590 2591 2592 2594 2595 2596 2597 2598 2599 2600 2601 0
-2594 2587 2588 2589 2590 2591 2592 2593 2595 2596 2597 2598 2599 2600 2601 0
-2595 2587 2588 2589 2590 2591 2592 2593 2594 2596 2597 2598 2599 2600 2601 0
-2596 2587 2588 2589 2590 2591 2592 2593 2594 2595 2597 2598 2599 2600 2601 0
-2597 2587 2588 2589 2590 2591 2592 2593 2594 2595 2596 2598 2599 2600 2601 0
-2598 2587 2588 2589 2590 2591 2592 2593 2594 2595 2596 2597 2599 2600 2601 0
-2599 2587 2588 2589 2590 2591 2592 2593 2594 2595 2596 2597 2598 2600 2601 0
-2600 2587 2588 2589 2590 2591 2592 2593 2594 2595 2596 2597 2598 2599 2601 0
-2601 2587 2588 2589 2590 2591 2592 2593 2594 2595 2596 2597 2598 2599 2600 0
2602 -2 -44 -60 -84 0
-2602 2 0
-2602 44 0
-2602 60 0
-2602 84 0
2603 -2 -44 -63 -81 0
-2603 2 0
-2603 44 0
-2603 63 0
-2603 81 0
2604 -2 -44 -66 -78 0
-2604 2 0
-2604 44 0
-2604 66 0
-2604 78 0
2605 -5 -29 -60 -84 0
-2605 5 0
-2605 29 0
-2605 60 0
-2605 84 0
2606 -5 -29 -63 -81 0
-2606 5 0
-2606 29 0
-2606 63 0
-2606 81 0
2607 -5 -29 -66 -78 0
-2607 5 0
-2607 29 0
-2607 66 0
-2607 78 0
2608 -11 -23 -60 -84 0
-2608 11 0
-2608 23 0
-2608 60 0
-2608 84 0
2609 -11 -23 -63 -81 0
-2609 11 0
-2609 23 0
-2609 63 0
-2609 81 0
2610 -11 -23 -66 -78 0
-2610 11 0
-2610 23 0
-2610 66 0
-2610 78 0
-2602 2603 2604 2605 2606 2607 2608 2609 2610 0
-2603 2602 2604 2605 2606 2607 2608 2609 2610 0
-2604 2602 2603 2605 2606 2607 2608 2609 2610 0
-2605 2602 2603 2604 2606 2607 2608 2609 2610 0
-2606 2602 2603 2604 2605 2607 2608 2609 2610 0
-2607 2602 2603 2604 2605 2606 2608 2609 2610 0
-2608 2602 2603 2604 2605 2606 2607 2609 2610 0
-2609 2602 2603 2604 2605 2606 2607 2608 2610 0
-2610 2602 2603 2604 2605 2606 2607 2608 2609 0
2611 -2 -45 -58 -82 0
-2611 2 0
-2611 45 0
-2611 58 0
-2611 82 0
2612 -2 -45 -61 -79 0
-2612 2 0
-2612 45 0
-2612 61 0
-2612 79 0
2613 -2 -45 -64 -76 0
-2613 2 0
-2613 45 0
-2613 64 0
-2613 76 0
-2611 2612 2613 0
-2612 2611 2613 0
-2613 2611 2612 0
2614 -2 -45 -58 -83 0
-2614 2 0
-2614 45 0
-2614 58 0
-2614 83 0
2615 -17 -38 -45 -58 0
-2615 17 0
-2615 38 0
-2615 45 0
-2615 58 0
2616 -20 -35 -45 -58 0
-2616 20 0
-2616 35 0
-2616 45 0
-2616 58 0
-2614 2615 2616 0
-2615 2614 2616 0
-2616 2614 2615 0
2617 -2 -45 -58 -84 0
-2617 2 0
-2617 45 0
-2617 58 0
-2617 84 0
2618 -2 -51 -58 -75 0
-2618 2 0
-2618 51 0
-2618 58 0
-2618 75 0
2619 -2 -54 -58 -72 0
-2619 2 0
-2619 54 0
-2619 58 0
-2619 72 0
-2617 2618 2619 0
-2618 2617 2619 0
-2619 2617 2618 0
2620 -2 -45 -59 -82 0
-2620 2 0
-2620 45 0
-2620 59 0
-2620 82 0
2621 -8 -32 -45 -82 0
-2621 8 0
-2621 32 0
-2621 45 0
-2621 82 0
2622 -14 -26 -45 -82 0
-2622 14 0
-2622 26 0
-2622 45 0
-2622 82 0
-2620 2621 2622 0
-2621 2620 2622 0
-2622 2620 2621 0
2623 -2 -45 -59 -83 0
-2623 2 0
-2623 45 0
-2623 59 0
-2623 83 0
2624 -2 -45 -62 -80 0
-2624 2 0
-2624 45 0
-2624 62 0
-2624 80 0
2625 -2 -45 -65 -77 0
-2625 2 0
-2625 45 0
-2625 65 0
-2625 77 0
2626 -8 -32 -45 -83 0
-2626 8 0
-2626 32 0
-2626 45 0
-2626 83 0
2627 -8 -35 -45 -80 0
-2627 8 0
-2627 35 0
-2627 45 0
-2627 80 0
2628 -8 -38 -45 -77 0
-2628 8 0
-2628 38 0
-2628 45 0
-2628 77 0
2629 -14 -26 -45 -83 0
-2629 14 0
-2629 26 0
-2629 45 0
-2629 83 0
2630 -14 -35 -45 -65 0
-2630 14 0
-2630 35 0
-2630 45 0
-2630 65 0
2631 -14 -38 -45 -62 0
-2631 14 0
-2631 38 0
-2631 45 0
-2631 62 0
2632 -17 -26 -45 -80 0
-2632 17 0
-2632 26 0
-2632 45 0
-2632 80 0
2633 -17 -32 -45 -65 0
-2633 17 0
-2633 32 0
-2633 45 0
-2633 65 0
2634 -17 -38 -45 -59 0
-2634 17 0
-2634 38 0
-2634 45 0
-2634 59 0
2635 -20 -26 -45 -77 0
-2635 20 0
-2635 26 0
-2635 45 0
-2635 77 0
2636 -20 -32 -45 -62 0
-2636 20 0
-2636 32 0
-2636 45 0
-2636 62 0
2637 -20 -35 -45 -59 0
-2637 20 0
-2637 35 0
-2637 45 0
-2637 59 0
-2623 2624 2625 2626 2627 2628 2629 2630 2631 2632 2633 2634 2635 2636 2637 0
-2624 2623 2625 2626 2627 2628 2629 2630 2631 2632 2633 2634 2635 2636 2637 0
-2625 2623 2624 2626 2627 2628 2629 2630 2631 2632 2633 2634 2635 2636 2637 0
-2626 2623 2624 2625 2627 2628 2629 2630 2631 2632 2633 2634 2635 2636 2637 0
-2627 2623 2624 2625 2626 2628 2629 2630 2631 2632 2633 2634 2635 2636 2637 0
-2628 2623 2624 2625 2626 2627 2629 2630 2631 2632 2633 2634 2635 2636 2637 0
-2629 2623 2624 2625 2626 2627 2628 2630 2631 2632 2633 2634 2635 2636 2637 0
-2630 2623 2624 2625 2626 2627 2628 2629 2631 2632 2633 2634 2635 2636 2637 0
-2631 2623 2624 2625 2626 2627 2628 2629 2630 2632 2633 2634 2635 2636 2637 0
-2632 2623 2624 2625 2626 2627 2628 2629 2630 2631 2633 2634 2635 2636 2637 0
-2633 2623 2624 2625 2626 2627 2628 2629 2630 2631 2632 2634 2635 2636 2637 0
-2634 2623 2624 2625 2626 2627 2628 2629 2630 2631 2632 2633 2635 2636 2637 0
-2635 2623 2624 2625 2626 2627 2628 2629 2630 2631 2632 2633 2634 2636 2637 0
-2636 2623 2624 2625 2626 2627 2628 2629 2630 2631 2632 2633 2634 2635 2637 0
-2637 2623 2624 2625 2626 2627 2628 2629 2630 2631 2632 2633 2634 2635 2636 0
2638 -2 -45 -59 -84 0
-2638 2 0
-2638 45 0
-2638 59 0
-2638 84 0
2639 -2 -51 -59 -75 0
-2639 2 0
-2639 51 0
-2639 59 0
-2639 75 0
2640 -2 -54 -59 -72 0
-2640 2 0
-2640 54 0
-2640 59 0
-2640 72 0
2641 -8 -32 -45 -84 0
-2641 8 0
-2641 32 0
-2641 45 0
-2641 84 0
2642 -8 -32 -51 -75 0
-2642 8 0
-2642 32 0
-2642 51 0
-2642 75 0
2643 -8 -32 -54 -72 0
-2643 8 0
-2643 32 0
-2643 54 0
-2643 72 0
2644 -14 -26 -45 -84 0
-2644 14 0
-2644 26 0
-2644 45 0
-2644 84 0
2645 -14 -26 -51 -75 0
-2645 14 0
-2645 26 0
-2645 51 0
-2645 75 0
2646 -14 -26 -54 -72 0
-2646 14 0
-2646 26 0
-2646 54 0
-2646 72 0
-2638 2639 2640 2641 2642 2643 2644 2645 2646 0
-2639 2638 2640 2641 2642 2643 2644 2645 2646 0
-2640 2638 2639 2641 2642 2643 2644 2645 2646 0
-2641 2638 2639 2640 2642 2643 2644 2645 2646 0
-2642 2638 2639 2640 2641 2643 2644 2645 2646 0
-2643 2638 2639 2640 2641 2642 2644 2645 2646 0
-2644 2638 2639 2640 2641 2642 2643 2645 2646 0
-2645 2638 2639 2640 2641 2642 2643 2644 2646 0
-2646 2638 2639 2640 2641 2642 2643 2644 2645 0
2647 -3 -43 -59 -82 0
-2647 3 0
-2647 43 0
-2647 59 0
-2647 82 0
2648 -3 -49 -59 -73 0
-2648 3 0
-2648 49 0
-2648 59 0
-2648 73 0
2649 -3 -52 -59 -70 0
-2649 3 0
-2649 52 0
-2649 59 0
-2649 70 0
-2647 2648 2649 0
-2648 2647 2649 0
-2649 2647 2648 0
2650 -3 -43 -59 -83 0
-2650 3 0
-2650 43 0
-2650 59 0
-2650 83 0
2651 -3 -43 -62 -80 0
-2651 3 0
-2651 43 0
-2651 62 0
-2651 80 0
2652 -3 -43 -65 -77 0
-2652 3 0
-2652 43 0
-2652 65 0
-2652 77 0
-2650 2651 2652 0
-2651 2650 2652 0
-2652 2650 2651 0
2653 -3 -43 -59 -84 0
-2653 3 0
-2653 43 0
-2653 59 0
-2653 84 0
2654 -18 -39 -43 -59 0
-2654 18 0
-2654 39 0
-2654 43 0
-2654 59 0
2655 -21 -36 -43 -59 0
-2655 21 0
-2655 36 0
-2655 43 0
-2655 59 0
-2653 2654 2655 0
-2654 2653 2655 0
-2655 2653 2654 0
2656 -3 -43 -60 -82 0
-2656 3 0
-2656 43 0
-2656 60 0
-2656 82 0
2657 -3 -49 -60 -73 0
-2657 3 0
-2657 49 0
-2657 60 0
-2657 73 0
2658 -3 -52 -60 -70 0
-2658 3 0
-2658 52 0
-2658 60 0
-2658 70 0
2659 -9 -33 -43 -82 0
-2659 9 0
-2659 33 0
-2659 43 0
-2659 82 0
2660 -9 -33 -49 -73 0
-2660 9 0
-2660 33 0
-2660 49 0
-2660 73 0
2661 -9 -33 -52 -70 0
-2661 9 0
-2661 33 0
-2661 52 0
-2661 70 0
2662 -15 -27 -43 -82 0
-2662 15 0
-2662 27 0
-2662 43 0
-2662 82 0
2663 -15 -27 -49 -73 0
-2663 15 0
-2663 27 0
-2663 49 0
-2663 73 0
2664 -15 -27 -52 -70 0
-2664 15 0
-2664 27 0
-2664 52 0
-2664 70 0
-2656 2657 2658 2659 2660 2661 2662 2663 2664 0
-2657 2656 2658 2659 2660 2661 2662 2663 2664 0
-2658 2656 2657 2659 2660 2661 2662 2663 2664 0
-2659 2656 2657 2658 2660 2661 2662 2663 2664 0
-2660 2656 2657 2658 2659 2661 2662 2663 2664 0
-2661 2656 2657 2658 2659 2660 2662 2663 2664 0
-2662 2656 2657 2658 2659 2660 2661 2663 2664 0
-2663 2656 2657 2658 2659 2660 2661 2662 2664 0
-2664 2656 2657 2658 2659 2660 2661 2662 2663 0
2665 -3 -43 -60 -83 0
-2665 3 0
-2665 43 0
-2665 60 0
-2665 83 0
2666 -9 -33 -43 -83 0
-2666 9 0
-2666 33 0
-2666 43 0
-2666 83 0
2667 -15 -27 -43 -83 0
-2667 15 0
-2667 27 0
-2667 43 0
-2667 83 0
-2665 2666 2667 0
-2666 2665 2667 0
-2667 2665 2666 0
2668 -3 -43 -60 -84 0
-2668 3 0
-2668 43 0
-2668 60 0
-2668 84 0
2669 -3 -43 -63 -81 0
-2669 3 0
-2669 43 0
-2669 63 0
-2669 81 0
2670 -3 -43 -66 -78 0
-2670 3 0
-2670 43 0
-2670 66 0
-2670 78 0
2671 -9 -33 -43 -84 0
-2671 9 0
-2671 33 0
-2671 43 0
-2671 84 0
2672 -9 -36 -43 -81 0
-2672 9 0
-2672 36 0
-2672 43 0
-2672 81 0
2673 -9 -39 -43 -78 0
-2673 9 0
-2673 39 0
-2673 43 0
-2673 78 0
2674 -15 -27 -43 -84 0
-2674 15 0
-2674 27 0
-2674 43 0
-2674 84 0
2675 -15 -36 -43 -66 0
-2675 15 0
-2675 36 0
-2675 43 0
-2675 66 0
2676 -15 -39 -43 -63 0
-2676 15 0
-2676 39 0
-2676 43 0
-2676 63 0
2677 -18 -27 -43 -81 0
-2677 18 0
-2677 27 0
-2677 43 0
-2677 81 0
2678 -18 -33 -43 -66 0
-2678 18 0
-2678 33 0
-2678 43 0
-2678 66 0
2679 -18 -39 -43 -60 0
-2679 18 0
-2679 39 0
-2679 43 0
-2679 60 0
2680 -21 -27 -43 -78 0
-2680 21 0
-2680 27 0
-2680 43 0
-2680 78 0
2681 -21 -33 -43 -63 0
-2681 21 0
-2681 33 0
-2681 43 0
-2681 63 0
2682 -21 -36 -43 -60 0
-2682 21 0
-2682 36 0
-2682 43 0
-2682 60 0
-2668 2669 2670 2671 2672 2673 2674 2675 2676 2677 2678 2679 2680 2681 2682 0
-2669 2668 2670 2671 2672 2673 2674 2675 2676 2677 2678 2679 2680 2681 2682 0
-2670 2668 2669 2671 2672 2673 2674 2675 2676 2677 2678 2679 2680 2681 2682 0
-2671 2668 2669 2670 2672 2673 2674 2675 2676 2677 2678 2679 2680 2681 2682 0
-2672 2668 2669 2670 2671 2673 2674 2675 2676 2677 2678 2679 2680 2681 2682 0
-2673 2668 2669 2670 2671 2672 2674 2675 2676 2677 2678 2679 2680 2681 2682 0
-2674 2668 2669 2670 2671 2672 2673 2675 2676 2677 2678 2679 2680 2681 2682 0
-2675 2668 2669 2670 2671 2672 2673 2674 2676 2677 2678 2679 2680 2681 2682 0
-2676 2668 2669 2670 2671 2672 2673 2674 2675 2677 2678 2679 2680 2681 2682 0
-2677 2668 2669 2670 2671 2672 2673 2674 2675 2676 2678 2679 2680 2681 2682 0
-2678 2668 2669 2670 2671 2672 2673 2674 2675 2676 2677 2679 2680 2681 2682 0
-2679 2668 2669 2670 2671 2672 2673 2674 2675 2676 2677 2678 2680 2681 2682 0
-2680 2668 2669 2670 2671 2672 2673 2674 2675 2676 2677 2678 2679 2681 2682 0
-2681 2668 2669 2670 2671 2672 2673 2674 2675 2676 2677 2678 2679 2680 2682 0
-2682 2668 2669 2670 2671 2672 2673 2674 2675 2676 2677 2678 2679 2680 2681 0
2683 -3 -44 -58 -82 0
-2683 3 0
-2683 44 0
-2683 58 0
-2683 82 0
2684 -3 -44 -61 -79 0
-2684 3 0
-2684 44 0
-2684 61 0
-2684 79 0
2685 -3 -44 -64 -76 0
-2685 3 0
-2685 44 0
-2685 64 0
-2685 76 0
-2683 2684 2685 0
-2684 2683 2685 0
-2685 2683 2684 0
2686 -3 -44 -58 -83 0
-2686 3 0
-2686 44 0
-2686 58 0
-2686 83 0
2687 -3 -50 -58 -74 0
-2687 3 0
-2687 50 0
-2687 58 0
-2687 74 0
2688 -3 -53 -58 -71 0
-2688 3 0
-2688 53 0
-2688 58 0
-2688 71 0
-2686 2687 2688 0
-2687 2686 2688 0
-2688 2686 2687 0
2689 -3 -44 -58 -84 0
-2689 3 0
-2689 44 0
-2689 58 0
-2689 84 0
2690 -18 -39 -44 -58 0
-2690 18 0
-2690 39 0
-2690 44 0
-2690 58 0
2691 -21 -36 -44 -58 0
-2691 21 0
-2691 36 0
-2691 44 0
-2691 58 0
-2689 2690 2691 0
-2690 2689 2691 0
-2691 2689 2690 0
2692 -3 -44 -60 -82 0
-2692 3 0
-2692 44 0
-2692 60 0
-2692 82 0
2693 -9 -33 -44 -82 0
-2693 9 0
-2693 33 0
-2693 44 0
-2693 82 0
2694 -15 -27 -44 -82 0
-2694 15 0
-2694 27 0
-2694 44 0
-2694 82 0
-2692 2693 2694 0
-2693 2692 2694 0
-2694 2692 2693 0
2695 -3 -44 -60 -83 0
-2695 3 0
-2695 44 0
-2695 60 0
-2695 83 0
2696 -3 -50 -60 -74 0
-2696 3 0
-2696 50 0
-2696 60 0
-2696 74 0
2697 -3 -53 -60 -71 0
-2697 3 0
-2697 53 0
-2697 60 0
-2697 71 0
2698 -9 -33 -44 -83 0
-2698 9 0
-2698 33 0
-2698 44 0
-2698 83 0
2699 -9 -33 -50 -74 0
-2699 9 0
-2699 33 0
-2699 50 0
-2699 74 0
2700 -9 -33 -53 -71 0
-2700 9 0
-2700 33 0
-2700 53 0
-2700 71 0
2701 -15 -27 -44 -83 0
-2701 15 0
-2701 27 0
-2701 44 0
-2701 83 0
2702 -15 -27 -50 -74 0
-2702 15 0
-2702 27 0
-2702 50 0
-2702 74 0
2703 -15 -27 -53 -71 0
-2703 15 0
-2703 27 0
-2703 53 0
-2703 71 0
-2695 2696 2697 2698 2699 2700 2701 2702 2703 0
-2696 2695 2697 2698 2699 2700 2701 2702 2703 0
-2697 2695 2696 2698 2699 2700 2701 2702 2703 0
-2698 2695 2696 2697 2699 2700 2701 2702 2703 0
-2699 2695 2696 2697 2698 2700 2701 2702 2703 0
-2700 2695 2696 2697 2698 2699 2701 2702 2703 0
-2701 2695 2696 2697 2698 2699 2700 2702 2703 0
-2702 2695 2696 2697 2698 2699 2700 2701 2703 0
-2703 2695 2696 2697 2698 2699 2700 2701 2702 0
2704 -3 -44 -60 -84 0
-2704 3 0
-2704 44 0
-2704 60 0
-2704 84 0
2705 -3 -44 -63 -81 0
-2705 3 0
-2705 44 0
-2705 63 0
-2705 81 0
2706 -3 -44 -66 -78 0
-2706 3 0
-2706 44 0
-2706 66 0
-2706 78 0
2707 -9 -33 -44 -84 0
-2707 9 0
-2707 33 0
-2707 44 0
-2707 84 0
2708 -9 -36 -44 -81 0
-2708 9 0
-2708 36 0
-2708 44 0
-2708 81 0
2709 -9 -39 -44 -78 0
-2709 9 0
-2709 39 0
-2709 44 0
-2709 78 0
2710 -15 -27 -44 -84 0
-2710 15 0
-2710 27 0
-2710 44 0
-2710 84 0
2711 -15 -36 -44 -66 0
-2711 15 0
-2711 36 0
-2711 44 0
-2711 66 0
2712 -15 -39 -44 -63 0
-2712 15 0
-2712 39 0
-2712 44 0
-2712 63 0
2713 -18 -27 -44 -81 0
-2713 18 0
-2713 27 0
-2713 44 0
-2713 81 0
2714 -18 -33 -44 -66 0
-2714 18 0
-2714 33 0
-2714 44 0
-2714 66 0
2715 -18 -39 -44 -60 0
-2715 18 0
-2715 39 0
-2715 44 0
-2715 60 0
2716 -21 -27 -44 -78 0
-2716 21 0
-2716 27 0
-2716 44 0
-2716 78 0
2717 -21 -33 -44 -63 0
-2717 21 0
-2717 33 0
-2717 44 0
-2717 63 0
2718 -21 -36 -44 -60 0
-2718 21 0
-2718 36 0
-2718 44 0
-2718 60 0
-2704 2705 2706 2707 2708 2709 2710 2711 2712 2713 2714 2715 2716 2717 2718 0
-2705 2704 2706 2707 2708 2709 2710 2711 2712 2713 2714 2715 2716 2717 2718 0
-2706 2704 2705 2707 2708 2709 2710 2711 2712 2713 2714 2715 2716 2717 2718 0
-2707 2704 2705 2706 2708 2709 2710 2711 2712 2713 2714 2715 2716 2717 2718 0
-2708 2704 2705 2706 2707 2709 2710 2711 2712 2713 2714 2715 2716 2717 2718 0
-2709 2704 2705 2706 2707 2708 2710 2711 2712 2713 2714 2715 2716 2717 2718 0
-2710 2704 2705 2706 2707 2708 2709 2711 2712 2713 2714 2715 2716 2717 2718 0
-2711 2704 2705 2706 2707 2708 2709 2710 2712 2713 2714 2715 2716 2717 2718 0
-2712 2704 2705 2706 2707 2708 2709 2710 2711 2713 2714 2715 2716 2717 2718 0
-2713 2704 2705 2706 2707 2708 2709 2710 2711 2712 2714 2715 2716 2717 2718 0
-2714 2704 2705 2706 2707 2708 2709 2710 2711 2712 2713 2715 2716 2717 2718 0
-2715 2704 2705 2706 2707 2708 2709 2710 2711 2712 2713 2714 2716 2717 2718 0
-2716 2704 2705 2706 2707 2708 2709 2710 2711 2712 2713 2714 2715 2717 2718 0
-2717 2704 2705 2706 2707 2708 2709 2710 2711 2712 2713 2714 2715 2716 2718 0
-2718 2704 2705 2706 2707 2708 2709 2710 2711 2712 2713 2714 2715 2716 2717 0
2719 -3 -45 -58 -82 0
-2719 3 0
-2719 45 0
-2719 58 0
-2719 82 0
2720 -3 -45 -61 -79 0
-2720 3 0
-2720 45 0
-2720 61 0
-2720 79 0
2721 -3 -45 -64 -76 0
-2721 3 0
-2721 45 0
-2721 64 0
-2721 76 0
2722 -6 -30 -58 -82 0
-2722 6 0
-2722 30 0
-2722 58 0
-2722 82 0
2723 -6 -30 -61 -79 0
-2723 6 0
-2723 30 0
-2723 61 0
-2723 79 0
2724 -6 -30 -64 -76 0
-2724 6 0
-2724 30 0
-2724 64 0
-2724 76 0
2725 -12 -24 -58 -82 0
-2725 12 0
-2725 24 0
-2725 58 0
-2725 82 0
2726 -12 -24 -61 -79 0
-2726 12 0
-2726 24 0
-2726 61 0
-2726 79 0
2727 -12 -24 -64 -76 0
-2727 12 0
-2727 24 0
-2727 64 0
-2727 76 0
-2719 2720 2721 2722 2723 2724 2725 2726 2727 0
-2720 2719 2721 2722 2723 2724 2725 2726 2727 0
-2721 2719 2720 2722 2723 2724 2725 2726 2727 0
-2722 2719 2720 2721 2723 2724 2725 2726 2727 0
-2723 2719 2720 2721 2722 2724 2725 2726 2727 0
-2724 2719 2720 2721 2722 2723 2725 2726 2727 0
-2725 2719 2720 2721 2722 2723 2724 2726 2727 0
-2726 2719 2720 2721 2722 2723 2724 2725 2727 0
-2727 2719 2720 2721 2722 2723 2724 2725 2726 0
2728 -3 -45 -58 -83 0
-2728 3 0
-2728 45 0
-2728 58 0
-2728 83 0
2729 -6 -30 -58 -83 0
-2729 6 0
-2729 30 0
-2729 58 0
-2729 83 0
2730 -12 -24 -58 -83 0
-2730 12 0
-2730 24 0
-2730 58 0
-2730 83 0
-2728 2729 2730 0
-2729 2728 2730 0
-2730 2728 2729 0
2731 -3 -45 -58 -84 0
-2731 3 0
-2731 45 0
-2731 58 0
-2731 84 0
2732 -3 -51 -58 -75 0
-2732 3 0
-2732 51 0
-2732 58 0
-2732 75 0
2733 -3 -54 -58 -72 0
-2733 3 0
-2733 54 0
-2733 58 0
-2733 72 0
2734 -6 -30 -58 -84 0
-2734 6 0
-2734 30 0
-2734 58 0
-2734 84 0
2735 -6 -36 -58 -75 0
-2735 6 0
-2735 36 0
-2735 58 0
-2735 75 0
2736 -6 -39 -58 -72 0
-2736 6 0
-2736 39 0
-2736 58 0
-2736 72 0
2737 -12 -24 -58 -84 0
-2737 12 0
-2737 24 0
-2737 58 0
-2737 84 0
2738 -12 -36 -54 -58 0
-2738 12 0
-2738 36 0
-2738 54 0
-2738 58 0
2739 -12 -39 -51 -58 0
-2739 12 0
-2739 39 0
-2739 51 0
-2739 58 0
2740 -18 -24 -58 -75 0
-2740 18 0
-2740 24 0
-2740 58 0
-2740 75 0
2741 -18 -30 -54 -58 0
-2741 18 0
-2741 30 0
-2741 54 0
-2741 58 0
2742 -18 -39 -45 -58 0
-2742 18 0
-2742 39 0
-2742 45 0
-2742 58 0
2743 -21 -24 -58 -72 0
-2743 21 0
-2743 24 0
-2743 58 0
-2743 72 0
2744 -21 -30 -51 -58 0
-2744 21 0
-2744 30 0
-2744 51 0
-2744 58 0
2745 -21 -36 -45 -58 0
-2745 21 0
-2745 36 0
-2745 45 0
-2745 58 0
-2731 2732 2733 2734 2735 2736 2737 2738 2739 2740 2741 2742 2743 2744 2745 0
-2732 2731 2733 2734 2735 2736 2737 2738 2739 2740 2741 2742 2743 2744 2745 0
-2733 2731 2732 2734 2735 2736 2737 2738 2739 2740 2741 2742 2743 2744 2745 0
-2734 2731 2732 2733 2735 2736 2737 2738 2739 2740 2741 2742 2743 2744 2745 0
-2735 2731 2732 2733 2734 2736 2737 2738 2739 2740 2741 2742 2743 2744 2745 0
-2736 2731 2732 2733 2734 2735 2737 2738 2739 2740 2741 2742 2743 2744 2745 0
-2737 2731 2732 2733 2734 2735 2736 2738 2739 2740 2741 2742 2743 2744 2745 0
-2738 2731 2732 2733 2734 2735 2736 2737 2739 2740 2741 2742 2743 2744 2745 0
-2739 2731 2732 2733 2734 2735 2736 2737 2738 2740 2741 2742 2743 2744 2745 0
-2740 2731 2732 2733 2734 2735 2736 2737 2738 2739 2741 2742 2743 2744 2745 0
-2741 2731 2732 2733 2734 2735 2736 2737 2738 2739 2740 2742 2743 2744 2745 0
-2742 2731 2732 2733 2734 2735 2736 2737 2738 2739 2740 2741 2743 2744 2745 0
-2743 2731 2732 2733 2734 2735 2736 2737 2738 2739 2740 2741 2742 2744 2745 0
-2744 2731 2732 2733 2734 2735 2736 2737 2738 2739 2740 2741 2742 2743 2745 0
-2745 2731 2732 2733 2734 2735 2736 2737 2738 2739 2740 2741 2742 2743 2744 0
2746 -3 -45 -59 -82 0
-2746 3 0
-2746 45 0
-2746 59 0
-2746 82 0
2747 -6 -30 -59 -82 0
-2747 6 0
-2747 30 0
-2747 59 0
-2747 82 0
2748 -12 -24 -59 -82 0
-2748 12 0
-2748 24 0
-2748 59 0
-2748 82 0
-2746 2747 2748 0
-2747 2746 2748 0
-2748 2746 2747 0
2749 -3 -45 -59 -83 0
-2749 3 0
-2749 45 0
-2749 59 0
-2749 83 0
2750 -3 -45 -62 -80 0
-2750 3 0
-2750 45 0
-2750 62 0
-2750 80 0
2751 -3 -45 -65 -77 0
-2751 3 0
-2751 45 0
-2751 65 0
-2751 77 0
2752 -6 -30 -59 -83 0
-2752 6 0
-2752 30 0
-2752 59 0
-2752 83 0
2753 -6 -30 -62 -80 0
-2753 6 0
-2753 30 0
-2753 62 0
-2753 80 0
2754 -6 -30 -65 -77 0
-2754 6 0
-2754 30 0
-2754 65 0
-2754 77 0
2755 -12 -24 -59 -83 0
-2755 12 0
-2755 24 0
-2755 59 0
-2755 83 0
2756 -12 -24 -62 -80 0
-2756 12 0
-2756 24 0
-2756 62 0
-2756 80 0
2757 -12 -24 -65 -77 0
-2757 12 0
-2757 24 0
-2757 65 0
-2757 77 0
-2749 2750 2751 2752 2753 2754 2755 2756 2757 0
-2750 2749 2751 2752 2753 2754 2755 2756 2757 0
-2751 2749 2750 2752 2753 2754 2755 2756 2757 0
-2752 2749 2750 2751 2753 2754 2755 2756 2757 0
-2753 2749 2750 2751 2752 2754 2755 2756 2757 0
-2754 2749 2750 2751 2752 2753 2755 2756 2757 0
-2755 2749 2750 2751 2752 2753 2754 2756 2757 0
-2756 2749 2750 2751 2752 2753 2754 2755 2757 0
-2757 2749 2750 2751 2752 2753 2754 2755 2756 0
2758 -3 -45 -59 -84 0
-2758 3 0
-2758 45 0
-2758 59 0
-2758 84 0
2759 -3 -51 -59 -75 0
-2759 3 0
-2759 51 0
-2759 59 0
-2759 75 0
2760 -3 -54 -59 -72 0
-2760 3 0
-2760 54 0
-2760 59 0
-2760 72 0
2761 -6 -30 -59 -84 0
-2761 6 0
-2761 30 0
-2761 59 0
-2761 84 0
2762 -6 -36 -59 -75 0
-2762 6 0
-2762 36 0
-2762 59 0
-2762 75 0
2763 -6 -39 -59 -72 0
-2763 6 0
-2763 39 0
-2763 59 0
-2763 72 0
2764 -12 -24 -59 -84 0
-2764 12 0
-2764 24 0
-2764 59 0
-2764 84 0
2765 -12 -36 -54 -59 0
-2765 12 0
-2765 36 0
-2765 54 0
-2765 59 0
2766 -12 -39 -51 -59 0
-2766 12 0
-2766 39 0
-2766 51 0
-2766 59 0
2767 -18 -24 -59 -75 0
-2767 18 0
-2767 24 0
-2767 59 0
-2767 75 0
2768 -18 -30 -54 -59 0
-2768 18 0
-2768 30 0
-2768 54 0
-2768 59 0
2769 -18 -39 -45 -59 0
-2769 18 0
-2769 39 0
-2769 45 0
-2769 59 0
2770 -21 -24 -59 -72 0
-2770 21 0
-2770 24 0
-2770 59 0
-2770 72 0
2771 -21 -30 -51 -59 0
-2771 21 0
-2771 30 0
-2771 51 0
-2771 59 0
2772 -21 -36 -45 -59 0
-2772 21 0
-2772 36 0
-2772 45 0
-2772 59 0
-2758 2759 2760 2761 2762 2763 2764 2765 2766 2767 2768 2769 2770 2771 2772 0
-2759 2758 2760 2761 2762 2763 2764 2765 2766 2767 2768 2769 2770 2771 2772 0
-2760 2758 2759 2761 2762 2763 2764 2765 2766 2767 2768 2769 2770 2771 2772 0
-2761 2758 2759 2760 2762 2763 2764 2765 2766 2767 2768 2769 2770 2771 2772 0
-2762 2758 2759 2760 2761 2763 2764 2765 2766 2767 2768 2769 2770 2771 2772 0
-2763 2758 2759 2760 2761 2762 2764 2765 2766 2767 2768 2769 2770 2771 2772 0
-2764 2758 2759 2760 2761 2762 2763 2765 2766 2767 2768 2769 2770 2771 2772 0
-2765 2758 2759 2760 2761 2762 2763 2764 2766 2767 2768 2769 2770 2771 2772 0
-2766 2758 2759 2760 2761 2762 2763 2764 2765 2767 2768 2769 2770 2771 2772 0
-2767 2758 2759 2760 2761 2762 2763 2764 2765 2766 2768 2769 2770 2771 2772 0
-2768 2758 2759 2760 2761 2762 2763 2764 2765 2766 2767 2769 2770 2771 2772 0
-2769 2758 2759 2760 2761 2762 2763 2764 2765 2766 2767 2768 2770 2771 2772 0
-2770 2758 2759 2760 2761 2762 2763 2764 2765 2766 2767 2768 2769 2771 2772 0
-2771 2758 2759 2760 2761 2762 2763 2764 2765 2766 2767 2768 2769 2770 2772 0
-2772 2758 2759 2760 2761 2762 2763 2764 2765 2766 2767 2768 2769 2770 2771 0
2773 -1 -43 -62 -79 0
-2773 1 0
-2773 43 0
-2773 62 0
-2773 79 0
2774 -1 -46 -62 -73 0
-2774 1 0
-2774 46 0
-2774 62 0
-2774 73 0
2775 -1 -52 -62 -67 0
-2775 1 0
-2775 52 0
-2775 62 0
-2775 67 0
2776 -4 -28 -62 -79 0
-2776 4 0
-2776 28 0
-2776 62 0
-2776 79 0
2777 -4 -31 -62 -73 0
-2777 4 0
-2777 31 0
-2777 62 0
-2777 73 0
2778 -4 -37 -62 -67 0
-2778 4 0
-2778 37 0
-2778 62 0
-2778 67 0
2779 -10 -22 -62 -79 0
-2779 10 0
-2779 22 0
-2779 62 0
-2779 79 0
2780 -10 -31 -52 -62 0
-2780 10 0
-2780 31 0
-2780 52 0
-2780 62 0
2781 -10 -37 -46 -62 0
-2781 10 0
-2781 37 0
-2781 46 0
-2781 62 0
2782 -13 -22 -62 -73 0
-2782 13 0
-2782 22 0
-2782 62 0
-2782 73 0
2783 -13 -28 -52 -62 0
-2783 13 0
-2783 28 0
-2783 52 0
-2783 62 0
2784 -13 -37 -43 -62 0
-2784 13 0
-2784 37 0
-2784 43 0
-2784 62 0
2785 -19 -22 -62 -67 0
-2785 19 0
-2785 22 0
-2785 62 0
-2785 67 0
2786 -19 -28 -46 -62 0
-2786 19 0
-2786 28 0
-2786 46 0
-2786 62 0
2787 -19 -31 -43 -62 0
-2787 19 0
-2787 31 0
-2787 43 0
-2787 62 0
-2773 2774 2775 2776 2777 2778 2779 2780 2781 2782 2783 2784 2785 2786 2787 0
-2774 2773 2775 2776 2777 2778 2779 2780 2781 2782 2783 2784 2785 2786 2787 0
-2775 2773 2774 2776 2777 2778 2779 2780 2781 2782 2783 2784 2785 2786 2787 0
-2776 2773 2774 2775 2777 2778 2779 2780 2781 2782 2783 2784 2785 2786 2787 0
-2777 2773 2774 2775 2776 2778 2779 2780 2781 2782 2783 2784 2785 2786 2787 0
-2778 2773 2774 2775 2776 2777 2779 2780 2781 2782 2783 2784 2785 2786 2787 0
-2779 2773 2774 2775 2776 2777 2778 2780 2781 2782 2783 2784 2785 2786 2787 0
-2780 2773 2774 2775 2776 2777 2778 2779 2781 2782 2783 2784 2785 2786 2787 0
-2781 2773 2774 2775 2776 2777 2778 2779 2780 2782 2783 2784 2785 2786 2787 0
-2782 2773 2774 2775 2776 2777 2778 2779 2780 2781 2783 2784 2785 2786 2787 0
-2783 2773 2774 2775 2776 2777 2778 2779 2780 2781 2782 2784 2785 2786 2787 0
-2784 2773 2774 2775 2776 2777 2778 2779 2780 2781 2782 2783 2785 2786 2787 0
-2785 2773 2774 2775 2776 2777 2778 2779 2780 2781 2782 2783 2784 2786 2787 0
-2786 2773 2774 2775 2776 2777 2778 2779 2780 2781 2782 2783 2784 2785 2787 0
-2787 2773 2774 2775 2776 2777 2778 2779 2780 2781 2782 2783 2784 2785 2786 0
2788 -1 -43 -62 -81 0
-2788 1 0
-2788 43 0
-2788 62 0
-2788 81 0
2789 -4 -28 -62 -81 0
-2789 4 0
-2789 28 0
-2789 62 0
-2789 81 0
2790 -10 -22 -62 -81 0
-2790 10 0
-2790 22 0
-2790 62 0
-2790 81 0
-2788 2789 2790 0
-2789 2788 2790 0
-2790 2788 2789 0
2791 -1 -43 -63 -79 0
-2791 1 0
-2791 43 0
-2791 63 0
-2791 79 0
2792 -1 -46 -63 -73 0
-2792 1 0
-2792 46 0
-2792 63 0
-2792 73 0
2793 -1 -52 -63 -67 0
-2793 1 0
-2793 52 0
-2793 63 0
-2793 67 0
2794 -4 -28 -63 -79 0
-2794 4 0
-2794 28 0
-2794 63 0
-2794 79 0
2795 -4 -31 -63 -73 0
-2795 4 0
-2795 31 0
-2795 63 0
-2795 73 0
2796 -4 -37 -63 -67 0
-2796 4 0
-2796 37 0
-2796 63 0
-2796 67 0
2797 -10 -22 -63 -79 0
-2797 10 0
-2797 22 0
-2797 63 0
-2797 79 0
2798 -10 -31 -52 -63 0
-2798 10 0
-2798 31 0
-2798 52 0
-2798 63 0
2799 -10 -37 -46 -63 0
-2799 10 0
-2799 37 0
-2799 46 0
-2799 63 0
2800 -13 -22 -63 -73 0
-2800 13 0
-2800 22 0
-2800 63 0
-2800 73 0
2801 -13 -28 -52 -63 0
-2801 13 0
-2801 28 0
-2801 52 0
-2801 63 0
2802 -13 -37 -43 -63 0
-2802 13 0
-2802 37 0
-2802 43 0
-2802 63 0
2803 -19 -22 -63 -67 0
-2803 19 0
-2803 22 0
-2803 63 0
-2803 67 0
2804 -19 -28 -46 -63 0
-2804 19 0
-2804 28 0
-2804 46 0
-2804 63 0
2805 -19 -31 -43 -63 0
-2805 19 0
-2805 31 0
-2805 43 0
-2805 63 0
-2791 2792 2793 2794 2795 2796 2797 2798 2799 2800 2801 2802 2803 2804 2805 0
-2792 2791 2793 2794 2795 2796 2797 2798 2799 2800 2801 2802 2803 2804 2805 0
-2793 2791 2792 2794 2795 2796 2797 2798 2799 2800 2801 2802 2803 2804 2805 0
-2794 2791 2792 2793 2795 2796 2797 2798 2799 2800 2801 2802 2803 2804 2805 0
-2795 2791 2792 2793 2794 2796 2797 2798 2799 2800 2801 2802 2803 2804 2805 0
-2796 2791 2792 2793 2794 2795 2797 2798 2799 2800 2801 2802 2803 2804 2805 0
-2797 2791 2792 2793 2794 2795 2796 2798 2799 2800 2801 2802 2803 2804 2805 0
-2798 2791 2792 2793 2794 2795 2796 2797 2799 2800 2801 2802 2803 2804 2805 0
-2799 2791 2792 2793 2794 2795 2796 2797 2798 2800 2801 2802 2803 2804 2805 0
-2800 2791 2792 2793 2794 2795 2796 2797 2798 2799 2801 2802 2803 2804 2805 0
-2801 2791 2792 2793 2794 2795 2796 2797 2798 2799 2800 2802 2803 2804 2805 0
-2802 2791 2792 2793 2794 2795 2796 2797 2798 2799 2800 2801 2803 2804 2805 0
-2803 2791 2792 2793 2794 2795 2796 2797 2798 2799 2800 2801 2802 2804 2805 0
-2804 2791 2792 2793 2794 2795 2796 2797 2798 2799 2800 2801 2802 2803 2805 0
-2805 2791 2792 2793 2794 2795 2796 2797 2798 2799 2800 2801 2802 2803 2804 0
2806 -1 -43 -63 -80 0
-2806 1 0
-2806 43 0
-2806 63 0
-2806 80 0
2807 -4 -28 -63 -80 0
-2807 4 0
-2807 28 0
-2807 63 0
-2807 80 0
2808 -10 -22 -63 -80 0
-2808 10 0
-2808 22 0
-2808 63 0
-2808 80 0
-2806 2807 2808 0
-2807 2806 2808 0
-2808 2806 2807 0
2809 -1 -44 -61 -80 0
-2809 1 0
-2809 44 0
-2809 61 0
-2809 80 0
2810 -1 -47 -61 -74 0
-2810 1 0
-2810 47 0
-2810 61 0
-2810 74 0
2811 -1 -53 -61 -68 0
-2811 1 0
-2811 53 0
-2811 61 0
-2811 68 0
2812 -7 -34 -44 -80 0
-2812 7 0
-2812 34 0
-2812 44 0
-2812 80 0
2813 -7 -34 -47 -74 0
-2813 7 0
-2813 34 0
-2813 47 0
-2813 74 0
2814 -7 -34 -53 -68 0
-2814 7 0
-2814 34 0
-2814 53 0
-2814 68 0
2815 -16 -25 -44 -80 0
-2815 16 0
-2815 25 0
-2815 44 0
-2815 80 0
2816 -16 -25 -47 -74 0
-2816 16 0
-2816 25 0
-2816 47 0
-2816 74 0
2817 -16 -25 -53 -68 0
-2817 16 0
-2817 25 0
-2817 53 0
-2817 68 0
-2809 2810 2811 2812 2813 2814 2815 2816 2817 0
-2810 2809 2811 2812 2813 2814 2815 2816 2817 0
-2811 2809 2810 2812 2813 2814 2815 2816 2817 0
-2812 2809 2810 2811 2813 2814 2815 2816 2817 0
-2813 2809 2810 2811 2812 2814 2815 2816 2817 0
-2814 2809 2810 2811 2812 2813 2815 2816 2817 0
-2815 2809 2810 2811 2812 2813 2814 2816 2817 0
-2816 2809 2810 2811 2812 2813 2814 2815 2817 0
-2817 2809 2810 2811 2812 2813 2814 2815 2816 0
2818 -1 -44 -61 -81 0
-2818 1 0
-2818 44 0
-2818 61 0
-2818 81 0
2819 -7 -34 -44 -81 0
-2819 7 0
-2819 34 0
-2819 44 0
-2819 81 0
2820 -16 -25 -44 -81 0
-2820 16 0
-2820 25 0
-2820 44 0
-2820 81 0
-2818 2819 2820 0
-2819 2818 2820 0
-2820 2818 2819 0
2821 -1 -44 -63 -79 0
-2821 1 0
-2821 44 0
-2821 63 0
-2821 79 0
2822 -13 -37 -44 -63 0
-2822 13 0
-2822 37 0
-2822 44 0
-2822 63 0
2823 -19 -31 -44 -63 0
-2823 19 0
-2823 31 0
-2823 44 0
-2823 63 0
-2821 2822 2823 0
-2822 2821 2823 0
-2823 2821 2822 0
2824 -1 -44 -63 -80 0
-2824 1 0
-2824 44 0
-2824 63 0
-2824 80 0
2825 -1 -47 -63 -74 0
-2825 1 0
-2825 47 0
-2825 63 0
-2825 74 0
2826 -1 -53 -63 -68 0
-2826 1 0
-2826 53 0
-2826 63 0
-2826 68 0
-2824 2825 2826 0
-2825 2824 2826 0
-2826 2824 2825 0
2827 -1 -45 -61 -80 0
-2827 1 0
-2827 45 0
-2827 61 0
-2827 80 0
2828 -7 -34 -45 -80 0
-2828 7 0
-2828 34 0
-2828 45 0
-2828 80 0
2829 -16 -25 -45 -80 0
-2829 16 0
-2829 25 0
-2829 45 0
-2829 80 0
-2827 2828 2829 0
-2828 2827 2829 0
-2829 2827 2828 0
2830 -1 -45 -61 -81 0
-2830 1 0
-2830 45 0
-2830 61 0
-2830 81 0
2831 -1 -48 -61 -75 0
-2831 1 0
-2831 48 0
-2831 61 0
-2831 75 0
2832 -1 -54 -61 -69 0
-2832 1 0
-2832 54 0
-2832 61 0
-2832 69 0
2833 -7 -34 -45 -81 0
-2833 7 0
-2833 34 0
-2833 45 0
-2833 81 0
2834 -7 -34 -48 -75 0
-2834 7 0
-2834 34 0
-2834 48 0
-2834 75 0
2835 -7 -34 -54 -69 0
-2835 7 0
-2835 34 0
-2835 54 0
-2835 69 0
2836 -16 -25 -45 -81 0
-2836 16 0
-2836 25 0
-2836 45 0
-2836 81 0
2837 -16 -25 -48 -75 0
-2837 16 0
-2837 25 0
-2837 48 0
-2837 75 0
2838 -16 -25 -54 -69 0
-2838 16 0
-2838 25 0
-2838 54 0
-2838 69 0
-2830 2831 2832 2833 2834 2835 2836 2837 2838 0
-2831 2830 2832 2833 2834 2835 2836 2837 2838 0
-2832 2830 2831 2833 2834 2835 2836 2837 2838 0
-2833 2830 2831 2832 2834 2835 2836 2837 2838 0
-2834 2830 2831 2832 2833 2835 2836 2837 2838 0
-2835 2830 2831 2832 2833 2834 2836 2837 2838 0
-2836 2830 2831 2832 2833 2834 2835 2837 2838 0
-2837 2830 2831 2832 2833 2834 2835 2836 2838 0
-2838 2830 2831 2832 2833 2834 2835 2836 2837 0
2839 -1 -45 -62 -79 0
-2839 1 0
-2839 45 0
-2839 62 0
-2839 79 0
2840 -13 -37 -45 -62 0
-2840 13 0
-2840 37 0
-2840 45 0
-2840 62 0
2841 -19 -31 -45 -62 0
-2841 19 0
-2841 31 0
-2841 45 0
-2841 62 0
-2839 2840 2841 0
-2840 2839 2841 0
-2841 2839 2840 0
2842 -1 -45 -62 -81 0
-2842 1 0
-2842 45 0
-2842 62 0
-2842 81 0
2843 -1 -48 -62 -75 0
-2843 1 0
-2843 48 0
-2843 62 0
-2843 75 0
2844 -1 -54 -62 -69 0
-2844 1 0
-2844 54 0
-2844 62 0
-2844 69 0
-2842 2843 2844 0
-2843 2842 2844 0
-2844 2842 2843 0
2845 -2 -43 -62 -79 0
-2845 2 0
-2845 43 0
-2845 62 0
-2845 79 0
2846 -2 -46 -62 -73 0
-2846 2 0
-2846 46 0
-2846 62 0
-2846 73 0
2847 -2 -52 -62 -67 0
-2847 2 0
-2847 52 0
-2847 62 0
-2847 67 0
2848 -8 -35 -43 -79 0
-2848 8 0
-2848 35 0
-2848 43 0
-2848 79 0
2849 -8 -35 -46 -73 0
-2849 8 0
-2849 35 0
-2849 46 0
-2849 73 0
2850 -8 -35 -52 -67 0
-2850 8 0
-2850 35 0
-2850 52 0
-2850 67 0
2851 -17 -26 -43 -79 0
-2851 17 0
-2851 26 0
-2851 43 0
-2851 79 0
2852 -17 -26 -46 -73 0
-2852 17 0
-2852 26 0
-2852 46 0
-2852 73 0
2853 -17 -26 -52 -67 0
-2853 17 0
-2853 26 0
-2853 52 0
-2853 67 0
-2845 2846 2847 2848 2849 2850 2851 2852 2853 0
-2846 2845 2847 2848 2849 2850 2851 2852 2853 0
-2847 2845 2846 2848 2849 2850 2851 2852 2853 0
-2848 2845 2846 2847 2849 2850 2851 2852 2853 0
-2849 2845 2846 2847 2848 2850 2851 2852 2853 0
-2850 2845 2846 2847 2848 2849 2851 2852 2853 0
-2851 2845 2846 2847 2848 2849 2850 2852 2853 0
-2852 2845 2846 2847 2848 2849 2850 2851 2853 0
-2853 2845 2846 2847 2848 2849 2850 2851 2852 0
2854 -2 -43 -62 -81 0
-2854 2 0
-2854 43 0
-2854 62 0
-2854 81 0
2855 -8 -35 -43 -81 0
-2855 8 0
-2855 35 0
-2855 43 0
-2855 81 0
2856 -17 -26 -43 -81 0
-2856 17 0
-2856 26 0
-2856 43 0
-2856 81 0
-2854 2855 2856 0
-2855 2854 2856 0
-2856 2854 2855 0
2857 -2 -43 -63 -79 0
-2857 2 0
-2857 43 0
-2857 63 0
-2857 79 0
2858 -2 -46 -63 -73 0
-2858 2 0
-2858 46 0
-2858 63 0
-2858 73 0
2859 -2 -52 -63 -67 0
-2859 2 0
-2859 52 0
-2859 63 0
-2859 67 0
-2857 2858 2859 0
-2858 2857 2859 0
-2859 2857 2858 0
2860 -2 -43 -63 -80 0
-2860 2 0
-2860 43 0
-2860 63 0
-2860 80 0
2861 -14 -38 -43 -63 0
-2861 14 0
-2861 38 0
-2861 43 0
-2861 63 0
2862 -20 -32 -43 -63 0
-2862 20 0
-2862 32 0
-2862 43 0
-2862 63 0
-2860 2861 2862 0
-2861 2860 2862 0
-2862 2860 2861 0
2863 -2 -44 -61 -80 0
-2863 2 0
-2863 44 0
-2863 61 0
-2863 80 0
2864 -2 -47 -61 -74 0
-2864 2 0
-2864 47 0
-2864 61 0
-2864 74 0
2865 -2 -53 -61 -68 0
-2865 2 0
-2865 53 0
-2865 61 0
-2865 68 0
2866 -5 -29 -61 -80 0
-2866 5 0
-2866 29 0
-2866 61 0
-2866 80 0
2867 -5 -32 -61 -74 0
-2867 5 0
-2867 32 0
-2867 61 0
-2867 74 0
2868 -5 -38 -61 -68 0
-2868 5 0
-2868 38 0
-2868 61 0
-2868 68 0
2869 -11 -23 -61 -80 0
-2869 11 0
-2869 23 0
-2869 61 0
-2869 80 0
2870 -11 -32 -53 -61 0
-2870 11 0
-2870 32 0
-2870 53 0
-2870 61 0
2871 -11 -38 -47 -61 0
-2871 11 0
-2871 38 0
-2871 47 0
-2871 61 0
2872 -14 -23 -61 -74 0
-2872 14 0
-2872 23 0
-2872 61 0
-2872 74 0
2873 -14 -29 -53 -61 0
-2873 14 0
-2873 29 0
-2873 53 0
-2873 61 0
2874 -14 -38 -44 -61 0
-2874 14 0
-2874 38 0
-2874 44 0
-2874 61 0
2875 -20 -23 -61 -68 0
-2875 20 0
-2875 23 0
-2875 61 0
-2875 68 0
2876 -20 -29 -47 -61 0
-2876 20 0
-2876 29 0
-2876 47 0
-2876 61 0
2877 -20 -32 -44 -61 0
-2877 20 0
-2877 32 0
-2877 44 0
-2877 61 0
-2863 2864 2865 2866 2867 2868 2869 2870 2871 2872 2873 2874 2875 2876 2877 0
-2864 2863 2865 2866 2867 2868 2869 2870 2871 2872 2873 2874 2875 2876 2877 0
-2865 2863 2864 2866 2867 2868 2869 2870 2871 2872 2873 2874 2875 2876 2877 0
-2866 2863 2864 2865 2867 2868 2869 2870 2871 2872 2873 2874 2875 2876 2877 0
-2867 2863 2864 2865 2866 2868 2869 2870 2871 2872 2873 2874 2875 2876 2877 0
-2868 2863 2864 2865 2866 2867 2869 2870 2871 2872 2873 2874 2875 2876 2877 0
-2869 2863 2864 2865 2866 2867 2868 2870 2871 2872 2873 2874 2875 2876 2877 0
-2870 2863 2864 2865 2866 2867 2868 2869 2871 2872 2873 2874 2875 2876 2877 0
-2871 2863 2864 2865 2866 2867 2868 2869 2870 2872 2873 2874 2875 2876 2877 0
-2872 2863 2864 2865 2866 2867 2868 2869 2870 2871 2873 2874 2875 2876 2877 0
-2873 2863 2864 2865 2866 2867 2868 2869 2870 2871 2872 2874 2875 2876 2877 0
-2874 2863 2864 2865 2866 2867 2868 2869 2870 2871 2872 2873 2875 2876 2877 0
-2875 2863 2864 2865 2866 2867 2868 2869 2870 2871 2872 2873 2874 2876 2877 0
-2876 2863 2864 2865 2866 2867 2868 2869 2870 2871 2872 2873 2874 2875 2877 0
-2877 2863 2864 2865 2866 2867 2868 2869 2870 2871 2872 2873 2874 2875 2876 0
2878 -2 -44 -61 -81 0
-2878 2 0
-2878 44 0
-2878 61 0
-2878 81 0
2879 -5 -29 -61 -81 0
-2879 5 0
-2879 29 0
-2879 61 0
-2879 81 0
2880 -11 -23 -61 -81 0
-2880 11 0
-2880 23 0
-2880 61 0
-2880 81 0
-2878 2879 2880 0
-2879 2878 2880 0
-2880 2878 2879 0
2881 -2 -44 -63 -79 0
-2881 2 0
-2881 44 0
-2881 63 0
-2881 79 0
2882 -5 -29 -63 -79 0
-2882 5 0
-2882 29 0
-2882 63 0
-2882 79 0
2883 -11 -23 -63 -79 0
-2883 11 0
-2883 23 0
-2883 63 0
-2883 79 0
-2881 2882 2883 0
-2882 2881 2883 0
-2883 2881 2882 0
2884 -2 -44 -63 -80 0
-2884 2 0
-2884 44 0
-2884 63 0
-2884 80 0
2885 -2 -47 -63 -74 0
-2885 2 0
-2885 47 0
-2885 63 0
-2885 74 0
2886 -2 -53 -63 -68 0
-2886 2 0
-2886 53 0
-2886 63 0
-2886 68 0
2887 -5 -29 -63 -80 0
-2887 5 0
-2887 29 0
-2887 63 0
-2887 80 0
2888 -5 -32 -63 -74 0
-2888 5 0
-2888 32 0
-2888 63 0
-2888 74 0
2889 -5 -38 -63 -68 0
-2889 5 0
-2889 38 0
-2889 63 0
-2889 68 0
2890 -11 -23 -63 -80 0
-2890 11 0
-2890 23 0
-2890 63 0
-2890 80 0
2891 -11 -32 -53 -63 0
-2891 11 0
-2891 32 0
-2891 53 0
-2891 63 0
2892 -11 -38 -47 -63 0
-2892 11 0
-2892 38 0
-2892 47 0
-2892 63 0
2893 -14 -23 -63 -74 0
-2893 14 0
-2893 23 0
-2893 63 0
-2893 74 0
2894 -14 -29 -53 -63 0
-2894 14 0
-2894 29 0
-2894 53 0
-2894 63 0
2895 -14 -38 -44 -63 0
-2895 14 0
-2895 38 0
-2895 44 0
-2895 63 0
2896 -20 -23 -63 -68 0
-2896 20 0
-2896 23 0
-2896 63 0
-2896 68 0
2897 -20 -29 -47 -63 0
-2897 20 0
-2897 29 0
-2897 47 0
-2897 63 0
2898 -20 -32 -44 -63 0
-2898 20 0
-2898 32 0
-2898 44 0
-2898 63 0
-2884 2885 2886 2887 2888 2889 2890 2891 2892 2893 2894 2895 2896 2897 2898 0
-2885 2884 2886 2887 2888 2889 2890 2891 2892 2893 2894 2895 2896 2897 2898 0
-2886 2884 2885 2887 2888 2889 2890 2891 2892 2893 2894 2895 2896 2897 2898 0
-2887 2884 2885 2886 2888 2889 2890 2891 2892 2893 2894 2895 2896 2897 2898 0
-2888 2884 2885 2886 2887 2889 2890 2891 2892 2893 2894 2895 2896 2897 2898 0
-2889 2884 2885 2886 2887 2888 2890 2891 2892 2893 2894 2895 2896 2897 2898 0
-2890 2884 2885 2886 2887 2888 2889 2891 2892 2893 2894 2895 2896 2897 2898 0
-2891 2884 2885 2886 2887 2888 2889 2890 2892 2893 2894 2895 2896 2897 2898 0
-2892 2884 2885 2886 2887 2888 2889 2890 2891 2893 2894 2895 2896 2897 2898 0
-2893 2884 2885 2886 2887 2888 2889 2890 2891 2892 2894 2895 2896 2897 2898 0
-2894 2884 2885 2886 2887 2888 2889 2890 2891 2892 2893 2895 2896 2897 2898 0
-2895 2884 2885 2886 2887 2888 2889 2890 2891 2892 2893 2894 2896 2897 2898 0
-2896 2884 2885 2886 2887 2888 2889 2890 2891 2892 2893 2894 2895 2897 2898 0
-2897 2884 2885 2886 2887 2888 2889 2890 2891 2892 2893 2894 2895 2896 2898 0
-2898 2884 2885 2886 2887 2888 2889 2890 2891 2892 2893 2894 2895 2896 2897 0
2899 -2 -45 -61 -80 0
-2899 2 0
-2899 45 0
-2899 61 0
-2899 80 0
2900 -14 -38 -45 -61 0
-2900 14 0
-2900 38 0
-2900 45 0
-2900 61 0
2901 -20 -32 -45 -61 0
-2901 20 0
-2901 32 0
-2901 45 0
-2901 61 0
-2899 2900 2901 0
-2900 2899 2901 0
-2901 2899 2900 0
2902 -2 -45 -61 -81 0
-2902 2 0
-2902 45 0
-2902 61 0
-2902 81 0
2903 -2 -48 -61 -75 0
-2903 2 0
-2903 48 0
-2903 61 0
-2903 75 0
2904 -2 -54 -61 -69 0
-2904 2 0
-2904 54 0
-2904 61 0
-2904 69 0
-2902 2903 2904 0
-2903 2902 2904 0
-2904 2902 2903 0
2905 -2 -45 -62 -79 0
-2905 2 0
-2905 45 0
-2905 62 0
-2905 79 0
2906 -8 -35 -45 -79 0
-2906 8 0
-2906 35 0
-2906 45 0
-2906 79 0
2907 -17 -26 -45 -79 0
-2907 17 0
-2907 26 0
-2907 45 0
-2907 79 0
-2905 2906 2907 0
-2906 2905 2907 0
-2907 2905 2906 0
2908 -2 -45 -62 -81 0
-2908 2 0
-2908 45 0
-2908 62 0
-2908 81 0
2909 -2 -48 -62 -75 0
-2909 2 0
-2909 48 0
-2909 62 0
-2909 75 0
2910 -2 -54 -62 -69 0
-2910 2 0
-2910 54 0
-2910 62 0
-2910 69 0
2911 -8 -35 -45 -81 0
-2911 8 0
-2911 35 0
-2911 45 0
-2911 81 0
2912 -8 -35 -48 -75 0
-2912 8 0
-2912 35 0
-2912 48 0
-2912 75 0
2913 -8 -35 -54 -69 0
-2913 8 0
-2913 35 0
-2913 54 0
-2913 69 0
2914 -17 -26 -45 -81 0
-2914 17 0
-2914 26 0
-2914 45 0
-2914 81 0
2915 -17 -26 -48 -75 0
-2915 17 0
-2915 26 0
-2915 48 0
-2915 75 0
2916 -17 -26 -54 -69 0
-2916 17 0
-2916 26 0
-2916 54 0
-2916 69 0
-2908 2909 2910 2911 2912 2913 2914 2915 2916 0
-2909 2908 2910 2911 2912 2913 2914 2915 2916 0
-2910 2908 2909 2911 2912 2913 2914 2915 2916 0
-2911 2908 2909 2910 2912 2913 2914 2915 2916 0
-2912 2908 2909 2910 2911 2913 2914 2915 2916 0
-2913 2908 2909 2910 2911 2912 2914 2915 2916 0
-2914 2908 2909 2910 2911 2912 2913 2915 2916 0
-2915 2908 2909 2910 2911 2912 2913 2914 2916 0
-2916 2908 2909 2910 2911 2912 2913 2914 2915 0
2917 -3 -43 -62 -79 0
-2917 3 0
-2917 43 0
-2917 62 0
-2917 79 0
2918 -3 -46 -62 -73 0
-2918 3 0
-2918 46 0
-2918 62 0
-2918 73 0
2919 -3 -52 -62 -67 0
-2919 3 0
-2919 52 0
-2919 62 0
-2919 67 0
-2917 2918 2919 0
-2918 2917 2919 0
-2919 2917 2918 0
2920 -3 -43 -62 -81 0
-2920 3 0
-2920 43 0
-2920 62 0
-2920 81 0
2921 -15 -39 -43 -62 0
-2921 15 0
-2921 39 0
-2921 43 0
-2921 62 0
2922 -21 -33 -43 -62 0
-2922 21 0
-2922 33 0
-2922 43 0
-2922 62 0
-2920 2921 2922 0
-2921 2920 2922 0
-2922 2920 2921 0
2923 -3 -43 -63 -79 0
-2923 3 0
-2923 43 0
-2923 63 0
-2923 79 0
2924 -3 -46 -63 -73 0
-2924 3 0
-2924 46 0
-2924 63 0
-2924 73 0
2925 -3 -52 -63 -67 0
-2925 3 0
-2925 52 0
-2925 63 0
-2925 67 0
2926 -9 -36 -43 -79 0
-2926 9 0
-2926 36 0
-2926 43 0
-2926 79 0
2927 -9 -36 -46 -73 0
-2927 9 0
-2927 36 0
-2927 46 0
-2927 73 0
2928 -9 -36 -52 -67 0
-2928 9 0
-2928 36 0
-2928 52 0
-2928 67 0
2929 -18 -27 -43 -79 0
-2929 18 0
-2929 27 0
-2929 43 0
-2929 79 0
2930 -18 -27 -46 -73 0
-2930 18 0
-2930 27 0
-2930 46 0
-2930 73 0
2931 -18 -27 -52 -67 0
-2931 18 0
-2931 27 0
-2931 52 0
-2931 67 0
-2923 2924 2925 2926 2927 2928 2929 2930 2931 0
-2924 2923 2925 2926 2927 2928 2929 2930 2931 0
-2925 2923 2924 2926 2927 2928 2929 2930 2931 0
-2926 2923 2924 2925 2927 2928 2929 2930 2931 0
-2927 2923 2924 2925 2926 2928 2929 2930 2931 0
-2928 2923 2924 2925 2926 2927 2929 2930 2931 0
-2929 2923 2924 2925 2926 2927 2928 2930 2931 0
-2930 2923 2924 2925 2926 2927 2928 2929 2931 0
-2931 2923 2924 2925 2926 2927 2928 2929 2930 0
2932 -3 -43 -63 -80 0
-2932 3 0
-2932 43 0
-2932 63 0
-2932 80 0
2933 -9 -36 -43 -80 0
-2933 9 0
-2933 36 0
-2933 43 0
-2933 80 0
2934 -18 -27 -43 -80 0
-2934 18 0
-2934 27 0
-2934 43 0
-2934 80 0
-2932 2933 2934 0
-2933 2932 2934 0
-2934 2932 2933 0
2935 -3 -44 -61 -80 0
-2935 3 0
-2935 44 0
-2935 61 0
-2935 80 0
2936 -3 -47 -61 -74 0
-2936 3 0
-2936 47 0
-2936 61 0
-2936 74 0
2937 -3 -53 -61 -68 0
-2937 3 0
-2937 53 0
-2937 61 0
-2937 68 0
-2935 2936 2937 0
-2936 2935 2937 0
-2937 2935 2936 0
2938 -3 -44 -61 -81 0
-2938 3 0
-2938 44 0
-2938 61 0
-2938 81 0
2939 -15 -39 -44 -61 0
-2939 15 0
-2939 39 0
-2939 44 0
-2939 61 0
2940 -21 -33 -44 -61 0
-2940 21 0
-2940 33 0
-2940 44 0
-2940 61 0
-2938 2939 2940 0
-2939 2938 2940 0
-2940 2938 2939 0
2941 -3 -44 -63 -79 0
-2941 3 0
-2941 44 0
-2941 63 0
-2941 79 0
2942 -9 -36 -44 -79 0
-2942 9 0
-2942 36 0
-2942 44 0
-2942 79 0
2943 -18 -27 -44 -79 0
-2943 18 0
-2943 27 0
-2943 44 0
-2943 79 0
-2941 2942 2943 0
-2942 2941 2943 0
-2943 2941 2942 0
2944 -3 -44 -63 -80 0
-2944 3 0
-2944 44 0
-2944 63 0
-2944 80 0
2945 -3 -47 -63 -74 0
-2945 3 0
-2945 47 0
-2945 63 0
-2945 74 0
2946 -3 -53 -63 -68 0
-2946 3 0
-2946 53 0
-2946 63 0
-2946 68 0
2947 -9 -36 -44 -80 0
-2947 9 0
-2947 36 0
-2947 44 0
-2947 80 0
2948 -9 -36 -47 -74 0
-2948 9 0
-2948 36 0
-2948 47 0
-2948 74 0
2949 -9 -36 -53 -68 0
-2949 9 0
-2949 36 0
-2949 53 0
-2949 68 0
2950 -18 -27 -44 -80 0
-2950 18 0
-2950 27 0
-2950 44 0
-2950 80 0
2951 -18 -27 -47 -74 0
-2951 18 0
-2951 27 0
-2951 47 0
-2951 74 0
2952 -18 -27 -53 -68 0
-2952 18 0
-2952 27 0
-2952 53 0
-2952 68 0
-2944 2945 2946 2947 2948 2949 2950 2951 2952 0
-2945 2944 2946 2947 2948 2949 2950 2951 2952 0
-2946 2944 2945 2947 2948 2949 2950 2951 2952 0
-2947 2944 2945 2946 2948 2949 2950 2951 2952 0
-2948 2944 2945 2946 2947 2949 2950 2951 2952 0
-2949 2944 2945 2946 2947 2948 2950 2951 2952 0
-2950 2944 2945 2946 2947 2948 2949 2951 2952 0
-2951 2944 2945 2946 2947 2948 2949 2950 2952 0
-2952 2944 2945 2946 2947 2948 2949 2950 2951 0
2953 -3 -45 -61 -80 0
-2953 3 0
-2953 45 0
-2953 61 0
-2953 80 0
2954 -6 -30 -61 -80 0
-2954 6 0
-2954 30 0
-2954 61 0
-2954 80 0
2955 -12 -24 -61 -80 0
-2955 12 0
-2955 24 0
-2955 61 0
-2955 80 0
-2953 2954 2955 0
-2954 2953 2955 0
-2955 2953 2954 0
2956 -3 -45 -61 -81 0
-2956 3 0
-2956 45 0
-2956 61 0
-2956 81 0
2957 -3 -48 -61 -75 0
-2957 3 0
-2957 48 0
-2957 61 0
-2957 75 0
2958 -3 -54 -61 -69 0
-2958 3 0
-2958 54 0
-2958 61 0
-2958 69 0
2959 -6 -30 -61 -81 0
-2959 6 0
-2959 30 0
-2959 61 0
-2959 81 0
2960 -6 -33 -61 -75 0
-2960 6 0
-2960 33 0
-2960 61 0
-2960 75 0
2961 -6 -39 -61 -69 0
-2961 6 0
-2961 39 0
-2961 61 0
-2961 69 0
2962 -12 -24 -61 -81 0
-2962 12 0
-2962 24 0
-2962 61 0
-2962 81 0
2963 -12 -33 -54 -61 0
-2963 12 0
-2963 33 0
-2963 54 0
-2963 61 0
2964 -12 -39 -48 -61 0
-2964 12 0
-2964 39 0
-2964 48 0
-2964 61 0
2965 -15 -24 -61 -75 0
-2965 15 0
-2965 24 0
-2965 61 0
-2965 75 0
2966 -15 -30 -54 -61 0
-2966 15 0
-2966 30 0
-2966 54 0
-2966 61 0
2967 -15 -39 -45 -61 0
-2967 15 0
-2967 39 0
-2967 45 0
-2967 61 0
2968 -21 -24 -61 -69 0
-2968 21 0
-2968 24 0
-2968 61 0
-2968 69 0
2969 -21 -30 -48 -61 0
-2969 21 0
-2969 30 0
-2969 48 0
-2969 61 0
2970 -21 -33 -45 -61 0
-2970 21 0
-2970 33 0
-2970 45 0
-2970 61 0
-2956 2957 2958 2959 2960 2961 2962 2963 2964 2965 2966 2967 2968 2969 2970 0
-2957 2956 2958 2959 2960 2961 2962 2963 2964 2965 2966 2967 2968 2969 2970 0
-2958 2956 2957 2959 2960 2961 2962 2963 2964 2965 2966 2967 2968 2969 2970 0
-2959 2956 2957 2958 2960 2961 2962 2963 2964 2965 2966 2967 2968 2969 2970 0
-2960 2956 2957 2958 2959 2961 2962 2963 2964 2965 2966 2967 2968 2969 2970 0
-2961 2956 2957 2958 2959 2960 2962 2963 2964 2965 2966 2967 2968 2969 2970 0
-2962 2956 2957 2958 2959 2960 2961 2963 2964 2965 2966 2967 2968 2969 2970 0
-2963 2956 2957 2958 2959 2960 2961 2962 2964 2965 2966 2967 2968 2969 2970 0
-2964 2956 2957 2958 2959 2960 2961 2962 2963 2965 2966 2967 2968 2969 2970 0
-2965 2956 2957 2958 2959 2960 2961 2962 2963 2964 2966 2967 2968 2969 2970 0
-2966 2956 2957 2958 2959 2960 2961 2962 2963 2964 2965 2967 2968 2969 2970 0
-2967 2956 2957 2958 2959 2960 2961 2962 2963 2964 2965 2966 2968 2969 2970 0
-2968 2956 2957 2958 2959 2960 2961 2962 2963 2964 2965 2966 2967 2969 2970 0
-2969 2956 2957 2958 2959 2960 2961 2962 2963 2964 2965 2966 2967 2968 2970 0
-2970 2956 2957 2958 2959 2960 2961 2962 2963 2964 2965 2966 2967 2968 2969 0
2971 -3 -45 -62 -79 0
-2971 3 0
-2971 45 0
-2971 62 0
-2971 79 0
2972 -6 -30 -62 -79 0
-2972 6 0
-2972 30 0
-2972 62 0
-2972 79 0
2973 -12 -24 -62 -79 0
-2973 12 0
-2973 24 0
-2973 62 0
-2973 79 0
-2971 2972 2973 0
-2972 2971 2973 0
-2973 2971 2972 0
2974 -3 -45 -62 -81 0
-2974 3 0
-2974 45 0
-2974 62 0
-2974 81 0
2975 -3 -48 -62 -75 0
-2975 3 0
-2975 48 0
-2975 62 0
-2975 75 0
2976 -3 -54 -62 -69 0
-2976 3 0
-2976 54 0
-2976 62 0
-2976 69 0
2977 -6 -30 -62 -81 0
-2977 6 0
-2977 30 0
-2977 62 0
-2977 81 0
2978 -6 -33 -62 -75 0
-2978 6 0
-2978 33 0
-2978 62 0
-2978 75 0
2979 -6 -39 -62 -69 0
-2979 6 0
-2979 39 0
-2979 62 0
-2979 69 0
2980 -12 -24 -62 -81 0
-2980 12 0
-2980 24 0
-2980 62 0
-2980 81 0
2981 -12 -33 -54 -62 0
-2981 12 0
-2981 33 0
-2981 54 0
-2981 62 0
2982 -12 -39 -48 -62 0
-2982 12 0
-2982 39 0
-2982 48 0
-2982 62 0
2983 -15 -24 -62 -75 0
-2983 15 0
-2983 24 0
-2983 62 0
-2983 75 0
2984 -15 -30 -54 -62 0
-2984 15 0
-2984 30 0
-2984 54 0
-2984 62 0
2985 -15 -39 -45 -62 0
-2985 15 0
-2985 39 0
-2985 45 0
-2985 62 0
2986 -21 -24 -62 -69 0
-2986 21 0
-2986 24 0
-2986 62 0
-2986 69 0
2987 -21 -30 -48 -62 0
-2987 21 0
-2987 30 0
-2987 48 0
-2987 62 0
2988 -21 -33 -45 -62 0
-2988 21 0
-2988 33 0
-2988 45 0
-2988 62 0
-2974 2975 2976 2977 2978 2979 2980 2981 2982 2983 2984 2985 2986 2987 2988 0
-2975 2974 2976 2977 2978 2979 2980 2981 2982 2983 2984 2985 2986 2987 2988 0
-2976 2974 2975 2977 2978 2979 2980 2981 2982 2983 2984 2985 2986 2987 2988 0
-2977 2974 2975 2976 2978 2979 2980 2981 2982 2983 2984 2985 2986 2987 2988 0
-2978 2974 2975 2976 2977 2979 2980 2981 2982 2983 2984 2985 2986 2987 2988 0
-2979 2974 2975 2976 2977 2978 2980 2981 2982 2983 2984 2985 2986 2987 2988 0
-2980 2974 2975 2976 2977 2978 2979 2981 2982 2983 2984 2985 2986 2987 2988 0
-2981 2974 2975 2976 2977 2978 2979 2980 2982 2983 2984 2985 2986 2987 2988 0
-2982 2974 2975 2976 2977 2978 2979 2980 2981 2983 2984 2985 2986 2987 2988 0
-2983 2974 2975 2976 2977 2978 2979 2980 2981 2982 2984 2985 2986 2987 2988 0
-2984 2974 2975 2976 2977 2978 2979 2980 2981 2982 2983 2985 2986 2987 2988 0
-2985 2974 2975 2976 2977 2978 2979 2980 2981 2982 2983 2984 2986 2987 2988 0
-2986 2974 2975 2976 2977 2978 2979 2980 2981 2982 2983 2984 2985 2987 2988 0
-2987 2974 2975 2976 2977 2978 2979 2980 2981 2982 2983 2984 2985 2986 2988 0
-2988 2974 2975 2976 2977 2978 2979 2980 2981 2982 2983 2984 2985 2986 2987 0
2989 -1 -43 -65 -76 0
-2989 1 0
-2989 43 0
-2989 65 0
-2989 76 0
2990 -1 -46 -65 -70 0
-2990 1 0
-2990 46 0
-2990 65 0
-2990 70 0
2991 -1 -49 -65 -67 0
-2991 1 0
-2991 49 0
-2991 65 0
-2991 67 0
2992 -4 -28 -65 -76 0
-2992 4 0
-2992 28 0
-2992 65 0
-2992 76 0
2993 -4 -31 -65 -70 0
-2993 4 0
-2993 31 0
-2993 65 0
-2993 70 0
2994 -4 -34 -65 -67 0
-2994 4 0
-2994 34 0
-2994 65 0
-2994 67 0
2995 -10 -22 -65 -76 0
-2995 10 0
-2995 22 0
-2995 65 0
-2995 76 0
2996 -10 -31 -49 -65 0
-2996 10 0
-2996 31 0
-2996 49 0
-2996 65 0
2997 -10 -34 -46 -65 0
-2997 10 0
-2997 34 0
-2997 46 0
-2997 65 0
2998 -13 -22 -65 -70 0
-2998 13 0
-2998 22 0
-2998 65 0
-2998 70 0
2999 -13 -28 -49 -65 0
-2999 13 0
-2999 28 0
-2999 49 0
-2999 65 0
3000 -13 -34 -43 -65 0
-3000 13 0
-3000 34 0
-3000 43 0
-3000 65 0
3001 -16 -22 -65 -67 0
-3001 16 0
-3001 22 0
-3001 65 0
-3001 67 0
3002 -16 -28 -46 -65 0
-3002 16 0
-3002 28 0
-3002 46 0
-3002 65 0
3003 -16 -31 -43 -65 0
-3003 16 0
-3003 31 0
-3003 43 0
-3003 65 0
-2989 2990 2991 2992 2993 2994 2995 2996 2997 2998 2999 3000 3001 3002 3003 0
-2990 2989 2991 2992 2993 2994 2995 2996 2997 2998 2999 3000 3001 3002 3003 0
-2991 2989 2990 2992 2993 2994 2995 2996 2997 2998 2999 3000 3001 3002 3003 0
-2992 2989 2990 2991 2993 2994 2995 2996 2997 2998 2999 3000 3001 3002 3003 0
-2993 2989 2990 2991 2992 2994 2995 2996 2997 2998 2999 3000 3001 3002 3003 0
-2994 2989 2990 2991 2992 2993 2995 2996 2997 2998 2999 3000 3001 3002 3003 0
-2995 2989 2990 2991 2992 2993 2994 2996 2997 2998 2999 3000 3001 3002 3003 0
-2996 2989 2990 2991 2992 2993 2994 2995 2997 2998 2999 3000 3001 3002 3003 0
-2997 2989 2990 2991 2992 2993 2994 2995 2996 2998 2999 3000 3001 3002 3003 0
-2998 2989 2990 2991 2992 2993 2994 2995 2996 2997 2999 3000 3001 3002 3003 0
-2999 2989 2990 2991 2992 2993 2994 2995 2996 2997 2998 3000 3001 3002 3003 0
-3000 2989 2990 2991 2992 2993 2994 2995 2996 2997 2998 2999 3001 3002 3003 0
-3001 2989 2990 2991 2992 2993 2994 2995 2996 2997 2998 2999 3000 3002 3003 0
-3002 2989 2990 2991 2992 2993 2994 2995 2996 2997 2998 2999 3000 3001 3003 0
-3003 2989 2990 2991 2992 2993 2994 2995 2996 2997 2998 2999 3000 3001 3002 0
3004 -1 -43 -65 -78 0
-3004 1 0
-3004 43 0
-3004 65 0
-3004 78 0
3005 -4 -28 -65 -78 0
-3005 4 0
-3005 28 0
-3005 65 0
-3005 78 0
3006 -10 -22 -65 -78 0
-3006 10 0
-3006 22 0
-3006 65 0
-3006 78 0
-3004 3005 3006 0
-3005 3004 3006 0
-3006 3004 3005 0
3007 -1 -43 -66 -76 0
-3007 1 0
-3007 43 0
-3007 66 0
-3007 76 0
3008 -1 -46 -66 -70 0
-3008 1 0
-3008 46 0
-3008 66 0
-3008 70 0
3009 -1 -49 -66 -67 0
-3009 1 0
-3009 49 0
-3009 66 0
-3009 67 0
3010 -4 -28 -66 -76 0
-3010 4 0
-3010 28 0
-3010 66 0
-3010 76 0
3011 -4 -31 -66 -70 0
-3011 4 0
-3011 31 0
-3011 66 0
-3011 70 0
3012 -4 -34 -66 -67 0
-3012 4 0
-3012 34 0
-3012 66 0
-3012 67 0
3013 -10 -22 -66 -76 0
-3013 10 0
-3013 22 0
-3013 66 0
-3013 76 0
3014 -10 -31 -49 -66 0
-3014 10 0
-3014 31 0
-3014 49 0
-3014 66 0
3015 -10 -34 -46 -66 0
-3015 10 0
-3015 34 0
-3015 46 0
-3015 66 0
3016 -13 -22 -66 -70 0
-3016 13 0
-3016 22 0
-3016 66 0
-3016 70 0
3017 -13 -28 -49 -66 0
-3017 13 0
-3017 28 0
-3017 49 0
-3017 66 0
3018 -13 -34 -43 -66 0
-3018 13 0
-3018 34 0
-3018 43 0
-3018 66 0
3019 -16 -22 -66 -67 0
-3019 16 0
-3019 22 0
-3019 66 0
-3019 67 0
3020 -16 -28 -46 -66 0
-3020 16 0
-3020 28 0
-3020 46 0
-3020 66 0
3021 -16 -31 -43 -66 0
-3021 16 0
-3021 31 0
-3021 43 0
-3021 66 0
-3007 3008 3009 3010 3011 3012 3013 3014 3015 3016 3017 3018 3019 3020 3021 0
-3008 3007 3009 3010 3011 3012 3013 3014 3015 3016 3017 3018 3019 3020 3021 0
-3009 3007 3008 3010 3011 3012 3013 3014 3015 3016 3017 3018 3019 3020 3021 0
-3010 3007 3008 3009 3011 3012 3013 3014 3015 3016 3017 3018 3019 3020 3021 0
-3011 3007 3008 3009 3010 3012 3013 3014 3015 3016 3017 3018 3019 3020 3021 0
-3012 3007 3008 3009 3010 3011 3013 3014 3015 3016 3017 3018 3019 3020 3021 0
-3013 3007 3008 3009 3010 3011 3012 3014 3015 3016 3017 3018 3019 3020 3021 0
-3014 3007 3008 3009 3010 3011 3012 3013 3015 3016 3017 3018 3019 3020 3021 0
-3015 3007 3008 3009 3010 3011 3012 3013 3014 3016 3017 3018 3019 3020 3021 0
-3016 3007 3008 3009 3010 3011 3012 3013 3014 3015 3017 3018 3019 3020 3021 0
-3017 3007 3008 3009 3010 3011 3012 3013 3014 3015 3016 3018 3019 3020 3021 0
-3018 3007 3008 3009 3010 3011 3012 3013 3014 3015 3016 3017 3019 3020 3021 0
-3019 3007 3008 3009 3010 3011 3012 3013 3014 3015 3016 3017 3018 3020 3021 0
-3020 3007 3008 3009 3010 3011 3012 3013 3014 3015 3016 3017 3018 3019 3021 0
-3021 3007 3008 3009 3010 3011 3012 3013 3014 3015 3016 3017 3018 3019 3020 0
3022 -1 -43 -66 -77 0
-3022 1 0
-3022 43 0
-3022 66 0
-3022 77 0
3023 -4 -28 -66 -77 0
-3023 4 0
-3023 28 0
-3023 66 0
-3023 77 0
3024 -10 -22 -66 -77 0
-3024 10 0
-3024 22 0
-3024 66 0
-3024 77 0
-3022 3023 3024 0
-3023 3022 3024 0
-3024 3022 3023 0
3025 -1 -44 -64 -77 0
-3025 1 0
-3025 44 0
-3025 64 0
-3025 77 0
3026 -1 -47 -64 -71 0
-3026 1 0
-3026 47 0
-3026 64 0
-3026 71 0
3027 -1 -50 -64 -68 0
-3027 1 0
-3027 50 0
-3027 64 0
-3027 68 0
3028 -7 -37 -44 -77 0
-3028 7 0
-3028 37 0
-3028 44 0
-3028 77 0
3029 -7 -37 -47 -71 0
-3029 7 0
-3029 37 0
-3029 47 0
-3029 71 0
3030 -7 -37 -50 -68 0
-3030 7 0
-3030 37 0
-3030 50 0
-3030 68 0
3031 -19 -25 -44 -77 0
-3031 19 0
-3031 25 0
-3031 44 0
-3031 77 0
3032 -19 -25 -47 -71 0
-3032 19 0
-3032 25 0
-3032 47 0
-3032 71 0
3033 -19 -25 -50 -68 0
-3033 19 0
-3033 25 0
-3033 50 0
-3033 68 0
-3025 3026 3027 3028 3029 3030 3031 3032 3033 0
-3026 3025 3027 3028 3029 3030 3031 3032 3033 0
-3027 3025 3026 3028 3029 3030 3031 3032 3033 0
-3028 3025 3026 3027 3029 3030 3031 3032 3033 0
-3029 3025 3026 3027 3028 3030 3031 3032 3033 0
-3030 3025 3026 3027 3028 3029 3031 3032 3033 0
-3031 3025 3026 3027 3028 3029 3030 3032 3033 0
-3032 3025 3026 3027 3028 3029 3030 3031 3033 0
-3033 3025 3026 3027 3028 3029 3030 3031 3032 0
3034 -1 -44 -64 -78 0
-3034 1 0
-3034 44 0
-3034 64 0
-3034 78 0
3035 -7 -37 -44 -78 0
-3035 7 0
-3035 37 0
-3035 44 0
-3035 78 0
3036 -19 -25 -44 -78 0
-3036 19 0
-3036 25 0
-3036 44 0
-3036 78 0
-3034 3035 3036 0
-3035 3034 3036 0
-3036 3034 3035 0
3037 -1 -44 -66 -76 0
-3037 1 0
-3037 44 0
-3037 66 0
-3037 76 0
3038 -13 -34 -44 -66 0
-3038 13 0
-3038 34 0
-3038 44 0
-3038 66 0
3039 -16 -31 -44 -66 0
-3039 16 0
-3039 31 0
-3039 44 0
-3039 66 0
-3037 3038 3039 0
-3038 3037 3039 0
-3039 3037 3038 0
3040 -1 -44 -66 -77 0
-3040 1 0
-3040 44 0
-3040 66 0
-3040 77 0
3041 -1 -47 -66 -71 0
-3041 1 0
-3041 47 0
-3041 66 0
-3041 71 0
3042 -1 -50 -66 -68 0
-3042 1 0
-3042 50 0
-3042 66 0
-3042 68 0
-3040 3041 3042 0
-3041 3040 3042 0
-3042 3040 3041 0
3043 -1 -45 -64 -77 0
-3043 1 0
-3043 45 0
-3043 64 0
-3043 77 0
3044 -7 -37 -45 -77 0
-3044 7 0
-3044 37 0
-3044 45 0
-3044 77 0
3045 -19 -25 -45 -77 0
-3045 19 0
-3045 25 0
-3045 45 0
-3045 77 0
-3043 3044 3045 0
-3044 3043 3045 0
-3045 3043 3044 0
3046 -1 -45 -64 -78 0
-3046 1 0
-3046 45 0
-3046 64 0
-3046 78 0
3047 -1 -48 -64 -72 0
-3047 1 0
-3047 48 0
-3047 64 0
-3047 72 0
3048 -1 -51 -64 -69 0
-3048 1 0
-3048 51 0
-3048 64 0
-3048 69 0
3049 -7 -37 -45 -78 0
-3049 7 0
-3049 37 0
-3049 45 0
-3049 78 0
3050 -7 -37 -48 -72 0
-3050 7 0
-3050 37 0
-3050 48 0
-3050 72 0
3051 -7 -37 -51 -69 0
-3051 7 0
-3051 37 0
-3051 51 0
-3051 69 0
3052 -19 -25 -45 -78 0
-3052 19 0
-3052 25 0
-3052 45 0
-3052 78 0
3053 -19 -25 -48 -72 0
-3053 19 0
-3053 25 0
-3053 48 0
-3053 72 0
3054 -19 -25 -51 -69 0
-3054 19 0
-3054 25 0
-3054 51 0
-3054 69 0
-3046 3047 3048 3049 3050 3051 3052 3053 3054 0
-3047 3046 3048 3049 3050 3051 3052 3053 3054 0
-3048 3046 3047 3049 3050 3051 3052 3053 3054 0
-3049 3046 3047 3048 3050 3051 3052 3053 3054 0
-3050 3046 3047 3048 3049 3051 3052 3053 3054 0
-3051 3046 3047 3048 3049 3050 3052 3053 3054 0
-3052 3046 3047 3048 3049 3050 3051 3053 3054 0
-3053 3046 3047 3048 3049 3050 3051 3052 3054 0
-3054 3046 3047 3048 3049 3050 3051 3052 3053 0
3055 -1 -45 -65 -76 0
-3055 1 0
-3055 45 0
-3055 65 0
-3055 76 0
3056 -13 -34 -45 -65 0
-3056 13 0
-3056 34 0
-3056 45 0
-3056 65 0
3057 -16 -31 -45 -65 0
-3057 16 0
-3057 31 0
-3057 45 0
-3057 65 0
-3055 3056 3057 0
-3056 3055 3057 0
-3057 3055 3056 0
3058 -1 -45 -65 -78 0
-3058 1 0
-3058 45 0
-3058 65 0
-3058 78 0
3059 -1 -48 -65 -72 0
-3059 1 0
-3059 48 0
-3059 65 0
-3059 72 0
3060 -1 -51 -65 -69 0
-3060 1 0
-3060 51 0
-3060 65 0
-3060 69 0
-3058 3059 3060 0
-3059 3058 3060 0
-3060 3058 3059 0
3061 -2 -43 -65 -76 0
-3061 2 0
-3061 43 0
-3061 65 0
-3061 76 0
3062 -2 -46 -65 -70 0
-3062 2 0
-3062 46 0
-3062 65 0
-3062 70 0
3063 -2 -49 -65 -67 0
-3063 2 0
-3063 49 0
-3063 65 0
-3063 67 0
3064 -8 -38 -43 -76 0
-3064 8 0
-3064 38 0
-3064 43 0
-3064 76 0
3065 -8 -38 -46 -70 0
-3065 8 0
-3065 38 0
-3065 46 0
-3065 70 0
3066 -8 -38 -49 -67 0
-3066 8 0
-3066 38 0
-3066 49 0
-3066 67 0
3067 -20 -26 -43 -76 0
-3067 20 0
-3067 26 0
-3067 43 0
-3067 76 0
3068 -20 -26 -46 -70 0
-3068 20 0
-3068 26 0
-3068 46 0
-3068 70 0
3069 -20 -26 -49 -67 0
-3069 20 0
-3069 26 0
-3069 49 0
-3069 67 0
-3061 3062 3063 3064 3065 3066 3067 3068 3069 0
-3062 3061 3063 3064 3065 3066 3067 3068 3069 0
-3063 3061 3062 3064 3065 3066 3067 3068 3069 0
-3064 3061 3062 3063 3065 3066 3067 3068 3069 0
-3065 3061 3062 3063 3064 3066 3067 3068 3069 0
-3066 3061 3062 3063 3064 3065 3067 3068 3069 0
-3067 3061 3062 3063 3064 3065 3066 3068 3069 0
-3068 3061 3062 3063 3064 3065 3066 3067 3069 0
-3069 3061 3062 3063 3064 3065 3066 3067 3068 0
3070 -2 -43 -65 -78 0
-3070 2 0
-3070 43 0
-3070 65 0
-3070 78 0
3071 -8 -38 -43 -78 0
-3071 8 0
-3071 38 0
-3071 43 0
-3071 78 0
3072 -20 -26 -43 -78 0
-3072 20 0
-3072 26 0
-3072 43 0
-3072 78 0
-3070 3071 3072 0
-3071 3070 3072 0
-3072 3070 3071 0
3073 -2 -43 -66 -76 0
-3073 2 0
-3073 43 0
-3073 66 0
-3073 76 0
3074 -2 -46 -66 -70 0
-3074 2 0
-3074 46 0
-3074 66 0
-3074 70 0
3075 -2 -49 -66 -67 0
-3075 2 0
-3075 49 0
-3075 66 0
-3075 67 0
-3073 3074 3075 0
-3074 3073 3075 0
-3075 3073 3074 0
3076 -2 -43 -66 -77 0
-3076 2 0
-3076 43 0
-3076 66 0
-3076 77 0
3077 -14 -35 -43 -66 0
-3077 14 0
-3077 35 0
-3077 43 0
-3077 66 0
3078 -17 -32 -43 -66 0
-3078 17 0
-3078 32 0
-3078 43 0
-3078 66 0
-3076 3077 3078 0
-3077 3076 3078 0
-3078 3076 3077 0
3079 -2 -44 -64 -77 0
-3079 2 0
-3079 44 0
-3079 64 0
-3079 77 0
3080 -2 -47 -64 -71 0
-3080 2 0
-3080 47 0
-3080 64 0
-3080 71 0
3081 -2 -50 -64 -68 0
-3081 2 0
-3081 50 0
-3081 64 0
-3081 68 0
3082 -5 -29 -64 -77 0
-3082 5 0
-3082 29 0
-3082 64 0
-3082 77 0
3083 -5 -32 -64 -71 0
-3083 5 0
-3083 32 0
-3083 64 0
-3083 71 0
3084 -5 -35 -64 -68 0
-3084 5 0
-3084 35 0
-3084 64 0
-3084 68 0
3085 -11 -23 -64 -77 0
-3085 11 0
-3085 23 0
-3085 64 0
-3085 77 0
3086 -11 -32 -50 -64 0
-3086 11 0
-3086 32 0
-3086 50 0
-3086 64 0
3087 -11 -35 -47 -64 0
-3087 11 0
-3087 35 0
-3087 47 0
-3087 64 0
3088 -14 -23 -64 -71 0
-3088 14 0
-3088 23 0
-3088 64 0
-3088 71 0
3089 -14 -29 -50 -64 0
-3089 14 0
-3089 29 0
-3089 50 0
-3089 64 0
3090 -14 -35 -44 -64 0
-3090 14 0
-3090 35 0
-3090 44 0
-3090 64 0
3091 -17 -23 -64 -68 0
-3091 17 0
-3091 23 0
-3091 64 0
-3091 68 0
3092 -17 -29 -47 -64 0
-3092 17 0
-3092 29 0
-3092 47 0
-3092 64 0
3093 -17 -32 -44 -64 0
-3093 17 0
-3093 32 0
-3093 44 0
-3093 64 0
-3079 3080 3081 3082 3083 3084 3085 3086 3087 3088 3089 3090 3091 3092 3093 0
-3080 3079 3081 3082 3083 3084 3085 3086 3087 3088 3089 3090 3091 3092 3093 0
-3081 3079 3080 3082 3083 3084 3085 3086 3087 3088 3089 3090 3091 3092 3093 0
-3082 3079 3080 3081 3083 3084 3085 3086 3087 3088 3089 3090 3091 3092 3093 0
-3083 3079 3080 3081 3082 3084 3085 3086 3087 3088 3089 3090 3091 3092 3093 0
-3084 3079 3080 3081 3082 3083 3085 3086 3087 3088 3089 3090 3091 3092 3093 0
-3085 3079 3080 3081 3082 3083 3084 3086 3087 3088 3089 3090 3091 3092 3093 0
-3086 3079 3080 3081 3082 3083 3084 3085 3087 3088 3089 3090 3091 3092 3093 0
-3087 3079 3080 3081 3082 3083 3084 3085 3086 3088 3089 3090 3091 3092 3093 0
-3088 3079 3080 3081 3082 3083 3084 3085 3086 3087 3089 3090 3091 3092 3093 0
-3089 3079 3080 3081 3082 3083 3084 3085 3086 3087 3088 3090 3091 3092 3093 0
-3090 3079 3080 3081 3082 3083 3084 3085 3086 3087 3088 3089 3091 3092 3093 0
-3091 3079 3080 3081 3082 3083 3084 3085 3086 3087 3088 3089 3090 3092 3093 0
-3092 3079 3080 3081 3082 3083 3084 3085 3086 3087 3088 3089 3090 3091 3093 0
-3093 3079 3080 3081 3082 3083 3084 3085 3086 3087 3088 3089 3090 3091 3092 0
3094 -2 -44 -64 -78 0
-3094 2 0
-3094 44 0
-3094 64 0
-3094 78 0
3095 -5 -29 -64 -78 0
-3095 5 0
-3095 29 0
-3095 64 0
-3095 78 0
3096 -11 -23 -64 -78 0
-3096 11 0
-3096 23 0
-3096 64 0
-3096 78 0
-3094 3095 3096 0
-3095 3094 3096 0
-3096 3094 3095 0
3097 -2 -44 -66 -76 0
-3097 2 0
-3097 44 0
-3097 66 0
-3097 76 0
3098 -5 -29 -66 -76 0
-3098 5 0
-3098 29 0
-3098 66 0
-3098 76 0
3099 -11 -23 -66 -76 0
-3099 11 0
-3099 23 0
-3099 66 0
-3099 76 0
-3097 3098 3099 0
-3098 3097 3099 0
-3099 3097 3098 0
3100 -2 -44 -66 -77 0
-3100 2 0
-3100 44 0
-3100 66 0
-3100 77 0
3101 -2 -47 -66 -71 0
-3101 2 0
-3101 47 0
-3101 66 0
-3101 71 0
3102 -2 -50 -66 -68 0
-3102 2 0
-3102 50 0
-3102 66 0
-3102 68 0
3103 -5 -29 -66 -77 0
-3103 5 0
-3103 29 0
-3103 66 0
-3103 77 0
3104 -5 -32 -66 -71 0
-3104 5 0
-3104 32 0
-3104 66 0
-3104 71 0
3105 -5 -35 -66 -68 0
-3105 5 0
-3105 35 0
-3105 66 0
-3105 68 0
3106 -11 -23 -66 -77 0
-3106 11 0
-3106 23 0
-3106 66 0
-3106 77 0
3107 -11 -32 -50 -66 0
-3107 11 0
-3107 32 0
-3107 50 0
-3107 66 0
3108 -11 -35 -47 -66 0
-3108 11 0
-3108 35 0
-3108 47 0
-3108 66 0
3109 -14 -23 -66 -71 0
-3109 14 0
-3109 23 0
-3109 66 0
-3109 71 0
3110 -14 -29 -50 -66 0
-3110 14 0
-3110 29 0
-3110 50 0
-3110 66 0
3111 -14 -35 -44 -66 0
-3111 14 0
-3111 35 0
-3111 44 0
-3111 66 0
3112 -17 -23 -66 -68 0
-3112 17 0
-3112 23 0
-3112 66 0
-3112 68 0
3113 -17 -29 -47 -66 0
-3113 17 0
-3113 29 0
-3113 47 0
-3113 66 0
3114 -17 -32 -44 -66 0
-3114 17 0
-3114 32 0
-3114 44 0
-3114 66 0
-3100 3101 3102 3103 3104 3105 3106 3107 3108 3109 3110 3111 3112 3113 3114 0
-3101 3100 3102 3103 3104 3105 3106 3107 3108 3109 3110 3111 3112 3113 3114 0
-3102 3100 3101 3103 3104 3105 3106 3107 3108 3109 3110 3111 3112 3113 3114 0
-3103 3100 3101 3102 3104 3105 3106 3107 3108 3109 3110 3111 3112 3113 3114 0
-3104 3100 3101 3102 3103 3105 3106 3107 3108 3109 3110 3111 3112 3113 3114 0
-3105 3100 3101 3102 3103 3104 3106 3107 3108 3109 3110 3111 3112 3113 3114 0
-3106 3100 3101 3102 3103 3104 3105 3107 3108 3109 3110 3111 3112 3113 3114 0
-3107 3100 3101 3102 3103 3104 3105 3106 3108 3109 3110 3111 3112 3113 3114 0
-3108 3100 3101 3102 3103 3104 3105 3106 3107 3109 3110 3111 3112 3113 3114 0
-3109 3100 3101 3102 3103 3104 3105 3106 3107 3108 3110 3111 3112 3113 3114 0
-3110 3100 3101 3102 3103 3104 3105 3106 3107 3108 3109 3111 3112 3113 3114 0
-3111 3100 3101 3102 3103 3104 3105 3106 3107 3108 3109 3110 3112 3113 3114 0
-3112 3100 3101 3102 3103 3104 3105 3106 3107 3108 3109 3110 3111 3113 3114 0
-3113 3100 3101 3102 3103 3104 3105 3106 3107 3108 3109 3110 3111 3112 3114 0
-3114 3100 3101 3102 3103 3104 3105 3106 3107 3108 3109 3110 3111 3112 3113 0
3115 -2 -45 -64 -77 0
-3115 2 0
-3115 45 0
-3115 64 0
-3115 77 0
3116 -14 -35 -45 -64 0
-3116 14 0
-3116 35 0
-3116 45 0
-3116 64 0
3117 -17 -32 -45 -64 0
-3117 17 0
-3117 32 0
-3117 45 0
-3117 64 0
-3115 3116 3117 0
-3116 3115 3117 0
-3117 3115 3116 0
3118 -2 -45 -64 -78 0
-3118 2 0
-3118 45 0
-3118 64 0
-3118 78 0
3119 -2 -48 -64 -72 0
-3119 2 0
-3119 48 0
-3119 64 0
-3119 72 0
3120 -2 -51 -64 -69 0
-3120 2 0
-3120 51 0
-3120 64 0
-3120 69 0
-3118 3119 3120 0
-3119 3118 3120 0
-3120 3118 3119 0
3121 -2 -45 -65 -76 0
-3121 2 0
-3121 45 0
-3121 65 0
-3121 76 0
3122 -8 -38 -45 -76 0
-3122 8 0
-3122 38 0
-3122 45 0
-3122 76 0
3123 -20 -26 -45 -76 0
-3123 20 0
-3123 26 0
-3123 45 0
-3123 76 0
-3121 3122 3123 0
-3122 3121 3123 0
-3123 3121 3122 0
3124 -2 -45 -65 -78 0
-3124 2 0
-3124 45 0
-3124 65 0
-3124 78 0
3125 -2 -48 -65 -72 0
-3125 2 0
-3125 48 0
-3125 65 0
-3125 72 0
3126 -2 -51 -65 -69 0
-3126 2 0
-3126 51 0
-3126 65 0
-3126 69 0
3127 -8 -38 -45 -78 0
-3127 8 0
-3127 38 0
-3127 45 0
-3127 78 0
3128 -8 -38 -48 -72 0
-3128 8 0
-3128 38 0
-3128 48 0
-3128 72 0
3129 -8 -38 -51 -69 0
-3129 8 0
-3129 38 0
-3129 51 0
-3129 69 0
3130 -20 -26 -45 -78 0
-3130 20 0
-3130 26 0
-3130 45 0
-3130 78 0
3131 -20 -26 -48 -72 0
-3131 20 0
-3131 26 0
-3131 48 0
-3131 72 0
3132 -20 -26 -51 -69 0
-3132 20 0
-3132 26 0
-3132 51 0
-3132 69 0
-3124 3125 3126 3127 3128 3129 3130 3131 3132 0
-3125 3124 3126 3127 3128 3129 3130 3131 3132 0
-3126 3124 3125 3127 3128 3129 3130 3131 3132 0
-3127 3124 3125 3126 3128 3129 3130 3131 3132 0
-3128 3124 3125 3126 3127 3129 3130 3131 3132 0
-3129 3124 3125 3126 3127 3128 3130 3131 3132 0
-3130 3124 3125 3126 3127 3128 3129 3131 3132 0
-3131 3124 3125 3126 3127 3128 3129 3130 3132 0
-3132 3124 3125 3126 3127 3128 3129 3130 3131 0
3133 -3 -43 -65 -76 0
-3133 3 0
-3133 43 0
-3133 65 0
-3133 76 0
3134 -3 -46 -65 -70 0
-3134 3 0
-3134 46 0
-3134 65 0
-3134 70 0
3135 -3 -49 -65 -67 0
-3135 3 0
-3135 49 0
-3135 65 0
-3135 67 0
-3133 3134 3135 0
-3134 3133 3135 0
-3135 3133 3134 0
3136 -3 -43 -65 -78 0
-3136 3 0
-3136 43 0
-3136 65 0
-3136 78 0
3137 -15 -36 -43 -65 0
-3137 15 0
-3137 36 0
-3137 43 0
-3137 65 0
3138 -18 -33 -43 -65 0
-3138 18 0
-3138 33 0
-3138 43 0
-3138 65 0
-3136 3137 3138 0
-3137 3136 3138 0
-3138 3136 3137 0
3139 -3 -43 -66 -76 0
-3139 3 0
-3139 43 0
-3139 66 0
-3139 76 0
3140 -3 -46 -66 -70 0
-3140 3 0
-3140 46 0
-3140 66 0
-3140 70 0
3141 -3 -49 -66 -67 0
-3141 3 0
-3141 49 0
-3141 66 0
-3141 67 0
3142 -9 -39 -43 -76 0
-3142 9 0
-3142 39 0
-3142 43 0
-3142 76 0
3143 -9 -39 -46 -70 0
-3143 9 0
-3143 39 0
-3143 46 0
-3143 70 0
3144 -9 -39 -49 -67 0
-3144 9 0
-3144 39 0
-3144 49 0
-3144 67 0
3145 -21 -27 -43 -76 0
-3145 21 0
-3145 27 0
-3145 43 0
-3145 76 0
3146 -21 -27 -46 -70 0
-3146 21 0
-3146 27 0
-3146 46 0
-3146 70 0
3147 -21 -27 -49 -67 0
-3147 21 0
-3147 27 0
-3147 49 0
-3147 67 0
-3139 3140 3141 3142 3143 3144 3145 3146 3147 0
-3140 3139 3141 3142 3143 3144 3145 3146 3147 0
-3141 3139 3140 3142 3143 3144 3145 3146 3147 0
-3142 3139 3140 3141 3143 3144 3145 3146 3147 0
-3143 3139 3140 3141 3142 3144 3145 3146 3147 0
-3144 3139 3140 3141 3142 3143 3145 3146 3147 0
-3145 3139 3140 3141 3142 3143 3144 3146 3147 0
-3146 3139 3140 3141 3142 3143 3144 3145 3147 0
-3147 3139 3140 3141 3142 3143 3144 3145 3146 0
3148 -3 -43 -66 -77 0
-3148 3 0
-3148 43 0
-3148 66 0
-3148 77 0
3149 -9 -39 -43 -77 0
-3149 9 0
-3149 39 0
-3149 43 0
-3149 77 0
3150 -21 -27 -43 -77 0
-3150 21 0
-3150 27 0
-3150 43 0
-3150 77 0
-3148 3149 3150 0
-3149 3148 3150 0
-3150 3148 3149 0
3151 -3 -44 -64 -77 0
-3151 3 0
-3151 44 0
-3151 64 0
-3151 77 0
3152 -3 -47 -64 -71 0
-3152 3 0
-3152 47 0
-3152 64 0
-3152 71 0
3153 -3 -50 -64 -68 0
-3153 3 0
-3153 50 0
-3153 64 0
-3153 68 0
-3151 3152 3153 0
-3152 3151 3153 0
-3153 3151 3152 0
3154 -3 -44 -64 -78 0
-3154 3 0
-3154 44 0
-3154 64 0
-3154 78 0
3155 -15 -36 -44 -64 0
-3155 15 0
-3155 36 0
-3155 44 0
-3155 64 0
3156 -18 -33 -44 -64 0
-3156 18 0
-3156 33 0
-3156 44 0
-3156 64 0
-3154 3155 3156 0
-3155 3154 3156 0
-3156 3154 3155 0
3157 -3 -44 -66 -76 0
-3157 3 0
-3157 44 0
-3157 66 0
-3157 76 0
3158 -9 -39 -44 -76 0
-3158 9 0
-3158 39 0
-3158 44 0
-3158 76 0
3159 -21 -27 -44 -76 0
-3159 21 0
-3159 27 0
-3159 44 0
-3159 76 0
-3157 3158 3159 0
-3158 3157 3159 0
-3159 3157 3158 0
3160 -3 -44 -66 -77 0
-3160 3 0
-3160 44 0
-3160 66 0
-3160 77 0
3161 -3 -47 -66 -71 0
-3161 3 0
-3161 47 0
-3161 66 0
-3161 71 0
3162 -3 -50 -66 -68 0
-3162 3 0
-3162 50 0
-3162 66 0
-3162 68 0
3163 -9 -39 -44 -77 0
-3163 9 0
-3163 39 0
-3163 44 0
-3163 77 0
3164 -9 -39 -47 -71 0
-3164 9 0
-3164 39 0
-3164 47 0
-3164 71 0
3165 -9 -39 -50 -68 0
-3165 9 0
-3165 39 0
-3165 50 0
-3165 68 0
3166 -21 -27 -44 -77 0
-3166 21 0
-3166 27 0
-3166 44 0
-3166 77 0
3167 -21 -27 -47 -71 0
-3167 21 0
-3167 27 0
-3167 47 0
-3167 71 0
3168 -21 -27 -50 -68 0
-3168 21 0
-3168 27 0
-3168 50 0
-3168 68 0
-3160 3161 3162 3163 3164 3165 3166 3167 3168 0
-3161 3160 3162 3163 3164 3165 3166 3167 3168 0
-3162 3160 3161 3163 3164 3165 3166 3167 3168 0
-3163 3160 3161 3162 3164 3165 3166 3167 3168 0
-3164 3160 3161 3162 3163 3165 3166 3167 3168 0
-3165 3160 3161 3162 3163 3164 3166 3167 3168 0
-3166 3160 3161 3162 3163 3164 3165 3167 3168 0
-3167 3160 3161 3162 3163 3164 3165 3166 3168 0
-3168 3160 3161 3162 3163 3164 3165 3166 3167 0
3169 -3 -45 -64 -77 0
-3169 3 0
-3169 45 0
-3169 64 0
-3169 77 0
3170 -6 -30 -64 -77 0
-3170 6 0
-3170 30 0
-3170 64 0
-3170 77 0
3171 -12 -24 -64 -77 0
-3171 12 0
-3171 24 0
-3171 64 0
-3171 77 0
-3169 3170 3171 0
-3170 3169 3171 0
-3171 3169 3170 0
3172 -3 -45 -64 -78 0
-3172 3 0
-3172 45 0
-3172 64 0
-3172 78 0
3173 -3 -48 -64 -72 0
-3173 3 0
-3173 48 0
-3173 64 0
-3173 72 0
3174 -3 -51 -64 -69 0
-3174 3 0
-3174 51 0
-3174 64 0
-3174 69 0
3175 -6 -30 -64 -78 0
-3175 6 0
-3175 30 0
-3175 64 0
-3175 78 0
3176 -6 -33 -64 -72 0
-3176 6 0
-3176 33 0
-3176 64 0
-3176 72 0
3177 -6 -36 -64 -69 0
-3177 6 0
-3177 36 0
-3177 64 0
-3177 69 0
3178 -12 -24 -64 -78 0
-3178 12 0
-3178 24 0
-3178 64 0
-3178 78 0
3179 -12 -33 -51 -64 0
-3179 12 0
-3179 33 0
-3179 51 0
-3179 64 0
3180 -12 -36 -48 -64 0
-3180 12 0
-3180 36 0
-3180 48 0
-3180 64 0
3181 -15 -24 -64 -72 0
-3181 15 0
-3181 24 0
-3181 64 0
-3181 72 0
3182 -15 -30 -51 -64 0
-3182 15 0
-3182 30 0
-3182 51 0
-3182 64 0
3183 -15 -36 -45 -64 0
-3183 15 0
-3183 36 0
-3183 45 0
-3183 64 0
3184 -18 -24 -64 -69 0
-3184 18 0
-3184 24 0
-3184 64 0
-3184 69 0
3185 -18 -30 -48 -64 0
-3185 18 0
-3185 30 0
-3185 48 0
-3185 64 0
3186 -18 -33 -45 -64 0
-3186 18 0
-3186 33 0
-3186 45 0
-3186 64 0
-3172 3173 3174 3175 3176 3177 3178 3179 3180 3181 3182 3183 3184 3185 3186 0
-3173 3172 3174 3175 3176 3177 3178 3179 3180 3181 3182 3183 3184 3185 3186 0
-3174 3172 3173 3175 3176 3177 3178 3179 3180 3181 3182 3183 3184 3185 3186 0
-3175 3172 3173 3174 3176 3177 3178 3179 3180 3181 3182 3183 3184 3185 3186 0
-3176 3172 3173 3174 3175 3177 3178 3179 3180 3181 3182 3183 3184 3185 3186 0
-3177 3172 3173 3174 3175 3176 3178 3179 3180 3181 3182 3183 3184 3185 3186 0
-3178 3172 3173 3174 3175 3176 3177 3179 3180 3181 3182 3183 3184 3185 3186 0
-3179 3172 3173 3174 3175 3176 3177 3178 3180 3181 3182 3183 3184 3185 3186 0
-3180 3172 3173 3174 3175 3176 3177 3178 3179 3181 3182 3183 3184 3185 3186 0
-3181 3172 3173 3174 3175 3176 3177 3178 3179 3180 3182 3183 3184 3185 3186 0
-3182 3172 3173 3174 3175 3176 3177 3178 3179 3180 3181 3183 3184 3185 3186 0
-3183 3172 3173 3174 3175 3176 3177 3178 3179 3180 3181 3182 3184 3185 3186 0
-3184 3172 3173 3174 3175 3176 3177 3178 3179 3180 3181 3182 3183 3185 3186 0
-3185 3172 3173 3174 3175 3176 3177 3178 3179 3180 3181 3182 3183 3184 3186 0
-3186 3172 3173 3174 3175 3176 3177 3178 3179 3180 3181 3182 3183 3184 3185 0
3187 -3 -45 -65 -76 0
-3187 3 0
-3187 45 0
-3187 65 0
-3187 76 0
3188 -6 -30 -65 -76 0
-3188 6 0
-3188 30 0
-3188 65 0
-3188 76 0
3189 -12 -24 -65 -76 0
-3189 12 0
-3189 24 0
-3189 65 0
-3189 76 0
-3187 3188 3189 0
-3188 3187 3189 0
-3189 3187 3188 0
3190 -3 -45 -65 -78 0
-3190 3 0
-3190 45 0
-3190 65 0
-3190 78 0
3191 -3 -48 -65 -72 0
-3191 3 0
-3191 48 0
-3191 65 0
-3191 72 0
3192 -3 -51 -65 -69 0
-3192 3 0
-3192 51 0
-3192 65 0
-3192 69 0
3193 -6 -30 -65 -78 0
-3193 6 0
-3193 30 0
-3193 65 0
-3193 78 0
3194 -6 -33 -65 -72 0
-3194 6 0
-3194 33 0
-3194 65 0
-3194 72 0
3195 -6 -36 -65 -69 0
-3195 6 0
-3195 36 0
-3195 65 0
-3195 69 0
3196 -12 -24 -65 -78 0
-3196 12 0
-3196 24 0
-3196 65 0
-3196 78 0
3197 -12 -33 -51 -65 0
-3197 12 0
-3197 33 0
-3197 51 0
-3197 65 0
3198 -12 -36 -48 -65 0
-3198 12 0
-3198 36 0
-3198 48 0
-3198 65 0
3199 -15 -24 -65 -72 0
-3199 15 0
-3199 24 0
-3199 65 0
-3199 72 0
3200 -15 -30 -51 -65 0
-3200 15 0
-3200 30 0
-3200 51 0
-3200 65 0
3201 -15 -36 -45 -65 0
-3201 15 0
-3201 36 0
-3201 45 0
-3201 65 0
3202 -18 -24 -65 -69 0
-3202 18 0
-3202 24 0
-3202 65 0
-3202 69 0
3203 -18 -30 -48 -65 0
-3203 18 0
-3203 30 0
-3203 48 0
-3203 65 0
3204 -18 -33 -45 -65 0
-3204 18 0
-3204 33 0
-3204 45 0
-3204 65 0
-3190 3191 3192 3193 3194 3195 3196 3197 3198 3199 3200 3201 3202 3203 3204 0
-3191 3190 3192 3193 3194 3195 3196 3197 3198 3199 3200 3201 3202 3203 3204 0
-3192 3190 3191 3193 3194 3195 3196 3197 3198 3199 3200 3201 3202 3203 3204 0
-3193 3190 3191 3192 3194 3195 3196 3197 3198 3199 3200 3201 3202 3203 3204 0
-3194 3190 3191 3192 3193 3195 3196 3197 3198 3199 3200 3201 3202 3203 3204 0
-3195 3190 3191 3192 3193 3194 3196 3197 3198 3199 3200 3201 3202 3203 3204 0
-3196 3190 3191 3192 3193 3194 3195 3197 3198 3199 3200 3201 3202 3203 3204 0
-3197 3190 3191 3192 3193 3194 3195 3196 3198 3199 3200 3201 3202 3203 3204 0
-3198 3190 3191 3192 3193 3194 3195 3196 3197 3199 3200 3201 3202 3203 3204 0
-3199 3190 3191 3192 3193 3194 3195 3196 3197 3198 3200 3201 3202 3203 3204 0
-3200 3190 3191 3192 3193 3194 3195 3196 3197 3198 3199 3201 3202 3203 3204 0
-3201 3190 3191 3192 3193 3194 3195 3196 3197 3198 3199 3200 3202 3203 3204 0
-3202 3190 3191 3192 3193 3194 3195 3196 3197 3198 3199 3200 3201 3203 3204 0
-3203 3190 3191 3192 3193 3194 3195 3196 3197 3198 3199 3200 3201 3202 3204 0
-3204 3190 3191 3192 3193 3194 3195 3196 3197 3198 3199 3200 3201 3202 3203 0
3205 -1 -46 -56 -82 0
-3205 1 0
-3205 46 0
-3205 56 0
-3205 82 0
3206 -1 -49 -56 -79 0
-3206 1 0
-3206 49 0
-3206 56 0
-3206 79 0
3207 -1 -52 -56 -76 0
-3207 1 0
-3207 52 0
-3207 56 0
-3207 76 0
3208 -4 -31 -56 -82 0
-3208 4 0
-3208 31 0
-3208 56 0
-3208 82 0
3209 -4 -34 -56 -79 0
-3209 4 0
-3209 34 0
-3209 56 0
-3209 79 0
3210 -4 -37 -56 -76 0
-3210 4 0
-3210 37 0
-3210 56 0
-3210 76 0
3211 -13 -22 -56 -82 0
-3211 13 0
-3211 22 0
-3211 56 0
-3211 82 0
3212 -13 -34 -52 -56 0
-3212 13 0
-3212 34 0
-3212 52 0
-3212 56 0
3213 -13 -37 -49 -56 0
-3213 13 0
-3213 37 0
-3213 49 0
-3213 56 0
3214 -16 -22 -56 -79 0
-3214 16 0
-3214 22 0
-3214 56 0
-3214 79 0
3215 -16 -31 -52 -56 0
-3215 16 0
-3215 31 0
-3215 52 0
-3215 56 0
3216 -16 -37 -46 -56 0
-3216 16 0
-3216 37 0
-3216 46 0
-3216 56 0
3217 -19 -22 -56 -76 0
-3217 19 0
-3217 22 0
-3217 56 0
-3217 76 0
3218 -19 -31 -49 -56 0
-3218 19 0
-3218 31 0
-3218 49 0
-3218 56 0
3219 -19 -34 -46 -56 0
-3219 19 0
-3219 34 0
-3219 46 0
-3219 56 0
-3205 3206 3207 3208 3209 3210 3211 3212 3213 3214 3215 3216 3217 3218 3219 0
-3206 3205 3207 3208 3209 3210 3211 3212 3213 3214 3215 3216 3217 3218 3219 0
-3207 3205 3206 3208 3209 3210 3211 3212 3213 3214 3215 3216 3217 3218 3219 0
-3208 3205 3206 3207 3209 3210 3211 3212 3213 3214 3215 3216 3217 3218 3219 0
-3209 3205 3206 3207 3208 3210 3211 3212 3213 3214 3215 3216 3217 3218 3219 0
-3210 3205 3206 3207 3208 3209 3211 3212 3213 3214 3215 3216 3217 3218 3219 0
-3211 3205 3206 3207 3208 3209 3210 3212 3213 3214 3215 3216 3217 3218 3219 0
-3212 3205 3206 3207 3208 3209 3210 3211 3213 3214 3215 3216 3217 3218 3219 0
-3213 3205 3206 3207 3208 3209 3210 3211 3212 3214 3215 3216 3217 3218 3219 0
-3214 3205 3206 3207 3208 3209 3210 3211 3212 3213 3215 3216 3217 3218 3219 0
-3215 3205 3206 3207 3208 3209 3210 3211 3212 3213 3214 3216 3217 3218 3219 0
-3216 3205 3206 3207 3208 3209 3210 3211 3212 3213 3214 3215 3217 3218 3219 0
-3217 3205 3206 3207 3208 3209 3210 3211 3212 3213 3214 3215 3216 3218 3219 0
-3218 3205 3206 3207 3208 3209 3210 3211 3212 3213 3214 3215 3216 3217 3219 0
-3219 3205 3206 3207 3208 3209 3210 3211 3212 3213 3214 3215 3216 3217 3218 0
3220 -1 -46 -56 -83 0
-3220 1 0
-3220 46 0
-3220 56 0
-3220 83 0
3221 -1 -46 -62 -74 0
-3221 1 0
-3221 46 0
-3221 62 0
-3221 74 0
3222 -1 -46 -65 -71 0
-3222 1 0
-3222 46 0
-3222 65 0
-3222 71 0
3223 -4 -31 -56 -83 0
-3223 4 0
-3223 31 0
-3223 56 0
-3223 83 0
3224 -4 -31 -62 -74 0
-3224 4 0
-3224 31 0
-3224 62 0
-3224 74 0
3225 -4 -31 -65 -71 0
-3225 4 0
-3225 31 0
-3225 65 0
-3225 71 0
3226 -13 -22 -56 -83 0
-3226 13 0
-3226 22 0
-3226 56 0
-3226 83 0
3227 -13 -22 -62 -74 0
-3227 13 0
-3227 22 0
-3227 62 0
-3227 74 0
3228 -13 -22 -65 -71 0
-3228 13 0
-3228 22 0
-3228 65 0
-3228 71 0
-3220 3221 3222 3223 3224 3225 3226 3227 3228 0
-3221 3220 3222 3223 3224 3225 3226 3227 3228 0
-3222 3220 3221 3223 3224 3225 3226 3227 3228 0
-3223 3220 3221 3222 3224 3225 3226 3227 3228 0
-3224 3220 3221 3222 3223 3225 3226 3227 3228 0
-3225 3220 3221 3222 3223 3224 3226 3227 3228 0
-3226 3220 3221 3222 3223 3224 3225 3227 3228 0
-3227 3220 3221 3222 3223 3224 3225 3226 3228 0
-3228 3220 3221 3222 3223 3224 3225 3226 3227 0
3229 -1 -46 -56 -84 0
-3229 1 0
-3229 46 0
-3229 56 0
-3229 84 0
3230 -4 -31 -56 -84 0
-3230 4 0
-3230 31 0
-3230 56 0
-3230 84 0
3231 -13 -22 -56 -84 0
-3231 13 0
-3231 22 0
-3231 56 0
-3231 84 0
-3229 3230 3231 0
-3230 3229 3231 0
-3231 3229 3230 0
3232 -1 -46 -57 -82 0
-3232 1 0
-3232 46 0
-3232 57 0
-3232 82 0
3233 -1 -49 -57 -79 0
-3233 1 0
-3233 49 0
-3233 57 0
-3233 79 0
3234 -1 -52 -57 -76 0
-3234 1 0
-3234 52 0
-3234 57 0
-3234 76 0
3235 -4 -31 -57 -82 0
-3235 4 0
-3235 31 0
-3235 57 0
-3235 82 0
3236 -4 -34 -57 -79 0
-3236 4 0
-3236 34 0
-3236 57 0
-3236 79 0
3237 -4 -37 -57 -76 0
-3237 4 0
-3237 37 0
-3237 57 0
-3237 76 0
3238 -13 -22 -57 -82 0
-3238 13 0
-3238 22 0
-3238 57 0
-3238 82 0
3239 -13 -34 -52 -57 0
-3239 13 0
-3239 34 0
-3239 52 0
-3239 57 0
3240 -13 -37 -49 -57 0
-3240 13 0
-3240 37 0
-3240 49 0
-3240 57 0
3241 -16 -22 -57 -79 0
-3241 16 0
-3241 22 0
-3241 57 0
-3241 79 0
3242 -16 -31 -52 -57 0
-3242 16 0
-3242 31 0
-3242 52 0
-3242 57 0
3243 -16 -37 -46 -57 0
-3243 16 0
-3243 37 0
-3243 46 0
-3243 57 0
3244 -19 -22 -57 -76 0
-3244 19 0
-3244 22 0
-3244 57 0
-3244 76 0
3245 -19 -31 -49 -57 0
-3245 19 0
-3245 31 0
-3245 49 0
-3245 57 0
3246 -19 -34 -46 -57 0
-3246 19 0
-3246 34 0
-3246 46 0
-3246 57 0
-3232 3233 3234 3235 3236 3237 3238 3239 3240 3241 3242 3243 3244 3245 3246 0
-3233 3232 3234 3235 3236 3237 3238 3239 3240 3241 3242 3243 3244 3245 3246 0
-3234 3232 3233 3235 3236 3237 3238 3239 3240 3241 3242 3243 3244 3245 3246 0
-3235 3232 3233 3234 3236 3237 3238 3239 3240 3241 3242 3243 3244 3245 3246 0
-3236 3232 3233 3234 3235 3237 3238 3239 3240 3241 3242 3243 3244 3245 3246 0
-3237 3232 3233 3234 3235 3236 3238 3239 3240 3241 3242 3243 3244 3245 3246 0
-3238 3232 3233 3234 3235 3236 3237 3239 3240 3241 3242 3243 3244 3245 3246 0
-3239 3232 3233 3234 3235 3236 3237 3238 3240 3241 3242 3243 3244 3245 3246 0
-3240 3232 3233 3234 3235 3236 3237 3238 3239 3241 3242 3243 3244 3245 3246 0
-3241 3232 3233 3234 3235 3236 3237 3238 3239 3240 3242 3243 3244 3245 3246 0
-3242 3232 3233 3234 3235 3236 3237 3238 3239 3240 3241 3243 3244 3245 3246 0
-3243 3232 3233 3234 3235 3236 3237 3238 3239 3240 3241 3242 3244 3245 3246 0
-3244 3232 3233 3234 3235 3236 3237 3238 3239 3240 3241 3242 3243 3245 3246 0
-3245 3232 3233 3234 3235 3236 3237 3238 3239 3240 3241 3242 3243 3244 3246 0
-3246 3232 3233 3234 3235 3236 3237 3238 3239 3240 3241 3242 3243 3244 3245 0
3247 -1 -46 -57 -83 0
-3247 1 0
-3247 46 0
-3247 57 0
-3247 83 0
3248 -4 -31 -57 -83 0
-3248 4 0
-3248 31 0
-3248 57 0
-3248 83 0
3249 -13 -22 -57 -83 0
-3249 13 0
-3249 22 0
-3249 57 0
-3249 83 0
-3247 3248 3249 0
-3248 3247 3249 0
-3249 3247 3248 0
3250 -1 -46 -57 -84 0
-3250 1 0
-3250 46 0
-3250 57 0
-3250 84 0
3251 -1 -46 -63 -75 0
-3251 1 0
-3251 46 0
-3251 63 0
-3251 75 0
3252 -1 -46 -66 -72 0
-3252 1 0
-3252 46 0
-3252 66 0
-3252 72 0
3253 -4 -31 -57 -84 0
-3253 4 0
-3253 31 0
-3253 57 0
-3253 84 0
3254 -4 -31 -63 -75 0
-3254 4 0
-3254 31 0
-3254 63 0
-3254 75 0
3255 -4 -31 -66 -72 0
-3255 4 0
-3255 31 0
-3255 66 0
-3255 72 0
3256 -13 -22 -57 -84 0
-3256 13 0
-3256 22 0
-3256 57 0
-3256 84 0
3257 -13 -22 -63 -75 0
-3257 13 0
-3257 22 0
-3257 63 0
-3257 75 0
3258 -13 -22 -66 -72 0
-3258 13 0
-3258 22 0
-3258 66 0
-3258 72 0
-3250 3251 3252 3253 3254 3255 3256 3257 3258 0
-3251 3250 3252 3253 3254 3255 3256 3257 3258 0
-3252 3250 3251 3253 3254 3255 3256 3257 3258 0
-3253 3250 3251 3252 3254 3255 3256 3257 3258 0
-3254 3250 3251 3252 3253 3255 3256 3257 3258 0
-3255 3250 3251 3252 3253 3254 3256 3257 3258 0
-3256 3250 3251 3252 3253 3254 3255 3257 3258 0
-3257 3250 3251 3252 3253 3254 3255 3256 3258 0
-3258 3250 3251 3252 3253 3254 3255 3256 3257 0
3259 -1 -47 -55 -82 0
-3259 1 0
-3259 47 0
-3259 55 0
-3259 82 0
3260 -1 -47 -61 -73 0
-3260 1 0
-3260 47 0
-3260 61 0
-3260 73 0
3261 -1 -47 -64 -70 0
-3261 1 0
-3261 47 0
-3261 64 0
-3261 70 0
3262 -7 -28 -47 -82 0
-3262 7 0
-3262 28 0
-3262 47 0
-3262 82 0
3263 -7 -34 -47 -73 0
-3263 7 0
-3263 34 0
-3263 47 0
-3263 73 0
3264 -7 -37 -47 -70 0
-3264 7 0
-3264 37 0
-3264 47 0
-3264 70 0
3265 -10 -25 -47 -82 0
-3265 10 0
-3265 25 0
-3265 47 0
-3265 82 0
3266 -10 -34 -47 -64 0
-3266 10 0
-3266 34 0
-3266 47 0
-3266 64 0
3267 -10 -37 -47 -61 0
-3267 10 0
-3267 37 0
-3267 47 0
-3267 61 0
3268 -16 -25 -47 -73 0
-3268 16 0
-3268 25 0
-3268 47 0
-3268 73 0
3269 -16 -28 -47 -64 0
-3269 16 0
-3269 28 0
-3269 47 0
-3269 64 0
3270 -16 -37 -47 -55 0
-3270 16 0
-3270 37 0
-3270 47 0
-3270 55 0
3271 -19 -25 -47 -70 0
-3271 19 0
-3271 25 0
-3271 47 0
-3271 70 0
3272 -19 -28 -47 -61 0
-3272 19 0
-3272 28 0
-3272 47 0
-3272 61 0
3273 -19 -34 -47 -55 0
-3273 19 0
-3273 34 0
-3273 47 0
-3273 55 0
-3259 3260 3261 3262 3263 3264 3265 3266 3267 3268 3269 3270 3271 3272 3273 0
-3260 3259 3261 3262 3263 3264 3265 3266 3267 3268 3269 3270 3271 3272 3273 0
-3261 3259 3260 3262 3263 3264 3265 3266 3267 3268 3269 3270 3271 3272 3273 0
-3262 3259 3260 3261 3263 3264 3265 3266 3267 3268 3269 3270 3271 3272 3273 0
-3263 3259 3260 3261 3262 3264 3265 3266 3267 3268 3269 3270 3271 3272 3273 0
-3264 3259 3260 3261 3262 3263 3265 3266 3267 3268 3269 3270 3271 3272 3273 0
-3265 3259 3260 3261 3262 3263 3264 3266 3267 3268 3269 3270 3271 3272 3273 0
-3266 3259 3260 3261 3262 3263 3264 3265 3267 3268 3269 3270 3271 3272 3273 0
-3267 3259 3260 3261 3262 3263 3264 3265 3266 3268 3269 3270 3271 3272 3273 0
-3268 3259 3260 3261 3262 3263 3264 3265 3266 3267 3269 3270 3271 3272 3273 0
-3269 3259 3260 3261 3262 3263 3264 3265 3266 3267 3268 3270 3271 3272 3273 0
-3270 3259 3260 3261 3262 3263 3264 3265 3266 3267 3268 3269 3271 3272 3273 0
-3271 3259 3260 3261 3262 3263 3264 3265 3266 3267 3268 3269 3270 3272 3273 0
-3272 3259 3260 3261 3262 3263 3264 3265 3266 3267 3268 3269 3270 3271 3273 0
-3273 3259 3260 3261 3262 3263 3264 3265 3266 3267 3268 3269 3270 3271 3272 0
3274 -1 -47 -55 -83 0
-3274 1 0
-3274 47 0
-3274 55 0
-3274 83 0
3275 -1 -50 -55 -80 0
-3275 1 0
-3275 50 0
-3275 55 0
-3275 80 0
3276 -1 -53 -55 -77 0
-3276 1 0
-3276 53 0
-3276 55 0
-3276 77 0
3277 -7 -28 -47 -83 0
-3277 7 0
-3277 28 0
-3277 47 0
-3277 83 0
3278 -7 -28 -50 -80 0
-3278 7 0
-3278 28 0
-3278 50 0
-3278 80 0
3279 -7 -28 -53 -77 0
-3279 7 0
-3279 28 0
-3279 53 0
-3279 77 0
3280 -10 -25 -47 -83 0
-3280 10 0
-3280 25 0
-3280 47 0
-3280 83 0
3281 -10 -25 -50 -80 0
-3281 10 0
-3281 25 0
-3281 50 0
-3281 80 0
3282 -10 -25 -53 -77 0
-3282 10 0
-3282 25 0
-3282 53 0
-3282 77 0
-3274 3275 3276 3277 3278 3279 3280 3281 3282 0
-3275 3274 3276 3277 3278 3279 3280 3281 3282 0
-3276 3274 3275 3277 3278 3279 3280 3281 3282 0
-3277 3274 3275 3276 3278 3279 3280 3281 3282 0
-3278 3274 3275 3276 3277 3279 3280 3281 3282 0
-3279 3274 3275 3276 3277 3278 3280 3281 3282 0
-3280 3274 3275 3276 3277 3278 3279 3281 3282 0
-3281 3274 3275 3276 3277 3278 3279 3280 3282 0
-3282 3274 3275 3276 3277 3278 3279 3280 3281 0
3283 -1 -47 -55 -84 0
-3283 1 0
-3283 47 0
-3283 55 0
-3283 84 0
3284 -7 -28 -47 -84 0
-3284 7 0
-3284 28 0
-3284 47 0
-3284 84 0
3285 -10 -25 -47 -84 0
-3285 10 0
-3285 25 0
-3285 47 0
-3285 84 0
-3283 3284 3285 0
-3284 3283 3285 0
-3285 3283 3284 0
3286 -1 -47 -57 -82 0
-3286 1 0
-3286 47 0
-3286 57 0
-3286 82 0
3287 -16 -37 -47 -57 0
-3287 16 0
-3287 37 0
-3287 47 0
-3287 57 0
3288 -19 -34 -47 -57 0
-3288 19 0
-3288 34 0
-3288 47 0
-3288 57 0
-3286 3287 3288 0
-3287 3286 3288 0
-3288 3286 3287 0
3289 -1 -47 -57 -83 0
-3289 1 0
-3289 47 0
-3289 57 0
-3289 83 0
3290 -1 -50 -57 -80 0
-3290 1 0
-3290 50 0
-3290 57 0
-3290 80 0
3291 -1 -53 -57 -77 0
-3291 1 0
-3291 53 0
-3291 57 0
-3291 77 0
-3289 3290 3291 0
-3290 3289 3291 0
-3291 3289 3290 0
3292 -1 -47 -57 -84 0
-3292 1 0
-3292 47 0
-3292 57 0
-3292 84 0
3293 -1 -47 -63 -75 0
-3293 1 0
-3293 47 0
-3293 63 0
-3293 75 0
3294 -1 -47 -66 -72 0
-3294 1 0
-3294 47 0
-3294 66 0
-3294 72 0
-3292 3293 3294 0
-3293 3292 3294 0
-3294 3292 3293 0
3295 -1 -48 -55 -82 0
-3295 1 0
-3295 48 0
-3295 55 0
-3295 82 0
3296 -1 -48 -61 -73 0
-3296 1 0
-3296 48 0
-3296 61 0
-3296 73 0
3297 -1 -48 -64 -70 0
-3297 1 0
-3297 48 0
-3297 64 0
-3297 70 0
3298 -7 -28 -48 -82 0
-3298 7 0
-3298 28 0
-3298 48 0
-3298 82 0
3299 -7 -34 -48 -73 0
-3299 7 0
-3299 34 0
-3299 48 0
-3299 73 0
3300 -7 -37 -48 -70 0
-3300 7 0
-3300 37 0
-3300 48 0
-3300 70 0
3301 -10 -25 -48 -82 0
-3301 10 0
-3301 25 0
-3301 48 0
-3301 82 0
3302 -10 -34 -48 -64 0
-3302 10 0
-3302 34 0
-3302 48 0
-3302 64 0
3303 -10 -37 -48 -61 0
-3303 10 0
-3303 37 0
-3303 48 0
-3303 61 0
3304 -16 -25 -48 -73 0
-3304 16 0
-3304 25 0
-3304 48 0
-3304 73 0
3305 -16 -28 -48 -64 0
-3305 16 0
-3305 28 0
-3305 48 0
-3305 64 0
3306 -16 -37 -48 -55 0
-3306 16 0
-3306 37 0
-3306 48 0
-3306 55 0
3307 -19 -25 -48 -70 0
-3307 19 0
-3307 25 0
-3307 48 0
-3307 70 0
3308 -19 -28 -48 -61 0
-3308 19 0
-3308 28 0
-3308 48 0
-3308 61 0
3309 -19 -34 -48 -55 0
-3309 19 0
-3309 34 0
-3309 48 0
-3309 55 0
-3295 3296 3297 3298 3299 3300 3301 3302 3303 3304 3305 3306 3307 3308 3309 0
-3296 3295 3297 3298 3299 3300 3301 3302 3303 3304 3305 3306 3307 3308 3309 0
-3297 3295 3296 3298 3299 3300 3301 3302 3303 3304 3305 3306 3307 3308 3309 0
-3298 3295 3296 3297 3299 3300 3301 3302 3303 3304 3305 3306 3307 3308 3309 0
-3299 3295 3296 3297 3298 3300 3301 3302 3303 3304 3305 3306 3307 3308 3309 0
-3300 3295 3296 3297 3298 3299 3301 3302 3303 3304 3305 3306 3307 3308 3309 0
-3301 3295 3296 3297 3298 3299 3300 3302 3303 3304 3305 3306 3307 3308 3309 0
-3302 3295 3296 3297 3298 3299 3300 3301 3303 3304 3305 3306 3307 3308 3309 0
-3303 3295 3296 3297 3298 3299 3300 3301 3302 3304 3305 3306 3307 3308 3309 0
-3304 3295 3296 3297 3298 3299 3300 3301 3302 3303 3305 3306 3307 3308 3309 0
-3305 3295 3296 3297 3298 3299 3300 3301 3302 3303 3304 3306 3307 3308 3309 0
-3306 3295 3296 3297 3298 3299 3300 3301 3302 3303 3304 3305 3307 3308 3309 0
-3307 3295 3296 3297 3298 3299 3300 3301 3302 3303 3304 3305 3306 3308 3309 0
-3308 3295 3296 3297 3298 3299 3300 3301 3302 3303 3304 3305 3306 3307 3309 0
-3309 3295 3296 3297 3298 3299 3300 3301 3302 3303 3304 3305 3306 3307 3308 0
3310 -1 -48 -55 -83 0
-3310 1 0
-3310 48 0
-3310 55 0
-3310 83 0
3311 -7 -28 -48 -83 0
-3311 7 0
-3311 28 0
-3311 48 0
-3311 83 0
3312 -10 -25 -48 -83 0
-3312 10 0
-3312 25 0
-3312 48 0
-3312 83 0
-3310 3311 3312 0
-3311 3310 3312 0
-3312 3310 3311 0
3313 -1 -48 -55 -84 0
-3313 1 0
-3313 48 0
-3313 55 0
-3313 84 0
3314 -1 -51 -55 -81 0
-3314 1 0
-3314 51 0
-3314 55 0
-3314 81 0
3315 -1 -54 -55 -78 0
-3315 1 0
-3315 54 0
-3315 55 0
-3315 78 0
3316 -7 -28 -48 -84 0
-3316 7 0
-3316 28 0
-3316 48 0
-3316 84 0
3317 -7 -28 -51 -81 0
-3317 7 0
-3317 28 0
-3317 51 0
-3317 81 0
3318 -7 -28 -54 -78 0
-3318 7 0
-3318 28 0
-3318 54 0
-3318 78 0
3319 -10 -25 -48 -84 0
-3319 10 0
-3319 25 0
-3319 48 0
-3319 84 0
3320 -10 -25 -51 -81 0
-3320 10 0
-3320 25 0
-3320 51 0
-3320 81 0
3321 -10 -25 -54 -78 0
-3321 10 0
-3321 25 0
-3321 54 0
-3321 78 0
-3313 3314 3315 3316 3317 3318 3319 3320 3321 0
-3314 3313 3315 3316 3317 3318 3319 3320 3321 0
-3315 3313 3314 3316 3317 3318 3319 3320 3321 0
-3316 3313 3314 3315 3317 3318 3319 3320 3321 0
-3317 3313 3314 3315 3316 3318 3319 3320 3321 0
-3318 3313 3314 3315 3316 3317 3319 3320 3321 0
-3319 3313 3314 3315 3316 3317 3318 3320 3321 0
-3320 3313 3314 3315 3316 3317 3318 3319 3321 0
-3321 3313 3314 3315 3316 3317 3318 3319 3320 0
3322 -1 -48 -56 -82 0
-3322 1 0
-3322 48 0
-3322 56 0
-3322 82 0
3323 -16 -37 -48 -56 0
-3323 16 0
-3323 37 0
-3323 48 0
-3323 56 0
3324 -19 -34 -48 -56 0
-3324 19 0
-3324 34 0
-3324 48 0
-3324 56 0
-3322 3323 3324 0
-3323 3322 3324 0
-3324 3322 3323 0
3325 -1 -48 -56 -83 0
-3325 1 0
-3325 48 0
-3325 56 0
-3325 83 0
3326 -1 -48 -62 -74 0
-3326 1 0
-3326 48 0
-3326 62 0
-3326 74 0
3327 -1 -48 -65 -71 0
-3327 1 0
-3327 48 0
-3327 65 0
-3327 71 0
-3325 3326 3327 0
-3326 3325 3327 0
-3327 3325 3326 0
3328 -1 -48 -56 -84 0
-3328 1 0
-3328 48 0
-3328 56 0
-3328 84 0
3329 -1 -51 -56 -81 0
-3329 1 0
-3329 51 0
-3329 56 0
-3329 81 0
3330 -1 -54 -56 -78 0
-3330 1 0
-3330 54 0
-3330 56 0
-3330 78 0
-3328 3329 3330 0
-3329 3328 3330 0
-3330 3328 3329 0
3331 -2 -46 -56 -82 0
-3331 2 0
-3331 46 0
-3331 56 0
-3331 82 0
3332 -2 -49 -56 -79 0
-3332 2 0
-3332 49 0
-3332 56 0
-3332 79 0
3333 -2 -52 -56 -76 0
-3333 2 0
-3333 52 0
-3333 56 0
-3333 76 0
3334 -8 -29 -46 -82 0
-3334 8 0
-3334 29 0
-3334 46 0
-3334 82 0
3335 -8 -29 -49 -79 0
-3335 8 0
-3335 29 0
-3335 49 0
-3335 79 0
3336 -8 -29 -52 -76 0
-3336 8 0
-3336 29 0
-3336 52 0
-3336 76 0
3337 -11 -26 -46 -82 0
-3337 11 0
-3337 26 0
-3337 46 0
-3337 82 0
3338 -11 -26 -49 -79 0
-3338 11 0
-3338 26 0
-3338 49 0
-3338 79 0
3339 -11 -26 -52 -76 0
-3339 11 0
-3339 26 0
-3339 52 0
-3339 76 0
-3331 3332 3333 3334 3335 3336 3337 3338 3339 0
-3332 3331 3333 3334 3335 3336 3337 3338 3339 0
-3333 3331 3332 3334 3335 3336 3337 3338 3339 0
-3334 3331 3332 3333 3335 3336 3337 3338 3339 0
-3335 3331 3332 3333 3334 3336 3337 3338 3339 0
-3336 3331 3332 3333 3334 3335 3337 3338 3339 0
-3337 3331 3332 3333 3334 3335 3336 3338 3339 0
-3338 3331 3332 3333 3334 3335 3336 3337 3339 0
-3339 3331 3332 3333 3334 3335 3336 3337 3338 0
3340 -2 -46 -56 -83 0
-3340 2 0
-3340 46 0
-3340 56 0
-3340 83 0
3341 -2 -46 -62 -74 0
-3341 2 0
-3341 46 0
-3341 62 0
-3341 74 0
3342 -2 -46 -65 -71 0
-3342 2 0
-3342 46 0
-3342 65 0
-3342 71 0
3343 -8 -29 -46 -83 0
-3343 8 0
-3343 29 0
-3343 46 0
-3343 83 0
3344 -8 -35 -46 -74 0
-3344 8 0
-3344 35 0
-3344 46 0
-3344 74 0
3345 -8 -38 -46 -71 0
-3345 8 0
-3345 38 0
-3345 46 0
-3345 71 0
3346 -11 -26 -46 -83 0
-3346 11 0
-3346 26 0
-3346 46 0
-3346 83 0
3347 -11 -35 -46 -65 0
-3347 11 0
-3347 35 0
-3347 46 0
-3347 65 0
3348 -11 -38 -46 -62 0
-3348 11 0
-3348 38 0
-3348 46 0
-3348 62 0
3349 -17 -26 -46 -74 0
-3349 17 0
-3349 26 0
-3349 46 0
-3349 74 0
3350 -17 -29 -46 -65 0
-3350 17 0
-3350 29 0
-3350 46 0
-3350 65 0
3351 -17 -38 -46 -56 0
-3351 17 0
-3351 38 0
-3351 46 0
-3351 56 0
3352 -20 -26 -46 -71 0
-3352 20 0
-3352 26 0
-3352 46 0
-3352 71 0
3353 -20 -29 -46 -62 0
-3353 20 0
-3353 29 0
-3353 46 0
-3353 62 0
3354 -20 -35 -46 -56 0
-3354 20 0
-3354 35 0
-3354 46 0
-3354 56 0
-3340 3341 3342 3343 3344 3345 3346 3347 3348 3349 3350 3351 3352 3353 3354 0
-3341 3340 3342 3343 3344 3345 3346 3347 3348 3349 3350 3351 3352 3353 3354 0
-3342 3340 3341 3343 3344 3345 3346 3347 3348 3349 3350 3351 3352 3353 3354 0
-3343 3340 3341 3342 3344 3345 3346 3347 3348 3349 3350 3351 3352 3353 3354 0
-3344 3340 3341 3342 3343 3345 3346 3347 3348 3349 3350 3351 3352 3353 3354 0
-3345 3340 3341 3342 3343 3344 3346 3347 3348 3349 3350 3351 3352 3353 3354 0
-3346 3340 3341 3342 3343 3344 3345 3347 3348 3349 3350 3351 3352 3353 3354 0
-3347 3340 3341 3342 3343 3344 3345 3346 3348 3349 3350 3351 3352 3353 3354 0
-3348 3340 3341 3342 3343 3344 3345 3346 3347 3349 3350 3351 3352 3353 3354 0
-3349 3340 3341 3342 3343 3344 3345 3346 3347 3348 3350 3351 3352 3353 3354 0
-3350 3340 3341 3342 3343 3344 3345 3346 3347 3348 3349 3351 3352 3353 3354 0
-3351 3340 3341 3342 3343 3344 3345 3346 3347 3348 3349 3350 3352 3353 3354 0
-3352 3340 3341 3342 3343 3344 3345 3346 3347 3348 3349 3350 3351 3353 3354 0
-3353 3340 3341 3342 3343 3344 3345 3346 3347 3348 3349 3350 3351 3352 3354 0
-3354 3340 3341 3342 3343 3344 3345 3346 3347 3348 3349 3350 3351 3352 3353 0
3355 -2 -46 -56 -84 0
-3355 2 0
-3355 46 0
-3355 56 0
-3355 84 0
3356 -8 -29 -46 -84 0
-3356 8 0
-3356 29 0
-3356 46 0
-3356 84 0
3357 -11 -26 -46 -84 0
-3357 11 0
-3357 26 0
-3357 46 0
-3357 84 0
-3355 3356 3357 0
-3356 3355 3357 0
-3357 3355 3356 0
3358 -2 -46 -57 -82 0
-3358 2 0
-3358 46 0
-3358 57 0
-3358 82 0
3359 -2 -49 -57 -79 0
-3359 2 0
-3359 49 0
-3359 57 0
-3359 79 0
3360 -2 -52 -57 -76 0
-3360 2 0
-3360 52 0
-3360 57 0
-3360 76 0
-3358 3359 3360 0
-3359 3358 3360 0
-3360 3358 3359 0
3361 -2 -46 -57 -83 0
-3361 2 0
-3361 46 0
-3361 57 0
-3361 83 0
3362 -17 -38 -46 -57 0
-3362 17 0
-3362 38 0
-3362 46 0
-3362 57 0
3363 -20 -35 -46 -57 0
-3363 20 0
-3363 35 0
-3363 46 0
-3363 57 0
-3361 3362 3363 0
-3362 3361 3363 0
-3363 3361 3362 0
3364 -2 -46 -57 -84 0
-3364 2 0
-3364 46 0
-3364 57 0
-3364 84 0
3365 -2 -46 -63 -75 0
-3365 2 0
-3365 46 0
-3365 63 0
-3365 75 0
3366 -2 -46 -66 -72 0
-3366 2 0
-3366 46 0
-3366 66 0
-3366 72 0
-3364 3365 3366 0
-3365 3364 3366 0
-3366 3364 3365 0
3367 -2 -47 -55 -82 0
-3367 2 0
-3367 47 0
-3367 55 0
-3367 82 0
3368 -2 -47 -61 -73 0
-3368 2 0
-3368 47 0
-3368 61 0
-3368 73 0
3369 -2 -47 -64 -70 0
-3369 2 0
-3369 47 0
-3369 64 0
-3369 70 0
3370 -5 -32 -55 -82 0
-3370 5 0
-3370 32 0
-3370 55 0
-3370 82 0
3371 -5 -32 -61 -73 0
-3371 5 0
-3371 32 0
-3371 61 0
-3371 73 0
3372 -5 -32 -64 -70 0
-3372 5 0
-3372 32 0
-3372 64 0
-3372 70 0
3373 -14 -23 -55 -82 0
-3373 14 0
-3373 23 0
-3373 55 0
-3373 82 0
3374 -14 -23 -61 -73 0
-3374 14 0
-3374 23 0
-3374 61 0
-3374 73 0
3375 -14 -23 -64 -70 0
-3375 14 0
-3375 23 0
-3375 64 0
-3375 70 0
-3367 3368 3369 3370 3371 3372 3373 3374 3375 0
-3368 3367 3369 3370 3371 3372 3373 3374 3375 0
-3369 3367 3368 3370 3371 3372 3373 3374 3375 0
-3370 3367 3368 3369 3371 3372 3373 3374 3375 0
-3371 3367 3368 3369 3370 3372 3373 3374 3375 0
-3372 3367 3368 3369 3370 3371 3373 3374 3375 0
-3373 3367 3368 3369 3370 3371 3372 3374 3375 0
-3374 3367 3368 3369 3370 3371 3372 3373 3375 0
-3375 3367 3368 3369 3370 3371 3372 3373 3374 0
3376 -2 -47 -55 -83 0
-3376 2 0
-3376 47 0
-3376 55 0
-3376 83 0
3377 -2 -50 -55 -80 0
-3377 2 0
-3377 50 0
-3377 55 0
-3377 80 0
3378 -2 -53 -55 -77 0
-3378 2 0
-3378 53 0
-3378 55 0
-3378 77 0
3379 -5 -32 -55 -83 0
-3379 5 0
-3379 32 0
-3379 55 0
-3379 83 0
3380 -5 -35 -55 -80 0
-3380 5 0
-3380 35 0
-3380 55 0
-3380 80 0
3381 -5 -38 -55 -77 0
-3381 5 0
-3381 38 0
-3381 55 0
-3381 77 0
3382 -14 -23 -55 -83 0
-3382 14 0
-3382 23 0
-3382 55 0
-3382 83 0
3383 -14 -35 -53 -55 0
-3383 14 0
-3383 35 0
-3383 53 0
-3383 55 0
3384 -14 -38 -50 -55 0
-3384 14 0
-3384 38 0
-3384 50 0
-3384 55 0
3385 -17 -23 -55 -80 0
-3385 17 0
-3385 23 0
-3385 55 0
-3385 80 0
3386 -17 -32 -53 -55 0
-3386 17 0
-3386 32 0
-3386 53 0
-3386 55 0
3387 -17 -38 -47 -55 0
-3387 17 0
-3387 38 0
-3387 47 0
-3387 55 0
3388 -20 -23 -55 -77 0
-3388 20 0
-3388 23 0
-3388 55 0
-3388 77 0
3389 -20 -32 -50 -55 0
-3389 20 0
-3389 32 0
-3389 50 0
-3389 55 0
3390 -20 -35 -47 -55 0
-3390 20 0
-3390 35 0
-3390 47 0
-3390 55 0
-3376 3377 3378 3379 3380 3381 3382 3383 3384 3385 3386 3387 3388 3389 3390 0
-3377 3376 3378 3379 3380 3381 3382 3383 3384 3385 3386 3387 3388 3389 3390 0
-3378 3376 3377 3379 3380 3381 3382 3383 3384 3385 3386 3387 3388 3389 3390 0
-3379 3376 3377 3378 3380 3381 3382 3383 3384 3385 3386 3387 3388 3389 3390 0
-3380 3376 3377 3378 3379 3381 3382 3383 3384 3385 3386 3387 3388 3389 3390 0
-3381 3376 3377 3378 3379 3380 3382 3383 3384 3385 3386 3387 3388 3389 3390 0
-3382 3376 3377 3378 3379 3380 3381 3383 3384 3385 3386 3387 3388 3389 3390 0
-3383 3376 3377 3378 3379 3380 3381 3382 3384 3385 3386 3387 3388 3389 3390 0
-3384 3376 3377 3378 3379 3380 3381 3382 3383 3385 3386 3387 3388 3389 3390 0
-3385 3376 3377 3378 3379 3380 3381 3382 3383 3384 3386 3387 3388 3389 3390 0
-3386 3376 3377 3378 3379 3380 3381 3382 3383 3384 3385 3387 3388 3389 3390 0
-3387 3376 3377 3378 3379 3380 3381 3382 3383 3384 3385 3386 3388 3389 3390 0
-3388 3376 3377 3378 3379 3380 3381 3382 3383 3384 3385 3386 3387 3389 3390 0
-3389 3376 3377 3378 3379 3380 3381 3382 3383 3384 3385 3386 3387 3388 3390 0
-3390 3376 3377 3378 3379 3380 3381 3382 3383 3384 3385 3386 3387 3388 3389 0
3391 -2 -47 -55 -84 0
-3391 2 0
-3391 47 0
-3391 55 0
-3391 84 0
3392 -5 -32 -55 -84 0
-3392 5 0
-3392 32 0
-3392 55 0
-3392 84 0
3393 -14 -23 -55 -84 0
-3393 14 0
-3393 23 0
-3393 55 0
-3393 84 0
-3391 3392 3393 0
-3392 3391 3393 0
-3393 3391 3392 0
3394 -2 -47 -57 -82 0
-3394 2 0
-3394 47 0
-3394 57 0
-3394 82 0
3395 -5 -32 -57 -82 0
-3395 5 0
-3395 32 0
-3395 57 0
-3395 82 0
3396 -14 -23 -57 -82 0
-3396 14 0
-3396 23 0
-3396 57 0
-3396 82 0
-3394 3395 3396 0
-3395 3394 3396 0
-3396 3394 3395 0
3397 -2 -47 -57 -83 0
-3397 2 0
-3397 47 0
-3397 57 0
-3397 83 0
3398 -2 -50 -57 -80 0
-3398 2 0
-3398 50 0
-3398 57 0
-3398 80 0
3399 -2 -53 -57 -77 0
-3399 2 0
-3399 53 0
-3399 57 0
-3399 77 0
3400 -5 -32 -57 -83 0
-3400 5 0
-3400 32 0
-3400 57 0
-3400 83 0
3401 -5 -35 -57 -80 0
-3401 5 0
-3401 35 0
-3401 57 0
-3401 80 0
3402 -5 -38 -57 -77 0
-3402 5 0
-3402 38 0
-3402 57 0
-3402 77 0
3403 -14 -23 -57 -83 0
-3403 14 0
-3403 23 0
-3403 57 0
-3403 83 0
3404 -14 -35 -53 -57 0
-3404 14 0
-3404 35 0
-3404 53 0
-3404 57 0
3405 -14 -38 -50 -57 0
-3405 14 0
-3405 38 0
-3405 50 0
-3405 57 0
3406 -17 -23 -57 -80 0
-3406 17 0
-3406 23 0
-3406 57 0
-3406 80 0
3407 -17 -32 -53 -57 0
-3407 17 0
-3407 32 0
-3407 53 0
-3407 57 0
3408 -17 -38 -47 -57 0
-3408 17 0
-3408 38 0
-3408 47 0
-3408 57 0
3409 -20 -23 -57 -77 0
-3409 20 0
-3409 23 0
-3409 57 0
-3409 77 0
3410 -20 -32 -50 -57 0
-3410 20 0
-3410 32 0
-3410 50 0
-3410 57 0
3411 -20 -35 -47 -57 0
-3411 20 0
-3411 35 0
-3411 47 0
-3411 57 0
-3397 3398 3399 3400 3401 3402 3403 3404 3405 3406 3407 3408 3409 3410 3411 0
-3398 3397 3399 3400 3401 3402 3403 3404 3405 3406 3407 3408 3409 3410 3411 0
-3399 3397 3398 3400 3401 3402 3403 3404 3405 3406 3407 3408 3409 3410 3411 0
-3400 3397 3398 3399 3401 3402 3403 3404 3405 3406 3407 3408 3409 3410 3411 0
-3401 3397 3398 3399 3400 3402 3403 3404 3405 3406 3407 3408 3409 3410 3411 0
-3402 3397 3398 3399 3400 3401 3403 3404 3405 3406 3407 3408 3409 3410 3411 0
-3403 3397 3398 3399 3400 3401 3402 3404 3405 3406 3407 3408 3409 3410 3411 0
-3404 3397 3398 3399 3400 3401 3402 3403 3405 3406 3407 3408 3409 3410 3411 0
-3405 3397 3398 3399 3400 3401 3402 3403 3404 3406 3407 3408 3409 3410 3411 0
-3406 3397 3398 3399 3400 3401 3402 3403 3404 3405 3407 3408 3409 3410 3411 0
-3407 3397 3398 3399 3400 3401 3402 3403 3404 3405 3406 3408 3409 3410 3411 0
-3408 3397 3398 3399 3400 3401 3402 3403 3404 3405 3406 3407 3409 3410 3411 0
-3409 3397 3398 3399 3400 3401 3402 3403 3404 3405 3406 3407 3408 3410 3411 0
-3410 3397 3398 3399 3400 3401 3402 3403 3404 3405 3406 3407 3408 3409 3411 0
-3411 3397 3398 3399 3400 3401 3402 3403 3404 3405 3406 3407 3408 3409 3410 0
3412 -2 -47 -57 -84 0
-3412 2 0
-3412 47 0
-3412 57 0
-3412 84 0
3413 -2 -47 -63 -75 0
-3413 2 0
-3413 47 0
-3413 63 0
-3413 75 0
3414 -2 -47 -66 -72 0
-3414 2 0
-3414 47 0
-3414 66 0
-3414 72 0
3415 -5 -32 -57 -84 0
-3415 5 0
-3415 32 0
-3415 57 0
-3415 84 0
3416 -5 -32 -63 -75 0
-3416 5 0
-3416 32 0
-3416 63 0
-3416 75 0
3417 -5 -32 -66 -72 0
-3417 5 0
-3417 32 0
-3417 66 0
-3417 72 0
3418 -14 -23 -57 -84 0
-3418 14 0
-3418 23 0
-3418 57 0
-3418 84 0
3419 -14 -23 -63 -75 0
-3419 14 0
-3419 23 0
-3419 63 0
-3419 75 0
3420 -14 -23 -66 -72 0
-3420 14 0
-3420 23 0
-3420 66 0
-3420 72 0
-3412 3413 3414 3415 3416 3417 3418 3419 3420 0
-3413 3412 3414 3415 3416 3417 3418 3419 3420 0
-3414 3412 3413 3415 3416 3417 3418 3419 3420 0
-3415 3412 3413 3414 3416 3417 3418 3419 3420 0
-3416 3412 3413 3414 3415 3417 3418 3419 3420 0
-3417 3412 3413 3414 3415 3416 3418 3419 3420 0
-3418 3412 3413 3414 3415 3416 3417 3419 3420 0
-3419 3412 3413 3414 3415 3416 3417 3418 3420 0
-3420 3412 3413 3414 3415 3416 3417 3418 3419 0
3421 -2 -48 -55 -82 0
-3421 2 0
-3421 48 0
-3421 55 0
-3421 82 0
3422 -2 -48 -61 -73 0
-3422 2 0
-3422 48 0
-3422 61 0
-3422 73 0
3423 -2 -48 -64 -70 0
-3423 2 0
-3423 48 0
-3423 64 0
-3423 70 0
-3421 3422 3423 0
-3422 3421 3423 0
-3423 3421 3422 0
3424 -2 -48 -55 -83 0
-3424 2 0
-3424 48 0
-3424 55 0
-3424 83 0
3425 -17 -38 -48 -55 0
-3425 17 0
-3425 38 0
-3425 48 0
-3425 55 0
3426 -20 -35 -48 -55 0
-3426 20 0
-3426 35 0
-3426 48 0
-3426 55 0
-3424 3425 3426 0
-3425 3424 3426 0
-3426 3424 3425 0
3427 -2 -48 -55 -84 0
-3427 2 0
-3427 48 0
-3427 55 0
-3427 84 0
3428 -2 -51 -55 -81 0
-3428 2 0
-3428 51 0
-3428 55 0
-3428 81 0
3429 -2 -54 -55 -78 0
-3429 2 0
-3429 54 0
-3429 55 0
-3429 78 0
-3427 3428 3429 0
-3428 3427 3429 0
-3429 3427 3428 0
3430 -2 -48 -56 -82 0
-3430 2 0
-3430 48 0
-3430 56 0
-3430 82 0
3431 -8 -29 -48 -82 0
-3431 8 0
-3431 29 0
-3431 48 0
-3431 82 0
3432 -11 -26 -48 -82 0
-3432 11 0
-3432 26 0
-3432 48 0
-3432 82 0
-3430 3431 3432 0
-3431 3430 3432 0
-3432 3430 3431 0
3433 -2 -48 -56 -83 0
-3433 2 0
-3433 48 0
-3433 56 0
-3433 83 0
3434 -2 -48 -62 -74 0
-3434 2 0
-3434 48 0
-3434 62 0
-3434 74 0
3435 -2 -48 -65 -71 0
-3435 2 0
-3435 48 0
-3435 65 0
-3435 71 0
3436 -8 -29 -48 -83 0
-3436 8 0
-3436 29 0
-3436 48 0
-3436 83 0
3437 -8 -35 -48 -74 0
-3437 8 0
-3437 35 0
-3437 48 0
-3437 74 0
3438 -8 -38 -48 -71 0
-3438 8 0
-3438 38 0
-3438 48 0
-3438 71 0
3439 -11 -26 -48 -83 0
-3439 11 0
-3439 26 0
-3439 48 0
-3439 83 0
3440 -11 -35 -48 -65 0
-3440 11 0
-3440 35 0
-3440 48 0
-3440 65 0
3441 -11 -38 -48 -62 0
-3441 11 0
-3441 38 0
-3441 48 0
-3441 62 0
3442 -17 -26 -48 -74 0
-3442 17 0
-3442 26 0
-3442 48 0
-3442 74 0
3443 -17 -29 -48 -65 0
-3443 17 0
-3443 29 0
-3443 48 0
-3443 65 0
3444 -17 -38 -48 -56 0
-3444 17 0
-3444 38 0
-3444 48 0
-3444 56 0
3445 -20 -26 -48 -71 0
-3445 20 0
-3445 26 0
-3445 48 0
-3445 71 0
3446 -20 -29 -48 -62 0
-3446 20 0
-3446 29 0
-3446 48 0
-3446 62 0
3447 -20 -35 -48 -56 0
-3447 20 0
-3447 35 0
-3447 48 0
-3447 56 0
-3433 3434 3435 3436 3437 3438 3439 3440 3441 3442 3443 3444 3445 3446 3447 0
-3434 3433 3435 3436 3437 3438 3439 3440 3441 3442 3443 3444 3445 3446 3447 0
-3435 3433 3434 3436 3437 3438 3439 3440 3441 3442 3443 3444 3445 3446 3447 0
-3436 3433 3434 3435 3437 3438 3439 3440 3441 3442 3443 3444 3445 3446 3447 0
-3437 3433 3434 3435 3436 3438 3439 3440 3441 3442 3443 3444 3445 3446 3447 0
-3438 3433 3434 3435 3436 3437 3439 3440 3441 3442 3443 3444 3445 3446 3447 0
-3439 3433 3434 3435 3436 3437 3438 3440 3441 3442 3443 3444 3445 3446 3447 0
-3440 3433 3434 3435 3436 3437 3438 3439 3441 3442 3443 3444 3445 3446 3447 0
-3441 3433 3434 3435 3436 3437 3438 3439 3440 3442 3443 3444 3445 3446 3447 0
-3442 3433 3434 3435 3436 3437 3438 3439 3440 3441 3443 3444 3445 3446 3447 0
-3443 3433 3434 3435 3436 3437 3438 3439 3440 3441 3442 3444 3445 3446 3447 0
-3444 3433 3434 3435 3436 3437 3438 3439 3440 3441 3442 3443 3445 3446 3447 0
-3445 3433 3434 3435 3436 3437 3438 3439 3440 3441 3442 3443 3444 3446 3447 0
-3446 3433 3434 3435 3436 3437 3438 3439 3440 3441 3442 3443 3444 3445 3447 0
-3447 3433 3434 3435 3436 3437 3438 3439 3440 3441 3442 3443 3444 3445 3446 0
3448 -2 -48 -56 -84 0
-3448 2 0
-3448 48 0
-3448 56 0
-3448 84 0
3449 -2 -51 -56 -81 0
-3449 2 0
-3449 51 0
-3449 56 0
-3449 81 0
3450 -2 -54 -56 -78 0
-3450 2 0
-3450 54 0
-3450 56 0
-3450 78 0
3451 -8 -29 -48 -84 0
-3451 8 0
-3451 29 0
-3451 48 0
-3451 84 0
3452 -8 -29 -51 -81 0
-3452 8 0
-3452 29 0
-3452 51 0
-3452 81 0
3453 -8 -29 -54 -78 0
-3453 8 0
-3453 29 0
-3453 54 0
-3453 78 0
3454 -11 -26 -48 -84 0
-3454 11 0
-3454 26 0
-3454 48 0
-3454 84 0
3455 -11 -26 -51 -81 0
-3455 11 0
-3455 26 0
-3455 51 0
-3455 81 0
3456 -11 -26 -54 -78 0
-3456 11 0
-3456 26 0
-3456 54 0
-3456 78 0
-3448 3449 3450 3451 3452 3453 3454 3455 3456 0
-3449 3448 3450 3451 3452 3453 3454 3455 3456 0
-3450 3448 3449 3451 3452 3453 3454 3455 3456 0
-3451 3448 3449 3450 3452 3453 3454 3455 3456 0
-3452 3448 3449 3450 3451 3453 3454 3455 3456 0
-3453 3448 3449 3450 3451 3452 3454 3455 3456 0
-3454 3448 3449 3450 3451 3452 3453 3455 3456 0
-3455 3448 3449 3450 3451 3452 3453 3454 3456 0
-3456 3448 3449 3450 3451 3452 3453 3454 3455 0
3457 -3 -46 -56 -82 0
-3457 3 0
-3457 46 0
-3457 56 0
-3457 82 0
3458 -3 -49 -56 -79 0
-3458 3 0
-3458 49 0
-3458 56 0
-3458 79 0
3459 -3 -52 -56 -76 0
-3459 3 0
-3459 52 0
-3459 56 0
-3459 76 0
-3457 3458 3459 0
-3458 3457 3459 0
-3459 3457 3458 0
3460 -3 -46 -56 -83 0
-3460 3 0
-3460 46 0
-3460 56 0
-3460 83 0
3461 -3 -46 -62 -74 0
-3461 3 0
-3461 46 0
-3461 62 0
-3461 74 0
3462 -3 -46 -65 -71 0
-3462 3 0
-3462 46 0
-3462 65 0
-3462 71 0
-3460 3461 3462 0
-3461 3460 3462 0
-3462 3460 3461 0
3463 -3 -46 -56 -84 0
-3463 3 0
-3463 46 0
-3463 56 0
-3463 84 0
3464 -18 -39 -46 -56 0
-3464 18 0
-3464 39 0
-3464 46 0
-3464 56 0
3465 -21 -36 -46 -56 0
-3465 21 0
-3465 36 0
-3465 46 0
-3465 56 0
-3463 3464 3465 0
-3464 3463 3465 0
-3465 3463 3464 0
3466 -3 -46 -57 -82 0
-3466 3 0
-3466 46 0
-3466 57 0
-3466 82 0
3467 -3 -49 -57 -79 0
-3467 3 0
-3467 49 0
-3467 57 0
-3467 79 0
3468 -3 -52 -57 -76 0
-3468 3 0
-3468 52 0
-3468 57 0
-3468 76 0
3469 -9 -30 -46 -82 0
-3469 9 0
-3469 30 0
-3469 46 0
-3469 82 0
3470 -9 -30 -49 -79 0
-3470 9 0
-3470 30 0
-3470 49 0
-3470 79 0
3471 -9 -30 -52 -76 0
-3471 9 0
-3471 30 0
-3471 52 0
-3471 76 0
3472 -12 -27 -46 -82 0
-3472 12 0
-3472 27 0
-3472 46 0
-3472 82 0
3473 -12 -27 -49 -79 0
-3473 12 0
-3473 27 0
-3473 49 0
-3473 79 0
3474 -12 -27 -52 -76 0
-3474 12 0
-3474 27 0
-3474 52 0
-3474 76 0
-3466 3467 3468 3469 3470 3471 3472 3473 3474 0
-3467 3466 3468 3469 3470 3471 3472 3473 3474 0
-3468 3466 3467 3469 3470 3471 3472 3473 3474 0
-3469 3466 3467 3468 3470 3471 3472 3473 3474 0
-3470 3466 3467 3468 3469 3471 3472 3473 3474 0
-3471 3466 3467 3468 3469 3470 3472 3473 3474 0
-3472 3466 3467 3468 3469 3470 3471 3473 3474 0
-3473 3466 3467 3468 3469 3470 3471 3472 3474 0
-3474 3466 3467 3468 3469 3470 3471 3472 3473 0
3475 -3 -46 -57 -83 0
-3475 3 0
-3475 46 0
-3475 57 0
-3475 83 0
3476 -9 -30 -46 -83 0
-3476 9 0
-3476 30 0
-3476 46 0
-3476 83 0
3477 -12 -27 -46 -83 0
-3477 12 0
-3477 27 0
-3477 46 0
-3477 83 0
-3475 3476 3477 0
-3476 3475 3477 0
-3477 3475 3476 0
3478 -3 -46 -57 -84 0
-3478 3 0
-3478 46 0
-3478 57 0
-3478 84 0
3479 -3 -46 -63 -75 0
-3479 3 0
-3479 46 0
-3479 63 0
-3479 75 0
3480 -3 -46 -66 -72 0
-3480 3 0
-3480 46 0
-3480 66 0
-3480 72 0
3481 -9 -30 -46 -84 0
-3481 9 0
-3481 30 0
-3481 46 0
-3481 84 0
3482 -9 -36 -46 -75 0
-3482 9 0
-3482 36 0
-3482 46 0
-3482 75 0
3483 -9 -39 -46 -72 0
-3483 9 0
-3483 39 0
-3483 46 0
-3483 72 0
3484 -12 -27 -46 -84 0
-3484 12 0
-3484 27 0
-3484 46 0
-3484 84 0
3485 -12 -36 -46 -66 0
-3485 12 0
-3485 36 0
-3485 46 0
-3485 66 0
3486 -12 -39 -46 -63 0
-3486 12 0
-3486 39 0
-3486 46 0
-3486 63 0
3487 -18 -27 -46 -75 0
-3487 18 0
-3487 27 0
-3487 46 0
-3487 75 0
3488 -18 -30 -46 -66 0
-3488 18 0
-3488 30 0
-3488 46 0
-3488 66 0
3489 -18 -39 -46 -57 0
-3489 18 0
-3489 39 0
-3489 46 0
-3489 57 0
3490 -21 -27 -46 -72 0
-3490 21 0
-3490 27 0
-3490 46 0
-3490 72 0
3491 -21 -30 -46 -63 0
-3491 21 0
-3491 30 0
-3491 46 0
-3491 63 0
3492 -21 -36 -46 -57 0
-3492 21 0
-3492 36 0
-3492 46 0
-3492 57 0
-3478 3479 3480 3481 3482 3483 3484 3485 3486 3487 3488 3489 3490 3491 3492 0
-3479 3478 3480 3481 3482 3483 3484 3485 3486 3487 3488 3489 3490 3491 3492 0
-3480 3478 3479 3481 3482 3483 3484 3485 3486 3487 3488 3489 3490 3491 3492 0
-3481 3478 3479 3480 3482 3483 3484 3485 3486 3487 3488 3489 3490 3491 3492 0
-3482 3478 3479 3480 3481 3483 3484 3485 3486 3487 3488 3489 3490 3491 3492 0
-3483 3478 3479 3480 3481 3482 3484 3485 3486 3487 3488 3489 3490 3491 3492 0
-3484 3478 3479 3480 3481 3482 3483 3485 3486 3487 3488 3489 3490 3491 3492 0
-3485 3478 3479 3480 3481 3482 3483 3484 3486 3487 3488 3489 3490 3491 3492 0
-3486 3478 3479 3480 3481 3482 3483 3484 3485 3487 3488 3489 3490 3491 3492 0
-3487 3478 3479 3480 3481 3482 3483 3484 3485 3486 3488 3489 3490 3491 3492 0
-3488 3478 3479 3480 3481 3482 3483 3484 3485 3486 3487 3489 3490 3491 3492 0
-3489 3478 3479 3480 3481 3482 3483 3484 3485 3486 3487 3488 3490 3491 3492 0
-3490 3478 3479 3480 3481 3482 3483 3484 3485 3486 3487 3488 3489 3491 3492 0
-3491 3478 3479 3480 3481 3482 3483 3484 3485 3486 3487 3488 3489 3490 3492 0
-3492 3478 3479 3480 3481 3482 3483 3484 3485 3486 3487 3488 3489 3490 3491 0
3493 -3 -47 -55 -82 0
-3493 3 0
-3493 47 0
-3493 55 0
-3493 82 0
3494 -3 -47 -61 -73 0
-3494 3 0
-3494 47 0
-3494 61 0
-3494 73 0
3495 -3 -47 -64 -70 0
-3495 3 0
-3495 47 0
-3495 64 0
-3495 70 0
-3493 3494 3495 0
-3494 3493 3495 0
-3495 3493 3494 0
3496 -3 -47 -55 -83 0
-3496 3 0
-3496 47 0
-3496 55 0
-3496 83 0
3497 -3 -50 -55 -80 0
-3497 3 0
-3497 50 0
-3497 55 0
-3497 80 0
3498 -3 -53 -55 -77 0
-3498 3 0
-3498 53 0
-3498 55 0
-3498 77 0
-3496 3497 3498 0
-3497 3496 3498 0
-3498 3496 3497 0
3499 -3 -47 -55 -84 0
-3499 3 0
-3499 47 0
-3499 55 0
-3499 84 0
3500 -18 -39 -47 -55 0
-3500 18 0
-3500 39 0
-3500 47 0
-3500 55 0
3501 -21 -36 -47 -55 0
-3501 21 0
-3501 36 0
-3501 47 0
-3501 55 0
-3499 3500 3501 0
-3500 3499 3501 0
-3501 3499 3500 0
3502 -3 -47 -57 -82 0
-3502 3 0
-3502 47 0
-3502 57 0
-3502 82 0
3503 -9 -30 -47 -82 0
-3503 9 0
-3503 30 0
-3503 47 0
-3503 82 0
3504 -12 -27 -47 -82 0
-3504 12 0
-3504 27 0
-3504 47 0
-3504 82 0
-3502 3503 3504 0
-3503 3502 3504 0
-3504 3502 3503 0
3505 -3 -47 -57 -83 0
-3505 3 0
-3505 47 0
-3505 57 0
-3505 83 0
3506 -3 -50 -57 -80 0
-3506 3 0
-3506 50 0
-3506 57 0
-3506 80 0
3507 -3 -53 -57 -77 0
-3507 3 0
-3507 53 0
-3507 57 0
-3507 77 0
3508 -9 -30 -47 -83 0
-3508 9 0
-3508 30 0
-3508 47 0
-3508 83 0
3509 -9 -30 -50 -80 0
-3509 9 0
-3509 30 0
-3509 50 0
-3509 80 0
3510 -9 -30 -53 -77 0
-3510 9 0
-3510 30 0
-3510 53 0
-3510 77 0
3511 -12 -27 -47 -83 0
-3511 12 0
-3511 27 0
-3511 47 0
-3511 83 0
3512 -12 -27 -50 -80 0
-3512 12 0
-3512 27 0
-3512 50 0
-3512 80 0
3513 -12 -27 -53 -77 0
-3513 12 0
-3513 27 0
-3513 53 0
-3513 77 0
-3505 3506 3507 3508 3509 3510 3511 3512 3513 0
-3506 3505 3507 3508 3509 3510 3511 3512 3513 0
-3507 3505 3506 3508 3509 3510 3511 3512 3513 0
-3508 3505 3506 3507 3509 3510 3511 3512 3513 0
-3509 3505 3506 3507 3508 3510 3511 3512 3513 0
-3510 3505 3506 3507 3508 3509 3511 3512 3513 0
-3511 3505 3506 3507 3508 3509 3510 3512 3513 0
-3512 3505 3506 3507 3508 3509 3510 3511 3513 0
-3513 3505 3506 3507 3508 3509 3510 3511 3512 0
3514 -3 -47 -57 -84 0
-3514 3 0
-3514 47 0
-3514 57 0
-3514 84 0
3515 -3 -47 -63 -75 0
-3515 3 0
-3515 47 0
-3515 63 0
-3515 75 0
3516 -3 -47 -66 -72 0
-3516 3 0
-3516 47 0
-3516 66 0
-3516 72 0
3517 -9 -30 -47 -84 0
-3517 9 0
-3517 30 0
-3517 47 0
-3517 84 0
3518 -9 -36 -47 -75 0
-3518 9 0
-3518 36 0
-3518 47 0
-3518 75 0
3519 -9 -39 -47 -72 0
-3519 9 0
-3519 39 0
-3519 47 0
-3519 72 0
3520 -12 -27 -47 -84 0
-3520 12 0
-3520 27 0
-3520 47 0
-3520 84 0
3521 -12 -36 -47 -66 0
-3521 12 0
-3521 36 0
-3521 47 0
-3521 66 0
3522 -12 -39 -47 -63 0
-3522 12 0
-3522 39 0
-3522 47 0
-3522 63 0
3523 -18 -27 -47 -75 0
-3523 18 0
-3523 27 0
-3523 47 0
-3523 75 0
3524 -18 -30 -47 -66 0
-3524 18 0
-3524 30 0
-3524 47 0
-3524 66 0
3525 -18 -39 -47 -57 0
-3525 18 0
-3525 39 0
-3525 47 0
-3525 57 0
3526 -21 -27 -47 -72 0
-3526 21 0
-3526 27 0
-3526 47 0
-3526 72 0
3527 -21 -30 -47 -63 0
-3527 21 0
-3527 30 0
-3527 47 0
-3527 63 0
3528 -21 -36 -47 -57 0
-3528 21 0
-3528 36 0
-3528 47 0
-3528 57 0
-3514 3515 3516 3517 3518 3519 3520 3521 3522 3523 3524 3525 3526 3527 3528 0
-3515 3514 3516 3517 3518 3519 3520 3521 3522 3523 3524 3525 3526 3527 3528 0
-3516 3514 3515 3517 3518 3519 3520 3521 3522 3523 3524 3525 3526 3527 3528 0
-3517 3514 3515 3516 3518 3519 3520 3521 3522 3523 3524 3525 3526 3527 3528 0
-3518 3514 3515 3516 3517 3519 3520 3521 3522 3523 3524 3525 3526 3527 3528 0
-3519 3514 3515 3516 3517 3518 3520 3521 3522 3523 3524 3525 3526 3527 3528 0
-3520 3514 3515 3516 3517 3518 3519 3521 3522 3523 3524 3525 3526 3527 3528 0
-3521 3514 3515 3516 3517 3518 3519 3520 3522 3523 3524 3525 3526 3527 3528 0
-3522 3514 3515 3516 3517 3518 3519 3520 3521 3523 3524 3525 3526 3527 3528 0
-3523 3514 3515 3516 3517 3518 3519 3520 3521 3522 3524 3525 3526 3527 3528 0
-3524 3514 3515 3516 3517 3518 3519 3520 3521 3522 3523 3525 3526 3527 3528 0
-3525 3514 3515 3516 3517 3518 3519 3520 3521 3522 3523 3524 3526 3527 3528 0
-3526 3514 3515 3516 3517 3518 3519 3520 3521 3522 3523 3524 3525 3527 3528 0
-3527 3514 3515 3516 3517 3518 3519 3520 3521 3522 3523 3524 3525 3526 3528 0
-3528 3514 3515 3516 3517 3518 3519 3520 3521 3522 3523 3524 3525 3526 3527 0
3529 -3 -48 -55 -82 0
-3529 3 0
-3529 48 0
-3529 55 0
-3529 82 0
3530 -3 -48 -61 -73 0
-3530 3 0
-3530 48 0
-3530 61 0
-3530 73 0
3531 -3 -48 -64 -70 0
-3531 3 0
-3531 48 0
-3531 64 0
-3531 70 0
3532 -6 -33 -55 -82 0
-3532 6 0
-3532 33 0
-3532 55 0
-3532 82 0
3533 -6 -33 -61 -73 0
-3533 6 0
-3533 33 0
-3533 61 0
-3533 73 0
3534 -6 -33 -64 -70 0
-3534 6 0
-3534 33 0
-3534 64 0
-3534 70 0
3535 -15 -24 -55 -82 0
-3535 15 0
-3535 24 0
-3535 55 0
-3535 82 0
3536 -15 -24 -61 -73 0
-3536 15 0
-3536 24 0
-3536 61 0
-3536 73 0
3537 -15 -24 -64 -70 0
-3537 15 0
-3537 24 0
-3537 64 0
-3537 70 0
-3529 3530 3531 3532 3533 3534 3535 3536 3537 0
-3530 3529 3531 3532 3533 3534 3535 3536 3537 0
-3531 3529 3530 3532 3533 3534 3535 3536 3537 0
-3532 3529 3530 3531 3533 3534 3535 3536 3537 0
-3533 3529 3530 3531 3532 3534 3535 3536 3537 0
-3534 3529 3530 3531 3532 3533 3535 3536 3537 0
-3535 3529 3530 3531 3532 3533 3534 3536 3537 0
-3536 3529 3530 3531 3532 3533 3534 3535 3537 0
-3537 3529 3530 3531 3532 3533 3534 3535 3536 0
3538 -3 -48 -55 -83 0
-3538 3 0
-3538 48 0
-3538 55 0
-3538 83 0
3539 -6 -33 -55 -83 0
-3539 6 0
-3539 33 0
-3539 55 0
-3539 83 0
3540 -15 -24 -55 -83 0
-3540 15 0
-3540 24 0
-3540 55 0
-3540 83 0
-3538 3539 3540 0
-3539 3538 3540 0
-3540 3538 3539 0
3541 -3 -48 -55 -84 0
-3541 3 0
-3541 48 0
-3541 55 0
-3541 84 0
3542 -3 -51 -55 -81 0
-3542 3 0
-3542 51 0
-3542 55 0
-3542 81 0
3543 -3 -54 -55 -78 0
-3543 3 0
-3543 54 0
-3543 55 0
-3543 78 0
3544 -6 -33 -55 -84 0
-3544 6 0
-3544 33 0
-3544 55 0
-3544 84 0
3545 -6 -36 -55 -81 0
-3545 6 0
-3545 36 0
-3545 55 0
-3545 81 0
3546 -6 -39 -55 -78 0
-3546 6 0
-3546 39 0
-3546 55 0
-3546 78 0
3547 -15 -24 -55 -84 0
-3547 15 0
-3547 24 0
-3547 55 0
-3547 84 0
3548 -15 -36 -54 -55 0
-3548 15 0
-3548 36 0
-3548 54 0
-3548 55 0
3549 -15 -39 -51 -55 0
-3549 15 0
-3549 39 0
-3549 51 0
-3549 55 0
3550 -18 -24 -55 -81 0
-3550 18 0
-3550 24 0
-3550 55 0
-3550 81 0
3551 -18 -33 -54 -55 0
-3551 18 0
-3551 33 0
-3551 54 0
-3551 55 0
3552 -18 -39 -48 -55 0
-3552 18 0
-3552 39 0
-3552 48 0
-3552 55 0
3553 -21 -24 -55 -78 0
-3553 21 0
-3553 24 0
-3553 55 0
-3553 78 0
3554 -21 -33 -51 -55 0
-3554 21 0
-3554 33 0
-3554 51 0
-3554 55 0
3555 -21 -36 -48 -55 0
-3555 21 0
-3555 36 0
-3555 48 0
-3555 55 0
-3541 3542 3543 3544 3545 3546 3547 3548 3549 3550 3551 3552 3553 3554 3555 0
-3542 3541 3543 3544 3545 3546 3547 3548 3549 3550 3551 3552 3553 3554 3555 0
-3543 3541 3542 3544 3545 3546 3547 3548 3549 3550 3551 3552 3553 3554 3555 0
-3544 3541 3542 3543 3545 3546 3547 3548 3549 3550 3551 3552 3553 3554 3555 0
-3545 3541 3542 3543 3544 3546 3547 3548 3549 3550 3551 3552 3553 3554 3555 0
-3546 3541 3542 3543 3544 3545 3547 3548 3549 3550 3551 3552 3553 3554 3555 0
-3547 3541 3542 3543 3544 3545 3546 3548 3549 3550 3551 3552 3553 3554 3555 0
-3548 3541 3542 3543 3544 3545 3546 3547 3549 3550 3551 3552 3553 3554 3555 0
-3549 3541 3542 3543 3544 3545 3546 3547 3548 3550 3551 3552 3553 3554 3555 0
-3550 3541 3542 3543 3544 3545 3546 3547 3548 3549 3551 3552 3553 3554 3555 0
-3551 3541 3542 3543 3544 3545 3546 3547 3548 3549 3550 3552 3553 3554 3555 0
-3552 3541 3542 3543 3544 3545 3546 3547 3548 3549 3550 3551 3553 3554 3555 0
-3553 3541 3542 3543 3544 3545 3546 3547 3548 3549 3550 3551 3552 3554 3555 0
-3554 3541 3542 3543 3544 3545 3546 3547 3548 3549 3550 3551 3552 3553 3555 0
-3555 3541 3542 3543 3544 3545 3546 3547 3548 3549 3550 3551 3552 3553 3554 0
3556 -3 -48 -56 -82 0
-3556 3 0
-3556 48 0
-3556 56 0
-3556 82 0
3557 -6 -33 -56 -82 0
-3557 6 0
-3557 33 0
-3557 56 0
-3557 82 0
3558 -15 -24 -56 -82 0
-3558 15 0
-3558 24 0
-3558 56 0
-3558 82 0
-3556 3557 3558 0
-3557 3556 3558 0
-3558 3556 3557 0
3559 -3 -48 -56 -83 0
-3559 3 0
-3559 48 0
-3559 56 0
-3559 83 0
3560 -3 -48 -62 -74 0
-3560 3 0
-3560 48 0
-3560 62 0
-3560 74 0
3561 -3 -48 -65 -71 0
-3561 3 0
-3561 48 0
-3561 65 0
-3561 71 0
3562 -6 -33 -56 -83 0
-3562 6 0
-3562 33 0
-3562 56 0
-3562 83 0
3563 -6 -33 -62 -74 0
-3563 6 0
-3563 33 0
-3563 62 0
-3563 74 0
3564 -6 -33 -65 -71 0
-3564 6 0
-3564 33 0
-3564 65 0
-3564 71 0
3565 -15 -24 -56 -83 0
-3565 15 0
-3565 24 0
-3565 56 0
-3565 83 0
3566 -15 -24 -62 -74 0
-3566 15 0
-3566 24 0
-3566 62 0
-3566 74 0
3567 -15 -24 -65 -71 0
-3567 15 0
-3567 24 0
-3567 65 0
-3567 71 0
-3559 3560 3561 3562 3563 3564 3565 3566 3567 0
-3560 3559 3561 3562 3563 3564 3565 3566 3567 0
-3561 3559 3560 3562 3563 3564 3565 3566 3567 0
-3562 3559 3560 3561 3563 3564 3565 3566 3567 0
-3563 3559 3560 3561 3562 3564 3565 3566 3567 0
-3564 3559 3560 3561 3562 3563 3565 3566 3567 0
-3565 3559 3560 3561 3562 3563 3564 3566 3567 0
-3566 3559 3560 3561 3562 3563 3564 3565 3567 0
-3567 3559 3560 3561 3562 3563 3564 3565 3566 0
3568 -3 -48 -56 -84 0
-3568 3 0
-3568 48 0
-3568 56 0
-3568 84 0
3569 -3 -51 -56 -81 0
-3569 3 0
-3569 51 0
-3569 56 0
-3569 81 0
3570 -3 -54 -56 -78 0
-3570 3 0
-3570 54 0
-3570 56 0
-3570 78 0
3571 -6 -33 -56 -84 0
-3571 6 0
-3571 33 0
-3571 56 0
-3571 84 0
3572 -6 -36 -56 -81 0
-3572 6 0
-3572 36 0
-3572 56 0
-3572 81 0
3573 -6 -39 -56 -78 0
-3573 6 0
-3573 39 0
-3573 56 0
-3573 78 0
3574 -15 -24 -56 -84 0
-3574 15 0
-3574 24 0
-3574 56 0
-3574 84 0
3575 -15 -36 -54 -56 0
-3575 15 0
-3575 36 0
-3575 54 0
-3575 56 0
3576 -15 -39 -51 -56 0
-3576 15 0
-3576 39 0
-3576 51 0
-3576 56 0
3577 -18 -24 -56 -81 0
-3577 18 0
-3577 24 0
-3577 56 0
-3577 81 0
3578 -18 -33 -54 -56 0
-3578 18 0
-3578 33 0
-3578 54 0
-3578 56 0
3579 -18 -39 -48 -56 0
-3579 18 0
-3579 39 0
-3579 48 0
-3579 56 0
3580 -21 -24 -56 -78 0
-3580 21 0
-3580 24 0
-3580 56 0
-3580 78 0
3581 -21 -33 -51 -56 0
-3581 21 0
-3581 33 0
-3581 51 0
-3581 56 0
3582 -21 -36 -48 -56 0
-3582 21 0
-3582 36 0
-3582 48 0
-3582 56 0
-3568 3569 3570 3571 3572 3573 3574 3575 3576 3577 3578 3579 3580 3581 3582 0
-3569 3568 3570 3571 3572 3573 3574 3575 3576 3577 3578 3579 3580 3581 3582 0
-3570 3568 3569 3571 3572 3573 3574 3575 3576 3577 3578 3579 3580 3581 3582 0
-3571 3568 3569 3570 3572 3573 3574 3575 3576 3577 3578 3579 3580 3581 3582 0
-3572 3568 3569 3570 3571 3573 3574 3575 3576 3577 3578 3579 3580 3581 3582 0
-3573 3568 3569 3570 3571 3572 3574 3575 3576 3577 3578 3579 3580 3581 3582 0
-3574 3568 3569 3570 3571 3572 3573 3575 3576 3577 3578 3579 3580 3581 3582 0
-3575 3568 3569 3570 3571 3572 3573 3574 3576 3577 3578 3579 3580 3581 3582 0
-3576 3568 3569 3570 3571 3572 3573 3574 3575 3577 3578 3579 3580 3581 3582 0
-3577 3568 3569 3570 3571 3572 3573 3574 3575 3576 3578 3579 3580 3581 3582 0
-3578 3568 3569 3570 3571 3572 3573 3574 3575 3576 3577 3579 3580 3581 3582 0
-3579 3568 3569 3570 3571 3572 3573 3574 3575 3576 3577 3578 3580 3581 3582 0
-3580 3568 3569 3570 3571 3572 3573 3574 3575 3576 3577 3578 3579 3581 3582 0
-3581 3568 3569 3570 3571 3572 3573 3574 3575 3576 3577 3578 3579 3580 3582 0
-3582 3568 3569 3570 3571 3572 3573 3574 3575 3576 3577 3578 3579 3580 3581 0
3583 -1 -46 -62 -75 0
-3583 1 0
-3583 46 0
-3583 62 0
-3583 75 0
3584 -4 -31 -62 -75 0
-3584 4 0
-3584 31 0
-3584 62 0
-3584 75 0
3585 -13 -22 -62 -75 0
-3585 13 0
-3585 22 0
-3585 62 0
-3585 75 0
-3583 3584 3585 0
-3584 3583 3585 0
-3585 3583 3584 0
3586 -1 -46 -63 -74 0
-3586 1 0
-3586 46 0
-3586 63 0
-3586 74 0
3587 -4 -31 -63 -74 0
-3587 4 0
-3587 31 0
-3587 63 0
-3587 74 0
3588 -13 -22 -63 -74 0
-3588 13 0
-3588 22 0
-3588 63 0
-3588 74 0
-3586 3587 3588 0
-3587 3586 3588 0
-3588 3586 3587 0
3589 -1 -47 -61 -75 0
-3589 1 0
-3589 47 0
-3589 61 0
-3589 75 0
3590 -7 -34 -47 -75 0
-3590 7 0
-3590 34 0
-3590 47 0
-3590 75 0
3591 -16 -25 -47 -75 0
-3591 16 0
-3591 25 0
-3591 47 0
-3591 75 0
-3589 3590 3591 0
-3590 3589 3591 0
-3591 3589 3590 0
3592 -1 -47 -63 -73 0
-3592 1 0
-3592 47 0
-3592 63 0
-3592 73 0
3593 -10 -37 -47 -63 0
-3593 10 0
-3593 37 0
-3593 47 0
-3593 63 0
3594 -19 -28 -47 -63 0
-3594 19 0
-3594 28 0
-3594 47 0
-3594 63 0
-3592 3593 3594 0
-3593 3592 3594 0
-3594 3592 3593 0
3595 -1 -48 -61 -74 0
-3595 1 0
-3595 48 0
-3595 61 0
-3595 74 0
3596 -7 -34 -48 -74 0
-3596 7 0
-3596 34 0
-3596 48 0
-3596 74 0
3597 -16 -25 -48 -74 0
-3597 16 0
-3597 25 0
-3597 48 0
-3597 74 0
-3595 3596 3597 0
-3596 3595 3597 0
-3597 3595 3596 0
3598 -1 -48 -62 -73 0
-3598 1 0
-3598 48 0
-3598 62 0
-3598 73 0
3599 -10 -37 -48 -62 0
-3599 10 0
-3599 37 0
-3599 48 0
-3599 62 0
3600 -19 -28 -48 -62 0
-3600 19 0
-3600 28 0
-3600 48 0
-3600 62 0
-3598 3599 3600 0
-3599 3598 3600 0
-3600 3598 3599 0
3601 -2 -46 -62 -75 0
-3601 2 0
-3601 46 0
-3601 62 0
-3601 75 0
3602 -8 -35 -46 -75 0
-3602 8 0
-3602 35 0
-3602 46 0
-3602 75 0
3603 -17 -26 -46 -75 0
-3603 17 0
-3603 26 0
-3603 46 0
-3603 75 0
-3601 3602 3603 0
-3602 3601 3603 0
-3603 3601 3602 0
3604 -2 -46 -63 -74 0
-3604 2 0
-3604 46 0
-3604 63 0
-3604 74 0
3605 -11 -38 -46 -63 0
-3605 11 0
-3605 38 0
-3605 46 0
-3605 63 0
3606 -20 -29 -46 -63 0
-3606 20 0
-3606 29 0
-3606 46 0
-3606 63 0
-3604 3605 3606 0
-3605 3604 3606 0
-3606 3604 3605 0
3607 -2 -47 -61 -75 0
-3607 2 0
-3607 47 0
-3607 61 0
-3607 75 0
3608 -5 -32 -61 -75 0
-3608 5 0
-3608 32 0
-3608 61 0
-3608 75 0
3609 -14 -23 -61 -75 0
-3609 14 0
-3609 23 0
-3609 61 0
-3609 75 0
-3607 3608 3609 0
-3608 3607 3609 0
-3609 3607 3608 0
3610 -2 -47 -63 -73 0
-3610 2 0
-3610 47 0
-3610 63 0
-3610 73 0
3611 -5 -32 -63 -73 0
-3611 5 0
-3611 32 0
-3611 63 0
-3611 73 0
3612 -14 -23 -63 -73 0
-3612 14 0
-3612 23 0
-3612 63 0
-3612 73 0
-3610 3611 3612 0
-3611 3610 3612 0
-3612 3610 3611 0
3613 -2 -48 -61 -74 0
-3613 2 0
-3613 48 0
-3613 61 0
-3613 74 0
3614 -11 -38 -48 -61 0
-3614 11 0
-3614 38 0
-3614 48 0
-3614 61 0
3615 -20 -29 -48 -61 0
-3615 20 0
-3615 29 0
-3615 48 0
-3615 61 0
-3613 3614 3615 0
-3614 3613 3615 0
-3615 3613 3614 0
3616 -2 -48 -62 -73 0
-3616 2 0
-3616 48 0
-3616 62 0
-3616 73 0
3617 -8 -35 -48 -73 0
-3617 8 0
-3617 35 0
-3617 48 0
-3617 73 0
3618 -17 -26 -48 -73 0
-3618 17 0
-3618 26 0
-3618 48 0
-3618 73 0
-3616 3617 3618 0
-3617 3616 3618 0
-3618 3616 3617 0
3619 -3 -46 -62 -75 0
-3619 3 0
-3619 46 0
-3619 62 0
-3619 75 0
3620 -12 -39 -46 -62 0
-3620 12 0
-3620 39 0
-3620 46 0
-3620 62 0
3621 -21 -30 -46 -62 0
-3621 21 0
-3621 30 0
-3621 46 0
-3621 62 0
-3619 3620 3621 0
-3620 3619 3621 0
-3621 3619 3620 0
3622 -3 -46 -63 -74 0
-3622 3 0
-3622 46 0
-3622 63 0
-3622 74 0
3623 -9 -36 -46 -74 0
-3623 9 0
-3623 36 0
-3623 46 0
-3623 74 0
3624 -18 -27 -46 -74 0
-3624 18 0
-3624 27 0
-3624 46 0
-3624 74 0
-3622 3623 3624 0
-3623 3622 3624 0
-3624 3622 3623 0
3625 -3 -47 -61 -75 0
-3625 3 0
-3625 47 0
-3625 61 0
-3625 75 0
3626 -12 -39 -47 -61 0
-3626 12 0
-3626 39 0
-3626 47 0
-3626 61 0
3627 -21 -30 -47 -61 0
-3627 21 0
-3627 30 0
-3627 47 0
-3627 61 0
-3625 3626 3627 0
-3626 3625 3627 0
-3627 3625 3626 0
3628 -3 -47 -63 -73 0
-3628 3 0
-3628 47 0
-3628 63 0
-3628 73 0
3629 -9 -36 -47 -73 0
-3629 9 0
-3629 36 0
-3629 47 0
-3629 73 0
3630 -18 -27 -47 -73 0
-3630 18 0
-3630 27 0
-3630 47 0
-3630 73 0
-3628 3629 3630 0
-3629 3628 3630 0
-3630 3628 3629 0
3631 -3 -48 -61 -74 0
-3631 3 0
-3631 48 0
-3631 61 0
-3631 74 0
3632 -6 -33 -61 -74 0
-3632 6 0
-3632 33 0
-3632 61 0
-3632 74 0
3633 -15 -24 -61 -74 0
-3633 15 0
-3633 24 0
-3633 61 0
-3633 74 0
-3631 3632 3633 0
-3632 3631 3633 0
-3633 3631 3632 0
3634 -3 -48 -62 -73 0
-3634 3 0
-3634 48 0
-3634 62 0
-3634 73 0
3635 -6 -33 -62 -73 0
-3635 6 0
-3635 33 0
-3635 62 0
-3635 73 0
3636 -15 -24 -62 -73 0
-3636 15 0
-3636 24 0
-3636 62 0
-3636 73 0
-3634 3635 3636 0
-3635 3634 3636 0
-3636 3634 3635 0
3637 -1 -46 -65 -72 0
-3637 1 0
-3637 46 0
-3637 65 0
-3637 72 0
3638 -4 -31 -65 -72 0
-3638 4 0
-3638 31 0
-3638 65 0
-3638 72 0
3639 -13 -22 -65 -72 0
-3639 13 0
-3639 22 0
-3639 65 0
-3639 72 0
-3637 3638 3639 0
-3638 3637 3639 0
-3639 3637 3638 0
3640 -1 -46 -66 -71 0
-3640 1 0
-3640 46 0
-3640 66 0
-3640 71 0
3641 -4 -31 -66 -71 0
-3641 4 0
-3641 31 0
-3641 66 0
-3641 71 0
3642 -13 -22 -66 -71 0
-3642 13 0
-3642 22 0
-3642 66 0
-3642 71 0
-3640 3641 3642 0
-3641 3640 3642 0
-3642 3640 3641 0
3643 -1 -47 -64 -72 0
-3643 1 0
-3643 47 0
-3643 64 0
-3643 72 0
3644 -7 -37 -47 -72 0
-3644 7 0
-3644 37 0
-3644 47 0
-3644 72 0
3645 -19 -25 -47 -72 0
-3645 19 0
-3645 25 0
-3645 47 0
-3645 72 0
-3643 3644 3645 0
-3644 3643 3645 0
-3645 3643 3644 0
3646 -1 -47 -66 -70 0
-3646 1 0
-3646 47 0
-3646 66 0
-3646 70 0
3647 -10 -34 -47 -66 0
-3647 10 0
-3647 34 0
-3647 47 0
-3647 66 0
3648 -16 -28 -47 -66 0
-3648 16 0
-3648 28 0
-3648 47 0
-3648 66 0
-3646 3647 3648 0
-3647 3646 3648 0
-3648 3646 3647 0
3649 -1 -48 -64 -71 0
-3649 1 0
-3649 48 0
-3649 64 0
-3649 71 0
3650 -7 -37 -48 -71 0
-3650 7 0
-3650 37 0
-3650 48 0
-3650 71 0
3651 -19 -25 -48 -71 0
-3651 19 0
-3651 25 0
-3651 48 0
-3651 71 0
-3649 3650 3651 0
-3650 3649 3651 0
-3651 3649 3650 0
3652 -1 -48 -65 -70 0
-3652 1 0
-3652 48 0
-3652 65 0
-3652 70 0
3653 -10 -34 -48 -65 0
-3653 10 0
-3653 34 0
-3653 48 0
-3653 65 0
3654 -16 -28 -48 -65 0
-3654 16 0
-3654 28 0
-3654 48 0
-3654 65 0
-3652 3653 3654 0
-3653 3652 3654 0
-3654 3652 3653 0
3655 -2 -46 -65 -72 0
-3655 2 0
-3655 46 0
-3655 65 0
-3655 72 0
3656 -8 -38 -46 -72 0
-3656 8 0
-3656 38 0
-3656 46 0
-3656 72 0
3657 -20 -26 -46 -72 0
-3657 20 0
-3657 26 0
-3657 46 0
-3657 72 0
-3655 3656 3657 0
-3656 3655 3657 0
-3657 3655 3656 0
3658 -2 -46 -66 -71 0
-3658 2 0
-3658 46 0
-3658 66 0
-3658 71 0
3659 -11 -35 -46 -66 0
-3659 11 0
-3659 35 0
-3659 46 0
-3659 66 0
3660 -17 -29 -46 -66 0
-3660 17 0
-3660 29 0
-3660 46 0
-3660 66 0
-3658 3659 3660 0
-3659 3658 3660 0
-3660 3658 3659 0
3661 -2 -47 -64 -72 0
-3661 2 0
-3661 47 0
-3661 64 0
-3661 72 0
3662 -5 -32 -64 -72 0
-3662 5 0
-3662 32 0
-3662 64 0
-3662 72 0
3663 -14 -23 -64 -72 0
-3663 14 0
-3663 23 0
-3663 64 0
-3663 72 0
-3661 3662 3663 0
-3662 3661 3663 0
-3663 3661 3662 0
3664 -2 -47 -66 -70 0
-3664 2 0
-3664 47 0
-3664 66 0
-3664 70 0
3665 -5 -32 -66 -70 0
-3665 5 0
-3665 32 0
-3665 66 0
-3665 70 0
3666 -14 -23 -66 -70 0
-3666 14 0
-3666 23 0
-3666 66 0
-3666 70 0
-3664 3665 3666 0
-3665 3664 3666 0
-3666 3664 3665 0
3667 -2 -48 -64 -71 0
-3667 2 0
-3667 48 0
-3667 64 0
-3667 71 0
3668 -11 -35 -48 -64 0
-3668 11 0
-3668 35 0
-3668 48 0
-3668 64 0
3669 -17 -29 -48 -64 0
-3669 17 0
-3669 29 0
-3669 48 0
-3669 64 0
-3667 3668 3669 0
-3668 3667 3669 0
-3669 3667 3668 0
3670 -2 -48 -65 -70 0
-3670 2 0
-3670 48 0
-3670 65 0
-3670 70 0
3671 -8 -38 -48 -70 0
-3671 8 0
-3671 38 0
-3671 48 0
-3671 70 0
3672 -20 -26 -48 -70 0
-3672 20 0
-3672 26 0
-3672 48 0
-3672 70 0
-3670 3671 3672 0
-3671 3670 3672 0
-3672 3670 3671 0
3673 -3 -46 -65 -72 0
-3673 3 0
-3673 46 0
-3673 65 0
-3673 72 0
3674 -12 -36 -46 -65 0
-3674 12 0
-3674 36 0
-3674 46 0
-3674 65 0
3675 -18 -30 -46 -65 0
-3675 18 0
-3675 30 0
-3675 46 0
-3675 65 0
-3673 3674 3675 0
-3674 3673 3675 0
-3675 3673 3674 0
3676 -3 -46 -66 -71 0
-3676 3 0
-3676 46 0
-3676 66 0
-3676 71 0
3677 -9 -39 -46 -71 0
-3677 9 0
-3677 39 0
-3677 46 0
-3677 71 0
3678 -21 -27 -46 -71 0
-3678 21 0
-3678 27 0
-3678 46 0
-3678 71 0
-3676 3677 3678 0
-3677 3676 3678 0
-3678 3676 3677 0
3679 -3 -47 -64 -72 0
-3679 3 0
-3679 47 0
-3679 64 0
-3679 72 0
3680 -12 -36 -47 -64 0
-3680 12 0
-3680 36 0
-3680 47 0
-3680 64 0
3681 -18 -30 -47 -64 0
-3681 18 0
-3681 30 0
-3681 47 0
-3681 64 0
-3679 3680 3681 0
-3680 3679 3681 0
-3681 3679 3680 0
3682 -3 -47 -66 -70 0
-3682 3 0
-3682 47 0
-3682 66 0
-3682 70 0
3683 -9 -39 -47 -70 0
-3683 9 0
-3683 39 0
-3683 47 0
-3683 70 0
3684 -21 -27 -47 -70 0
-3684 21 0
-3684 27 0
-3684 47 0
-3684 70 0
-3682 3683 3684 0
-3683 3682 3684 0
-3684 3682 3683 0
3685 -3 -48 -64 -71 0
-3685 3 0
-3685 48 0
-3685 64 0
-3685 71 0
3686 -6 -33 -64 -71 0
-3686 6 0
-3686 33 0
-3686 64 0
-3686 71 0
3687 -15 -24 -64 -71 0
-3687 15 0
-3687 24 0
-3687 64 0
-3687 71 0
-3685 3686 3687 0
-3686 3685 3687 0
-3687 3685 3686 0
3688 -3 -48 -65 -70 0
-3688 3 0
-3688 48 0
-3688 65 0
-3688 70 0
3689 -6 -33 -65 -70 0
-3689 6 0
-3689 33 0
-3689 65 0
-3689 70 0
3690 -15 -24 -65 -70 0
-3690 15 0
-3690 24 0
-3690 65 0
-3690 70 0
-3688 3689 3690 0
-3689 3688 3690 0
-3690 3688 3689 0
3691 -1 -49 -56 -80 0
-3691 1 0
-3691 49 0
-3691 56 0
-3691 80 0
3692 -1 -49 -59 -74 0
-3692 1 0
-3692 49 0
-3692 59 0
-3692 74 0
3693 -1 -49 -65 -68 0
-3693 1 0
-3693 49 0
-3693 65 0
-3693 68 0
3694 -4 -34 -56 -80 0
-3694 4 0
-3694 34 0
-3694 56 0
-3694 80 0
3695 -4 -34 -59 -74 0
-3695 4 0
-3695 34 0
-3695 59 0
-3695 74 0
3696 -4 -34 -65 -68 0
-3696 4 0
-3696 34 0
-3696 65 0
-3696 68 0
3697 -16 -22 -56 -80 0
-3697 16 0
-3697 22 0
-3697 56 0
-3697 80 0
3698 -16 -22 -59 -74 0
-3698 16 0
-3698 22 0
-3698 59 0
-3698 74 0
3699 -16 -22 -65 -68 0
-3699 16 0
-3699 22 0
-3699 65 0
-3699 68 0
-3691 3692 3693 3694 3695 3696 3697 3698 3699 0
-3692 3691 3693 3694 3695 3696 3697 3698 3699 0
-3693 3691 3692 3694 3695 3696 3697 3698 3699 0
-3694 3691 3692 3693 3695 3696 3697 3698 3699 0
-3695 3691 3692 3693 3694 3696 3697 3698 3699 0
-3696 3691 3692 3693 3694 3695 3697 3698 3699 0
-3697 3691 3692 3693 3694 3695 3696 3698 3699 0
-3698 3691 3692 3693 3694 3695 3696 3697 3699 0
-3699 3691 3692 3693 3694 3695 3696 3697 3698 0
3700 -1 -49 -56 -81 0
-3700 1 0
-3700 49 0
-3700 56 0
-3700 81 0
3701 -4 -34 -56 -81 0
-3701 4 0
-3701 34 0
-3701 56 0
-3701 81 0
3702 -16 -22 -56 -81 0
-3702 16 0
-3702 22 0
-3702 56 0
-3702 81 0
-3700 3701 3702 0
-3701 3700 3702 0
-3702 3700 3701 0
3703 -1 -49 -57 -80 0
-3703 1 0
-3703 49 0
-3703 57 0
-3703 80 0
3704 -4 -34 -57 -80 0
-3704 4 0
-3704 34 0
-3704 57 0
-3704 80 0
3705 -16 -22 -57 -80 0
-3705 16 0
-3705 22 0
-3705 57 0
-3705 80 0
-3703 3704 3705 0
-3704 3703 3705 0
-3705 3703 3704 0
3706 -1 -49 -57 -81 0
-3706 1 0
-3706 49 0
-3706 57 0
-3706 81 0
3707 -1 -49 -60 -75 0
-3707 1 0
-3707 49 0
-3707 60 0
-3707 75 0
3708 -1 -49 -66 -69 0
-3708 1 0
-3708 49 0
-3708 66 0
-3708 69 0
3709 -4 -34 -57 -81 0
-3709 4 0
-3709 34 0
-3709 57 0
-3709 81 0
3710 -4 -34 -60 -75 0
-3710 4 0
-3710 34 0
-3710 60 0
-3710 75 0
3711 -4 -34 -66 -69 0
-3711 4 0
-3711 34 0
-3711 66 0
-3711 69 0
3712 -16 -22 -57 -81 0
-3712 16 0
-3712 22 0
-3712 57 0
-3712 81 0
3713 -16 -22 -60 -75 0
-3713 16 0
-3713 22 0
-3713 60 0
-3713 75 0
3714 -16 -22 -66 -69 0
-3714 16 0
-3714 22 0
-3714 66 0
-3714 69 0
-3706 3707 3708 3709 3710 3711 3712 3713 3714 0
-3707 3706 3708 3709 3710 3711 3712 3713 3714 0
-3708 3706 3707 3709 3710 3711 3712 3713 3714 0
-3709 3706 3707 3708 3710 3711 3712 3713 3714 0
-3710 3706 3707 3708 3709 3711 3712 3713 3714 0
-3711 3706 3707 3708 3709 3710 3712 3713 3714 0
-3712 3706 3707 3708 3709 3710 3711 3713 3714 0
-3713 3706 3707 3708 3709 3710 3711 3712 3714 0
-3714 3706 3707 3708 3709 3710 3711 3712 3713 0
3715 -1 -50 -55 -79 0
-3715 1 0
-3715 50 0
-3715 55 0
-3715 79 0
3716 -1 -50 -58 -73 0
-3716 1 0
-3716 50 0
-3716 58 0
-3716 73 0
3717 -1 -50 -64 -67 0
-3717 1 0
-3717 50 0
-3717 64 0
-3717 67 0
3718 -7 -28 -50 -79 0
-3718 7 0
-3718 28 0
-3718 50 0
-3718 79 0
3719 -7 -31 -50 -73 0
-3719 7 0
-3719 31 0
-3719 50 0
-3719 73 0
3720 -7 -37 -50 -67 0
-3720 7 0
-3720 37 0
-3720 50 0
-3720 67 0
3721 -10 -25 -50 -79 0
-3721 10 0
-3721 25 0
-3721 50 0
-3721 79 0
3722 -10 -31 -50 -64 0
-3722 10 0
-3722 31 0
-3722 50 0
-3722 64 0
3723 -10 -37 -50 -58 0
-3723 10 0
-3723 37 0
-3723 50 0
-3723 58 0
3724 -13 -25 -50 -73 0
-3724 13 0
-3724 25 0
-3724 50 0
-3724 73 0
3725 -13 -28 -50 -64 0
-3725 13 0
-3725 28 0
-3725 50 0
-3725 64 0
3726 -13 -37 -50 -55 0
-3726 13 0
-3726 37 0
-3726 50 0
-3726 55 0
3727 -19 -25 -50 -67 0
-3727 19 0
-3727 25 0
-3727 50 0
-3727 67 0
3728 -19 -28 -50 -58 0
-3728 19 0
-3728 28 0
-3728 50 0
-3728 58 0
3729 -19 -31 -50 -55 0
-3729 19 0
-3729 31 0
-3729 50 0
-3729 55 0
-3715 3716 3717 3718 3719 3720 3721 3722 3723 3724 3725 3726 3727 3728 3729 0
-3716 3715 3717 3718 3719 3720 3721 3722 3723 3724 3725 3726 3727 3728 3729 0
-3717 3715 3716 3718 3719 3720 3721 3722 3723 3724 3725 3726 3727 3728 3729 0
-3718 3715 3716 3717 3719 3720 3721 3722 3723 3724 3725 3726 3727 3728 3729 0
-3719 3715 3716 3717 3718 3720 3721 3722 3723 3724 3725 3726 3727 3728 3729 0
-3720 3715 3716 3717 3718 3719 3721 3722 3723 3724 3725 3726 3727 3728 3729 0
-3721 3715 3716 3717 3718 3719 3720 3722 3723 3724 3725 3726 3727 3728 3729 0
-3722 3715 3716 3717 3718 3719 3720 3721 3723 3724 3725 3726 3727 3728 3729 0
-3723 3715 3716 3717 3718 3719 3720 3721 3722 3724 3725 3726 3727 3728 3729 0
-3724 3715 3716 3717 3718 3719 3720 3721 3722 3723 3725 3726 3727 3728 3729 0
-3725 3715 3716 3717 3718 3719 3720 3721 3722 3723 3724 3726 3727 3728 3729 0
-3726 3715 3716 3717 3718 3719 3720 3721 3722 3723 3724 3725 3727 3728 3729 0
-3727 3715 3716 3717 3718 3719 3720 3721 3722 3723 3724 3725 3726 3728 3729 0
-3728 3715 3716 3717 3718 3719 3720 3721 3722 3723 3724 3725 3726 3727 3729 0
-3729 3715 3716 3717 3718 3719 3720 3721 3722 3723 3724 3725 3726 3727 3728 0
3730 -1 -50 -55 -81 0
-3730 1 0
-3730 50 0
-3730 55 0
-3730 81 0
3731 -7 -28 -50 -81 0
-3731 7 0
-3731 28 0
-3731 50 0
-3731 81 0
3732 -10 -25 -50 -81 0
-3732 10 0
-3732 25 0
-3732 50 0
-3732 81 0
-3730 3731 3732 0
-3731 3730 3732 0
-3732 3730 3731 0
3733 -1 -50 -57 -79 0
-3733 1 0
-3733 50 0
-3733 57 0
-3733 79 0
3734 -13 -37 -50 -57 0
-3734 13 0
-3734 37 0
-3734 50 0
-3734 57 0
3735 -19 -31 -50 -57 0
-3735 19 0
-3735 31 0
-3735 50 0
-3735 57 0
-3733 3734 3735 0
-3734 3733 3735 0
-3735 3733 3734 0
3736 -1 -50 -57 -81 0
-3736 1 0
-3736 50 0
-3736 57 0
-3736 81 0
3737 -1 -50 -60 -75 0
-3737 1 0
-3737 50 0
-3737 60 0
-3737 75 0
3738 -1 -50 -66 -69 0
-3738 1 0
-3738 50 0
-3738 66 0
-3738 69 0
-3736 3737 3738 0
-3737 3736 3738 0
-3738 3736 3737 0
3739 -1 -51 -55 -79 0
-3739 1 0
-3739 51 0
-3739 55 0
-3739 79 0
3740 -1 -51 -58 -73 0
-3740 1 0
-3740 51 0
-3740 58 0
-3740 73 0
3741 -1 -51 -64 -67 0
-3741 1 0
-3741 51 0
-3741 64 0
-3741 67 0
3742 -7 -28 -51 -79 0
-3742 7 0
-3742 28 0
-3742 51 0
-3742 79 0
3743 -7 -31 -51 -73 0
-3743 7 0
-3743 31 0
-3743 51 0
-3743 73 0
3744 -7 -37 -51 -67 0
-3744 7 0
-3744 37 0
-3744 51 0
-3744 67 0
3745 -10 -25 -51 -79 0
-3745 10 0
-3745 25 0
-3745 51 0
-3745 79 0
3746 -10 -31 -51 -64 0
-3746 10 0
-3746 31 0
-3746 51 0
-3746 64 0
3747 -10 -37 -51 -58 0
-3747 10 0
-3747 37 0
-3747 51 0
-3747 58 0
3748 -13 -25 -51 -73 0
-3748 13 0
-3748 25 0
-3748 51 0
-3748 73 0
3749 -13 -28 -51 -64 0
-3749 13 0
-3749 28 0
-3749 51 0
-3749 64 0
3750 -13 -37 -51 -55 0
-3750 13 0
-3750 37 0
-3750 51 0
-3750 55 0
3751 -19 -25 -51 -67 0
-3751 19 0
-3751 25 0
-3751 51 0
-3751 67 0
3752 -19 -28 -51 -58 0
-3752 19 0
-3752 28 0
-3752 51 0
-3752 58 0
3753 -19 -31 -51 -55 0
-3753 19 0
-3753 31 0
-3753 51 0
-3753 55 0
-3739 3740 3741 3742 3743 3744 3745 3746 3747 3748 3749 3750 3751 3752 3753 0
-3740 3739 3741 3742 3743 3744 3745 3746 3747 3748 3749 3750 3751 3752 3753 0
-3741 3739 3740 3742 3743 3744 3745 3746 3747 3748 3749 3750 3751 3752 3753 0
-3742 3739 3740 3741 3743 3744 3745 3746 3747 3748 3749 3750 3751 3752 3753 0
-3743 3739 3740 3741 3742 3744 3745 3746 3747 3748 3749 3750 3751 3752 3753 0
-3744 3739 3740 3741 3742 3743 3745 3746 3747 3748 3749 3750 3751 3752 3753 0
-3745 3739 3740 3741 3742 3743 3744 3746 3747 3748 3749 3750 3751 3752 3753 0
-3746 3739 3740 3741 3742 3743 3744 3745 3747 3748 3749 3750 3751 3752 3753 0
-3747 3739 3740 3741 3742 3743 3744 3745 3746 3748 3749 3750 3751 3752 3753 0
-3748 3739 3740 3741 3742 3743 3744 3745 3746 3747 3749 3750 3751 3752 3753 0
-3749 3739 3740 3741 3742 3743 3744 3745 3746 3747 3748 3750 3751 3752 3753 0
-3750 3739 3740 3741 3742 3743 3744 3745 3746 3747 3748 3749 3751 3752 3753 0
-3751 3739 3740 3741 3742 3743 3744 3745 3746 3747 3748 3749 3750 3752 3753 0
-3752 3739 3740 3741 3742 3743 3744 3745 3746 3747 3748 3749 3750 3751 3753 0
-3753 3739 3740 3741 3742 3743 3744 3745 3746 3747 3748 3749 3750 3751 3752 0
3754 -1 -51 -55 -80 0
-3754 1 0
-3754 51 0
-3754 55 0
-3754 80 0
3755 -7 -28 -51 -80 0
-3755 7 0
-3755 28 0
-3755 51 0
-3755 80 0
3756 -10 -25 -51 -80 0
-3756 10 0
-3756 25 0
-3756 51 0
-3756 80 0
-3754 3755 3756 0
-3755 3754 3756 0
-3756 3754 3755 0
3757 -1 -51 -56 -79 0
-3757 1 0
-3757 51 0
-3757 56 0
-3757 79 0
3758 -13 -37 -51 -56 0
-3758 13 0
-3758 37 0
-3758 51 0
-3758 56 0
3759 -19 -31 -51 -56 0
-3759 19 0
-3759 31 0
-3759 51 0
-3759 56 0
-3757 3758 3759 0
-3758 3757 3759 0
-3759 3757 3758 0
3760 -1 -51 -56 -80 0
-3760 1 0
-3760 51 0
-3760 56 0
-3760 80 0
3761 -1 -51 -59 -74 0
-3761 1 0
-3761 51 0
-3761 59 0
-3761 74 0
3762 -1 -51 -65 -68 0
-3762 1 0
-3762 51 0
-3762 65 0
-3762 68 0
-3760 3761 3762 0
-3761 3760 3762 0
-3762 3760 3761 0
3763 -2 -49 -56 -80 0
-3763 2 0
-3763 49 0
-3763 56 0
-3763 80 0
3764 -2 -49 -59 -74 0
-3764 2 0
-3764 49 0
-3764 59 0
-3764 74 0
3765 -2 -49 -65 -68 0
-3765 2 0
-3765 49 0
-3765 65 0
-3765 68 0
3766 -8 -29 -49 -80 0
-3766 8 0
-3766 29 0
-3766 49 0
-3766 80 0
3767 -8 -32 -49 -74 0
-3767 8 0
-3767 32 0
-3767 49 0
-3767 74 0
3768 -8 -38 -49 -68 0
-3768 8 0
-3768 38 0
-3768 49 0
-3768 68 0
3769 -11 -26 -49 -80 0
-3769 11 0
-3769 26 0
-3769 49 0
-3769 80 0
3770 -11 -32 -49 -65 0
-3770 11 0
-3770 32 0
-3770 49 0
-3770 65 0
3771 -11 -38 -49 -59 0
-3771 11 0
-3771 38 0
-3771 49 0
-3771 59 0
3772 -14 -26 -49 -74 0
-3772 14 0
-3772 26 0
-3772 49 0
-3772 74 0
3773 -14 -29 -49 -65 0
-3773 14 0
-3773 29 0
-3773 49 0
-3773 65 0
3774 -14 -38 -49 -56 0
-3774 14 0
-3774 38 0
-3774 49 0
-3774 56 0
3775 -20 -26 -49 -68 0
-3775 20 0
-3775 26 0
-3775 49 0
-3775 68 0
3776 -20 -29 -49 -59 0
-3776 20 0
-3776 29 0
-3776 49 0
-3776 59 0
3777 -20 -32 -49 -56 0
-3777 20 0
-3777 32 0
-3777 49 0
-3777 56 0
-3763 3764 3765 3766 3767 3768 3769 3770 3771 3772 3773 3774 3775 3776 3777 0
-3764 3763 3765 3766 3767 3768 3769 3770 3771 3772 3773 3774 3775 3776 3777 0
-3765 3763 3764 3766 3767 3768 3769 3770 3771 3772 3773 3774 3775 3776 3777 0
-3766 3763 3764 3765 3767 3768 3769 3770 3771 3772 3773 3774 3775 3776 3777 0
-3767 3763 3764 3765 3766 3768 3769 3770 3771 3772 3773 3774 3775 3776 3777 0
-3768 3763 3764 3765 3766 3767 3769 3770 3771 3772 3773 3774 3775 3776 3777 0
-3769 3763 3764 3765 3766 3767 3768 3770 3771 3772 3773 3774 3775 3776 3777 0
-3770 3763 3764 3765 3766 3767 3768 3769 3771 3772 3773 3774 3775 3776 3777 0
-3771 3763 3764 3765 3766 3767 3768 3769 3770 3772 3773 3774 3775 3776 3777 0
-3772 3763 3764 3765 3766 3767 3768 3769 3770 3771 3773 3774 3775 3776 3777 0
-3773 3763 3764 3765 3766 3767 3768 3769 3770 3771 3772 3774 3775 3776 3777 0
-3774 3763 3764 3765 3766 3767 3768 3769 3770 3771 3772 3773 3775 3776 3777 0
-3775 3763 3764 3765 3766 3767 3768 3769 3770 3771 3772 3773 3774 3776 3777 0
-3776 3763 3764 3765 3766 3767 3768 3769 3770 3771 3772 3773 3774 3775 3777 0
-3777 3763 3764 3765 3766 3767 3768 3769 3770 3771 3772 3773 3774 3775 3776 0
3778 -2 -49 -56 -81 0
-3778 2 0
-3778 49 0
-3778 56 0
-3778 81 0
3779 -8 -29 -49 -81 0
-3779 8 0
-3779 29 0
-3779 49 0
-3779 81 0
3780 -11 -26 -49 -81 0
-3780 11 0
-3780 26 0
-3780 49 0
-3780 81 0
-3778 3779 3780 0
-3779 3778 3780 0
-3780 3778 3779 0
3781 -2 -49 -57 -80 0
-3781 2 0
-3781 49 0
-3781 57 0
-3781 80 0
3782 -14 -38 -49 -57 0
-3782 14 0
-3782 38 0
-3782 49 0
-3782 57 0
3783 -20 -32 -49 -57 0
-3783 20 0
-3783 32 0
-3783 49 0
-3783 57 0
-3781 3782 3783 0
-3782 3781 3783 0
-3783 3781 3782 0
3784 -2 -49 -57 -81 0
-3784 2 0
-3784 49 0
-3784 57 0
-3784 81 0
3785 -2 -49 -60 -75 0
-3785 2 0
-3785 49 0
-3785 60 0
-3785 75 0
3786 -2 -49 -66 -69 0
-3786 2 0
-3786 49 0
-3786 66 0
-3786 69 0
-3784 3785 3786 0
-3785 3784 3786 0
-3786 3784 3785 0
3787 -2 -50 -55 -79 0
-3787 2 0
-3787 50 0
-3787 55 0
-3787 79 0
3788 -2 -50 -58 -73 0
-3788 2 0
-3788 50 0
-3788 58 0
-3788 73 0
3789 -2 -50 -64 -67 0
-3789 2 0
-3789 50 0
-3789 64 0
-3789 67 0
3790 -5 -35 -55 -79 0
-3790 5 0
-3790 35 0
-3790 55 0
-3790 79 0
3791 -5 -35 -58 -73 0
-3791 5 0
-3791 35 0
-3791 58 0
-3791 73 0
3792 -5 -35 -64 -67 0
-3792 5 0
-3792 35 0
-3792 64 0
-3792 67 0
3793 -17 -23 -55 -79 0
-3793 17 0
-3793 23 0
-3793 55 0
-3793 79 0
3794 -17 -23 -58 -73 0
-3794 17 0
-3794 23 0
-3794 58 0
-3794 73 0
3795 -17 -23 -64 -67 0
-3795 17 0
-3795 23 0
-3795 64 0
-3795 67 0
-3787 3788 3789 3790 3791 3792 3793 3794 3795 0
-3788 3787 3789 3790 3791 3792 3793 3794 3795 0
-3789 3787 3788 3790 3791 3792 3793 3794 3795 0
-3790 3787 3788 3789 3791 3792 3793 3794 3795 0
-3791 3787 3788 3789 3790 3792 3793 3794 3795 0
-3792 3787 3788 3789 3790 3791 3793 3794 3795 0
-3793 3787 3788 3789 3790 3791 3792 3794 3795 0
-3794 3787 3788 3789 3790 3791 3792 3793 3795 0
-3795 3787 3788 3789 3790 3791 3792 3793 3794 0
3796 -2 -50 -55 -81 0
-3796 2 0
-3796 50 0
-3796 55 0
-3796 81 0
3797 -5 -35 -55 -81 0
-3797 5 0
-3797 35 0
-3797 55 0
-3797 81 0
3798 -17 -23 -55 -81 0
-3798 17 0
-3798 23 0
-3798 55 0
-3798 81 0
-3796 3797 3798 0
-3797 3796 3798 0
-3798 3796 3797 0
3799 -2 -50 -57 -79 0
-3799 2 0
-3799 50 0
-3799 57 0
-3799 79 0
3800 -5 -35 -57 -79 0
-3800 5 0
-3800 35 0
-3800 57 0
-3800 79 0
3801 -17 -23 -57 -79 0
-3801 17 0
-3801 23 0
-3801 57 0
-3801 79 0
-3799 3800 3801 0
-3800 3799 3801 0
-3801 3799 3800 0
3802 -2 -50 -57 -81 0
-3802 2 0
-3802 50 0
-3802 57 0
-3802 81 0
3803 -2 -50 -60 -75 0
-3803 2 0
-3803 50 0
-3803 60 0
-3803 75 0
3804 -2 -50 -66 -69 0
-3804 2 0
-3804 50 0
-3804 66 0
-3804 69 0
3805 -5 -35 -57 -81 0
-3805 5 0
-3805 35 0
-3805 57 0
-3805 81 0
3806 -5 -35 -60 -75 0
-3806 5 0
-3806 35 0
-3806 60 0
-3806 75 0
3807 -5 -35 -66 -69 0
-3807 5 0
-3807 35 0
-3807 66 0
-3807 69 0
3808 -17 -23 -57 -81 0
-3808 17 0
-3808 23 0
-3808 57 0
-3808 81 0
3809 -17 -23 -60 -75 0
-3809 17 0
-3809 23 0
-3809 60 0
-3809 75 0
3810 -17 -23 -66 -69 0
-3810 17 0
-3810 23 0
-3810 66 0
-3810 69 0
-3802 3803 3804 3805 3806 3807 3808 3809 3810 0
-3803 3802 3804 3805 3806 3807 3808 3809 3810 0
-3804 3802 3803 3805 3806 3807 3808 3809 3810 0
-3805 3802 3803 3804 3806 3807 3808 3809 3810 0
-3806 3802 3803 3804 3805 3807 3808 3809 3810 0
-3807 3802 3803 3804 3805 3806 3808 3809 3810 0
-3808 3802 3803 3804 3805 3806 3807 3809 3810 0
-3809 3802 3803 3804 3805 3806 3807 3808 3810 0
-3810 3802 3803 3804 3805 3806 3807 3808 3809 0
3811 -2 -51 -55 -79 0
-3811 2 0
-3811 51 0
-3811 55 0
-3811 79 0
3812 -2 -51 -58 -73 0
-3812 2 0
-3812 51 0
-3812 58 0
-3812 73 0
3813 -2 -51 -64 -67 0
-3813 2 0
-3813 51 0
-3813 64 0
-3813 67 0
-3811 3812 3813 0
-3812 3811 3813 0
-3813 3811 3812 0
3814 -2 -51 -55 -80 0
-3814 2 0
-3814 51 0
-3814 55 0
-3814 80 0
3815 -14 -38 -51 -55 0
-3815 14 0
-3815 38 0
-3815 51 0
-3815 55 0
3816 -20 -32 -51 -55 0
-3816 20 0
-3816 32 0
-3816 51 0
-3816 55 0
-3814 3815 3816 0
-3815 3814 3816 0
-3816 3814 3815 0
3817 -2 -51 -56 -79 0
-3817 2 0
-3817 51 0
-3817 56 0
-3817 79 0
3818 -8 -29 -51 -79 0
-3818 8 0
-3818 29 0
-3818 51 0
-3818 79 0
3819 -11 -26 -51 -79 0
-3819 11 0
-3819 26 0
-3819 51 0
-3819 79 0
-3817 3818 3819 0
-3818 3817 3819 0
-3819 3817 3818 0
3820 -2 -51 -56 -80 0
-3820 2 0
-3820 51 0
-3820 56 0
-3820 80 0
3821 -2 -51 -59 -74 0
-3821 2 0
-3821 51 0
-3821 59 0
-3821 74 0
3822 -2 -51 -65 -68 0
-3822 2 0
-3822 51 0
-3822 65 0
-3822 68 0
3823 -8 -29 -51 -80 0
-3823 8 0
-3823 29 0
-3823 51 0
-3823 80 0
3824 -8 -32 -51 -74 0
-3824 8 0
-3824 32 0
-3824 51 0
-3824 74 0
3825 -8 -38 -51 -68 0
-3825 8 0
-3825 38 0
-3825 51 0
-3825 68 0
3826 -11 -26 -51 -80 0
-3826 11 0
-3826 26 0
-3826 51 0
-3826 80 0
3827 -11 -32 -51 -65 0
-3827 11 0
-3827 32 0
-3827 51 0
-3827 65 0
3828 -11 -38 -51 -59 0
-3828 11 0
-3828 38 0
-3828 51 0
-3828 59 0
3829 -14 -26 -51 -74 0
-3829 14 0
-3829 26 0
-3829 51 0
-3829 74 0
3830 -14 -29 -51 -65 0
-3830 14 0
-3830 29 0
-3830 51 0
-3830 65 0
3831 -14 -38 -51 -56 0
-3831 14 0
-3831 38 0
-3831 51 0
-3831 56 0
3832 -20 -26 -51 -68 0
-3832 20 0
-3832 26 0
-3832 51 0
-3832 68 0
3833 -20 -29 -51 -59 0
-3833 20 0
-3833 29 0
-3833 51 0
-3833 59 0
3834 -20 -32 -51 -56 0
-3834 20 0
-3834 32 0
-3834 51 0
-3834 56 0
-3820 3821 3822 3823 3824 3825 3826 3827 3828 3829 3830 3831 3832 3833 3834 0
-3821 3820 3822 3823 3824 3825 3826 3827 3828 3829 3830 3831 3832 3833 3834 0
-3822 3820 3821 3823 3824 3825 3826 3827 3828 3829 3830 3831 3832 3833 3834 0
-3823 3820 3821 3822 3824 3825 3826 3827 3828 3829 3830 3831 3832 3833 3834 0
-3824 3820 3821 3822 3823 3825 3826 3827 3828 3829 3830 3831 3832 3833 3834 0
-3825 3820 3821 3822 3823 3824 3826 3827 3828 3829 3830 3831 3832 3833 3834 0
-3826 3820 3821 3822 3823 3824 3825 3827 3828 3829 3830 3831 3832 3833 3834 0
-3827 3820 3821 3822 3823 3824 3825 3826 3828 3829 3830 3831 3832 3833 3834 0
-3828 3820 3821 3822 3823 3824 3825 3826 3827 3829 3830 3831 3832 3833 3834 0
-3829 3820 3821 3822 3823 3824 3825 3826 3827 3828 3830 3831 3832 3833 3834 0
-3830 3820 3821 3822 3823 3824 3825 3826 3827 3828 3829 3831 3832 3833 3834 0
-3831 3820 3821 3822 3823 3824 3825 3826 3827 3828 3829 3830 3832 3833 3834 0
-3832 3820 3821 3822 3823 3824 3825 3826 3827 3828 3829 3830 3831 3833 3834 0
-3833 3820 3821 3822 3823 3824 3825 3826 3827 3828 3829 3830 3831 3832 3834 0
-3834 3820 3821 3822 3823 3824 3825 3826 3827 3828 3829 3830 3831 3832 3833 0
3835 -3 -49 -56 -80 0
-3835 3 0
-3835 49 0
-3835 56 0
-3835 80 0
3836 -3 -49 -59 -74 0
-3836 3 0
-3836 49 0
-3836 59 0
-3836 74 0
3837 -3 -49 -65 -68 0
-3837 3 0
-3837 49 0
-3837 65 0
-3837 68 0
-3835 3836 3837 0
-3836 3835 3837 0
-3837 3835 3836 0
3838 -3 -49 -56 -81 0
-3838 3 0
-3838 49 0
-3838 56 0
-3838 81 0
3839 -15 -39 -49 -56 0
-3839 15 0
-3839 39 0
-3839 49 0
-3839 56 0
3840 -21 -33 -49 -56 0
-3840 21 0
-3840 33 0
-3840 49 0
-3840 56 0
-3838 3839 3840 0
-3839 3838 3840 0
-3840 3838 3839 0
3841 -3 -49 -57 -80 0
-3841 3 0
-3841 49 0
-3841 57 0
-3841 80 0
3842 -9 -30 -49 -80 0
-3842 9 0
-3842 30 0
-3842 49 0
-3842 80 0
3843 -12 -27 -49 -80 0
-3843 12 0
-3843 27 0
-3843 49 0
-3843 80 0
-3841 3842 3843 0
-3842 3841 3843 0
-3843 3841 3842 0
3844 -3 -49 -57 -81 0
-3844 3 0
-3844 49 0
-3844 57 0
-3844 81 0
3845 -3 -49 -60 -75 0
-3845 3 0
-3845 49 0
-3845 60 0
-3845 75 0
3846 -3 -49 -66 -69 0
-3846 3 0
-3846 49 0
-3846 66 0
-3846 69 0
3847 -9 -30 -49 -81 0
-3847 9 0
-3847 30 0
-3847 49 0
-3847 81 0
3848 -9 -33 -49 -75 0
-3848 9 0
-3848 33 0
-3848 49 0
-3848 75 0
3849 -9 -39 -49 -69 0
-3849 9 0
-3849 39 0
-3849 49 0
-3849 69 0
3850 -12 -27 -49 -81 0
-3850 12 0
-3850 27 0
-3850 49 0
-3850 81 0
3851 -12 -33 -49 -66 0
-3851 12 0
-3851 33 0
-3851 49 0
-3851 66 0
3852 -12 -39 -49 -60 0
-3852 12 0
-3852 39 0
-3852 49 0
-3852 60 0
3853 -15 -27 -49 -75 0
-3853 15 0
-3853 27 0
-3853 49 0
-3853 75 0
3854 -15 -30 -49 -66 0
-3854 15 0
-3854 30 0
-3854 49 0
-3854 66 0
3855 -15 -39 -49 -57 0
-3855 15 0
-3855 39 0
-3855 49 0
-3855 57 0
3856 -21 -27 -49 -69 0
-3856 21 0
-3856 27 0
-3856 49 0
-3856 69 0
3857 -21 -30 -49 -60 0
-3857 21 0
-3857 30 0
-3857 49 0
-3857 60 0
3858 -21 -33 -49 -57 0
-3858 21 0
-3858 33 0
-3858 49 0
-3858 57 0
-3844 3845 3846 3847 3848 3849 3850 3851 3852 3853 3854 3855 3856 3857 3858 0
-3845 3844 3846 3847 3848 3849 3850 3851 3852 3853 3854 3855 3856 3857 3858 0
-3846 3844 3845 3847 3848 3849 3850 3851 3852 3853 3854 3855 3856 3857 3858 0
-3847 3844 3845 3846 3848 3849 3850 3851 3852 3853 3854 3855 3856 3857 3858 0
-3848 3844 3845 3846 3847 3849 3850 3851 3852 3853 3854 3855 3856 3857 3858 0
-3849 3844 3845 3846 3847 3848 3850 3851 3852 3853 3854 3855 3856 3857 3858 0
-3850 3844 3845 3846 3847 3848 3849 3851 3852 3853 3854 3855 3856 3857 3858 0
-3851 3844 3845 3846 3847 3848 3849 3850 3852 3853 3854 3855 3856 3857 3858 0
-3852 3844 3845 3846 3847 3848 3849 3850 3851 3853 3854 3855 3856 3857 3858 0
-3853 3844 3845 3846 3847 3848 3849 3850 3851 3852 3854 3855 3856 3857 3858 0
-3854 3844 3845 3846 3847 3848 3849 3850 3851 3852 3853 3855 3856 3857 3858 0
-3855 3844 3845 3846 3847 3848 3849 3850 3851 3852 3853 3854 3856 3857 3858 0
-3856 3844 3845 3846 3847 3848 3849 3850 3851 3852 3853 3854 3855 3857 3858 0
-3857 3844 3845 3846 3847 3848 3849 3850 3851 3852 3853 3854 3855 3856 3858 0
-3858 3844 3845 3846 3847 3848 3849 3850 3851 3852 3853 3854 3855 3856 3857 0
3859 -3 -50 -55 -79 0
-3859 3 0
-3859 50 0
-3859 55 0
-3859 79 0
3860 -3 -50 -58 -73 0
-3860 3 0
-3860 50 0
-3860 58 0
-3860 73 0
3861 -3 -50 -64 -67 0
-3861 3 0
-3861 50 0
-3861 64 0
-3861 67 0
-3859 3860 3861 0
-3860 3859 3861 0
-3861 3859 3860 0
3862 -3 -50 -55 -81 0
-3862 3 0
-3862 50 0
-3862 55 0
-3862 81 0
3863 -15 -39 -50 -55 0
-3863 15 0
-3863 39 0
-3863 50 0
-3863 55 0
3864 -21 -33 -50 -55 0
-3864 21 0
-3864 33 0
-3864 50 0
-3864 55 0
-3862 3863 3864 0
-3863 3862 3864 0
-3864 3862 3863 0
3865 -3 -50 -57 -79 0
-3865 3 0
-3865 50 0
-3865 57 0
-3865 79 0
3866 -9 -30 -50 -79 0
-3866 9 0
-3866 30 0
-3866 50 0
-3866 79 0
3867 -12 -27 -50 -79 0
-3867 12 0
-3867 27 0
-3867 50 0
-3867 79 0
-3865 3866 3867 0
-3866 3865 3867 0
-3867 3865 3866 0
3868 -3 -50 -57 -81 0
-3868 3 0
-3868 50 0
-3868 57 0
-3868 81 0
3869 -3 -50 -60 -75 0
-3869 3 0
-3869 50 0
-3869 60 0
-3869 75 0
3870 -3 -50 -66 -69 0
-3870 3 0
-3870 50 0
-3870 66 0
-3870 69 0
3871 -9 -30 -50 -81 0
-3871 9 0
-3871 30 0
-3871 50 0
-3871 81 0
3872 -9 -33 -50 -75 0
-3872 9 0
-3872 33 0
-3872 50 0
-3872 75 0
3873 -9 -39 -50 -69 0
-3873 9 0
-3873 39 0
-3873 50 0
-3873 69 0
3874 -12 -27 -50 -81 0
-3874 12 0
-3874 27 0
-3874 50 0
-3874 81 0
3875 -12 -33 -50 -66 0
-3875 12 0
-3875 33 0
-3875 50 0
-3875 66 0
3876 -12 -39 -50 -60 0
-3876 12 0
-3876 39 0
-3876 50 0
-3876 60 0
3877 -15 -27 -50 -75 0
-3877 15 0
-3877 27 0
-3877 50 0
-3877 75 0
3878 -15 -30 -50 -66 0
-3878 15 0
-3878 30 0
-3878 50 0
-3878 66 0
3879 -15 -39 -50 -57 0
-3879 15 0
-3879 39 0
-3879 50 0
-3879 57 0
3880 -21 -27 -50 -69 0
-3880 21 0
-3880 27 0
-3880 50 0
-3880 69 0
3881 -21 -30 -50 -60 0
-3881 21 0
-3881 30 0
-3881 50 0
-3881 60 0
3882 -21 -33 -50 -57 0
-3882 21 0
-3882 33 0
-3882 50 0
-3882 57 0
-3868 3869 3870 3871 3872 3873 3874 3875 3876 3877 3878 3879 3880 3881 3882 0
-3869 3868 3870 3871 3872 3873 3874 3875 3876 3877 3878 3879 3880 3881 3882 0
-3870 3868 3869 3871 3872 3873 3874 3875 3876 3877 3878 3879 3880 3881 3882 0
-3871 3868 3869 3870 3872 3873 3874 3875 3876 3877 3878 3879 3880 3881 3882 0
-3872 3868 3869 3870 3871 3873 3874 3875 3876 3877 3878 3879 3880 3881 3882 0
-3873 3868 3869 3870 3871 3872 3874 3875 3876 3877 3878 3879 3880 3881 3882 0
-3874 3868 3869 3870 3871 3872 3873 3875 3876 3877 3878 3879 3880 3881 3882 0
-3875 3868 3869 3870 3871 3872 3873 3874 3876 3877 3878 3879 3880 3881 3882 0
-3876 3868 3869 3870 3871 3872 3873 3874 3875 3877 3878 3879 3880 3881 3882 0
-3877 3868 3869 3870 3871 3872 3873 3874 3875 3876 3878 3879 3880 3881 3882 0
-3878 3868 3869 3870 3871 3872 3873 3874 3875 3876 3877 3879 3880 3881 3882 0
-3879 3868 3869 3870 3871 3872 3873 3874 3875 3876 3877 3878 3880 3881 3882 0
-3880 3868 3869 3870 3871 3872 3873 3874 3875 3876 3877 3878 3879 3881 3882 0
-3881 3868 3869 3870 3871 3872 3873 3874 3875 3876 3877 3878 3879 3880 3882 0
-3882 3868 3869 3870 3871 3872 3873 3874 3875 3876 3877 3878 3879 3880 3881 0
3883 -3 -51 -55 -79 0
-3883 3 0
-3883 51 0
-3883 55 0
-3883 79 0
3884 -3 -51 -58 -73 0
-3884 3 0
-3884 51 0
-3884 58 0
-3884 73 0
3885 -3 -51 -64 -67 0
-3885 3 0
-3885 51 0
-3885 64 0
-3885 67 0
3886 -6 -36 -55 -79 0
-3886 6 0
-3886 36 0
-3886 55 0
-3886 79 0
3887 -6 -36 -58 -73 0
-3887 6 0
-3887 36 0
-3887 58 0
-3887 73 0
3888 -6 -36 -64 -67 0
-3888 6 0
-3888 36 0
-3888 64 0
-3888 67 0
3889 -18 -24 -55 -79 0
-3889 18 0
-3889 24 0
-3889 55 0
-3889 79 0
3890 -18 -24 -58 -73 0
-3890 18 0
-3890 24 0
-3890 58 0
-3890 73 0
3891 -18 -24 -64 -67 0
-3891 18 0
-3891 24 0
-3891 64 0
-3891 67 0
-3883 3884 3885 3886 3887 3888 3889 3890 3891 0
-3884 3883 3885 3886 3887 3888 3889 3890 3891 0
-3885 3883 3884 3886 3887 3888 3889 3890 3891 0
-3886 3883 3884 3885 3887 3888 3889 3890 3891 0
-3887 3883 3884 3885 3886 3888 3889 3890 3891 0
-3888 3883 3884 3885 3886 3887 3889 3890 3891 0
-3889 3883 3884 3885 3886 3887 3888 3890 3891 0
-3890 3883 3884 3885 3886 3887 3888 3889 3891 0
-3891 3883 3884 3885 3886 3887 3888 3889 3890 0
3892 -3 -51 -55 -80 0
-3892 3 0
-3892 51 0
-3892 55 0
-3892 80 0
3893 -6 -36 -55 -80 0
-3893 6 0
-3893 36 0
-3893 55 0
-3893 80 0
3894 -18 -24 -55 -80 0
-3894 18 0
-3894 24 0
-3894 55 0
-3894 80 0
-3892 3893 3894 0
-3893 3892 3894 0
-3894 3892 3893 0
3895 -3 -51 -56 -79 0
-3895 3 0
-3895 51 0
-3895 56 0
-3895 79 0
3896 -6 -36 -56 -79 0
-3896 6 0
-3896 36 0
-3896 56 0
-3896 79 0
3897 -18 -24 -56 -79 0
-3897 18 0
-3897 24 0
-3897 56 0
-3897 79 0
-3895 3896 3897 0
-3896 3895 3897 0
-3897 3895 3896 0
3898 -3 -51 -56 -80 0
-3898 3 0
-3898 51 0
-3898 56 0
-3898 80 0
3899 -3 -51 -59 -74 0
-3899 3 0
-3899 51 0
-3899 59 0
-3899 74 0
3900 -3 -51 -65 -68 0
-3900 3 0
-3900 51 0
-3900 65 0
-3900 68 0
3901 -6 -36 -56 -80 0
-3901 6 0
-3901 36 0
-3901 56 0
-3901 80 0
3902 -6 -36 -59 -74 0
-3902 6 0
-3902 36 0
-3902 59 0
-3902 74 0
3903 -6 -36 -65 -68 0
-3903 6 0
-3903 36 0
-3903 65 0
-3903 68 0
3904 -18 -24 -56 -80 0
-3904 18 0
-3904 24 0
-3904 56 0
-3904 80 0
3905 -18 -24 -59 -74 0
-3905 18 0
-3905 24 0
-3905 59 0
-3905 74 0
3906 -18 -24 -65 -68 0
-3906 18 0
-3906 24 0
-3906 65 0
-3906 68 0
-3898 3899 3900 3901 3902 3903 3904 3905 3906 0
-3899 3898 3900 3901 3902 3903 3904 3905 3906 0
-3900 3898 3899 3901 3902 3903 3904 3905 3906 0
-3901 3898 3899 3900 3902 3903 3904 3905 3906 0
-3902 3898 3899 3900 3901 3903 3904 3905 3906 0
-3903 3898 3899 3900 3901 3902 3904 3905 3906 0
-3904 3898 3899 3900 3901 3902 3903 3905 3906 0
-3905 3898 3899 3900 3901 3902 3903 3904 3906 0
-3906 3898 3899 3900 3901 3902 3903 3904 3905 0
3907 -1 -49 -59 -75 0
-3907 1 0
-3907 49 0
-3907 59 0
-3907 75 0
3908 -4 -34 -59 -75 0
-3908 4 0
-3908 34 0
-3908 59 0
-3908 75 0
3909 -16 -22 -59 -75 0
-3909 16 0
-3909 22 0
-3909 59 0
-3909 75 0
-3907 3908 3909 0
-3908 3907 3909 0
-3909 3907 3908 0
3910 -1 -49 -60 -74 0
-3910 1 0
-3910 49 0
-3910 60 0
-3910 74 0
3911 -4 -34 -60 -74 0
-3911 4 0
-3911 34 0
-3911 60 0
-3911 74 0
3912 -16 -22 -60 -74 0
-3912 16 0
-3912 22 0
-3912 60 0
-3912 74 0
-3910 3911 3912 0
-3911 3910 3912 0
-3912 3910 3911 0
3913 -1 -50 -58 -75 0
-3913 1 0
-3913 50 0
-3913 58 0
-3913 75 0
3914 -7 -31 -50 -75 0
-3914 7 0
-3914 31 0
-3914 50 0
-3914 75 0
3915 -13 -25 -50 -75 0
-3915 13 0
-3915 25 0
-3915 50 0
-3915 75 0
-3913 3914 3915 0
-3914 3913 3915 0
-3915 3913 3914 0
3916 -1 -50 -60 -73 0
-3916 1 0
-3916 50 0
-3916 60 0
-3916 73 0
3917 -10 -37 -50 -60 0
-3917 10 0
-3917 37 0
-3917 50 0
-3917 60 0
3918 -19 -28 -50 -60 0
-3918 19 0
-3918 28 0
-3918 50 0
-3918 60 0
-3916 3917 3918 0
-3917 3916 3918 0
-3918 3916 3917 0
3919 -1 -51 -58 -74 0
-3919 1 0
-3919 51 0
-3919 58 0
-3919 74 0
3920 -7 -31 -51 -74 0
-3920 7 0
-3920 31 0
-3920 51 0
-3920 74 0
3921 -13 -25 -51 -74 0
-3921 13 0
-3921 25 0
-3921 51 0
-3921 74 0
-3919 3920 3921 0
-3920 3919 3921 0
-3921 3919 3920 0
3922 -1 -51 -59 -73 0
-3922 1 0
-3922 51 0
-3922 59 0
-3922 73 0
3923 -10 -37 -51 -59 0
-3923 10 0
-3923 37 0
-3923 51 0
-3923 59 0
3924 -19 -28 -51 -59 0
-3924 19 0
-3924 28 0
-3924 51 0
-3924 59 0
-3922 3923 3924 0
-3923 3922 3924 0
-3924 3922 3923 0
3925 -2 -49 -59 -75 0
-3925 2 0
-3925 49 0
-3925 59 0
-3925 75 0
3926 -8 -32 -49 -75 0
-3926 8 0
-3926 32 0
-3926 49 0
-3926 75 0
3927 -14 -26 -49 -75 0
-3927 14 0
-3927 26 0
-3927 49 0
-3927 75 0
-3925 3926 3927 0
-3926 3925 3927 0
-3927 3925 3926 0
3928 -2 -49 -60 -74 0
-3928 2 0
-3928 49 0
-3928 60 0
-3928 74 0
3929 -11 -38 -49 -60 0
-3929 11 0
-3929 38 0
-3929 49 0
-3929 60 0
3930 -20 -29 -49 -60 0
-3930 20 0
-3930 29 0
-3930 49 0
-3930 60 0
-3928 3929 3930 0
-3929 3928 3930 0
-3930 3928 3929 0
3931 -2 -50 -58 -75 0
-3931 2 0
-3931 50 0
-3931 58 0
-3931 75 0
3932 -5 -35 -58 -75 0
-3932 5 0
-3932 35 0
-3932 58 0
-3932 75 0
3933 -17 -23 -58 -75 0
-3933 17 0
-3933 23 0
-3933 58 0
-3933 75 0
-3931 3932 3933 0
-3932 3931 3933 0
-3933 3931 3932 0
3934 -2 -50 -60 -73 0
-3934 2 0
-3934 50 0
-3934 60 0
-3934 73 0
3935 -5 -35 -60 -73 0
-3935 5 0
-3935 35 0
-3935 60 0
-3935 73 0
3936 -17 -23 -60 -73 0
-3936 17 0
-3936 23 0
-3936 60 0
-3936 73 0
-3934 3935 3936 0
-3935 3934 3936 0
-3936 3934 3935 0
3937 -2 -51 -58 -74 0
-3937 2 0
-3937 51 0
-3937 58 0
-3937 74 0
3938 -11 -38 -51 -58 0
-3938 11 0
-3938 38 0
-3938 51 0
-3938 58 0
3939 -20 -29 -51 -58 0
-3939 20 0
-3939 29 0
-3939 51 0
-3939 58 0
-3937 3938 3939 0
-3938 3937 3939 0
-3939 3937 3938 0
3940 -2 -51 -59 -73 0
-3940 2 0
-3940 51 0
-3940 59 0
-3940 73 0
3941 -8 -32 -51 -73 0
-3941 8 0
-3941 32 0
-3941 51 0
-3941 73 0
3942 -14 -26 -51 -73 0
-3942 14 0
-3942 26 0
-3942 51 0
-3942 73 0
-3940 3941 3942 0
-3941 3940 3942 0
-3942 3940 3941 0
3943 -3 -49 -59 -75 0
-3943 3 0
-3943 49 0
-3943 59 0
-3943 75 0
3944 -12 -39 -49 -59 0
-3944 12 0
-3944 39 0
-3944 49 0
-3944 59 0
3945 -21 -30 -49 -59 0
-3945 21 0
-3945 30 0
-3945 49 0
-3945 59 0
-3943 3944 3945 0
-3944 3943 3945 0
-3945 3943 3944 0
3946 -3 -49 -60 -74 0
-3946 3 0
-3946 49 0
-3946 60 0
-3946 74 0
3947 -9 -33 -49 -74 0
-3947 9 0
-3947 33 0
-3947 49 0
-3947 74 0
3948 -15 -27 -49 -74 0
-3948 15 0
-3948 27 0
-3948 49 0
-3948 74 0
-3946 3947 3948 0
-3947 3946 3948 0
-3948 3946 3947 0
3949 -3 -50 -58 -75 0
-3949 3 0
-3949 50 0
-3949 58 0
-3949 75 0
3950 -12 -39 -50 -58 0
-3950 12 0
-3950 39 0
-3950 50 0
-3950 58 0
3951 -21 -30 -50 -58 0
-3951 21 0
-3951 30 0
-3951 50 0
-3951 58 0
-3949 3950 3951 0
-3950 3949 3951 0
-3951 3949 3950 0
3952 -3 -50 -60 -73 0
-3952 3 0
-3952 50 0
-3952 60 0
-3952 73 0
3953 -9 -33 -50 -73 0
-3953 9 0
-3953 33 0
-3953 50 0
-3953 73 0
3954 -15 -27 -50 -73 0
-3954 15 0
-3954 27 0
-3954 50 0
-3954 73 0
-3952 3953 3954 0
-3953 3952 3954 0
-3954 3952 3953 0
3955 -3 -51 -58 -74 0
-3955 3 0
-3955 51 0
-3955 58 0
-3955 74 0
3956 -6 -36 -58 -74 0
-3956 6 0
-3956 36 0
-3956 58 0
-3956 74 0
3957 -18 -24 -58 -74 0
-3957 18 0
-3957 24 0
-3957 58 0
-3957 74 0
-3955 3956 3957 0
-3956 3955 3957 0
-3957 3955 3956 0
3958 -3 -51 -59 -73 0
-3958 3 0
-3958 51 0
-3958 59 0
-3958 73 0
3959 -6 -36 -59 -73 0
-3959 6 0
-3959 36 0
-3959 59 0
-3959 73 0
3960 -18 -24 -59 -73 0
-3960 18 0
-3960 24 0
-3960 59 0
-3960 73 0
-3958 3959 3960 0
-3959 3958 3960 0
-3960 3958 3959 0
3961 -1 -49 -65 -69 0
-3961 1 0
-3961 49 0
-3961 65 0
-3961 69 0
3962 -4 -34 -65 -69 0
-3962 4 0
-3962 34 0
-3962 65 0
-3962 69 0
3963 -16 -22 -65 -69 0
-3963 16 0
-3963 22 0
-3963 65 0
-3963 69 0
-3961 3962 3963 0
-3962 3961 3963 0
-3963 3961 3962 0
3964 -1 -49 -66 -68 0
-3964 1 0
-3964 49 0
-3964 66 0
-3964 68 0
3965 -4 -34 -66 -68 0
-3965 4 0
-3965 34 0
-3965 66 0
-3965 68 0
3966 -16 -22 -66 -68 0
-3966 16 0
-3966 22 0
-3966 66 0
-3966 68 0
-3964 3965 3966 0
-3965 3964 3966 0
-3966 3964 3965 0
3967 -1 -50 -64 -69 0
-3967 1 0
-3967 50 0
-3967 64 0
-3967 69 0
3968 -7 -37 -50 -69 0
-3968 7 0
-3968 37 0
-3968 50 0
-3968 69 0
3969 -19 -25 -50 -69 0
-3969 19 0
-3969 25 0
-3969 50 0
-3969 69 0
-3967 3968 3969 0
-3968 3967 3969 0
-3969 3967 3968 0
3970 -1 -50 -66 -67 0
-3970 1 0
-3970 50 0
-3970 66 0
-3970 67 0
3971 -10 -31 -50 -66 0
-3971 10 0
-3971 31 0
-3971 50 0
-3971 66 0
3972 -13 -28 -50 -66 0
-3972 13 0
-3972 28 0
-3972 50 0
-3972 66 0
-3970 3971 3972 0
-3971 3970 3972 0
-3972 3970 3971 0
3973 -1 -51 -64 -68 0
-3973 1 0
-3973 51 0
-3973 64 0
-3973 68 0
3974 -7 -37 -51 -68 0
-3974 7 0
-3974 37 0
-3974 51 0
-3974 68 0
3975 -19 -25 -51 -68 0
-3975 19 0
-3975 25 0
-3975 51 0
-3975 68 0
-3973 3974 3975 0
-3974 3973 3975 0
-3975 3973 3974 0
3976 -1 -51 -65 -67 0
-3976 1 0
-3976 51 0
-3976 65 0
-3976 67 0
3977 -10 -31 -51 -65 0
-3977 10 0
-3977 31 0
-3977 51 0
-3977 65 0
3978 -13 -28 -51 -65 0
-3978 13 0
-3978 28 0
-3978 51 0
-3978 65 0
-3976 3977 3978 0
-3977 3976 3978 0
-3978 3976 3977 0
3979 -2 -49 -65 -69 0
-3979 2 0
-3979 49 0
-3979 65 0
-3979 69 0
3980 -8 -38 -49 -69 0
-3980 8 0
-3980 38 0
-3980 49 0
-3980 69 0
3981 -20 -26 -49 -69 0
-3981 20 0
-3981 26 0
-3981 49 0
-3981 69 0
-3979 3980 3981 0
-3980 3979 3981 0
-3981 3979 3980 0
3982 -2 -49 -66 -68 0
-3982 2 0
-3982 49 0
-3982 66 0
-3982 68 0
3983 -11 -32 -49 -66 0
-3983 11 0
-3983 32 0
-3983 49 0
-3983 66 0
3984 -14 -29 -49 -66 0
-3984 14 0
-3984 29 0
-3984 49 0
-3984 66 0
-3982 3983 3984 0
-3983 3982 3984 0
-3984 3982 3983 0
3985 -2 -50 -64 -69 0
-3985 2 0
-3985 50 0
-3985 64 0
-3985 69 0
3986 -5 -35 -64 -69 0
-3986 5 0
-3986 35 0
-3986 64 0
-3986 69 0
3987 -17 -23 -64 -69 0
-3987 17 0
-3987 23 0
-3987 64 0
-3987 69 0
-3985 3986 3987 0
-3986 3985 3987 0
-3987 3985 3986 0
3988 -2 -50 -66 -67 0
-3988 2 0
-3988 50 0
-3988 66 0
-3988 67 0
3989 -5 -35 -66 -67 0
-3989 5 0
-3989 35 0
-3989 66 0
-3989 67 0
3990 -17 -23 -66 -67 0
-3990 17 0
-3990 23 0
-3990 66 0
-3990 67 0
-3988 3989 3990 0
-3989 3988 3990 0
-3990 3988 3989 0
3991 -2 -51 -64 -68 0
-3991 2 0
-3991 51 0
-3991 64 0
-3991 68 0
3992 -11 -32 -51 -64 0
-3992 11 0
-3992 32 0
-3992 51 0
-3992 64 0
3993 -14 -29 -51 -64 0
-3993 14 0
-3993 29 0
-3993 51 0
-3993 64 0
-3991 3992 3993 0
-3992 3991 3993 0
-3993 3991 3992 0
3994 -2 -51 -65 -67 0
-3994 2 0
-3994 51 0
-3994 65 0
-3994 67 0
3995 -8 -38 -51 -67 0
-3995 8 0
-3995 38 0
-3995 51 0
-3995 67 0
3996 -20 -26 -51 -67 0
-3996 20 0
-3996 26 0
-3996 51 0
-3996 67 0
-3994 3995 3996 0
-3995 3994 3996 0
-3996 3994 3995 0
3997 -3 -49 -65 -69 0
-3997 3 0
-3997 49 0
-3997 65 0
-3997 69 0
3998 -12 -33 -49 -65 0
-3998 12 0
-3998 33 0
-3998 49 0
-3998 65 0
3999 -15 -30 -49 -65 0
-3999 15 0
-3999 30 0
-3999 49 0
-3999 65 0
-3997 3998 3999 0
-3998 3997 3999 0
-3999 3997 3998 0
4000 -3 -49 -66 -68 0
-4000 3 0
-4000 49 0
-4000 66 0
-4000 68 0
4001 -9 -39 -49 -68 0
-4001 9 0
-4001 39 0
-4001 49 0
-4001 68 0
4002 -21 -27 -49 -68 0
-4002 21 0
-4002 27 0
-4002 49 0
-4002 68 0
-4000 4001 4002 0
-4001 4000 4002 0
-4002 4000 4001 0
4003 -3 -50 -64 -69 0
-4003 3 0
-4003 50 0
-4003 64 0
-4003 69 0
4004 -12 -33 -50 -64 0
-4004 12 0
-4004 33 0
-4004 50 0
-4004 64 0
4005 -15 -30 -50 -64 0
-4005 15 0
-4005 30 0
-4005 50 0
-4005 64 0
-4003 4004 4005 0
-4004 4003 4005 0
-4005 4003 4004 0
4006 -3 -50 -66 -67 0
-4006 3 0
-4006 50 0
-4006 66 0
-4006 67 0
4007 -9 -39 -50 -67 0
-4007 9 0
-4007 39 0
-4007 50 0
-4007 67 0
4008 -21 -27 -50 -67 0
-4008 21 0
-4008 27 0
-4008 50 0
-4008 67 0
-4006 4007 4008 0
-4007 4006 4008 0
-4008 4006 4007 0
4009 -3 -51 -64 -68 0
-4009 3 0
-4009 51 0
-4009 64 0
-4009 68 0
4010 -6 -36 -64 -68 0
-4010 6 0
-4010 36 0
-4010 64 0
-4010 68 0
4011 -18 -24 -64 -68 0
-4011 18 0
-4011 24 0
-4011 64 0
-4011 68 0
-4009 4010 4011 0
-4010 4009 4011 0
-4011 4009 4010 0
4012 -3 -51 -65 -67 0
-4012 3 0
-4012 51 0
-4012 65 0
-4012 67 0
4013 -6 -36 -65 -67 0
-4013 6 0
-4013 36 0
-4013 65 0
-4013 67 0
4014 -18 -24 -65 -67 0
-4014 18 0
-4014 24 0
-4014 65 0
-4014 67 0
-4012 4013 4014 0
-4013 4012 4014 0
-4014 4012 4013 0
4015 -1 -52 -56 -77 0
-4015 1 0
-4015 52 0
-4015 56 0
-4015 77 0
4016 -1 -52 -59 -71 0
-4016 1 0
-4016 52 0
-4016 59 0
-4016 71 0
4017 -1 -52 -62 -68 0
-4017 1 0
-4017 52 0
-4017 62 0
-4017 68 0
4018 -4 -37 -56 -77 0
-4018 4 0
-4018 37 0
-4018 56 0
-4018 77 0
4019 -4 -37 -59 -71 0
-4019 4 0
-4019 37 0
-4019 59 0
-4019 71 0
4020 -4 -37 -62 -68 0
-4020 4 0
-4020 37 0
-4020 62 0
-4020 68 0
4021 -19 -22 -56 -77 0
-4021 19 0
-4021 22 0
-4021 56 0
-4021 77 0
4022 -19 -22 -59 -71 0
-4022 19 0
-4022 22 0
-4022 59 0
-4022 71 0
4023 -19 -22 -62 -68 0
-4023 19 0
-4023 22 0
-4023 62 0
-4023 68 0
-4015 4016 4017 4018 4019 4020 4021 4022 4023 0
-4016 4015 4017 4018 4019 4020 4021 4022 4023 0
-4017 4015 4016 4018 4019 4020 4021 4022 4023 0
-4018 4015 4016 4017 4019 4020 4021 4022 4023 0
-4019 4015 4016 4017 4018 4020 4021 4022 4023 0
-4020 4015 4016 4017 4018 4019 4021 4022 4023 0
-4021 4015 4016 4017 4018 4019 4020 4022 4023 0
-4022 4015 4016 4017 4018 4019 4020 4021 4023 0
-4023 4015 4016 4017 4018 4019 4020 4021 4022 0
4024 -1 -52 -56 -78 0
-4024 1 0
-4024 52 0
-4024 56 0
-4024 78 0
4025 -4 -37 -56 -78 0
-4025 4 0
-4025 37 0
-4025 56 0
-4025 78 0
4026 -19 -22 -56 -78 0
-4026 19 0
-4026 22 0
-4026 56 0
-4026 78 0
-4024 4025 4026 0
-4025 4024 4026 0
-4026 4024 4025 0
4027 -1 -52 -57 -77 0
-4027 1 0
-4027 52 0
-4027 57 0
-4027 77 0
4028 -4 -37 -57 -77 0
-4028 4 0
-4028 37 0
-4028 57 0
-4028 77 0
4029 -19 -22 -57 -77 0
-4029 19 0
-4029 22 0
-4029 57 0
-4029 77 0
-4027 4028 4029 0
-4028 4027 4029 0
-4029 4027 4028 0
4030 -1 -52 -57 -78 0
-4030 1 0
-4030 52 0
-4030 57 0
-4030 78 0
4031 -1 -52 -60 -72 0
-4031 1 0
-4031 52 0
-4031 60 0
-4031 72 0
4032 -1 -52 -63 -69 0
-4032 1 0
-4032 52 0
-4032 63 0
-4032 69 0
4033 -4 -37 -57 -78 0
-4033 4 0
-4033 37 0
-4033 57 0
-4033 78 0
4034 -4 -37 -60 -72 0
-4034 4 0
-4034 37 0
-4034 60 0
-4034 72 0
4035 -4 -37 -63 -69 0
-4035 4 0
-4035 37 0
-4035 63 0
-4035 69 0
4036 -19 -22 -57 -78 0
-4036 19 0
-4036 22 0
-4036 57 0
-4036 78 0
4037 -19 -22 -60 -72 0
-4037 19 0
-4037 22 0
-4037 60 0
-4037 72 0
4038 -19 -22 -63 -69 0
-4038 19 0
-4038 22 0
-4038 63 0
-4038 69 0
-4030 4031 4032 4033 4034 4035 4036 4037 4038 0
-4031 4030 4032 4033 4034 4035 4036 4037 4038 0
-4032 4030 4031 4033 4034 4035 4036 4037 4038 0
-4033 4030 4031 4032 4034 4035 4036 4037 4038 0
-4034 4030 4031 4032 4033 4035 4036 4037 4038 0
-4035 4030 4031 4032 4033 4034 4036 4037 4038 0
-4036 4030 4031 4032 4033 4034 4035 4037 4038 0
-4037 4030 4031 4032 4033 4034 4035 4036 4038 0
-4038 4030 4031 4032 4033 4034 4035 4036 4037 0
4039 -1 -53 -55 -76 0
-4039 1 0
-4039 53 0
-4039 55 0
-4039 76 0
4040 -1 -53 -58 -70 0
-4040 1 0
-4040 53 0
-4040 58 0
-4040 70 0
4041 -1 -53 -61 -67 0
-4041 1 0
-4041 53 0
-4041 61 0
-4041 67 0
4042 -7 -28 -53 -76 0
-4042 7 0
-4042 28 0
-4042 53 0
-4042 76 0
4043 -7 -31 -53 -70 0
-4043 7 0
-4043 31 0
-4043 53 0
-4043 70 0
4044 -7 -34 -53 -67 0
-4044 7 0
-4044 34 0
-4044 53 0
-4044 67 0
4045 -10 -25 -53 -76 0
-4045 10 0
-4045 25 0
-4045 53 0
-4045 76 0
4046 -10 -31 -53 -61 0
-4046 10 0
-4046 31 0
-4046 53 0
-4046 61 0
4047 -10 -34 -53 -58 0
-4047 10 0
-4047 34 0
-4047 53 0
-4047 58 0
4048 -13 -25 -53 -70 0
-4048 13 0
-4048 25 0
-4048 53 0
-4048 70 0
4049 -13 -28 -53 -61 0
-4049 13 0
-4049 28 0
-4049 53 0
-4049 61 0
4050 -13 -34 -53 -55 0
-4050 13 0
-4050 34 0
-4050 53 0
-4050 55 0
4051 -16 -25 -53 -67 0
-4051 16 0
-4051 25 0
-4051 53 0
-4051 67 0
4052 -16 -28 -53 -58 0
-4052 16 0
-4052 28 0
-4052 53 0
-4052 58 0
4053 -16 -31 -53 -55 0
-4053 16 0
-4053 31 0
-4053 53 0
-4053 55 0
-4039 4040 4041 4042 4043 4044 4045 4046 4047 4048 4049 4050 4051 4052 4053 0
-4040 4039 4041 4042 4043 4044 4045 4046 4047 4048 4049 4050 4051 4052 4053 0
-4041 4039 4040 4042 4043 4044 4045 4046 4047 4048 4049 4050 4051 4052 4053 0
-4042 4039 4040 4041 4043 4044 4045 4046 4047 4048 4049 4050 4051 4052 4053 0
-4043 4039 4040 4041 4042 4044 4045 4046 4047 4048 4049 4050 4051 4052 4053 0
-4044 4039 4040 4041 4042 4043 4045 4046 4047 4048 4049 4050 4051 4052 4053 0
-4045 4039 4040 4041 4042 4043 4044 4046 4047 4048 4049 4050 4051 4052 4053 0
-4046 4039 4040 4041 4042 4043 4044 4045 4047 4048 4049 4050 4051 4052 4053 0
-4047 4039 4040 4041 4042 4043 4044 4045 4046 4048 4049 4050 4051 4052 4053 0
-4048 4039 4040 4041 4042 4043 4044 4045 4046 4047 4049 4050 4051 4052 4053 0
-4049 4039 4040 4041 4042 4043 4044 4045 4046 4047 4048 4050 4051 4052 4053 0
-4050 4039 4040 4041 4042 4043 4044 4045 4046 4047 4048 4049 4051 4052 4053 0
-4051 4039 4040 4041 4042 4043 4044 4045 4046 4047 4048 4049 4050 4052 4053 0
-4052 4039 4040 4041 4042 4043 4044 4045 4046 4047 4048 4049 4050 4051 4053 0
-4053 4039 4040 4041 4042 4043 4044 4045 4046 4047 4048 4049 4050 4051 4052 0
4054 -1 -53 -55 -78 0
-4054 1 0
-4054 53 0
-4054 55 0
-4054 78 0
4055 -7 -28 -53 -78 0
-4055 7 0
-4055 28 0
-4055 53 0
-4055 78 0
4056 -10 -25 -53 -78 0
-4056 10 0
-4056 25 0
-4056 53 0
-4056 78 0
-4054 4055 4056 0
-4055 4054 4056 0
-4056 4054 4055 0
4057 -1 -53 -57 -76 0
-4057 1 0
-4057 53 0
-4057 57 0
-4057 76 0
4058 -13 -34 -53 -57 0
-4058 13 0
-4058 34 0
-4058 53 0
-4058 57 0
4059 -16 -31 -53 -57 0
-4059 16 0
-4059 31 0
-4059 53 0
-4059 57 0
-4057 4058 4059 0
-4058 4057 4059 0
-4059 4057 4058 0
4060 -1 -53 -57 -78 0
-4060 1 0
-4060 53 0
-4060 57 0
-4060 78 0
4061 -1 -53 -60 -72 0
-4061 1 0
-4061 53 0
-4061 60 0
-4061 72 0
4062 -1 -53 -63 -69 0
-4062 1 0
-4062 53 0
-4062 63 0
-4062 69 0
-4060 4061 4062 0
-4061 4060 4062 0
-4062 4060 4061 0
4063 -1 -54 -55 -76 0
-4063 1 0
-4063 54 0
-4063 55 0
-4063 76 0
4064 -1 -54 -58 -70 0
-4064 1 0
-4064 54 0
-4064 58 0
-4064 70 0
4065 -1 -54 -61 -67 0
-4065 1 0
-4065 54 0
-4065 61 0
-4065 67 0
4066 -7 -28 -54 -76 0
-4066 7 0
-4066 28 0
-4066 54 0
-4066 76 0
4067 -7 -31 -54 -70 0
-4067 7 0
-4067 31 0
-4067 54 0
-4067 70 0
4068 -7 -34 -54 -67 0
-4068 7 0
-4068 34 0
-4068 54 0
-4068 67 0
4069 -10 -25 -54 -76 0
-4069 10 0
-4069 25 0
-4069 54 0
-4069 76 0
4070 -10 -31 -54 -61 0
-4070 10 0
-4070 31 0
-4070 54 0
-4070 61 0
4071 -10 -34 -54 -58 0
-4071 10 0
-4071 34 0
-4071 54 0
-4071 58 0
4072 -13 -25 -54 -70 0
-4072 13 0
-4072 25 0
-4072 54 0
-4072 70 0
4073 -13 -28 -54 -61 0
-4073 13 0
-4073 28 0
-4073 54 0
-4073 61 0
4074 -13 -34 -54 -55 0
-4074 13 0
-4074 34 0
-4074 54 0
-4074 55 0
4075 -16 -25 -54 -67 0
-4075 16 0
-4075 25 0
-4075 54 0
-4075 67 0
4076 -16 -28 -54 -58 0
-4076 16 0
-4076 28 0
-4076 54 0
-4076 58 0
4077 -16 -31 -54 -55 0
-4077 16 0
-4077 31 0
-4077 54 0
-4077 55 0
-4063 4064 4065 4066 4067 4068 4069 4070 4071 4072 4073 4074 4075 4076 4077 0
-4064 4063 4065 4066 4067 4068 4069 4070 4071 4072 4073 4074 4075 4076 4077 0
-4065 4063 4064 4066 4067 4068 4069 4070 4071 4072 4073 4074 4075 4076 4077 0
-4066 4063 4064 4065 4067 4068 4069 4070 4071 4072 4073 4074 4075 4076 4077 0
-4067 4063 4064 4065 4066 4068 4069 4070 4071 4072 4073 4074 4075 4076 4077 0
-4068 4063 4064 4065 4066 4067 4069 4070 4071 4072 4073 4074 4075 4076 4077 0
-4069 4063 4064 4065 4066 4067 4068 4070 4071 4072 4073 4074 4075 4076 4077 0
-4070 4063 4064 4065 4066 4067 4068 4069 4071 4072 4073 4074 4075 4076 4077 0
-4071 4063 4064 4065 4066 4067 4068 4069 4070 4072 4073 4074 4075 4076 4077 0
-4072 4063 4064 4065 4066 4067 4068 4069 4070 4071 4073 4074 4075 4076 4077 0
-4073 4063 4064 4065 4066 4067 4068 4069 4070 4071 4072 4074 4075 4076 4077 0
-4074 4063 4064 4065 4066 4067 4068 4069 4070 4071 4072 4073 4075 4076 4077 0
-4075 4063 4064 4065 4066 4067 4068 4069 4070 4071 4072 4073 4074 4076 4077 0
-4076 4063 4064 4065 4066 4067 4068 4069 4070 4071 4072 4073 4074 4075 4077 0
-4077 4063 4064 4065 4066 4067 4068 4069 4070 4071 4072 4073 4074 4075 4076 0
4078 -1 -54 -55 -77 0
-4078 1 0
-4078 54 0
-4078 55 0
-4078 77 0
4079 -7 -28 -54 -77 0
-4079 7 0
-4079 28 0
-4079 54 0
-4079 77 0
4080 -10 -25 -54 -77 0
-4080 10 0
-4080 25 0
-4080 54 0
-4080 77 0
-4078 4079 4080 0
-4079 4078 4080 0
-4080 4078 4079 0
4081 -1 -54 -56 -76 0
-4081 1 0
-4081 54 0
-4081 56 0
-4081 76 0
4082 -13 -34 -54 -56 0
-4082 13 0
-4082 34 0
-4082 54 0
-4082 56 0
4083 -16 -31 -54 -56 0
-4083 16 0
-4083 31 0
-4083 54 0
-4083 56 0
-4081 4082 4083 0
-4082 4081 4083 0
-4083 4081 4082 0
4084 -1 -54 -56 -77 0
-4084 1 0
-4084 54 0
-4084 56 0
-4084 77 0
4085 -1 -54 -59 -71 0
-4085 1 0
-4085 54 0
-4085 59 0
-4085 71 0
4086 -1 -54 -62 -68 0
-4086 1 0
-4086 54 0
-4086 62 0
-4086 68 0
-4084 4085 4086 0
-4085 4084 4086 0
-4086 4084 4085 0
4087 -2 -52 -56 -77 0
-4087 2 0
-4087 52 0
-4087 56 0
-4087 77 0
4088 -2 -52 -59 -71 0
-4088 2 0
-4088 52 0
-4088 59 0
-4088 71 0
4089 -2 -52 -62 -68 0
-4089 2 0
-4089 52 0
-4089 62 0
-4089 68 0
4090 -8 -29 -52 -77 0
-4090 8 0
-4090 29 0
-4090 52 0
-4090 77 0
4091 -8 -32 -52 -71 0
-4091 8 0
-4091 32 0
-4091 52 0
-4091 71 0
4092 -8 -35 -52 -68 0
-4092 8 0
-4092 35 0
-4092 52 0
-4092 68 0
4093 -11 -26 -52 -77 0
-4093 11 0
-4093 26 0
-4093 52 0
-4093 77 0
4094 -11 -32 -52 -62 0
-4094 11 0
-4094 32 0
-4094 52 0
-4094 62 0
4095 -11 -35 -52 -59 0
-4095 11 0
-4095 35 0
-4095 52 0
-4095 59 0
4096 -14 -26 -52 -71 0
-4096 14 0
-4096 26 0
-4096 52 0
-4096 71 0
4097 -14 -29 -52 -62 0
-4097 14 0
-4097 29 0
-4097 52 0
-4097 62 0
4098 -14 -35 -52 -56 0
-4098 14 0
-4098 35 0
-4098 52 0
-4098 56 0
4099 -17 -26 -52 -68 0
-4099 17 0
-4099 26 0
-4099 52 0
-4099 68 0
4100 -17 -29 -52 -59 0
-4100 17 0
-4100 29 0
-4100 52 0
-4100 59 0
4101 -17 -32 -52 -56 0
-4101 17 0
-4101 32 0
-4101 52 0
-4101 56 0
-4087 4088 4089 4090 4091 4092 4093 4094 4095 4096 4097 4098 4099 4100 4101 0
-4088 4087 4089 4090 4091 4092 4093 4094 4095 4096 4097 4098 4099 4100 4101 0
-4089 4087 4088 4090 4091 4092 4093 4094 4095 4096 4097 4098 4099 4100 4101 0
-4090 4087 4088 4089 4091 4092 4093 4094 4095 4096 4097 4098 4099 4100 4101 0
-4091 4087 4088 4089 4090 4092 4093 4094 4095 4096 4097 4098 4099 4100 4101 0
-4092 4087 4088 4089 4090 4091 4093 4094 4095 4096 4097 4098 4099 4100 4101 0
-4093 4087 4088 4089 4090 4091 4092 4094 4095 4096 4097 4098 4099 4100 4101 0
-4094 4087 4088 4089 4090 4091 4092 4093 4095 4096 4097 4098 4099 4100 4101 0
-4095 4087 4088 4089 4090 4091 4092 4093 4094 4096 4097 4098 4099 4100 4101 0
-4096 4087 4088 4089 4090 4091 4092 4093 4094 4095 4097 4098 4099 4100 4101 0
-4097 4087 4088 4089 4090 4091 4092 4093 4094 4095 4096 4098 4099 4100 4101 0
-4098 4087 4088 4089 4090 4091 4092 4093 4094 4095 4096 4097 4099 4100 4101 0
-4099 4087 4088 4089 4090 4091 4092 4093 4094 4095 4096 4097 4098 4100 4101 0
-4100 4087 4088 4089 4090 4091 4092 4093 4094 4095 4096 4097 4098 4099 4101 0
-4101 4087 4088 4089 4090 4091 4092 4093 4094 4095 4096 4097 4098 4099 4100 0
4102 -2 -52 -56 -78 0
-4102 2 0
-4102 52 0
-4102 56 0
-4102 78 0
4103 -8 -29 -52 -78 0
-4103 8 0
-4103 29 0
-4103 52 0
-4103 78 0
4104 -11 -26 -52 -78 0
-4104 11 0
-4104 26 0
-4104 52 0
-4104 78 0
-4102 4103 4104 0
-4103 4102 4104 0
-4104 4102 4103 0
4105 -2 -52 -57 -77 0
-4105 2 0
-4105 52 0
-4105 57 0
-4105 77 0
4106 -14 -35 -52 -57 0
-4106 14 0
-4106 35 0
-4106 52 0
-4106 57 0
4107 -17 -32 -52 -57 0
-4107 17 0
-4107 32 0
-4107 52 0
-4107 57 0
-4105 4106 4107 0
-4106 4105 4107 0
-4107 4105 4106 0
4108 -2 -52 -57 -78 0
-4108 2 0
-4108 52 0
-4108 57 0
-4108 78 0
4109 -2 -52 -60 -72 0
-4109 2 0
-4109 52 0
-4109 60 0
-4109 72 0
4110 -2 -52 -63 -69 0
-4110 2 0
-4110 52 0
-4110 63 0
-4110 69 0
-4108 4109 4110 0
-4109 4108 4110 0
-4110 4108 4109 0
4111 -2 -53 -55 -76 0
-4111 2 0
-4111 53 0
-4111 55 0
-4111 76 0
4112 -2 -53 -58 -70 0
-4112 2 0
-4112 53 0
-4112 58 0
-4112 70 0
4113 -2 -53 -61 -67 0
-4113 2 0
-4113 53 0
-4113 61 0
-4113 67 0
4114 -5 -38 -55 -76 0
-4114 5 0
-4114 38 0
-4114 55 0
-4114 76 0
4115 -5 -38 -58 -70 0
-4115 5 0
-4115 38 0
-4115 58 0
-4115 70 0
4116 -5 -38 -61 -67 0
-4116 5 0
-4116 38 0
-4116 61 0
-4116 67 0
4117 -20 -23 -55 -76 0
-4117 20 0
-4117 23 0
-4117 55 0
-4117 76 0
4118 -20 -23 -58 -70 0
-4118 20 0
-4118 23 0
-4118 58 0
-4118 70 0
4119 -20 -23 -61 -67 0
-4119 20 0
-4119 23 0
-4119 61 0
-4119 67 0
-4111 4112 4113 4114 4115 4116 4117 4118 4119 0
-4112 4111 4113 4114 4115 4116 4117 4118 4119 0
-4113 4111 4112 4114 4115 4116 4117 4118 4119 0
-4114 4111 4112 4113 4115 4116 4117 4118 4119 0
-4115 4111 4112 4113 4114 4116 4117 4118 4119 0
-4116 4111 4112 4113 4114 4115 4117 4118 4119 0
-4117 4111 4112 4113 4114 4115 4116 4118 4119 0
-4118 4111 4112 4113 4114 4115 4116 4117 4119 0
-4119 4111 4112 4113 4114 4115 4116 4117 4118 0
4120 -2 -53 -55 -78 0
-4120 2 0
-4120 53 0
-4120 55 0
-4120 78 0
4121 -5 -38 -55 -78 0
-4121 5 0
-4121 38 0
-4121 55 0
-4121 78 0
4122 -20 -23 -55 -78 0
-4122 20 0
-4122 23 0
-4122 55 0
-4122 78 0
-4120 4121 4122 0
-4121 4120 4122 0
-4122 4120 4121 0
4123 -2 -53 -57 -76 0
-4123 2 0
-4123 53 0
-4123 57 0
-4123 76 0
4124 -5 -38 -57 -76 0
-4124 5 0
-4124 38 0
-4124 57 0
-4124 76 0
4125 -20 -23 -57 -76 0
-4125 20 0
-4125 23 0
-4125 57 0
-4125 76 0
-4123 4124 4125 0
-4124 4123 4125 0
-4125 4123 4124 0
4126 -2 -53 -57 -78 0
-4126 2 0
-4126 53 0
-4126 57 0
-4126 78 0
4127 -2 -53 -60 -72 0
-4127 2 0
-4127 53 0
-4127 60 0
-4127 72 0
4128 -2 -53 -63 -69 0
-4128 2 0
-4128 53 0
-4128 63 0
-4128 69 0
4129 -5 -38 -57 -78 0
-4129 5 0
-4129 38 0
-4129 57 0
-4129 78 0
4130 -5 -38 -60 -72 0
-4130 5 0
-4130 38 0
-4130 60 0
-4130 72 0
4131 -5 -38 -63 -69 0
-4131 5 0
-4131 38 0
-4131 63 0
-4131 69 0
4132 -20 -23 -57 -78 0
-4132 20 0
-4132 23 0
-4132 57 0
-4132 78 0
4133 -20 -23 -60 -72 0
-4133 20 0
-4133 23 0
-4133 60 0
-4133 72 0
4134 -20 -23 -63 -69 0
-4134 20 0
-4134 23 0
-4134 63 0
-4134 69 0
-4126 4127 4128 4129 4130 4131 4132 4133 4134 0
-4127 4126 4128 4129 4130 4131 4132 4133 4134 0
-4128 4126 4127 4129 4130 4131 4132 4133 4134 0
-4129 4126 4127 4128 4130 4131 4132 4133 4134 0
-4130 4126 4127 4128 4129 4131 4132 4133 4134 0
-4131 4126 4127 4128 4129 4130 4132 4133 4134 0
-4132 4126 4127 4128 4129 4130 4131 4133 4134 0
-4133 4126 4127 4128 4129 4130 4131 4132 4134 0
-4134 4126 4127 4128 4129 4130 4131 4132 4133 0
4135 -2 -54 -55 -76 0
-4135 2 0
-4135 54 0
-4135 55 0
-4135 76 0
4136 -2 -54 -58 -70 0
-4136 2 0
-4136 54 0
-4136 58 0
-4136 70 0
4137 -2 -54 -61 -67 0
-4137 2 0
-4137 54 0
-4137 61 0
-4137 67 0
-4135 4136 4137 0
-4136 4135 4137 0
-4137 4135 4136 0
4138 -2 -54 -55 -77 0
-4138 2 0
-4138 54 0
-4138 55 0
-4138 77 0
4139 -14 -35 -54 -55 0
-4139 14 0
-4139 35 0
-4139 54 0
-4139 55 0
4140 -17 -32 -54 -55 0
-4140 17 0
-4140 32 0
-4140 54 0
-4140 55 0
-4138 4139 4140 0
-4139 4138 4140 0
-4140 4138 4139 0
4141 -2 -54 -56 -76 0
-4141 2 0
-4141 54 0
-4141 56 0
-4141 76 0
4142 -8 -29 -54 -76 0
-4142 8 0
-4142 29 0
-4142 54 0
-4142 76 0
4143 -11 -26 -54 -76 0
-4143 11 0
-4143 26 0
-4143 54 0
-4143 76 0
-4141 4142 4143 0
-4142 4141 4143 0
-4143 4141 4142 0
4144 -2 -54 -56 -77 0
-4144 2 0
-4144 54 0
-4144 56 0
-4144 77 0
4145 -2 -54 -59 -71 0
-4145 2 0
-4145 54 0
-4145 59 0
-4145 71 0
4146 -2 -54 -62 -68 0
-4146 2 0
-4146 54 0
-4146 62 0
-4146 68 0
4147 -8 -29 -54 -77 0
-4147 8 0
-4147 29 0
-4147 54 0
-4147 77 0
4148 -8 -32 -54 -71 0
-4148 8 0
-4148 32 0
-4148 54 0
-4148 71 0
4149 -8 -35 -54 -68 0
-4149 8 0
-4149 35 0
-4149 54 0
-4149 68 0
4150 -11 -26 -54 -77 0
-4150 11 0
-4150 26 0
-4150 54 0
-4150 77 0
4151 -11 -32 -54 -62 0
-4151 11 0
-4151 32 0
-4151 54 0
-4151 62 0
4152 -11 -35 -54 -59 0
-4152 11 0
-4152 35 0
-4152 54 0
-4152 59 0
4153 -14 -26 -54 -71 0
-4153 14 0
-4153 26 0
-4153 54 0
-4153 71 0
4154 -14 -29 -54 -62 0
-4154 14 0
-4154 29 0
-4154 54 0
-4154 62 0
4155 -14 -35 -54 -56 0
-4155 14 0
-4155 35 0
-4155 54 0
-4155 56 0
4156 -17 -26 -54 -68 0
-4156 17 0
-4156 26 0
-4156 54 0
-4156 68 0
4157 -17 -29 -54 -59 0
-4157 17 0
-4157 29 0
-4157 54 0
-4157 59 0
4158 -17 -32 -54 -56 0
-4158 17 0
-4158 32 0
-4158 54 0
-4158 56 0
-4144 4145 4146 4147 4148 4149 4150 4151 4152 4153 4154 4155 4156 4157 4158 0
-4145 4144 4146 4147 4148 4149 4150 4151 4152 4153 4154 4155 4156 4157 4158 0
-4146 4144 4145 4147 4148 4149 4150 4151 4152 4153 4154 4155 4156 4157 4158 0
-4147 4144 4145 4146 4148 4149 4150 4151 4152 4153 4154 4155 4156 4157 4158 0
-4148 4144 4145 4146 4147 4149 4150 4151 4152 4153 4154 4155 4156 4157 4158 0
-4149 4144 4145 4146 4147 4148 4150 4151 4152 4153 4154 4155 4156 4157 4158 0
-4150 4144 4145 4146 4147 4148 4149 4151 4152 4153 4154 4155 4156 4157 4158 0
-4151 4144 4145 4146 4147 4148 4149 4150 4152 4153 4154 4155 4156 4157 4158 0
-4152 4144 4145 4146 4147 4148 4149 4150 4151 4153 4154 4155 4156 4157 4158 0
-4153 4144 4145 4146 4147 4148 4149 4150 4151 4152 4154 4155 4156 4157 4158 0
-4154 4144 4145 4146 4147 4148 4149 4150 4151 4152 4153 4155 4156 4157 4158 0
-4155 4144 4145 4146 4147 4148 4149 4150 4151 4152 4153 4154 4156 4157 4158 0
-4156 4144 4145 4146 4147 4148 4149 4150 4151 4152 4153 4154 4155 4157 4158 0
-4157 4144 4145 4146 4147 4148 4149 4150 4151 4152 4153 4154 4155 4156 4158 0
-4158 4144 4145 4146 4147 4148 4149 4150 4151 4152 4153 4154 4155 4156 4157 0
4159 -3 -52 -56 -77 0
-4159 3 0
-4159 52 0
-4159 56 0
-4159 77 0
4160 -3 -52 -59 -71 0
-4160 3 0
-4160 52 0
-4160 59 0
-4160 71 0
4161 -3 -52 -62 -68 0
-4161 3 0
-4161 52 0
-4161 62 0
-4161 68 0
-4159 4160 4161 0
-4160 4159 4161 0
-4161 4159 4160 0
4162 -3 -52 -56 -78 0
-4162 3 0
-4162 52 0
-4162 56 0
-4162 78 0
4163 -15 -36 -52 -56 0
-4163 15 0
-4163 36 0
-4163 52 0
-4163 56 0
4164 -18 -33 -52 -56 0
-4164 18 0
-4164 33 0
-4164 52 0
-4164 56 0
-4162 4163 4164 0
-4163 4162 4164 0
-4164 4162 4163 0
4165 -3 -52 -57 -77 0
-4165 3 0
-4165 52 0
-4165 57 0
-4165 77 0
4166 -9 -30 -52 -77 0
-4166 9 0
-4166 30 0
-4166 52 0
-4166 77 0
4167 -12 -27 -52 -77 0
-4167 12 0
-4167 27 0
-4167 52 0
-4167 77 0
-4165 4166 4167 0
-4166 4165 4167 0
-4167 4165 4166 0
4168 -3 -52 -57 -78 0
-4168 3 0
-4168 52 0
-4168 57 0
-4168 78 0
4169 -3 -52 -60 -72 0
-4169 3 0
-4169 52 0
-4169 60 0
-4169 72 0
4170 -3 -52 -63 -69 0
-4170 3 0
-4170 52 0
-4170 63 0
-4170 69 0
4171 -9 -30 -52 -78 0
-4171 9 0
-4171 30 0
-4171 52 0
-4171 78 0
4172 -9 -33 -52 -72 0
-4172 9 0
-4172 33 0
-4172 52 0
-4172 72 0
4173 -9 -36 -52 -69 0
-4173 9 0
-4173 36 0
-4173 52 0
-4173 69 0
4174 -12 -27 -52 -78 0
-4174 12 0
-4174 27 0
-4174 52 0
-4174 78 0
4175 -12 -33 -52 -63 0
-4175 12 0
-4175 33 0
-4175 52 0
-4175 63 0
4176 -12 -36 -52 -60 0
-4176 12 0
-4176 36 0
-4176 52 0
-4176 60 0
4177 -15 -27 -52 -72 0
-4177 15 0
-4177 27 0
-4177 52 0
-4177 72 0
4178 -15 -30 -52 -63 0
-4178 15 0
-4178 30 0
-4178 52 0
-4178 63 0
4179 -15 -36 -52 -57 0
-4179 15 0
-4179 36 0
-4179 52 0
-4179 57 0
4180 -18 -27 -52 -69 0
-4180 18 0
-4180 27 0
-4180 52 0
-4180 69 0
4181 -18 -30 -52 -60 0
-4181 18 0
-4181 30 0
-4181 52 0
-4181 60 0
4182 -18 -33 -52 -57 0
-4182 18 0
-4182 33 0
-4182 52 0
-4182 57 0
-4168 4169 4170 4171 4172 4173 4174 4175 4176 4177 4178 4179 4180 4181 4182 0
-4169 4168 4170 4171 4172 4173 4174 4175 4176 4177 4178 4179 4180 4181 4182 0
-4170 4168 4169 4171 4172 4173 4174 4175 4176 4177 4178 4179 4180 4181 4182 0
-4171 4168 4169 4170 4172 4173 4174 4175 4176 4177 4178 4179 4180 4181 4182 0
-4172 4168 4169 4170 4171 4173 4174 4175 4176 4177 4178 4179 4180 4181 4182 0
-4173 4168 4169 4170 4171 4172 4174 4175 4176 4177 4178 4179 4180 4181 4182 0
-4174 4168 4169 4170 4171 4172 4173 4175 4176 4177 4178 4179 4180 4181 4182 0
-4175 4168 4169 4170 4171 4172 4173 4174 4176 4177 4178 4179 4180 4181 4182 0
-4176 4168 4169 4170 4171 4172 4173 4174 4175 4177 4178 4179 4180 4181 4182 0
-4177 4168 4169 4170 4171 4172 4173 4174 4175 4176 4178 4179 4180 4181 4182 0
-4178 4168 4169 4170 4171 4172 4173 4174 4175 4176 4177 4179 4180 4181 4182 0
-4179 4168 4169 4170 4171 4172 4173 4174 4175 4176 4177 4178 4180 4181 4182 0
-4180 4168 4169 4170 4171 4172 4173 4174 4175 4176 4177 4178 4179 4181 4182 0
-4181 4168 4169 4170 4171 4172 4173 4174 4175 4176 4177 4178 4179 4180 4182 0
-4182 4168 4169 4170 4171 4172 4173 4174 4175 4176 4177 4178 4179 4180 4181 0
4183 -3 -53 -55 -76 0
-4183 3 0
-4183 53 0
-4183 55 0
-4183 76 0
4184 -3 -53 -58 -70 0
-4184 3 0
-4184 53 0
-4184 58 0
-4184 70 0
4185 -3 -53 -61 -67 0
-4185 3 0
-4185 53 0
-4185 61 0
-4185 67 0
-4183 4184 4185 0
-4184 4183 4185 0
-4185 4183 4184 0
4186 -3 -53 -55 -78 0
-4186 3 0
-4186 53 0
-4186 55 0
-4186 78 0
4187 -15 -36 -53 -55 0
-4187 15 0
-4187 36 0
-4187 53 0
-4187 55 0
4188 -18 -33 -53 -55 0
-4188 18 0
-4188 33 0
-4188 53 0
-4188 55 0
-4186 4187 4188 0
-4187 4186 4188 0
-4188 4186 4187 0
4189 -3 -53 -57 -76 0
-4189 3 0
-4189 53 0
-4189 57 0
-4189 76 0
4190 -9 -30 -53 -76 0
-4190 9 0
-4190 30 0
-4190 53 0
-4190 76 0
4191 -12 -27 -53 -76 0
-4191 12 0
-4191 27 0
-4191 53 0
-4191 76 0
-4189 4190 4191 0
-4190 4189 4191 0
-4191 4189 4190 0
4192 -3 -53 -57 -78 0
-4192 3 0
-4192 53 0
-4192 57 0
-4192 78 0
4193 -3 -53 -60 -72 0
-4193 3 0
-4193 53 0
-4193 60 0
-4193 72 0
4194 -3 -53 -63 -69 0
-4194 3 0
-4194 53 0
-4194 63 0
-4194 69 0
4195 -9 -30 -53 -78 0
-4195 9 0
-4195 30 0
-4195 53 0
-4195 78 0
4196 -9 -33 -53 -72 0
-4196 9 0
-4196 33 0
-4196 53 0
-4196 72 0
4197 -9 -36 -53 -69 0
-4197 9 0
-4197 36 0
-4197 53 0
-4197 69 0
4198 -12 -27 -53 -78 0
-4198 12 0
-4198 27 0
-4198 53 0
-4198 78 0
4199 -12 -33 -53 -63 0
-4199 12 0
-4199 33 0
-4199 53 0
-4199 63 0
4200 -12 -36 -53 -60 0
-4200 12 0
-4200 36 0
-4200 53 0
-4200 60 0
4201 -15 -27 -53 -72 0
-4201 15 0
-4201 27 0
-4201 53 0
-4201 72 0
4202 -15 -30 -53 -63 0
-4202 15 0
-4202 30 0
-4202 53 0
-4202 63 0
4203 -15 -36 -53 -57 0
-4203 15 0
-4203 36 0
-4203 53 0
-4203 57 0
4204 -18 -27 -53 -69 0
-4204 18 0
-4204 27 0
-4204 53 0
-4204 69 0
4205 -18 -30 -53 -60 0
-4205 18 0
-4205 30 0
-4205 53 0
-4205 60 0
4206 -18 -33 -53 -57 0
-4206 18 0
-4206 33 0
-4206 53 0
-4206 57 0
-4192 4193 4194 4195 4196 4197 4198 4199 4200 4201 4202 4203 4204 4205 4206 0
-4193 4192 4194 4195 4196 4197 4198 4199 4200 4201 4202 4203 4204 4205 4206 0
-4194 4192 4193 4195 4196 4197 4198 4199 4200 4201 4202 4203 4204 4205 4206 0
-4195 4192 4193 4194 4196 4197 4198 4199 4200 4201 4202 4203 4204 4205 4206 0
-4196 4192 4193 4194 4195 4197 4198 4199 4200 4201 4202 4203 4204 4205 4206 0
-4197 4192 4193 4194 4195 4196 4198 4199 4200 4201 4202 4203 4204 4205 4206 0
-4198 4192 4193 4194 4195 4196 4197 4199 4200 4201 4202 4203 4204 4205 4206 0
-4199 4192 4193 4194 4195 4196 4197 4198 4200 4201 4202 4203 4204 4205 4206 0
-4200 4192 4193 4194 4195 4196 4197 4198 4199 4201 4202 4203 4204 4205 4206 0
-4201 4192 4193 4194 4195 4196 4197 4198 4199 4200 4202 4203 4204 4205 4206 0
-4202 4192 4193 4194 4195 4196 4197 4198 4199 4200 4201 4203 4204 4205 4206 0
-4203 4192 4193 4194 4195 4196 4197 4198 4199 4200 4201 4202 4204 4205 4206 0
-4204 4192 4193 4194 4195 4196 4197 4198 4199 4200 4201 4202 4203 4205 4206 0
-4205 4192 4193 4194 4195 4196 4197 4198 4199 4200 4201 4202 4203 4204 4206 0
-4206 4192 4193 4194 4195 4196 4197 4198 4199 4200 4201 4202 4203 4204 4205 0
4207 -3 -54 -55 -76 0
-4207 3 0
-4207 54 0
-4207 55 0
-4207 76 0
4208 -3 -54 -58 -70 0
-4208 3 0
-4208 54 0
-4208 58 0
-4208 70 0
4209 -3 -54 -61 -67 0
-4209 3 0
-4209 54 0
-4209 61 0
-4209 67 0
4210 -6 -39 -55 -76 0
-4210 6 0
-4210 39 0
-4210 55 0
-4210 76 0
4211 -6 -39 -58 -70 0
-4211 6 0
-4211 39 0
-4211 58 0
-4211 70 0
4212 -6 -39 -61 -67 0
-4212 6 0
-4212 39 0
-4212 61 0
-4212 67 0
4213 -21 -24 -55 -76 0
-4213 21 0
-4213 24 0
-4213 55 0
-4213 76 0
4214 -21 -24 -58 -70 0
-4214 21 0
-4214 24 0
-4214 58 0
-4214 70 0
4215 -21 -24 -61 -67 0
-4215 21 0
-4215 24 0
-4215 61 0
-4215 67 0
-4207 4208 4209 4210 4211 4212 4213 4214 4215 0
-4208 4207 4209 4210 4211 4212 4213 4214 4215 0
-4209 4207 4208 4210 4211 4212 4213 4214 4215 0
-4210 4207 4208 4209 4211 4212 4213 4214 4215 0
-4211 4207 4208 4209 4210 4212 4213 4214 4215 0
-4212 4207 4208 4209 4210 4211 4213 4214 4215 0
-4213 4207 4208 4209 4210 4211 4212 4214 4215 0
-4214 4207 4208 4209 4210 4211 4212 4213 4215 0
-4215 4207 4208 4209 4210 4211 4212 4213 4214 0
4216 -3 -54 -55 -77 0
-4216 3 0
-4216 54 0
-4216 55 0
-4216 77 0
4217 -6 -39 -55 -77 0
-4217 6 0
-4217 39 0
-4217 55 0
-4217 77 0
4218 -21 -24 -55 -77 0
-4218 21 0
-4218 24 0
-4218 55 0
-4218 77 0
-4216 4217 4218 0
-4217 4216 4218 0
-4218 4216 4217 0
4219 -3 -54 -56 -76 0
-4219 3 0
-4219 54 0
-4219 56 0
-4219 76 0
4220 -6 -39 -56 -76 0
-4220 6 0
-4220 39 0
-4220 56 0
-4220 76 0
4221 -21 -24 -56 -76 0
-4221 21 0
-4221 24 0
-4221 56 0
-4221 76 0
-4219 4220 4221 0
-4220 4219 4221 0
-4221 4219 4220 0
4222 -3 -54 -56 -77 0
-4222 3 0
-4222 54 0
-4222 56 0
-4222 77 0
4223 -3 -54 -59 -71 0
-4223 3 0
-4223 54 0
-4223 59 0
-4223 71 0
4224 -3 -54 -62 -68 0
-4224 3 0
-4224 54 0
-4224 62 0
-4224 68 0
4225 -6 -39 -56 -77 0
-4225 6 0
-4225 39 0
-4225 56 0
-4225 77 0
4226 -6 -39 -59 -71 0
-4226 6 0
-4226 39 0
-4226 59 0
-4226 71 0
4227 -6 -39 -62 -68 0
-4227 6 0
-4227 39 0
-4227 62 0
-4227 68 0
4228 -21 -24 -56 -77 0
-4228 21 0
-4228 24 0
-4228 56 0
-4228 77 0
4229 -21 -24 -59 -71 0
-4229 21 0
-4229 24 0
-4229 59 0
-4229 71 0
4230 -21 -24 -62 -68 0
-4230 21 0
-4230 24 0
-4230 62 0
-4230 68 0
-4222 4223 4224 4225 4226 4227 4228 4229 4230 0
-4223 4222 4224 4225 4226 4227 4228 4229 4230 0
-4224 4222 4223 4225 4226 4227 4228 4229 4230 0
-4225 4222 4223 4224 4226 4227 4228 4229 4230 0
-4226 4222 4223 4224 4225 4227 4228 4229 4230 0
-4227 4222 4223 4224 4225 4226 4228 4229 4230 0
-4228 4222 4223 4224 4225 4226 4227 4229 4230 0
-4229 4222 4223 4224 4225 4226 4227 4228 4230 0
-4230 4222 4223 4224 4225 4226 4227 4228 4229 0
4231 -1 -52 -59 -72 0
-4231 1 0
-4231 52 0
-4231 59 0
-4231 72 0
4232 -4 -37 -59 -72 0
-4232 4 0
-4232 37 0
-4232 59 0
-4232 72 0
4233 -19 -22 -59 -72 0
-4233 19 0
-4233 22 0
-4233 59 0
-4233 72 0
-4231 4232 4233 0
-4232 4231 4233 0
-4233 4231 4232 0
4234 -1 -52 -60 -71 0
-4234 1 0
-4234 52 0
-4234 60 0
-4234 71 0
4235 -4 -37 -60 -71 0
-4235 4 0
-4235 37 0
-4235 60 0
-4235 71 0
4236 -19 -22 -60 -71 0
-4236 19 0
-4236 22 0
-4236 60 0
-4236 71 0
-4234 4235 4236 0
-4235 4234 4236 0
-4236 4234 4235 0
4237 -1 -53 -58 -72 0
-4237 1 0
-4237 53 0
-4237 58 0
-4237 72 0
4238 -7 -31 -53 -72 0
-4238 7 0
-4238 31 0
-4238 53 0
-4238 72 0
4239 -13 -25 -53 -72 0
-4239 13 0
-4239 25 0
-4239 53 0
-4239 72 0
-4237 4238 4239 0
-4238 4237 4239 0
-4239 4237 4238 0
4240 -1 -53 -60 -70 0
-4240 1 0
-4240 53 0
-4240 60 0
-4240 70 0
4241 -10 -34 -53 -60 0
-4241 10 0
-4241 34 0
-4241 53 0
-4241 60 0
4242 -16 -28 -53 -60 0
-4242 16 0
-4242 28 0
-4242 53 0
-4242 60 0
-4240 4241 4242 0
-4241 4240 4242 0
-4242 4240 4241 0
4243 -1 -54 -58 -71 0
-4243 1 0
-4243 54 0
-4243 58 0
-4243 71 0
4244 -7 -31 -54 -71 0
-4244 7 0
-4244 31 0
-4244 54 0
-4244 71 0
4245 -13 -25 -54 -71 0
-4245 13 0
-4245 25 0
-4245 54 0
-4245 71 0
-4243 4244 4245 0
-4244 4243 4245 0
-4245 4243 4244 0
4246 -1 -54 -59 -70 0
-4246 1 0
-4246 54 0
-4246 59 0
-4246 70 0
4247 -10 -34 -54 -59 0
-4247 10 0
-4247 34 0
-4247 54 0
-4247 59 0
4248 -16 -28 -54 -59 0
-4248 16 0
-4248 28 0
-4248 54 0
-4248 59 0
-4246 4247 4248 0
-4247 4246 4248 0
-4248 4246 4247 0
4249 -2 -52 -59 -72 0
-4249 2 0
-4249 52 0
-4249 59 0
-4249 72 0
4250 -8 -32 -52 -72 0
-4250 8 0
-4250 32 0
-4250 52 0
-4250 72 0
4251 -14 -26 -52 -72 0
-4251 14 0
-4251 26 0
-4251 52 0
-4251 72 0
-4249 4250 4251 0
-4250 4249 4251 0
-4251 4249 4250 0
4252 -2 -52 -60 -71 0
-4252 2 0
-4252 52 0
-4252 60 0
-4252 71 0
4253 -11 -35 -52 -60 0
-4253 11 0
-4253 35 0
-4253 52 0
-4253 60 0
4254 -17 -29 -52 -60 0
-4254 17 0
-4254 29 0
-4254 52 0
-4254 60 0
-4252 4253 4254 0
-4253 4252 4254 0
-4254 4252 4253 0
4255 -2 -53 -58 -72 0
-4255 2 0
-4255 53 0
-4255 58 0
-4255 72 0
4256 -5 -38 -58 -72 0
-4256 5 0
-4256 38 0
-4256 58 0
-4256 72 0
4257 -20 -23 -58 -72 0
-4257 20 0
-4257 23 0
-4257 58 0
-4257 72 0
-4255 4256 4257 0
-4256 4255 4257 0
-4257 4255 4256 0
4258 -2 -53 -60 -70 0
-4258 2 0
-4258 53 0
-4258 60 0
-4258 70 0
4259 -5 -38 -60 -70 0
-4259 5 0
-4259 38 0
-4259 60 0
-4259 70 0
4260 -20 -23 -60 -70 0
-4260 20 0
-4260 23 0
-4260 60 0
-4260 70 0
-4258 4259 4260 0
-4259 4258 4260 0
-4260 4258 4259 0
4261 -2 -54 -58 -71 0
-4261 2 0
-4261 54 0
-4261 58 0
-4261 71 0
4262 -11 -35 -54 -58 0
-4262 11 0
-4262 35 0
-4262 54 0
-4262 58 0
4263 -17 -29 -54 -58 0
-4263 17 0
-4263 29 0
-4263 54 0
-4263 58 0
-4261 4262 4263 0
-4262 4261 4263 0
-4263 4261 4262 0
4264 -2 -54 -59 -70 0
-4264 2 0
-4264 54 0
-4264 59 0
-4264 70 0
4265 -8 -32 -54 -70 0
-4265 8 0
-4265 32 0
-4265 54 0
-4265 70 0
4266 -14 -26 -54 -70 0
-4266 14 0
-4266 26 0
-4266 54 0
-4266 70 0
-4264 4265 4266 0
-4265 4264 4266 0
-4266 4264 4265 0
4267 -3 -52 -59 -72 0
-4267 3 0
-4267 52 0
-4267 59 0
-4267 72 0
4268 -12 -36 -52 -59 0
-4268 12 0
-4268 36 0
-4268 52 0
-4268 59 0
4269 -18 -30 -52 -59 0
-4269 18 0
-4269 30 0
-4269 52 0
-4269 59 0
-4267 4268 4269 0
-4268 4267 4269 0
-4269 4267 4268 0
4270 -3 -52 -60 -71 0
-4270 3 0
-4270 52 0
-4270 60 0
-4270 71 0
4271 -9 -33 -52 -71 0
-4271 9 0
-4271 33 0
-4271 52 0
-4271 71 0
4272 -15 -27 -52 -71 0
-4272 15 0
-4272 27 0
-4272 52 0
-4272 71 0
-4270 4271 4272 0
-4271 4270 4272 0
-4272 4270 4271 0
4273 -3 -53 -58 -72 0
-4273 3 0
-4273 53 0
-4273 58 0
-4273 72 0
4274 -12 -36 -53 -58 0
-4274 12 0
-4274 36 0
-4274 53 0
-4274 58 0
4275 -18 -30 -53 -58 0
-4275 18 0
-4275 30 0
-4275 53 0
-4275 58 0
-4273 4274 4275 0
-4274 4273 4275 0
-4275 4273 4274 0
4276 -3 -53 -60 -70 0
-4276 3 0
-4276 53 0
-4276 60 0
-4276 70 0
4277 -9 -33 -53 -70 0
-4277 9 0
-4277 33 0
-4277 53 0
-4277 70 0
4278 -15 -27 -53 -70 0
-4278 15 0
-4278 27 0
-4278 53 0
-4278 70 0
-4276 4277 4278 0
-4277 4276 4278 0
-4278 4276 4277 0
4279 -3 -54 -58 -71 0
-4279 3 0
-4279 54 0
-4279 58 0
-4279 71 0
4280 -6 -39 -58 -71 0
-4280 6 0
-4280 39 0
-4280 58 0
-4280 71 0
4281 -21 -24 -58 -71 0
-4281 21 0
-4281 24 0
-4281 58 0
-4281 71 0
-4279 4280 4281 0
-4280 4279 4281 0
-4281 4279 4280 0
4282 -3 -54 -59 -70 0
-4282 3 0
-4282 54 0
-4282 59 0
-4282 70 0
4283 -6 -39 -59 -70 0
-4283 6 0
-4283 39 0
-4283 59 0
-4283 70 0
4284 -21 -24 -59 -70 0
-4284 21 0
-4284 24 0
-4284 59 0
-4284 70 0
-4282 4283 4284 0
-4283 4282 4284 0
-4284 4282 4283 0
4285 -1 -52 -62 -69 0
-4285 1 0
-4285 52 0
-4285 62 0
-4285 69 0
4286 -4 -37 -62 -69 0
-4286 4 0
-4286 37 0
-4286 62 0
-4286 69 0
4287 -19 -22 -62 -69 0
-4287 19 0
-4287 22 0
-4287 62 0
-4287 69 0
-4285 4286 4287 0
-4286 4285 4287 0
-4287 4285 4286 0
4288 -1 -52 -63 -68 0
-4288 1 0
-4288 52 0
-4288 63 0
-4288 68 0
4289 -4 -37 -63 -68 0
-4289 4 0
-4289 37 0
-4289 63 0
-4289 68 0
4290 -19 -22 -63 -68 0
-4290 19 0
-4290 22 0
-4290 63 0
-4290 68 0
-4288 4289 4290 0
-4289 4288 4290 0
-4290 4288 4289 0
4291 -1 -53 -61 -69 0
-4291 1 0
-4291 53 0
-4291 61 0
-4291 69 0
4292 -7 -34 -53 -69 0
-4292 7 0
-4292 34 0
-4292 53 0
-4292 69 0
4293 -16 -25 -53 -69 0
-4293 16 0
-4293 25 0
-4293 53 0
-4293 69 0
-4291 4292 4293 0
-4292 4291 4293 0
-4293 4291 4292 0
4294 -1 -53 -63 -67 0
-4294 1 0
-4294 53 0
-4294 63 0
-4294 67 0
4295 -10 -31 -53 -63 0
-4295 10 0
-4295 31 0
-4295 53 0
-4295 63 0
4296 -13 -28 -53 -63 0
-4296 13 0
-4296 28 0
-4296 53 0
-4296 63 0
-4294 4295 4296 0
-4295 4294 4296 0
-4296 4294 4295 0
4297 -1 -54 -61 -68 0
-4297 1 0
-4297 54 0
-4297 61 0
-4297 68 0
4298 -7 -34 -54 -68 0
-4298 7 0
-4298 34 0
-4298 54 0
-4298 68 0
4299 -16 -25 -54 -68 0
-4299 16 0
-4299 25 0
-4299 54 0
-4299 68 0
-4297 4298 4299 0
-4298 4297 4299 0
-4299 4297 4298 0
4300 -1 -54 -62 -67 0
-4300 1 0
-4300 54 0
-4300 62 0
-4300 67 0
4301 -10 -31 -54 -62 0
-4301 10 0
-4301 31 0
-4301 54 0
-4301 62 0
4302 -13 -28 -54 -62 0
-4302 13 0
-4302 28 0
-4302 54 0
-4302 62 0
-4300 4301 4302 0
-4301 4300 4302 0
-4302 4300 4301 0
4303 -2 -52 -62 -69 0
-4303 2 0
-4303 52 0
-4303 62 0
-4303 69 0
4304 -8 -35 -52 -69 0
-4304 8 0
-4304 35 0
-4304 52 0
-4304 69 0
4305 -17 -26 -52 -69 0
-4305 17 0
-4305 26 0
-4305 52 0
-4305 69 0
-4303 4304 4305 0
-4304 4303 4305 0
-4305 4303 4304 0
4306 -2 -52 -63 -68 0
-4306 2 0
-4306 52 0
-4306 63 0
-4306 68 0
4307 -11 -32 -52 -63 0
-4307 11 0
-4307 32 0
-4307 52 0
-4307 63 0
4308 -14 -29 -52 -63 0
-4308 14 0
-4308 29 0
-4308 52 0
-4308 63 0
-4306 4307 4308 0
-4307 4306 4308 0
-4308 4306 4307 0
4309 -2 -53 -61 -69 0
-4309 2 0
-4309 53 0
-4309 61 0
-4309 69 0
4310 -5 -38 -61 -69 0
-4310 5 0
-4310 38 0
-4310 61 0
-4310 69 0
4311 -20 -23 -61 -69 0
-4311 20 0
-4311 23 0
-4311 61 0
-4311 69 0
-4309 4310 4311 0
-4310 4309 4311 0
-4311 4309 4310 0
4312 -2 -53 -63 -67 0
-4312 2 0
-4312 53 0
-4312 63 0
-4312 67 0
4313 -5 -38 -63 -67 0
-4313 5 0
-4313 38 0
-4313 63 0
-4313 67 0
4314 -20 -23 -63 -67 0
-4314 20 0
-4314 23 0
-4314 63 0
-4314 67 0
-4312 4313 4314 0
-4313 4312 4314 0
-4314 4312 4313 0
4315 -2 -54 -61 -68 0
-4315 2 0
-4315 54 0
-4315 61 0
-4315 68 0
4316 -11 -32 -54 -61 0
-4316 11 0
-4316 32 0
-4316 54 0
-4316 61 0
4317 -14 -29 -54 -61 0
-4317 14 0
-4317 29 0
-4317 54 0
-4317 61 0
-4315 4316 4317 0
-4316 4315 4317 0
-4317 4315 4316 0
4318 -2 -54 -62 -67 0
-4318 2 0
-4318 54 0
-4318 62 0
-4318 67 0
4319 -8 -35 -54 -67 0
-4319 8 0
-4319 35 0
-4319 54 0
-4319 67 0
4320 -17 -26 -54 -67 0
-4320 17 0
-4320 26 0
-4320 54 0
-4320 67 0
-4318 4319 4320 0
-4319 4318 4320 0
-4320 4318 4319 0
4321 -3 -52 -62 -69 0
-4321 3 0
-4321 52 0
-4321 62 0
-4321 69 0
4322 -12 -33 -52 -62 0
-4322 12 0
-4322 33 0
-4322 52 0
-4322 62 0
4323 -15 -30 -52 -62 0
-4323 15 0
-4323 30 0
-4323 52 0
-4323 62 0
-4321 4322 4323 0
-4322 4321 4323 0
-4323 4321 4322 0
4324 -3 -52 -63 -68 0
-4324 3 0
-4324 52 0
-4324 63 0
-4324 68 0
4325 -9 -36 -52 -68 0
-4325 9 0
-4325 36 0
-4325 52 0
-4325 68 0
4326 -18 -27 -52 -68 0
-4326 18 0
-4326 27 0
-4326 52 0
-4326 68 0
-4324 4325 4326 0
-4325 4324 4326 0
-4326 4324 4325 0
4327 -3 -53 -61 -69 0
-4327 3 0
-4327 53 0
-4327 61 0
-4327 69 0
4328 -12 -33 -53 -61 0
-4328 12 0
-4328 33 0
-4328 53 0
-4328 61 0
4329 -15 -30 -53 -61 0
-4329 15 0
-4329 30 0
-4329 53 0
-4329 61 0
-4327 4328 4329 0
-4328 4327 4329 0
-4329 4327 4328 0
4330 -3 -53 -63 -67 0
-4330 3 0
-4330 53 0
-4330 63 0
-4330 67 0
4331 -9 -36 -53 -67 0
-4331 9 0
-4331 36 0
-4331 53 0
-4331 67 0
4332 -18 -27 -53 -67 0
-4332 18 0
-4332 27 0
-4332 53 0
-4332 67 0
-4330 4331 4332 0
-4331 4330 4332 0
-4332 4330 4331 0
4333 -3 -54 -61 -68 0
-4333 3 0
-4333 54 0
-4333 61 0
-4333 68 0
4334 -6 -39 -61 -68 0
-4334 6 0
-4334 39 0
-4334 61 0
-4334 68 0
4335 -21 -24 -61 -68 0
-4335 21 0
-4335 24 0
-4335 61 0
-4335 68 0
-4333 4334 4335 0
-4334 4333 4335 0
-4335 4333 4334 0
4336 -3 -54 -62 -67 0
-4336 3 0
-4336 54 0
-4336 62 0
-4336 67 0
4337 -6 -39 -62 -67 0
-4337 6 0
-4337 39 0
-4337 62 0
-4337 67 0
4338 -21 -24 -62 -67 0
-4338 21 0
-4338 24 0
-4338 62 0
-4338 67 0
-4336 4337 4338 0
-4337 4336 4338 0
-4338 4336 4337 0
4339 -4 -26 -67 -82 0
-4339 4 0
-4339 26 0
-4339 67 0
-4339 82 0
4340 -4 -26 -70 -79 0
-4340 4 0
-4340 26 0
-4340 70 0
-4340 79 0
4341 -4 -26 -73 -76 0
-4341 4 0
-4341 26 0
-4341 73 0
-4341 76 0
4342 -10 -26 -46 -82 0
-4342 10 0
-4342 26 0
-4342 46 0
-4342 82 0
4343 -10 -26 -49 -79 0
-4343 10 0
-4343 26 0
-4343 49 0
-4343 79 0
4344 -10 -26 -52 -76 0
-4344 10 0
-4344 26 0
-4344 52 0
-4344 76 0
4345 -13 -26 -43 -82 0
-4345 13 0
-4345 26 0
-4345 43 0
-4345 82 0
4346 -13 -26 -49 -73 0
-4346 13 0
-4346 26 0
-4346 49 0
-4346 73 0
4347 -13 -26 -52 -70 0
-4347 13 0
-4347 26 0
-4347 52 0
-4347 70 0
4348 -16 -26 -43 -79 0
-4348 16 0
-4348 26 0
-4348 43 0
-4348 79 0
4349 -16 -26 -46 -73 0
-4349 16 0
-4349 26 0
-4349 46 0
-4349 73 0
4350 -16 -26 -52 -67 0
-4350 16 0
-4350 26 0
-4350 52 0
-4350 67 0
4351 -19 -26 -43 -76 0
-4351 19 0
-4351 26 0
-4351 43 0
-4351 76 0
4352 -19 -26 -46 -70 0
-4352 19 0
-4352 26 0
-4352 46 0
-4352 70 0
4353 -19 -26 -49 -67 0
-4353 19 0
-4353 26 0
-4353 49 0
-4353 67 0
-4339 4340 4341 4342 4343 4344 4345 4346 4347 4348 4349 4350 4351 4352 4353 0
-4340 4339 4341 4342 4343 4344 4345 4346 4347 4348 4349 4350 4351 4352 4353 0
-4341 4339 4340 4342 4343 4344 4345 4346 4347 4348 4349 4350 4351 4352 4353 0
-4342 4339 4340 4341 4343 4344 4345 4346 4347 4348 4349 4350 4351 4352 4353 0
-4343 4339 4340 4341 4342 4344 4345 4346 4347 4348 4349 4350 4351 4352 4353 0
-4344 4339 4340 4341 4342 4343 4345 4346 4347 4348 4349 4350 4351 4352 4353 0
-4345 4339 4340 4341 4342 4343 4344 4346 4347 4348 4349 4350 4351 4352 4353 0
-4346 4339 4340 4341 4342 4343 4344 4345 4347 4348 4349 4350 4351 4352 4353 0
-4347 4339 4340 4341 4342 4343 4344 4345 4346 4348 4349 4350 4351 4352 4353 0
-4348 4339 4340 4341 4342 4343 4344 4345 4346 4347 4349 4350 4351 4352 4353 0
-4349 4339 4340 4341 4342 4343 4344 4345 4346 4347 4348 4350 4351 4352 4353 0
-4350 4339 4340 4341 4342 4343 4344 4345 4346 4347 4348 4349 4351 4352 4353 0
-4351 4339 4340 4341 4342 4343 4344 4345 4346 4347 4348 4349 4350 4352 4353 0
-4352 4339 4340 4341 4342 4343 4344 4345 4346 4347 4348 4349 4350 4351 4353 0
-4353 4339 4340 4341 4342 4343 4344 4345 4346 4347 4348 4349 4350 4351 4352 0
4354 -4 -26 -67 -83 0
-4354 4 0
-4354 26 0
-4354 67 0
-4354 83 0
4355 -4 -35 -65 -67 0
-4355 4 0
-4355 35 0
-4355 65 0
-4355 67 0
4356 -4 -38 -62 -67 0
-4356 4 0
-4356 38 0
-4356 62 0
-4356 67 0
4357 -10 -26 -46 -83 0
-4357 10 0
-4357 26 0
-4357 46 0
-4357 83 0
4358 -10 -35 -46 -65 0
-4358 10 0
-4358 35 0
-4358 46 0
-4358 65 0
4359 -10 -38 -46 -62 0
-4359 10 0
-4359 38 0
-4359 46 0
-4359 62 0
4360 -13 -26 -43 -83 0
-4360 13 0
-4360 26 0
-4360 43 0
-4360 83 0
4361 -13 -35 -43 -65 0
-4361 13 0
-4361 35 0
-4361 43 0
-4361 65 0
4362 -13 -38 -43 -62 0
-4362 13 0
-4362 38 0
-4362 43 0
-4362 62 0
-4354 4355 4356 4357 4358 4359 4360 4361 4362 0
-4355 4354 4356 4357 4358 4359 4360 4361 4362 0
-4356 4354 4355 4357 4358 4359 4360 4361 4362 0
-4357 4354 4355 4356 4358 4359 4360 4361 4362 0
-4358 4354 4355 4356 4357 4359 4360 4361 4362 0
-4359 4354 4355 4356 4357 4358 4360 4361 4362 0
-4360 4354 4355 4356 4357 4358 4359 4361 4362 0
-4361 4354 4355 4356 4357 4358 4359 4360 4362 0
-4362 4354 4355 4356 4357 4358 4359 4360 4361 0
4363 -4 -26 -67 -84 0
-4363 4 0
-4363 26 0
-4363 67 0
-4363 84 0
4364 -10 -26 -46 -84 0
-4364 10 0
-4364 26 0
-4364 46 0
-4364 84 0
4365 -13 -26 -43 -84 0
-4365 13 0
-4365 26 0
-4365 43 0
-4365 84 0
-4363 4364 4365 0
-4364 4363 4365 0
-4365 4363 4364 0
4366 -4 -26 -68 -82 0
-4366 4 0
-4366 26 0
-4366 68 0
-4366 82 0
4367 -4 -29 -59 -82 0
-4367 4 0
-4367 29 0
-4367 59 0
-4367 82 0
4368 -4 -32 -56 -82 0
-4368 4 0
-4368 32 0
-4368 56 0
-4368 82 0
4369 -16 -26 -52 -68 0
-4369 16 0
-4369 26 0
-4369 52 0
-4369 68 0
4370 -16 -29 -52 -59 0
-4370 16 0
-4370 29 0
-4370 52 0
-4370 59 0
4371 -16 -32 -52 -56 0
-4371 16 0
-4371 32 0
-4371 52 0
-4371 56 0
4372 -19 -26 -49 -68 0
-4372 19 0
-4372 26 0
-4372 49 0
-4372 68 0
4373 -19 -29 -49 -59 0
-4373 19 0
-4373 29 0
-4373 49 0
-4373 59 0
4374 -19 -32 -49 -56 0
-4374 19 0
-4374 32 0
-4374 49 0
-4374 56 0
-4366 4367 4368 4369 4370 4371 4372 4373 4374 0
-4367 4366 4368 4369 4370 4371 4372 4373 4374 0
-4368 4366 4367 4369 4370 4371 4372 4373 4374 0
-4369 4366 4367 4368 4370 4371 4372 4373 4374 0
-4370 4366 4367 4368 4369 4371 4372 4373 4374 0
-4371 4366 4367 4368 4369 4370 4372 4373 4374 0
-4372 4366 4367 4368 4369 4370 4371 4373 4374 0
-4373 4366 4367 4368 4369 4370 4371 4372 4374 0
-4374 4366 4367 4368 4369 4370 4371 4372 4373 0
4375 -4 -26 -68 -83 0
-4375 4 0
-4375 26 0
-4375 68 0
-4375 83 0
4376 -4 -26 -71 -80 0
-4376 4 0
-4376 26 0
-4376 71 0
-4376 80 0
4377 -4 -26 -74 -77 0
-4377 4 0
-4377 26 0
-4377 74 0
-4377 77 0
4378 -4 -29 -59 -83 0
-4378 4 0
-4378 29 0
-4378 59 0
-4378 83 0
4379 -4 -29 -62 -80 0
-4379 4 0
-4379 29 0
-4379 62 0
-4379 80 0
4380 -4 -29 -65 -77 0
-4380 4 0
-4380 29 0
-4380 65 0
-4380 77 0
4381 -4 -32 -56 -83 0
-4381 4 0
-4381 32 0
-4381 56 0
-4381 83 0
4382 -4 -32 -62 -74 0
-4382 4 0
-4382 32 0
-4382 62 0
-4382 74 0
4383 -4 -32 -65 -71 0
-4383 4 0
-4383 32 0
-4383 65 0
-4383 71 0
4384 -4 -35 -56 -80 0
-4384 4 0
-4384 35 0
-4384 56 0
-4384 80 0
4385 -4 -35 -59 -74 0
-4385 4 0
-4385 35 0
-4385 59 0
-4385 74 0
4386 -4 -35 -65 -68 0
-4386 4 0
-4386 35 0
-4386 65 0
-4386 68 0
4387 -4 -38 -56 -77 0
-4387 4 0
-4387 38 0
-4387 56 0
-4387 77 0
4388 -4 -38 -59 -71 0
-4388 4 0
-4388 38 0
-4388 59 0
-4388 71 0
4389 -4 -38 -62 -68 0
-4389 4 0
-4389 38 0
-4389 62 0
-4389 68 0
-4375 4376 4377 4378 4379 4380 4381 4382 4383 4384 4385 4386 4387 4388 4389 0
-4376 4375 4377 4378 4379 4380 4381 4382 4383 4384 4385 4386 4387 4388 4389 0
-4377 4375 4376 4378 4379 4380 4381 4382 4383 4384 4385 4386 4387 4388 4389 0
-4378 4375 4376 4377 4379 4380 4381 4382 4383 4384 4385 4386 4387 4388 4389 0
-4379 4375 4376 4377 4378 4380 4381 4382 4383 4384 4385 4386 4387 4388 4389 0
-4380 4375 4376 4377 4378 4379 4381 4382 4383 4384 4385 4386 4387 4388 4389 0
-4381 4375 4376 4377 4378 4379 4380 4382 4383 4384 4385 4386 4387 4388 4389 0
-4382 4375 4376 4377 4378 4379 4380 4381 4383 4384 4385 4386 4387 4388 4389 0
-4383 4375 4376 4377 4378 4379 4380 4381 4382 4384 4385 4386 4387 4388 4389 0
-4384 4375 4376 4377 4378 4379 4380 4381 4382 4383 4385 4386 4387 4388 4389 0
-4385 4375 4376 4377 4378 4379 4380 4381 4382 4383 4384 4386 4387 4388 4389 0
-4386 4375 4376 4377 4378 4379 4380 4381 4382 4383 4384 4385 4387 4388 4389 0
-4387 4375 4376 4377 4378 4379 4380 4381 4382 4383 4384 4385 4386 4388 4389 0
-4388 4375 4376 4377 4378 4379 4380 4381 4382 4383 4384 4385 4386 4387 4389 0
-4389 4375 4376 4377 4378 4379 4380 4381 4382 4383 4384 4385 4386 4387 4388 0
4390 -4 -26 -68 -84 0
-4390 4 0
-4390 26 0
-4390 68 0
-4390 84 0
4391 -4 -29 -59 -84 0
-4391 4 0
-4391 29 0
-4391 59 0
-4391 84 0
4392 -4 -32 -56 -84 0
-4392 4 0
-4392 32 0
-4392 56 0
-4392 84 0
-4390 4391 4392 0
-4391 4390 4392 0
-4392 4390 4391 0
4393 -4 -26 -69 -82 0
-4393 4 0
-4393 26 0
-4393 69 0
-4393 82 0
4394 -16 -26 -52 -69 0
-4394 16 0
-4394 26 0
-4394 52 0
-4394 69 0
4395 -19 -26 -49 -69 0
-4395 19 0
-4395 26 0
-4395 49 0
-4395 69 0
-4393 4394 4395 0
-4394 4393 4395 0
-4395 4393 4394 0
4396 -4 -26 -69 -83 0
-4396 4 0
-4396 26 0
-4396 69 0
-4396 83 0
4397 -4 -35 -65 -69 0
-4397 4 0
-4397 35 0
-4397 65 0
-4397 69 0
4398 -4 -38 -62 -69 0
-4398 4 0
-4398 38 0
-4398 62 0
-4398 69 0
-4396 4397 4398 0
-4397 4396 4398 0
-4398 4396 4397 0
4399 -4 -26 -69 -84 0
-4399 4 0
-4399 26 0
-4399 69 0
-4399 84 0
4400 -4 -26 -72 -81 0
-4400 4 0
-4400 26 0
-4400 72 0
-4400 81 0
4401 -4 -26 -75 -78 0
-4401 4 0
-4401 26 0
-4401 75 0
-4401 78 0
-4399 4400 4401 0
-4400 4399 4401 0
-4401 4399 4400 0
4402 -4 -27 -67 -82 0
-4402 4 0
-4402 27 0
-4402 67 0
-4402 82 0
4403 -4 -27 -70 -79 0
-4403 4 0
-4403 27 0
-4403 70 0
-4403 79 0
4404 -4 -27 -73 -76 0
-4404 4 0
-4404 27 0
-4404 73 0
-4404 76 0
4405 -10 -27 -46 -82 0
-4405 10 0
-4405 27 0
-4405 46 0
-4405 82 0
4406 -10 -27 -49 -79 0
-4406 10 0
-4406 27 0
-4406 49 0
-4406 79 0
4407 -10 -27 -52 -76 0
-4407 10 0
-4407 27 0
-4407 52 0
-4407 76 0
4408 -13 -27 -43 -82 0
-4408 13 0
-4408 27 0
-4408 43 0
-4408 82 0
4409 -13 -27 -49 -73 0
-4409 13 0
-4409 27 0
-4409 49 0
-4409 73 0
4410 -13 -27 -52 -70 0
-4410 13 0
-4410 27 0
-4410 52 0
-4410 70 0
4411 -16 -27 -43 -79 0
-4411 16 0
-4411 27 0
-4411 43 0
-4411 79 0
4412 -16 -27 -46 -73 0
-4412 16 0
-4412 27 0
-4412 46 0
-4412 73 0
4413 -16 -27 -52 -67 0
-4413 16 0
-4413 27 0
-4413 52 0
-4413 67 0
4414 -19 -27 -43 -76 0
-4414 19 0
-4414 27 0
-4414 43 0
-4414 76 0
4415 -19 -27 -46 -70 0
-4415 19 0
-4415 27 0
-4415 46 0
-4415 70 0
4416 -19 -27 -49 -67 0
-4416 19 0
-4416 27 0
-4416 49 0
-4416 67 0
-4402 4403 4404 4405 4406 4407 4408 4409 4410 4411 4412 4413 4414 4415 4416 0
-4403 4402 4404 4405 4406 4407 4408 4409 4410 4411 4412 4413 4414 4415 4416 0
-4404 4402 4403 4405 4406 4407 4408 4409 4410 4411 4412 4413 4414 4415 4416 0
-4405 4402 4403 4404 4406 4407 4408 4409 4410 4411 4412 4413 4414 4415 4416 0
-4406 4402 4403 4404 4405 4407 4408 4409 4410 4411 4412 4413 4414 4415 4416 0
-4407 4402 4403 4404 4405 4406 4408 4409 4410 4411 4412 4413 4414 4415 4416 0
-4408 4402 4403 4404 4405 4406 4407 4409 4410 4411 4412 4413 4414 4415 4416 0
-4409 4402 4403 4404 4405 4406 4407 4408 4410 4411 4412 4413 4414 4415 4416 0
-4410 4402 4403 4404 4405 4406 4407 4408 4409 4411 4412 4413 4414 4415 4416 0
-4411 4402 4403 4404 4405 4406 4407 4408 4409 4410 4412 4413 4414 4415 4416 0
-4412 4402 4403 4404 4405 4406 4407 4408 4409 4410 4411 4413 4414 4415 4416 0
-4413 4402 4403 4404 4405 4406 4407 4408 4409 4410 4411 4412 4414 4415 4416 0
-4414 4402 4403 4404 4405 4406 4407 4408 4409 4410 4411 4412 4413 4415 4416 0
-4415 4402 4403 4404 4405 4406 4407 4408 4409 4410 4411 4412 4413 4414 4416 0
-4416 4402 4403 4404 4405 4406 4407 4408 4409 4410 4411 4412 4413 4414 4415 0
4417 -4 -27 -67 -83 0
-4417 4 0
-4417 27 0
-4417 67 0
-4417 83 0
4418 -10 -27 -46 -83 0
-4418 10 0
-4418 27 0
-4418 46 0
-4418 83 0
4419 -13 -27 -43 -83 0
-4419 13 0
-4419 27 0
-4419 43 0
-4419 83 0
-4417 4418 4419 0
-4418 4417 4419 0
-4419 4417 4418 0
4420 -4 -27 -67 -84 0
-4420 4 0
-4420 27 0
-4420 67 0
-4420 84 0
4421 -4 -36 -66 -67 0
-4421 4 0
-4421 36 0
-4421 66 0
-4421 67 0
4422 -4 -39 -63 -67 0
-4422 4 0
-4422 39 0
-4422 63 0
-4422 67 0
4423 -10 -27 -46 -84 0
-4423 10 0
-4423 27 0
-4423 46 0
-4423 84 0
4424 -10 -36 -46 -66 0
-4424 10 0
-4424 36 0
-4424 46 0
-4424 66 0
4425 -10 -39 -46 -63 0
-4425 10 0
-4425 39 0
-4425 46 0
-4425 63 0
4426 -13 -27 -43 -84 0
-4426 13 0
-4426 27 0
-4426 43 0
-4426 84 0
4427 -13 -36 -43 -66 0
-4427 13 0
-4427 36 0
-4427 43 0
-4427 66 0
4428 -13 -39 -43 -63 0
-4428 13 0
-4428 39 0
-4428 43 0
-4428 63 0
-4420 4421 4422 4423 4424 4425 4426 4427 4428 0
-4421 4420 4422 4423 4424 4425 4426 4427 4428 0
-4422 4420 4421 4423 4424 4425 4426 4427 4428 0
-4423 4420 4421 4422 4424 4425 4426 4427 4428 0
-4424 4420 4421 4422 4423 4425 4426 4427 4428 0
-4425 4420 4421 4422 4423 4424 4426 4427 4428 0
-4426 4420 4421 4422 4423 4424 4425 4427 4428 0
-4427 4420 4421 4422 4423 4424 4425 4426 4428 0
-4428 4420 4421 4422 4423 4424 4425 4426 4427 0
4429 -4 -27 -68 -82 0
-4429 4 0
-4429 27 0
-4429 68 0
-4429 82 0
4430 -16 -27 -52 -68 0
-4430 16 0
-4430 27 0
-4430 52 0
-4430 68 0
4431 -19 -27 -49 -68 0
-4431 19 0
-4431 27 0
-4431 49 0
-4431 68 0
-4429 4430 4431 0
-4430 4429 4431 0
-4431 4429 4430 0
4432 -4 -27 -68 -83 0
-4432 4 0
-4432 27 0
-4432 68 0
-4432 83 0
4433 -4 -27 -71 -80 0
-4433 4 0
-4433 27 0
-4433 71 0
-4433 80 0
4434 -4 -27 -74 -77 0
-4434 4 0
-4434 27 0
-4434 74 0
-4434 77 0
-4432 4433 4434 0
-4433 4432 4434 0
-4434 4432 4433 0
4435 -4 -27 -68 -84 0
-4435 4 0
-4435 27 0
-4435 68 0
-4435 84 0
4436 -4 -36 -66 -68 0
-4436 4 0
-4436 36 0
-4436 66 0
-4436 68 0
4437 -4 -39 -63 -68 0
-4437 4 0
-4437 39 0
-4437 63 0
-4437 68 0
-4435 4436 4437 0
-4436 4435 4437 0
-4437 4435 4436 0
4438 -4 -27 -69 -82 0
-4438 4 0
-4438 27 0
-4438 69 0
-4438 82 0
4439 -4 -30 -60 -82 0
-4439 4 0
-4439 30 0
-4439 60 0
-4439 82 0
4440 -4 -33 -57 -82 0
-4440 4 0
-4440 33 0
-4440 57 0
-4440 82 0
4441 -16 -27 -52 -69 0
-4441 16 0
-4441 27 0
-4441 52 0
-4441 69 0
4442 -16 -30 -52 -60 0
-4442 16 0
-4442 30 0
-4442 52 0
-4442 60 0
4443 -16 -33 -52 -57 0
-4443 16 0
-4443 33 0
-4443 52 0
-4443 57 0
4444 -19 -27 -49 -69 0
-4444 19 0
-4444 27 0
-4444 49 0
-4444 69 0
4445 -19 -30 -49 -60 0
-4445 19 0
-4445 30 0
-4445 49 0
-4445 60 0
4446 -19 -33 -49 -57 0
-4446 19 0
-4446 33 0
-4446 49 0
-4446 57 0
-4438 4439 4440 4441 4442 4443 4444 4445 4446 0
-4439 4438 4440 4441 4442 4443 4444 4445 4446 0
-4440 4438 4439 4441 4442 4443 4444 4445 4446 0
-4441 4438 4439 4440 4442 4443 4444 4445 4446 0
-4442 4438 4439 4440 4441 4443 4444 4445 4446 0
-4443 4438 4439 4440 4441 4442 4444 4445 4446 0
-4444 4438 4439 4440 4441 4442 4443 4445 4446 0
-4445 4438 4439 4440 4441 4442 4443 4444 4446 0
-4446 4438 4439 4440 4441 4442 4443 4444 4445 0
4447 -4 -27 -69 -83 0
-4447 4 0
-4447 27 0
-4447 69 0
-4447 83 0
4448 -4 -30 -60 -83 0
-4448 4 0
-4448 30 0
-4448 60 0
-4448 83 0
4449 -4 -33 -57 -83 0
-4449 4 0
-4449 33 0
-4449 57 0
-4449 83 0
-4447 4448 4449 0
-4448 4447 4449 0
-4449 4447 4448 0
4450 -4 -27 -69 -84 0
-4450 4 0
-4450 27 0
-4450 69 0
-4450 84 0
4451 -4 -27 -72 -81 0
-4451 4 0
-4451 27 0
-4451 72 0
-4451 81 0
4452 -4 -27 -75 -78 0
-4452 4 0
-4452 27 0
-4452 75 0
-4452 78 0
4453 -4 -30 -60 -84 0
-4453 4 0
-4453 30 0
-4453 60 0
-4453 84 0
4454 -4 -30 -63 -81 0
-4454 4 0
-4454 30 0
-4454 63 0
-4454 81 0
4455 -4 -30 -66 -78 0
-4455 4 0
-4455 30 0
-4455 66 0
-4455 78 0
4456 -4 -33 -57 -84 0
-4456 4 0
-4456 33 0
-4456 57 0
-4456 84 0
4457 -4 -33 -63 -75 0
-4457 4 0
-4457 33 0
-4457 63 0
-4457 75 0
4458 -4 -33 -66 -72 0
-4458 4 0
-4458 33 0
-4458 66 0
-4458 72 0
4459 -4 -36 -57 -81 0
-4459 4 0
-4459 36 0
-4459 57 0
-4459 81 0
4460 -4 -36 -60 -75 0
-4460 4 0
-4460 36 0
-4460 60 0
-4460 75 0
4461 -4 -36 -66 -69 0
-4461 4 0
-4461 36 0
-4461 66 0
-4461 69 0
4462 -4 -39 -57 -78 0
-4462 4 0
-4462 39 0
-4462 57 0
-4462 78 0
4463 -4 -39 -60 -72 0
-4463 4 0
-4463 39 0
-4463 60 0
-4463 72 0
4464 -4 -39 -63 -69 0
-4464 4 0
-4464 39 0
-4464 63 0
-4464 69 0
-4450 4451 4452 4453 4454 4455 4456 4457 4458 4459 4460 4461 4462 4463 4464 0
-4451 4450 4452 4453 4454 4455 4456 4457 4458 4459 4460 4461 4462 4463 4464 0
-4452 4450 4451 4453 4454 4455 4456 4457 4458 4459 4460 4461 4462 4463 4464 0
-4453 4450 4451 4452 4454 4455 4456 4457 4458 4459 4460 4461 4462 4463 4464 0
-4454 4450 4451 4452 4453 4455 4456 4457 4458 4459 4460 4461 4462 4463 4464 0
-4455 4450 4451 4452 4453 4454 4456 4457 4458 4459 4460 4461 4462 4463 4464 0
-4456 4450 4451 4452 4453 4454 4455 4457 4458 4459 4460 4461 4462 4463 4464 0
-4457 4450 4451 4452 4453 4454 4455 4456 4458 4459 4460 4461 4462 4463 4464 0
-4458 4450 4451 4452 4453 4454 4455 4456 4457 4459 4460 4461 4462 4463 4464 0
-4459 4450 4451 4452 4453 4454 4455 4456 4457 4458 4460 4461 4462 4463 4464 0
-4460 4450 4451 4452 4453 4454 4455 4456 4457 4458 4459 4461 4462 4463 4464 0
-4461 4450 4451 4452 4453 4454 4455 4456 4457 4458 4459 4460 4462 4463 4464 0
-4462 4450 4451 4452 4453 4454 4455 4456 4457 4458 4459 4460 4461 4463 4464 0
-4463 4450 4451 4452 4453 4454 4455 4456 4457 4458 4459 4460 4461 4462 4464 0
-4464 4450 4451 4452 4453 4454 4455 4456 4457 4458 4459 4460 4461 4462 4463 0
4465 -5 -25 -67 -82 0
-4465 5 0
-4465 25 0
-4465 67 0
-4465 82 0
4466 -5 -25 -70 -79 0
-4466 5 0
-4466 25 0
-4466 70 0
-4466 79 0
4467 -5 -25 -73 -76 0
-4467 5 0
-4467 25 0
-4467 73 0
-4467 76 0
4468 -5 -28 -58 -82 0
-4468 5 0
-4468 28 0
-4468 58 0
-4468 82 0
4469 -5 -28 -61 -79 0
-4469 5 0
-4469 28 0
-4469 61 0
-4469 79 0
4470 -5 -28 -64 -76 0
-4470 5 0
-4470 28 0
-4470 64 0
-4470 76 0
4471 -5 -31 -55 -82 0
-4471 5 0
-4471 31 0
-4471 55 0
-4471 82 0
4472 -5 -31 -61 -73 0
-4472 5 0
-4472 31 0
-4472 61 0
-4472 73 0
4473 -5 -31 -64 -70 0
-4473 5 0
-4473 31 0
-4473 64 0
-4473 70 0
4474 -5 -34 -55 -79 0
-4474 5 0
-4474 34 0
-4474 55 0
-4474 79 0
4475 -5 -34 -58 -73 0
-4475 5 0
-4475 34 0
-4475 58 0
-4475 73 0
4476 -5 -34 -64 -67 0
-4476 5 0
-4476 34 0
-4476 64 0
-4476 67 0
4477 -5 -37 -55 -76 0
-4477 5 0
-4477 37 0
-4477 55 0
-4477 76 0
4478 -5 -37 -58 -70 0
-4478 5 0
-4478 37 0
-4478 58 0
-4478 70 0
4479 -5 -37 -61 -67 0
-4479 5 0
-4479 37 0
-4479 61 0
-4479 67 0
-4465 4466 4467 4468 4469 4470 4471 4472 4473 4474 4475 4476 4477 4478 4479 0
-4466 4465 4467 4468 4469 4470 4471 4472 4473 4474 4475 4476 4477 4478 4479 0
-4467 4465 4466 4468 4469 4470 4471 4472 4473 4474 4475 4476 4477 4478 4479 0
-4468 4465 4466 4467 4469 4470 4471 4472 4473 4474 4475 4476 4477 4478 4479 0
-4469 4465 4466 4467 4468 4470 4471 4472 4473 4474 4475 4476 4477 4478 4479 0
-4470 4465 4466 4467 4468 4469 4471 4472 4473 4474 4475 4476 4477 4478 4479 0
-4471 4465 4466 4467 4468 4469 4470 4472 4473 4474 4475 4476 4477 4478 4479 0
-4472 4465 4466 4467 4468 4469 4470 4471 4473 4474 4475 4476 4477 4478 4479 0
-4473 4465 4466 4467 4468 4469 4470 4471 4472 4474 4475 4476 4477 4478 4479 0
-4474 4465 4466 4467 4468 4469 4470 4471 4472 4473 4475 4476 4477 4478 4479 0
-4475 4465 4466 4467 4468 4469 4470 4471 4472 4473 4474 4476 4477 4478 4479 0
-4476 4465 4466 4467 4468 4469 4470 4471 4472 4473 4474 4475 4477 4478 4479 0
-4477 4465 4466 4467 4468 4469 4470 4471 4472 4473 4474 4475 4476 4478 4479 0
-4478 4465 4466 4467 4468 4469 4470 4471 4472 4473 4474 4475 4476 4477 4479 0
-4479 4465 4466 4467 4468 4469 4470 4471 4472 4473 4474 4475 4476 4477 4478 0
4480 -5 -25 -67 -83 0
-4480 5 0
-4480 25 0
-4480 67 0
-4480 83 0
4481 -5 -28 -58 -83 0
-4481 5 0
-4481 28 0
-4481 58 0
-4481 83 0
4482 -5 -31 -55 -83 0
-4482 5 0
-4482 31 0
-4482 55 0
-4482 83 0
4483 -17 -25 -53 -67 0
-4483 17 0
-4483 25 0
-4483 53 0
-4483 67 0
4484 -17 -28 -53 -58 0
-4484 17 0
-4484 28 0
-4484 53 0
-4484 58 0
4485 -17 -31 -53 -55 0
-4485 17 0
-4485 31 0
-4485 53 0
-4485 55 0
4486 -20 -25 -50 -67 0
-4486 20 0
-4486 25 0
-4486 50 0
-4486 67 0
4487 -20 -28 -50 -58 0
-4487 20 0
-4487 28 0
-4487 50 0
-4487 58 0
4488 -20 -31 -50 -55 0
-4488 20 0
-4488 31 0
-4488 50 0
-4488 55 0
-4480 4481 4482 4483 4484 4485 4486 4487 4488 0
-4481 4480 4482 4483 4484 4485 4486 4487 4488 0
-4482 4480 4481 4483 4484 4485 4486 4487 4488 0
-4483 4480 4481 4482 4484 4485 4486 4487 4488 0
-4484 4480 4481 4482 4483 4485 4486 4487 4488 0
-4485 4480 4481 4482 4483 4484 4486 4487 4488 0
-4486 4480 4481 4482 4483 4484 4485 4487 4488 0
-4487 4480 4481 4482 4483 4484 4485 4486 4488 0
-4488 4480 4481 4482 4483 4484 4485 4486 4487 0
4489 -5 -25 -67 -84 0
-4489 5 0
-4489 25 0
-4489 67 0
-4489 84 0
4490 -5 -28 -58 -84 0
-4490 5 0
-4490 28 0
-4490 58 0
-4490 84 0
4491 -5 -31 -55 -84 0
-4491 5 0
-4491 31 0
-4491 55 0
-4491 84 0
-4489 4490 4491 0
-4490 4489 4491 0
-4491 4489 4490 0
4492 -5 -25 -68 -82 0
-4492 5 0
-4492 25 0
-4492 68 0
-4492 82 0
4493 -5 -34 -64 -68 0
-4493 5 0
-4493 34 0
-4493 64 0
-4493 68 0
4494 -5 -37 -61 -68 0
-4494 5 0
-4494 37 0
-4494 61 0
-4494 68 0
4495 -11 -25 -47 -82 0
-4495 11 0
-4495 25 0
-4495 47 0
-4495 82 0
4496 -11 -34 -47 -64 0
-4496 11 0
-4496 34 0
-4496 47 0
-4496 64 0
4497 -11 -37 -47 -61 0
-4497 11 0
-4497 37 0
-4497 47 0
-4497 61 0
4498 -14 -25 -44 -82 0
-4498 14 0
-4498 25 0
-4498 44 0
-4498 82 0
4499 -14 -34 -44 -64 0
-4499 14 0
-4499 34 0
-4499 44 0
-4499 64 0
4500 -14 -37 -44 -61 0
-4500 14 0
-4500 37 0
-4500 44 0
-4500 61 0
-4492 4493 4494 4495 4496 4497 4498 4499 4500 0
-4493 4492 4494 4495 4496 4497 4498 4499 4500 0
-4494 4492 4493 4495 4496 4497 4498 4499 4500 0
-4495 4492 4493 4494 4496 4497 4498 4499 4500 0
-4496 4492 4493 4494 4495 4497 4498 4499 4500 0
-4497 4492 4493 4494 4495 4496 4498 4499 4500 0
-4498 4492 4493 4494 4495 4496 4497 4499 4500 0
-4499 4492 4493 4494 4495 4496 4497 4498 4500 0
-4500 4492 4493 4494 4495 4496 4497 4498 4499 0
4501 -5 -25 -68 -83 0
-4501 5 0
-4501 25 0
-4501 68 0
-4501 83 0
4502 -5 -25 -71 -80 0
-4502 5 0
-4502 25 0
-4502 71 0
-4502 80 0
4503 -5 -25 -74 -77 0
-4503 5 0
-4503 25 0
-4503 74 0
-4503 77 0
4504 -11 -25 -47 -83 0
-4504 11 0
-4504 25 0
-4504 47 0
-4504 83 0
4505 -11 -25 -50 -80 0
-4505 11 0
-4505 25 0
-4505 50 0
-4505 80 0
4506 -11 -25 -53 -77 0
-4506 11 0
-4506 25 0
-4506 53 0
-4506 77 0
4507 -14 -25 -44 -83 0
-4507 14 0
-4507 25 0
-4507 44 0
-4507 83 0
4508 -14 -25 -50 -74 0
-4508 14 0
-4508 25 0
-4508 50 0
-4508 74 0
4509 -14 -25 -53 -71 0
-4509 14 0
-4509 25 0
-4509 53 0
-4509 71 0
4510 -17 -25 -44 -80 0
-4510 17 0
-4510 25 0
-4510 44 0
-4510 80 0
4511 -17 -25 -47 -74 0
-4511 17 0
-4511 25 0
-4511 47 0
-4511 74 0
4512 -17 -25 -53 -68 0
-4512 17 0
-4512 25 0
-4512 53 0
-4512 68 0
4513 -20 -25 -44 -77 0
-4513 20 0
-4513 25 0
-4513 44 0
-4513 77 0
4514 -20 -25 -47 -71 0
-4514 20 0
-4514 25 0
-4514 47 0
-4514 71 0
4515 -20 -25 -50 -68 0
-4515 20 0
-4515 25 0
-4515 50 0
-4515 68 0
-4501 4502 4503 4504 4505 4506 4507 4508 4509 4510 4511 4512 4513 4514 4515 0
-4502 4501 4503 4504 4505 4506 4507 4508 4509 4510 4511 4512 4513 4514 4515 0
-4503 4501 4502 4504 4505 4506 4507 4508 4509 4510 4511 4512 4513 4514 4515 0
-4504 4501 4502 4503 4505 4506 4507 4508 4509 4510 4511 4512 4513 4514 4515 0
-4505 4501 4502 4503 4504 4506 4507 4508 4509 4510 4511 4512 4513 4514 4515 0
-4506 4501 4502 4503 4504 4505 4507 4508 4509 4510 4511 4512 4513 4514 4515 0
-4507 4501 4502 4503 4504 4505 4506 4508 4509 4510 4511 4512 4513 4514 4515 0
-4508 4501 4502 4503 4504 4505 4506 4507 4509 4510 4511 4512 4513 4514 4515 0
-4509 4501 4502 4503 4504 4505 4506 4507 4508 4510 4511 4512 4513 4514 4515 0
-4510 4501 4502 4503 4504 4505 4506 4507 4508 4509 4511 4512 4513 4514 4515 0
-4511 4501 4502 4503 4504 4505 4506 4507 4508 4509 4510 4512 4513 4514 4515 0
-4512 4501 4502 4503 4504 4505 4506 4507 4508 4509 4510 4511 4513 4514 4515 0
-4513 4501 4502 4503 4504 4505 4506 4507 4508 4509 4510 4511 4512 4514 4515 0
-4514 4501 4502 4503 4504 4505 4506 4507 4508 4509 4510 4511 4512 4513 4515 0
-4515 4501 4502 4503 4504 4505 4506 4507 4508 4509 4510 4511 4512 4513 4514 0
4516 -5 -25 -68 -84 0
-4516 5 0
-4516 25 0
-4516 68 0
-4516 84 0
4517 -11 -25 -47 -84 0
-4517 11 0
-4517 25 0
-4517 47 0
-4517 84 0
4518 -14 -25 -44 -84 0
-4518 14 0
-4518 25 0
-4518 44 0
-4518 84 0
-4516 4517 4518 0
-4517 4516 4518 0
-4518 4516 4517 0
4519 -5 -25 -69 -82 0
-4519 5 0
-4519 25 0
-4519 69 0
-4519 82 0
4520 -5 -34 -64 -69 0
-4520 5 0
-4520 34 0
-4520 64 0
-4520 69 0
4521 -5 -37 -61 -69 0
-4521 5 0
-4521 37 0
-4521 61 0
-4521 69 0
-4519 4520 4521 0
-4520 4519 4521 0
-4521 4519 4520 0
4522 -5 -25 -69 -83 0
-4522 5 0
-4522 25 0
-4522 69 0
-4522 83 0
4523 -17 -25 -53 -69 0
-4523 17 0
-4523 25 0
-4523 53 0
-4523 69 0
4524 -20 -25 -50 -69 0
-4524 20 0
-4524 25 0
-4524 50 0
-4524 69 0
-4522 4523 4524 0
-4523 4522 4524 0
-4524 4522 4523 0
4525 -5 -25 -69 -84 0
-4525 5 0
-4525 25 0
-4525 69 0
-4525 84 0
4526 -5 -25 -72 -81 0
-4526 5 0
-4526 25 0
-4526 72 0
-4526 81 0
4527 -5 -25 -75 -78 0
-4527 5 0
-4527 25 0
-4527 75 0
-4527 78 0
-4525 4526 4527 0
-4526 4525 4527 0
-4527 4525 4526 0
4528 -5 -27 -67 -82 0
-4528 5 0
-4528 27 0
-4528 67 0
-4528 82 0
4529 -5 -27 -70 -79 0
-4529 5 0
-4529 27 0
-4529 70 0
-4529 79 0
4530 -5 -27 -73 -76 0
-4530 5 0
-4530 27 0
-4530 73 0
-4530 76 0
-4528 4529 4530 0
-4529 4528 4530 0
-4530 4528 4529 0
4531 -5 -27 -67 -83 0
-4531 5 0
-4531 27 0
-4531 67 0
-4531 83 0
4532 -17 -27 -53 -67 0
-4532 17 0
-4532 27 0
-4532 53 0
-4532 67 0
4533 -20 -27 -50 -67 0
-4533 20 0
-4533 27 0
-4533 50 0
-4533 67 0
-4531 4532 4533 0
-4532 4531 4533 0
-4533 4531 4532 0
4534 -5 -27 -67 -84 0
-4534 5 0
-4534 27 0
-4534 67 0
-4534 84 0
4535 -5 -36 -66 -67 0
-4535 5 0
-4535 36 0
-4535 66 0
-4535 67 0
4536 -5 -39 -63 -67 0
-4536 5 0
-4536 39 0
-4536 63 0
-4536 67 0
-4534 4535 4536 0
-4535 4534 4536 0
-4536 4534 4535 0
4537 -5 -27 -68 -82 0
-4537 5 0
-4537 27 0
-4537 68 0
-4537 82 0
4538 -11 -27 -47 -82 0
-4538 11 0
-4538 27 0
-4538 47 0
-4538 82 0
4539 -14 -27 -44 -82 0
-4539 14 0
-4539 27 0
-4539 44 0
-4539 82 0
-4537 4538 4539 0
-4538 4537 4539 0
-4539 4537 4538 0
4540 -5 -27 -68 -83 0
-4540 5 0
-4540 27 0
-4540 68 0
-4540 83 0
4541 -5 -27 -71 -80 0
-4541 5 0
-4541 27 0
-4541 71 0
-4541 80 0
4542 -5 -27 -74 -77 0
-4542 5 0
-4542 27 0
-4542 74 0
-4542 77 0
4543 -11 -27 -47 -83 0
-4543 11 0
-4543 27 0
-4543 47 0
-4543 83 0
4544 -11 -27 -50 -80 0
-4544 11 0
-4544 27 0
-4544 50 0
-4544 80 0
4545 -11 -27 -53 -77 0
-4545 11 0
-4545 27 0
-4545 53 0
-4545 77 0
4546 -14 -27 -44 -83 0
-4546 14 0
-4546 27 0
-4546 44 0
-4546 83 0
4547 -14 -27 -50 -74 0
-4547 14 0
-4547 27 0
-4547 50 0
-4547 74 0
4548 -14 -27 -53 -71 0
-4548 14 0
-4548 27 0
-4548 53 0
-4548 71 0
4549 -17 -27 -44 -80 0
-4549 17 0
-4549 27 0
-4549 44 0
-4549 80 0
4550 -17 -27 -47 -74 0
-4550 17 0
-4550 27 0
-4550 47 0
-4550 74 0
4551 -17 -27 -53 -68 0
-4551 17 0
-4551 27 0
-4551 53 0
-4551 68 0
4552 -20 -27 -44 -77 0
-4552 20 0
-4552 27 0
-4552 44 0
-4552 77 0
4553 -20 -27 -47 -71 0
-4553 20 0
-4553 27 0
-4553 47 0
-4553 71 0
4554 -20 -27 -50 -68 0
-4554 20 0
-4554 27 0
-4554 50 0
-4554 68 0
-4540 4541 4542 4543 4544 4545 4546 4547 4548 4549 4550 4551 4552 4553 4554 0
-4541 4540 4542 4543 4544 4545 4546 4547 4548 4549 4550 4551 4552 4553 4554 0
-4542 4540 4541 4543 4544 4545 4546 4547 4548 4549 4550 4551 4552 4553 4554 0
-4543 4540 4541 4542 4544 4545 4546 4547 4548 4549 4550 4551 4552 4553 4554 0
-4544 4540 4541 4542 4543 4545 4546 4547 4548 4549 4550 4551 4552 4553 4554 0
-4545 4540 4541 4542 4543 4544 4546 4547 4548 4549 4550 4551 4552 4553 4554 0
-4546 4540 4541 4542 4543 4544 4545 4547 4548 4549 4550 4551 4552 4553 4554 0
-4547 4540 4541 4542 4543 4544 4545 4546 4548 4549 4550 4551 4552 4553 4554 0
-4548 4540 4541 4542 4543 4544 4545 4546 4547 4549 4550 4551 4552 4553 4554 0
-4549 4540 4541 4542 4543 4544 4545 4546 4547 4548 4550 4551 4552 4553 4554 0
-4550 4540 4541 4542 4543 4544 4545 4546 4547 4548 4549 4551 4552 4553 4554 0
-4551 4540 4541 4542 4543 4544 4545 4546 4547 4548 4549 4550 4552 4553 4554 0
-4552 4540 4541 4542 4543 4544 4545 4546 4547 4548 4549 4550 4551 4553 4554 0
-4553 4540 4541 4542 4543 4544 4545 4546 4547 4548 4549 4550 4551 4552 4554 0
-4554 4540 4541 4542 4543 4544 4545 4546 4547 4548 4549 4550 4551 4552 4553 0
4555 -5 -27 -68 -84 0
-4555 5 0
-4555 27 0
-4555 68 0
-4555 84 0
4556 -5 -36 -66 -68 0
-4556 5 0
-4556 36 0
-4556 66 0
-4556 68 0
4557 -5 -39 -63 -68 0
-4557 5 0
-4557 39 0
-4557 63 0
-4557 68 0
4558 -11 -27 -47 -84 0
-4558 11 0
-4558 27 0
-4558 47 0
-4558 84 0
4559 -11 -36 -47 -66 0
-4559 11 0
-4559 36 0
-4559 47 0
-4559 66 0
4560 -11 -39 -47 -63 0
-4560 11 0
-4560 39 0
-4560 47 0
-4560 63 0
4561 -14 -27 -44 -84 0
-4561 14 0
-4561 27 0
-4561 44 0
-4561 84 0
4562 -14 -36 -44 -66 0
-4562 14 0
-4562 36 0
-4562 44 0
-4562 66 0
4563 -14 -39 -44 -63 0
-4563 14 0
-4563 39 0
-4563 44 0
-4563 63 0
-4555 4556 4557 4558 4559 4560 4561 4562 4563 0
-4556 4555 4557 4558 4559 4560 4561 4562 4563 0
-4557 4555 4556 4558 4559 4560 4561 4562 4563 0
-4558 4555 4556 4557 4559 4560 4561 4562 4563 0
-4559 4555 4556 4557 4558 4560 4561 4562 4563 0
-4560 4555 4556 4557 4558 4559 4561 4562 4563 0
-4561 4555 4556 4557 4558 4559 4560 4562 4563 0
-4562 4555 4556 4557 4558 4559 4560 4561 4563 0
-4563 4555 4556 4557 4558 4559 4560 4561 4562 0
4564 -5 -27 -69 -82 0
-4564 5 0
-4564 27 0
-4564 69 0
-4564 82 0
4565 -5 -30 -60 -82 0
-4565 5 0
-4565 30 0
-4565 60 0
-4565 82 0
4566 -5 -33 -57 -82 0
-4566 5 0
-4566 33 0
-4566 57 0
-4566 82 0
-4564 4565 4566 0
-4565 4564 4566 0
-4566 4564 4565 0
4567 -5 -27 -69 -83 0
-4567 5 0
-4567 27 0
-4567 69 0
-4567 83 0
4568 -5 -30 -60 -83 0
-4568 5 0
-4568 30 0
-4568 60 0
-4568 83 0
4569 -5 -33 -57 -83 0
-4569 5 0
-4569 33 0
-4569 57 0
-4569 83 0
4570 -17 -27 -53 -69 0
-4570 17 0
-4570 27 0
-4570 53 0
-4570 69 0
4571 -17 -30 -53 -60 0
-4571 17 0
-4571 30 0
-4571 53 0
-4571 60 0
4572 -17 -33 -53 -57 0
-4572 17 0
-4572 33 0
-4572 53 0
-4572 57 0
4573 -20 -27 -50 -69 0
-4573 20 0
-4573 27 0
-4573 50 0
-4573 69 0
4574 -20 -30 -50 -60 0
-4574 20 0
-4574 30 0
-4574 50 0
-4574 60 0
4575 -20 -33 -50 -57 0
-4575 20 0
-4575 33 0
-4575 50 0
-4575 57 0
-4567 4568 4569 4570 4571 4572 4573 4574 4575 0
-4568 4567 4569 4570 4571 4572 4573 4574 4575 0
-4569 4567 4568 4570 4571 4572 4573 4574 4575 0
-4570 4567 4568 4569 4571 4572 4573 4574 4575 0
-4571 4567 4568 4569 4570 4572 4573 4574 4575 0
-4572 4567 4568 4569 4570 4571 4573 4574 4575 0
-4573 4567 4568 4569 4570 4571 4572 4574 4575 0
-4574 4567 4568 4569 4570 4571 4572 4573 4575 0
-4575 4567 4568 4569 4570 4571 4572 4573 4574 0
4576 -5 -27 -69 -84 0
-4576 5 0
-4576 27 0
-4576 69 0
-4576 84 0
4577 -5 -27 -72 -81 0
-4577 5 0
-4577 27 0
-4577 72 0
-4577 81 0
4578 -5 -27 -75 -78 0
-4578 5 0
-4578 27 0
-4578 75 0
-4578 78 0
4579 -5 -30 -60 -84 0
-4579 5 0
-4579 30 0
-4579 60 0
-4579 84 0
4580 -5 -30 -63 -81 0
-4580 5 0
-4580 30 0
-4580 63 0
-4580 81 0
4581 -5 -30 -66 -78 0
-4581 5 0
-4581 30 0
-4581 66 0
-4581 78 0
4582 -5 -33 -57 -84 0
-4582 5 0
-4582 33 0
-4582 57 0
-4582 84 0
4583 -5 -33 -63 -75 0
-4583 5 0
-4583 33 0
-4583 63 0
-4583 75 0
4584 -5 -33 -66 -72 0
-4584 5 0
-4584 33 0
-4584 66 0
-4584 72 0
4585 -5 -36 -57 -81 0
-4585 5 0
-4585 36 0
-4585 57 0
-4585 81 0
4586 -5 -36 -60 -75 0
-4586 5 0
-4586 36 0
-4586 60 0
-4586 75 0
4587 -5 -36 -66 -69 0
-4587 5 0
-4587 36 0
-4587 66 0
-4587 69 0
4588 -5 -39 -57 -78 0
-4588 5 0
-4588 39 0
-4588 57 0
-4588 78 0
4589 -5 -39 -60 -72 0
-4589 5 0
-4589 39 0
-4589 60 0
-4589 72 0
4590 -5 -39 -63 -69 0
-4590 5 0
-4590 39 0
-4590 63 0
-4590 69 0
-4576 4577 4578 4579 4580 4581 4582 4583 4584 4585 4586 4587 4588 4589 4590 0
-4577 4576 4578 4579 4580 4581 4582 4583 4584 4585 4586 4587 4588 4589 4590 0
-4578 4576 4577 4579 4580 4581 4582 4583 4584 4585 4586 4587 4588 4589 4590 0
-4579 4576 4577 4578 4580 4581 4582 4583 4584 4585 4586 4587 4588 4589 4590 0
-4580 4576 4577 4578 4579 4581 4582 4583 4584 4585 4586 4587 4588 4589 4590 0
-4581 4576 4577 4578 4579 4580 4582 4583 4584 4585 4586 4587 4588 4589 4590 0
-4582 4576 4577 4578 4579 4580 4581 4583 4584 4585 4586 4587 4588 4589 4590 0
-4583 4576 4577 4578 4579 4580 4581 4582 4584 4585 4586 4587 4588 4589 4590 0
-4584 4576 4577 4578 4579 4580 4581 4582 4583 4585 4586 4587 4588 4589 4590 0
-4585 4576 4577 4578 4579 4580 4581 4582 4583 4584 4586 4587 4588 4589 4590 0
-4586 4576 4577 4578 4579 4580 4581 4582 4583 4584 4585 4587 4588 4589 4590 0
-4587 4576 4577 4578 4579 4580 4581 4582 4583 4584 4585 4586 4588 4589 4590 0
-4588 4576 4577 4578 4579 4580 4581 4582 4583 4584 4585 4586 4587 4589 4590 0
-4589 4576 4577 4578 4579 4580 4581 4582 4583 4584 4585 4586 4587 4588 4590 0
-4590 4576 4577 4578 4579 4580 4581 4582 4583 4584 4585 4586 4587 4588 4589 0
4591 -6 -25 -67 -82 0
-4591 6 0
-4591 25 0
-4591 67 0
-4591 82 0
4592 -6 -25 -70 -79 0
-4592 6 0
-4592 25 0
-4592 70 0
-4592 79 0
4593 -6 -25 -73 -76 0
-4593 6 0
-4593 25 0
-4593 73 0
-4593 76 0
4594 -6 -28 -58 -82 0
-4594 6 0
-4594 28 0
-4594 58 0
-4594 82 0
4595 -6 -28 -61 -79 0
-4595 6 0
-4595 28 0
-4595 61 0
-4595 79 0
4596 -6 -28 -64 -76 0
-4596 6 0
-4596 28 0
-4596 64 0
-4596 76 0
4597 -6 -31 -55 -82 0
-4597 6 0
-4597 31 0
-4597 55 0
-4597 82 0
4598 -6 -31 -61 -73 0
-4598 6 0
-4598 31 0
-4598 61 0
-4598 73 0
4599 -6 -31 -64 -70 0
-4599 6 0
-4599 31 0
-4599 64 0
-4599 70 0
4600 -6 -34 -55 -79 0
-4600 6 0
-4600 34 0
-4600 55 0
-4600 79 0
4601 -6 -34 -58 -73 0
-4601 6 0
-4601 34 0
-4601 58 0
-4601 73 0
4602 -6 -34 -64 -67 0
-4602 6 0
-4602 34 0
-4602 64 0
-4602 67 0
4603 -6 -37 -55 -76 0
-4603 6 0
-4603 37 0
-4603 55 0
-4603 76 0
4604 -6 -37 -58 -70 0
-4604 6 0
-4604 37 0
-4604 58 0
-4604 70 0
4605 -6 -37 -61 -67 0
-4605 6 0
-4605 37 0
-4605 61 0
-4605 67 0
-4591 4592 4593 4594 4595 4596 4597 4598 4599 4600 4601 4602 4603 4604 4605 0
-4592 4591 4593 4594 4595 4596 4597 4598 4599 4600 4601 4602 4603 4604 4605 0
-4593 4591 4592 4594 4595 4596 4597 4598 4599 4600 4601 4602 4603 4604 4605 0
-4594 4591 4592 4593 4595 4596 4597 4598 4599 4600 4601 4602 4603 4604 4605 0
-4595 4591 4592 4593 4594 4596 4597 4598 4599 4600 4601 4602 4603 4604 4605 0
-4596 4591 4592 4593 4594 4595 4597 4598 4599 4600 4601 4602 4603 4604 4605 0
-4597 4591 4592 4593 4594 4595 4596 4598 4599 4600 4601 4602 4603 4604 4605 0
-4598 4591 4592 4593 4594 4595 4596 4597 4599 4600 4601 4602 4603 4604 4605 0
-4599 4591 4592 4593 4594 4595 4596 4597 4598 4600 4601 4602 4603 4604 4605 0
-4600 4591 4592 4593 4594 4595 4596 4597 4598 4599 4601 4602 4603 4604 4605 0
-4601 4591 4592 4593 4594 4595 4596 4597 4598 4599 4600 4602 4603 4604 4605 0
-4602 4591 4592 4593 4594 4595 4596 4597 4598 4599 4600 4601 4603 4604 4605 0
-4603 4591 4592 4593 4594 4595 4596 4597 4598 4599 4600 4601 4602 4604 4605 0
-4604 4591 4592 4593 4594 4595 4596 4597 4598 4599 4600 4601 4602 4603 4605 0
-4605 4591 4592 4593 4594 4595 4596 4597 4598 4599 4600 4601 4602 4603 4604 0
4606 -6 -25 -67 -83 0
-4606 6 0
-4606 25 0
-4606 67 0
-4606 83 0
4607 -6 -28 -58 -83 0
-4607 6 0
-4607 28 0
-4607 58 0
-4607 83 0
4608 -6 -31 -55 -83 0
-4608 6 0
-4608 31 0
-4608 55 0
-4608 83 0
-4606 4607 4608 0
-4607 4606 4608 0
-4608 4606 4607 0
4609 -6 -25 -67 -84 0
-4609 6 0
-4609 25 0
-4609 67 0
-4609 84 0
4610 -6 -28 -58 -84 0
-4610 6 0
-4610 28 0
-4610 58 0
-4610 84 0
4611 -6 -31 -55 -84 0
-4611 6 0
-4611 31 0
-4611 55 0
-4611 84 0
4612 -18 -25 -54 -67 0
-4612 18 0
-4612 25 0
-4612 54 0
-4612 67 0
4613 -18 -28 -54 -58 0
-4613 18 0
-4613 28 0
-4613 54 0
-4613 58 0
4614 -18 -31 -54 -55 0
-4614 18 0
-4614 31 0
-4614 54 0
-4614 55 0
4615 -21 -25 -51 -67 0
-4615 21 0
-4615 25 0
-4615 51 0
-4615 67 0
4616 -21 -28 -51 -58 0
-4616 21 0
-4616 28 0
-4616 51 0
-4616 58 0
4617 -21 -31 -51 -55 0
-4617 21 0
-4617 31 0
-4617 51 0
-4617 55 0
-4609 4610 4611 4612 4613 4614 4615 4616 4617 0
-4610 4609 4611 4612 4613 4614 4615 4616 4617 0
-4611 4609 4610 4612 4613 4614 4615 4616 4617 0
-4612 4609 4610 4611 4613 4614 4615 4616 4617 0
-4613 4609 4610 4611 4612 4614 4615 4616 4617 0
-4614 4609 4610 4611 4612 4613 4615 4616 4617 0
-4615 4609 4610 4611 4612 4613 4614 4616 4617 0
-4616 4609 4610 4611 4612 4613 4614 4615 4617 0
-4617 4609 4610 4611 4612 4613 4614 4615 4616 0
4618 -6 -25 -68 -82 0
-4618 6 0
-4618 25 0
-4618 68 0
-4618 82 0
4619 -6 -34 -64 -68 0
-4619 6 0
-4619 34 0
-4619 64 0
-4619 68 0
4620 -6 -37 -61 -68 0
-4620 6 0
-4620 37 0
-4620 61 0
-4620 68 0
-4618 4619 4620 0
-4619 4618 4620 0
-4620 4618 4619 0
4621 -6 -25 -68 -83 0
-4621 6 0
-4621 25 0
-4621 68 0
-4621 83 0
4622 -6 -25 -71 -80 0
-4622 6 0
-4622 25 0
-4622 71 0
-4622 80 0
4623 -6 -25 -74 -77 0
-4623 6 0
-4623 25 0
-4623 74 0
-4623 77 0
-4621 4622 4623 0
-4622 4621 4623 0
-4623 4621 4622 0
4624 -6 -25 -68 -84 0
-4624 6 0
-4624 25 0
-4624 68 0
-4624 84 0
4625 -18 -25 -54 -68 0
-4625 18 0
-4625 25 0
-4625 54 0
-4625 68 0
4626 -21 -25 -51 -68 0
-4626 21 0
-4626 25 0
-4626 51 0
-4626 68 0
-4624 4625 4626 0
-4625 4624 4626 0
-4626 4624 4625 0
4627 -6 -25 -69 -82 0
-4627 6 0
-4627 25 0
-4627 69 0
-4627 82 0
4628 -6 -34 -64 -69 0
-4628 6 0
-4628 34 0
-4628 64 0
-4628 69 0
4629 -6 -37 -61 -69 0
-4629 6 0
-4629 37 0
-4629 61 0
-4629 69 0
4630 -12 -25 -48 -82 0
-4630 12 0
-4630 25 0
-4630 48 0
-4630 82 0
4631 -12 -34 -48 -64 0
-4631 12 0
-4631 34 0
-4631 48 0
-4631 64 0
4632 -12 -37 -48 -61 0
-4632 12 0
-4632 37 0
-4632 48 0
-4632 61 0
4633 -15 -25 -45 -82 0
-4633 15 0
-4633 25 0
-4633 45 0
-4633 82 0
4634 -15 -34 -45 -64 0
-4634 15 0
-4634 34 0
-4634 45 0
-4634 64 0
4635 -15 -37 -45 -61 0
-4635 15 0
-4635 37 0
-4635 45 0
-4635 61 0
-4627 4628 4629 4630 4631 4632 4633 4634 4635 0
-4628 4627 4629 4630 4631 4632 4633 4634 4635 0
-4629 4627 4628 4630 4631 4632 4633 4634 4635 0
-4630 4627 4628 4629 4631 4632 4633 4634 4635 0
-4631 4627 4628 4629 4630 4632 4633 4634 4635 0
-4632 4627 4628 4629 4630 4631 4633 4634 4635 0
-4633 4627 4628 4629 4630 4631 4632 4634 4635 0
-4634 4627 4628 4629 4630 4631 4632 4633 4635 0
-4635 4627 4628 4629 4630 4631 4632 4633 4634 0
4636 -6 -25 -69 -83 0
-4636 6 0
-4636 25 0
-4636 69 0
-4636 83 0
4637 -12 -25 -48 -83 0
-4637 12 0
-4637 25 0
-4637 48 0
-4637 83 0
4638 -15 -25 -45 -83 0
-4638 15 0
-4638 25 0
-4638 45 0
-4638 83 0
-4636 4637 4638 0
-4637 4636 4638 0
-4638 4636 4637 0
4639 -6 -25 -69 -84 0
-4639 6 0
-4639 25 0
-4639 69 0
-4639 84 0
4640 -6 -25 -72 -81 0
-4640 6 0
-4640 25 0
-4640 72 0
-4640 81 0
4641 -6 -25 -75 -78 0
-4641 6 0
-4641 25 0
-4641 75 0
-4641 78 0
4642 -12 -25 -48 -84 0
-4642 12 0
-4642 25 0
-4642 48 0
-4642 84 0
4643 -12 -25 -51 -81 0
-4643 12 0
-4643 25 0
-4643 51 0
-4643 81 0
4644 -12 -25 -54 -78 0
-4644 12 0
-4644 25 0
-4644 54 0
-4644 78 0
4645 -15 -25 -45 -84 0
-4645 15 0
-4645 25 0
-4645 45 0
-4645 84 0
4646 -15 -25 -51 -75 0
-4646 15 0
-4646 25 0
-4646 51 0
-4646 75 0
4647 -15 -25 -54 -72 0
-4647 15 0
-4647 25 0
-4647 54 0
-4647 72 0
4648 -18 -25 -45 -81 0
-4648 18 0
-4648 25 0
-4648 45 0
-4648 81 0
4649 -18 -25 -48 -75 0
-4649 18 0
-4649 25 0
-4649 48 0
-4649 75 0
4650 -18 -25 -54 -69 0
-4650 18 0
-4650 25 0
-4650 54 0
-4650 69 0
4651 -21 -25 -45 -78 0
-4651 21 0
-4651 25 0
-4651 45 0
-4651 78 0
4652 -21 -25 -48 -72 0
-4652 21 0
-4652 25 0
-4652 48 0
-4652 72 0
4653 -21 -25 -51 -69 0
-4653 21 0
-4653 25 0
-4653 51 0
-4653 69 0
-4639 4640 4641 4642 4643 4644 4645 4646 4647 4648 4649 4650 4651 4652 4653 0
-4640 4639 4641 4642 4643 4644 4645 4646 4647 4648 4649 4650 4651 4652 4653 0
-4641 4639 4640 4642 4643 4644 4645 4646 4647 4648 4649 4650 4651 4652 4653 0
-4642 4639 4640 4641 4643 4644 4645 4646 4647 4648 4649 4650 4651 4652 4653 0
-4643 4639 4640 4641 4642 4644 4645 4646 4647 4648 4649 4650 4651 4652 4653 0
-4644 4639 4640 4641 4642 4643 4645 4646 4647 4648 4649 4650 4651 4652 4653 0
-4645 4639 4640 4641 4642 4643 4644 4646 4647 4648 4649 4650 4651 4652 4653 0
-4646 4639 4640 4641 4642 4643 4644 4645 4647 4648 4649 4650 4651 4652 4653 0
-4647 4639 4640 4641 4642 4643 4644 4645 4646 4648 4649 4650 4651 4652 4653 0
-4648 4639 4640 4641 4642 4643 4644 4645 4646 4647 4649 4650 4651 4652 4653 0
-4649 4639 4640 4641 4642 4643 4644 4645 4646 4647 4648 4650 4651 4652 4653 0
-4650 4639 4640 4641 4642 4643 4644 4645 4646 4647 4648 4649 4651 4652 4653 0
-4651 4639 4640 4641 4642 4643 4644 4645 4646 4647 4648 4649 4650 4652 4653 0
-4652 4639 4640 4641 4642 4643 4644 4645 4646 4647 4648 4649 4650 4651 4653 0
-4653 4639 4640 4641 4642 4643 4644 4645 4646 4647 4648 4649 4650 4651 4652 0
4654 -6 -26 -67 -82 0
-4654 6 0
-4654 26 0
-4654 67 0
-4654 82 0
4655 -6 -26 -70 -79 0
-4655 6 0
-4655 26 0
-4655 70 0
-4655 79 0
4656 -6 -26 -73 -76 0
-4656 6 0
-4656 26 0
-4656 73 0
-4656 76 0
-4654 4655 4656 0
-4655 4654 4656 0
-4656 4654 4655 0
4657 -6 -26 -67 -83 0
-4657 6 0
-4657 26 0
-4657 67 0
-4657 83 0
4658 -6 -35 -65 -67 0
-4658 6 0
-4658 35 0
-4658 65 0
-4658 67 0
4659 -6 -38 -62 -67 0
-4659 6 0
-4659 38 0
-4659 62 0
-4659 67 0
-4657 4658 4659 0
-4658 4657 4659 0
-4659 4657 4658 0
4660 -6 -26 -67 -84 0
-4660 6 0
-4660 26 0
-4660 67 0
-4660 84 0
4661 -18 -26 -54 -67 0
-4661 18 0
-4661 26 0
-4661 54 0
-4661 67 0
4662 -21 -26 -51 -67 0
-4662 21 0
-4662 26 0
-4662 51 0
-4662 67 0
-4660 4661 4662 0
-4661 4660 4662 0
-4662 4660 4661 0
4663 -6 -26 -68 -82 0
-4663 6 0
-4663 26 0
-4663 68 0
-4663 82 0
4664 -6 -29 -59 -82 0
-4664 6 0
-4664 29 0
-4664 59 0
-4664 82 0
4665 -6 -32 -56 -82 0
-4665 6 0
-4665 32 0
-4665 56 0
-4665 82 0
-4663 4664 4665 0
-4664 4663 4665 0
-4665 4663 4664 0
4666 -6 -26 -68 -83 0
-4666 6 0
-4666 26 0
-4666 68 0
-4666 83 0
4667 -6 -26 -71 -80 0
-4667 6 0
-4667 26 0
-4667 71 0
-4667 80 0
4668 -6 -26 -74 -77 0
-4668 6 0
-4668 26 0
-4668 74 0
-4668 77 0
4669 -6 -29 -59 -83 0
-4669 6 0
-4669 29 0
-4669 59 0
-4669 83 0
4670 -6 -29 -62 -80 0
-4670 6 0
-4670 29 0
-4670 62 0
-4670 80 0
4671 -6 -29 -65 -77 0
-4671 6 0
-4671 29 0
-4671 65 0
-4671 77 0
4672 -6 -32 -56 -83 0
-4672 6 0
-4672 32 0
-4672 56 0
-4672 83 0
4673 -6 -32 -62 -74 0
-4673 6 0
-4673 32 0
-4673 62 0
-4673 74 0
4674 -6 -32 -65 -71 0
-4674 6 0
-4674 32 0
-4674 65 0
-4674 71 0
4675 -6 -35 -56 -80 0
-4675 6 0
-4675 35 0
-4675 56 0
-4675 80 0
4676 -6 -35 -59 -74 0
-4676 6 0
-4676 35 0
-4676 59 0
-4676 74 0
4677 -6 -35 -65 -68 0
-4677 6 0
-4677 35 0
-4677 65 0
-4677 68 0
4678 -6 -38 -56 -77 0
-4678 6 0
-4678 38 0
-4678 56 0
-4678 77 0
4679 -6 -38 -59 -71 0
-4679 6 0
-4679 38 0
-4679 59 0
-4679 71 0
4680 -6 -38 -62 -68 0
-4680 6 0
-4680 38 0
-4680 62 0
-4680 68 0
-4666 4667 4668 4669 4670 4671 4672 4673 4674 4675 4676 4677 4678 4679 4680 0
-4667 4666 4668 4669 4670 4671 4672 4673 4674 4675 4676 4677 4678 4679 4680 0
-4668 4666 4667 4669 4670 4671 4672 4673 4674 4675 4676 4677 4678 4679 4680 0
-4669 4666 4667 4668 4670 4671 4672 4673 4674 4675 4676 4677 4678 4679 4680 0
-4670 4666 4667 4668 4669 4671 4672 4673 4674 4675 4676 4677 4678 4679 4680 0
-4671 4666 4667 4668 4669 4670 4672 4673 4674 4675 4676 4677 4678 4679 4680 0
-4672 4666 4667 4668 4669 4670 4671 4673 4674 4675 4676 4677 4678 4679 4680 0
-4673 4666 4667 4668 4669 4670 4671 4672 4674 4675 4676 4677 4678 4679 4680 0
-4674 4666 4667 4668 4669 4670 4671 4672 4673 4675 4676 4677 4678 4679 4680 0
-4675 4666 4667 4668 4669 4670 4671 4672 4673 4674 4676 4677 4678 4679 4680 0
-4676 4666 4667 4668 4669 4670 4671 4672 4673 4674 4675 4677 4678 4679 4680 0
-4677 4666 4667 4668 4669 4670 4671 4672 4673 4674 4675 4676 4678 4679 4680 0
-4678 4666 4667 4668 4669 4670 4671 4672 4673 4674 4675 4676 4677 4679 4680 0
-4679 4666 4667 4668 4669 4670 4671 4672 4673 4674 4675 4676 4677 4678 4680 0
-4680 4666 4667 4668 4669 4670 4671 4672 4673 4674 4675 4676 4677 4678 4679 0
4681 -6 -26 -68 -84 0
-4681 6 0
-4681 26 0
-4681 68 0
-4681 84 0
4682 -6 -29 -59 -84 0
-4682 6 0
-4682 29 0
-4682 59 0
-4682 84 0
4683 -6 -32 -56 -84 0
-4683 6 0
-4683 32 0
-4683 56 0
-4683 84 0
4684 -18 -26 -54 -68 0
-4684 18 0
-4684 26 0
-4684 54 0
-4684 68 0
4685 -18 -29 -54 -59 0
-4685 18 0
-4685 29 0
-4685 54 0
-4685 59 0
4686 -18 -32 -54 -56 0
-4686 18 0
-4686 32 0
-4686 54 0
-4686 56 0
4687 -21 -26 -51 -68 0
-4687 21 0
-4687 26 0
-4687 51 0
-4687 68 0
4688 -21 -29 -51 -59 0
-4688 21 0
-4688 29 0
-4688 51 0
-4688 59 0
4689 -21 -32 -51 -56 0
-4689 21 0
-4689 32 0
-4689 51 0
-4689 56 0
-4681 4682 4683 4684 4685 4686 4687 4688 4689 0
-4682 4681 4683 4684 4685 4686 4687 4688 4689 0
-4683 4681 4682 4684 4685 4686 4687 4688 4689 0
-4684 4681 4682 4683 4685 4686 4687 4688 4689 0
-4685 4681 4682 4683 4684 4686 4687 4688 4689 0
-4686 4681 4682 4683 4684 4685 4687 4688 4689 0
-4687 4681 4682 4683 4684 4685 4686 4688 4689 0
-4688 4681 4682 4683 4684 4685 4686 4687 4689 0
-4689 4681 4682 4683 4684 4685 4686 4687 4688 0
4690 -6 -26 -69 -82 0
-4690 6 0
-4690 26 0
-4690 69 0
-4690 82 0
4691 -12 -26 -48 -82 0
-4691 12 0
-4691 26 0
-4691 48 0
-4691 82 0
4692 -15 -26 -45 -82 0
-4692 15 0
-4692 26 0
-4692 45 0
-4692 82 0
-4690 4691 4692 0
-4691 4690 4692 0
-4692 4690 4691 0
4693 -6 -26 -69 -83 0
-4693 6 0
-4693 26 0
-4693 69 0
-4693 83 0
4694 -6 -35 -65 -69 0
-4694 6 0
-4694 35 0
-4694 65 0
-4694 69 0
4695 -6 -38 -62 -69 0
-4695 6 0
-4695 38 0
-4695 62 0
-4695 69 0
4696 -12 -26 -48 -83 0
-4696 12 0
-4696 26 0
-4696 48 0
-4696 83 0
4697 -12 -35 -48 -65 0
-4697 12 0
-4697 35 0
-4697 48 0
-4697 65 0
4698 -12 -38 -48 -62 0
-4698 12 0
-4698 38 0
-4698 48 0
-4698 62 0
4699 -15 -26 -45 -83 0
-4699 15 0
-4699 26 0
-4699 45 0
-4699 83 0
4700 -15 -35 -45 -65 0
-4700 15 0
-4700 35 0
-4700 45 0
-4700 65 0
4701 -15 -38 -45 -62 0
-4701 15 0
-4701 38 0
-4701 45 0
-4701 62 0
-4693 4694 4695 4696 4697 4698 4699 4700 4701 0
-4694 4693 4695 4696 4697 4698 4699 4700 4701 0
-4695 4693 4694 4696 4697 4698 4699 4700 4701 0
-4696 4693 4694 4695 4697 4698 4699 4700 4701 0
-4697 4693 4694 4695 4696 4698 4699 4700 4701 0
-4698 4693 4694 4695 4696 4697 4699 4700 4701 0
-4699 4693 4694 4695 4696 4697 4698 4700 4701 0
-4700 4693 4694 4695 4696 4697 4698 4699 4701 0
-4701 4693 4694 4695 4696 4697 4698 4699 4700 0
4702 -6 -26 -69 -84 0
-4702 6 0
-4702 26 0
-4702 69 0
-4702 84 0
4703 -6 -26 -72 -81 0
-4703 6 0
-4703 26 0
-4703 72 0
-4703 81 0
4704 -6 -26 -75 -78 0
-4704 6 0
-4704 26 0
-4704 75 0
-4704 78 0
4705 -12 -26 -48 -84 0
-4705 12 0
-4705 26 0
-4705 48 0
-4705 84 0
4706 -12 -26 -51 -81 0
-4706 12 0
-4706 26 0
-4706 51 0
-4706 81 0
4707 -12 -26 -54 -78 0
-4707 12 0
-4707 26 0
-4707 54 0
-4707 78 0
4708 -15 -26 -45 -84 0
-4708 15 0
-4708 26 0
-4708 45 0
-4708 84 0
4709 -15 -26 -51 -75 0
-4709 15 0
-4709 26 0
-4709 51 0
-4709 75 0
4710 -15 -26 -54 -72 0
-4710 15 0
-4710 26 0
-4710 54 0
-4710 72 0
4711 -18 -26 -45 -81 0
-4711 18 0
-4711 26 0
-4711 45 0
-4711 81 0
4712 -18 -26 -48 -75 0
-4712 18 0
-4712 26 0
-4712 48 0
-4712 75 0
4713 -18 -26 -54 -69 0
-4713 18 0
-4713 26 0
-4713 54 0
-4713 69 0
4714 -21 -26 -45 -78 0
-4714 21 0
-4714 26 0
-4714 45 0
-4714 78 0
4715 -21 -26 -48 -72 0
-4715 21 0
-4715 26 0
-4715 48 0
-4715 72 0
4716 -21 -26 -51 -69 0
-4716 21 0
-4716 26 0
-4716 51 0
-4716 69 0
-4702 4703 4704 4705 4706 4707 4708 4709 4710 4711 4712 4713 4714 4715 4716 0
-4703 4702 4704 4705 4706 4707 4708 4709 4710 4711 4712 4713 4714 4715 4716 0
-4704 4702 4703 4705 4706 4707 4708 4709 4710 4711 4712 4713 4714 4715 4716 0
-4705 4702 4703 4704 4706 4707 4708 4709 4710 4711 4712 4713 4714 4715 4716 0
-4706 4702 4703 4704 4705 4707 4708 4709 4710 4711 4712 4713 4714 4715 4716 0
-4707 4702 4703 4704 4705 4706 4708 4709 4710 4711 4712 4713 4714 4715 4716 0
-4708 4702 4703 4704 4705 4706 4707 4709 4710 4711 4712 4713 4714 4715 4716 0
-4709 4702 4703 4704 4705 4706 4707 4708 4710 4711 4712 4713 4714 4715 4716 0
-4710 4702 4703 4704 4705 4706 4707 4708 4709 4711 4712 4713 4714 4715 4716 0
-4711 4702 4703 4704 4705 4706 4707 4708 4709 4710 4712 4713 4714 4715 4716 0
-4712 4702 4703 4704 4705 4706 4707 4708 4709 4710 4711 4713 4714 4715 4716 0
-4713 4702 4703 4704 4705 4706 4707 4708 4709 4710 4711 4712 4714 4715 4716 0
-4714 4702 4703 4704 4705 4706 4707 4708 4709 4710 4711 4712 4713 4715 4716 0
-4715 4702 4703 4704 4705 4706 4707 4708 4709 4710 4711 4712 4713 4714 4716 0
-4716 4702 4703 4704 4705 4706 4707 4708 4709 4710 4711 4712 4713 4714 4715 0
4717 -4 -26 -70 -80 0
-4717 4 0
-4717 26 0
-4717 70 0
-4717 80 0
4718 -4 -32 -65 -70 0
-4718 4 0
-4718 32 0
-4718 65 0
-4718 70 0
4719 -4 -38 -59 -70 0
-4719 4 0
-4719 38 0
-4719 59 0
-4719 70 0
4720 -10 -26 -49 -80 0
-4720 10 0
-4720 26 0
-4720 49 0
-4720 80 0
4721 -10 -32 -49 -65 0
-4721 10 0
-4721 32 0
-4721 49 0
-4721 65 0
4722 -10 -38 -49 -59 0
-4722 10 0
-4722 38 0
-4722 49 0
-4722 59 0
4723 -16 -26 -43 -80 0
-4723 16 0
-4723 26 0
-4723 43 0
-4723 80 0
4724 -16 -32 -43 -65 0
-4724 16 0
-4724 32 0
-4724 43 0
-4724 65 0
4725 -16 -38 -43 -59 0
-4725 16 0
-4725 38 0
-4725 43 0
-4725 59 0
-4717 4718 4719 4720 4721 4722 4723 4724 4725 0
-4718 4717 4719 4720 4721 4722 4723 4724 4725 0
-4719 4717 4718 4720 4721 4722 4723 4724 4725 0
-4720 4717 4718 4719 4721 4722 4723 4724 4725 0
-4721 4717 4718 4719 4720 4722 4723 4724 4725 0
-4722 4717 4718 4719 4720 4721 4723 4724 4725 0
-4723 4717 4718 4719 4720 4721 4722 4724 4725 0
-4724 4717 4718 4719 4720 4721 4722 4723 4725 0
-4725 4717 4718 4719 4720 4721 4722 4723 4724 0
4726 -4 -26 -70 -81 0
-4726 4 0
-4726 26 0
-4726 70 0
-4726 81 0
4727 -10 -26 -49 -81 0
-4727 10 0
-4727 26 0
-4727 49 0
-4727 81 0
4728 -16 -26 -43 -81 0
-4728 16 0
-4728 26 0
-4728 43 0
-4728 81 0
-4726 4727 4728 0
-4727 4726 4728 0
-4728 4726 4727 0
4729 -4 -26 -71 -79 0
-4729 4 0
-4729 26 0
-4729 71 0
-4729 79 0
4730 -4 -29 -62 -79 0
-4730 4 0
-4730 29 0
-4730 62 0
-4730 79 0
4731 -4 -35 -56 -79 0
-4731 4 0
-4731 35 0
-4731 56 0
-4731 79 0
4732 -13 -26 -52 -71 0
-4732 13 0
-4732 26 0
-4732 52 0
-4732 71 0
4733 -13 -29 -52 -62 0
-4733 13 0
-4733 29 0
-4733 52 0
-4733 62 0
4734 -13 -35 -52 -56 0
-4734 13 0
-4734 35 0
-4734 52 0
-4734 56 0
4735 -19 -26 -46 -71 0
-4735 19 0
-4735 26 0
-4735 46 0
-4735 71 0
4736 -19 -29 -46 -62 0
-4736 19 0
-4736 29 0
-4736 46 0
-4736 62 0
4737 -19 -35 -46 -56 0
-4737 19 0
-4737 35 0
-4737 46 0
-4737 56 0
-4729 4730 4731 4732 4733 4734 4735 4736 4737 0
-4730 4729 4731 4732 4733 4734 4735 4736 4737 0
-4731 4729 4730 4732 4733 4734 4735 4736 4737 0
-4732 4729 4730 4731 4733 4734 4735 4736 4737 0
-4733 4729 4730 4731 4732 4734 4735 4736 4737 0
-4734 4729 4730 4731 4732 4733 4735 4736 4737 0
-4735 4729 4730 4731 4732 4733 4734 4736 4737 0
-4736 4729 4730 4731 4732 4733 4734 4735 4737 0
-4737 4729 4730 4731 4732 4733 4734 4735 4736 0
4738 -4 -26 -71 -81 0
-4738 4 0
-4738 26 0
-4738 71 0
-4738 81 0
4739 -4 -29 -62 -81 0
-4739 4 0
-4739 29 0
-4739 62 0
-4739 81 0
4740 -4 -35 -56 -81 0
-4740 4 0
-4740 35 0
-4740 56 0
-4740 81 0
-4738 4739 4740 0
-4739 4738 4740 0
-4740 4738 4739 0
4741 -4 -26 -72 -79 0
-4741 4 0
-4741 26 0
-4741 72 0
-4741 79 0
4742 -13 -26 -52 -72 0
-4742 13 0
-4742 26 0
-4742 52 0
-4742 72 0
4743 -19 -26 -46 -72 0
-4743 19 0
-4743 26 0
-4743 46 0
-4743 72 0
-4741 4742 4743 0
-4742 4741 4743 0
-4743 4741 4742 0
4744 -4 -26 -72 -80 0
-4744 4 0
-4744 26 0
-4744 72 0
-4744 80 0
4745 -4 -32 -65 -72 0
-4745 4 0
-4745 32 0
-4745 65 0
-4745 72 0
4746 -4 -38 -59 -72 0
-4746 4 0
-4746 38 0
-4746 59 0
-4746 72 0
-4744 4745 4746 0
-4745 4744 4746 0
-4746 4744 4745 0
4747 -4 -27 -70 -80 0
-4747 4 0
-4747 27 0
-4747 70 0
-4747 80 0
4748 -10 -27 -49 -80 0
-4748 10 0
-4748 27 0
-4748 49 0
-4748 80 0
4749 -16 -27 -43 -80 0
-4749 16 0
-4749 27 0
-4749 43 0
-4749 80 0
-4747 4748 4749 0
-4748 4747 4749 0
-4749 4747 4748 0
4750 -4 -27 -70 -81 0
-4750 4 0
-4750 27 0
-4750 70 0
-4750 81 0
4751 -4 -33 -66 -70 0
-4751 4 0
-4751 33 0
-4751 66 0
-4751 70 0
4752 -4 -39 -60 -70 0
-4752 4 0
-4752 39 0
-4752 60 0
-4752 70 0
4753 -10 -27 -49 -81 0
-4753 10 0
-4753 27 0
-4753 49 0
-4753 81 0
4754 -10 -33 -49 -66 0
-4754 10 0
-4754 33 0
-4754 49 0
-4754 66 0
4755 -10 -39 -49 -60 0
-4755 10 0
-4755 39 0
-4755 49 0
-4755 60 0
4756 -16 -27 -43 -81 0
-4756 16 0
-4756 27 0
-4756 43 0
-4756 81 0
4757 -16 -33 -43 -66 0
-4757 16 0
-4757 33 0
-4757 43 0
-4757 66 0
4758 -16 -39 -43 -60 0
-4758 16 0
-4758 39 0
-4758 43 0
-4758 60 0
-4750 4751 4752 4753 4754 4755 4756 4757 4758 0
-4751 4750 4752 4753 4754 4755 4756 4757 4758 0
-4752 4750 4751 4753 4754 4755 4756 4757 4758 0
-4753 4750 4751 4752 4754 4755 4756 4757 4758 0
-4754 4750 4751 4752 4753 4755 4756 4757 4758 0
-4755 4750 4751 4752 4753 4754 4756 4757 4758 0
-4756 4750 4751 4752 4753 4754 4755 4757 4758 0
-4757 4750 4751 4752 4753 4754 4755 4756 4758 0
-4758 4750 4751 4752 4753 4754 4755 4756 4757 0
4759 -4 -27 -71 -79 0
-4759 4 0
-4759 27 0
-4759 71 0
-4759 79 0
4760 -13 -27 -52 -71 0
-4760 13 0
-4760 27 0
-4760 52 0
-4760 71 0
4761 -19 -27 -46 -71 0
-4761 19 0
-4761 27 0
-4761 46 0
-4761 71 0
-4759 4760 4761 0
-4760 4759 4761 0
-4761 4759 4760 0
4762 -4 -27 -71 -81 0
-4762 4 0
-4762 27 0
-4762 71 0
-4762 81 0
4763 -4 -33 -66 -71 0
-4763 4 0
-4763 33 0
-4763 66 0
-4763 71 0
4764 -4 -39 -60 -71 0
-4764 4 0
-4764 39 0
-4764 60 0
-4764 71 0
-4762 4763 4764 0
-4763 4762 4764 0
-4764 4762 4763 0
4765 -4 -27 -72 -79 0
-4765 4 0
-4765 27 0
-4765 72 0
-4765 79 0
4766 -4 -30 -63 -79 0
-4766 4 0
-4766 30 0
-4766 63 0
-4766 79 0
4767 -4 -36 -57 -79 0
-4767 4 0
-4767 36 0
-4767 57 0
-4767 79 0
4768 -13 -27 -52 -72 0
-4768 13 0
-4768 27 0
-4768 52 0
-4768 72 0
4769 -13 -30 -52 -63 0
-4769 13 0
-4769 30 0
-4769 52 0
-4769 63 0
4770 -13 -36 -52 -57 0
-4770 13 0
-4770 36 0
-4770 52 0
-4770 57 0
4771 -19 -27 -46 -72 0
-4771 19 0
-4771 27 0
-4771 46 0
-4771 72 0
4772 -19 -30 -46 -63 0
-4772 19 0
-4772 30 0
-4772 46 0
-4772 63 0
4773 -19 -36 -46 -57 0
-4773 19 0
-4773 36 0
-4773 46 0
-4773 57 0
-4765 4766 4767 4768 4769 4770 4771 4772 4773 0
-4766 4765 4767 4768 4769 4770 4771 4772 4773 0
-4767 4765 4766 4768 4769 4770 4771 4772 4773 0
-4768 4765 4766 4767 4769 4770 4771 4772 4773 0
-4769 4765 4766 4767 4768 4770 4771 4772 4773 0
-4770 4765 4766 4767 4768 4769 4771 4772 4773 0
-4771 4765 4766 4767 4768 4769 4770 4772 4773 0
-4772 4765 4766 4767 4768 4769 4770 4771 4773 0
-4773 4765 4766 4767 4768 4769 4770 4771 4772 0
4774 -4 -27 -72 -80 0
-4774 4 0
-4774 27 0
-4774 72 0
-4774 80 0
4775 -4 -30 -63 -80 0
-4775 4 0
-4775 30 0
-4775 63 0
-4775 80 0
4776 -4 -36 -57 -80 0
-4776 4 0
-4776 36 0
-4776 57 0
-4776 80 0
-4774 4775 4776 0
-4775 4774 4776 0
-4776 4774 4775 0
4777 -5 -25 -70 -80 0
-4777 5 0
-4777 25 0
-4777 70 0
-4777 80 0
4778 -5 -28 -61 -80 0
-4778 5 0
-4778 28 0
-4778 61 0
-4778 80 0
4779 -5 -34 -55 -80 0
-4779 5 0
-4779 34 0
-4779 55 0
-4779 80 0
4780 -14 -25 -53 -70 0
-4780 14 0
-4780 25 0
-4780 53 0
-4780 70 0
4781 -14 -28 -53 -61 0
-4781 14 0
-4781 28 0
-4781 53 0
-4781 61 0
4782 -14 -34 -53 -55 0
-4782 14 0
-4782 34 0
-4782 53 0
-4782 55 0
4783 -20 -25 -47 -70 0
-4783 20 0
-4783 25 0
-4783 47 0
-4783 70 0
4784 -20 -28 -47 -61 0
-4784 20 0
-4784 28 0
-4784 47 0
-4784 61 0
4785 -20 -34 -47 -55 0
-4785 20 0
-4785 34 0
-4785 47 0
-4785 55 0
-4777 4778 4779 4780 4781 4782 4783 4784 4785 0
-4778 4777 4779 4780 4781 4782 4783 4784 4785 0
-4779 4777 4778 4780 4781 4782 4783 4784 4785 0
-4780 4777 4778 4779 4781 4782 4783 4784 4785 0
-4781 4777 4778 4779 4780 4782 4783 4784 4785 0
-4782 4777 4778 4779 4780 4781 4783 4784 4785 0
-4783 4777 4778 4779 4780 4781 4782 4784 4785 0
-4784 4777 4778 4779 4780 4781 4782 4783 4785 0
-4785 4777 4778 4779 4780 4781 4782 4783 4784 0
4786 -5 -25 -70 -81 0
-4786 5 0
-4786 25 0
-4786 70 0
-4786 81 0
4787 -5 -28 -61 -81 0
-4787 5 0
-4787 28 0
-4787 61 0
-4787 81 0
4788 -5 -34 -55 -81 0
-4788 5 0
-4788 34 0
-4788 55 0
-4788 81 0
-4786 4787 4788 0
-4787 4786 4788 0
-4788 4786 4787 0
4789 -5 -25 -71 -79 0
-4789 5 0
-4789 25 0
-4789 71 0
-4789 79 0
4790 -5 -31 -64 -71 0
-4790 5 0
-4790 31 0
-4790 64 0
-4790 71 0
4791 -5 -37 -58 -71 0
-4791 5 0
-4791 37 0
-4791 58 0
-4791 71 0
4792 -11 -25 -50 -79 0
-4792 11 0
-4792 25 0
-4792 50 0
-4792 79 0
4793 -11 -31 -50 -64 0
-4793 11 0
-4793 31 0
-4793 50 0
-4793 64 0
4794 -11 -37 -50 -58 0
-4794 11 0
-4794 37 0
-4794 50 0
-4794 58 0
4795 -17 -25 -44 -79 0
-4795 17 0
-4795 25 0
-4795 44 0
-4795 79 0
4796 -17 -31 -44 -64 0
-4796 17 0
-4796 31 0
-4796 44 0
-4796 64 0
4797 -17 -37 -44 -58 0
-4797 17 0
-4797 37 0
-4797 44 0
-4797 58 0
-4789 4790 4791 4792 4793 4794 4795 4796 4797 0
-4790 4789 4791 4792 4793 4794 4795 4796 4797 0
-4791 4789 4790 4792 4793 4794 4795 4796 4797 0
-4792 4789 4790 4791 4793 4794 4795 4796 4797 0
-4793 4789 4790 4791 4792 4794 4795 4796 4797 0
-4794 4789 4790 4791 4792 4793 4795 4796 4797 0
-4795 4789 4790 4791 4792 4793 4794 4796 4797 0
-4796 4789 4790 4791 4792 4793 4794 4795 4797 0
-4797 4789 4790 4791 4792 4793 4794 4795 4796 0
4798 -5 -25 -71 -81 0
-4798 5 0
-4798 25 0
-4798 71 0
-4798 81 0
4799 -11 -25 -50 -81 0
-4799 11 0
-4799 25 0
-4799 50 0
-4799 81 0
4800 -17 -25 -44 -81 0
-4800 17 0
-4800 25 0
-4800 44 0
-4800 81 0
-4798 4799 4800 0
-4799 4798 4800 0
-4800 4798 4799 0
4801 -5 -25 -72 -79 0
-4801 5 0
-4801 25 0
-4801 72 0
-4801 79 0
4802 -5 -31 -64 -72 0
-4802 5 0
-4802 31 0
-4802 64 0
-4802 72 0
4803 -5 -37 -58 -72 0
-4803 5 0
-4803 37 0
-4803 58 0
-4803 72 0
-4801 4802 4803 0
-4802 4801 4803 0
-4803 4801 4802 0
4804 -5 -25 -72 -80 0
-4804 5 0
-4804 25 0
-4804 72 0
-4804 80 0
4805 -14 -25 -53 -72 0
-4805 14 0
-4805 25 0
-4805 53 0
-4805 72 0
4806 -20 -25 -47 -72 0
-4806 20 0
-4806 25 0
-4806 47 0
-4806 72 0
-4804 4805 4806 0
-4805 4804 4806 0
-4806 4804 4805 0
4807 -5 -27 -70 -80 0
-4807 5 0
-4807 27 0
-4807 70 0
-4807 80 0
4808 -14 -27 -53 -70 0
-4808 14 0
-4808 27 0
-4808 53 0
-4808 70 0
4809 -20 -27 -47 -70 0
-4809 20 0
-4809 27 0
-4809 47 0
-4809 70 0
-4807 4808 4809 0
-4808 4807 4809 0
-4809 4807 4808 0
4810 -5 -27 -70 -81 0
-4810 5 0
-4810 27 0
-4810 70 0
-4810 81 0
4811 -5 -33 -66 -70 0
-4811 5 0
-4811 33 0
-4811 66 0
-4811 70 0
4812 -5 -39 -60 -70 0
-4812 5 0
-4812 39 0
-4812 60 0
-4812 70 0
-4810 4811 4812 0
-4811 4810 4812 0
-4812 4810 4811 0
4813 -5 -27 -71 -79 0
-4813 5 0
-4813 27 0
-4813 71 0
-4813 79 0
4814 -11 -27 -50 -79 0
-4814 11 0
-4814 27 0
-4814 50 0
-4814 79 0
4815 -17 -27 -44 -79 0
-4815 17 0
-4815 27 0
-4815 44 0
-4815 79 0
-4813 4814 4815 0
-4814 4813 4815 0
-4815 4813 4814 0
4816 -5 -27 -71 -81 0
-4816 5 0
-4816 27 0
-4816 71 0
-4816 81 0
4817 -5 -33 -66 -71 0
-4817 5 0
-4817 33 0
-4817 66 0
-4817 71 0
4818 -5 -39 -60 -71 0
-4818 5 0
-4818 39 0
-4818 60 0
-4818 71 0
4819 -11 -27 -50 -81 0
-4819 11 0
-4819 27 0
-4819 50 0
-4819 81 0
4820 -11 -33 -50 -66 0
-4820 11 0
-4820 33 0
-4820 50 0
-4820 66 0
4821 -11 -39 -50 -60 0
-4821 11 0
-4821 39 0
-4821 50 0
-4821 60 0
4822 -17 -27 -44 -81 0
-4822 17 0
-4822 27 0
-4822 44 0
-4822 81 0
4823 -17 -33 -44 -66 0
-4823 17 0
-4823 33 0
-4823 44 0
-4823 66 0
4824 -17 -39 -44 -60 0
-4824 17 0
-4824 39 0
-4824 44 0
-4824 60 0
-4816 4817 4818 4819 4820 4821 4822 4823 4824 0
-4817 4816 4818 4819 4820 4821 4822 4823 4824 0
-4818 4816 4817 4819 4820 4821 4822 4823 4824 0
-4819 4816 4817 4818 4820 4821 4822 4823 4824 0
-4820 4816 4817 4818 4819 4821 4822 4823 4824 0
-4821 4816 4817 4818 4819 4820 4822 4823 4824 0
-4822 4816 4817 4818 4819 4820 4821 4823 4824 0
-4823 4816 4817 4818 4819 4820 4821 4822 4824 0
-4824 4816 4817 4818 4819 4820 4821 4822 4823 0
4825 -5 -27 -72 -79 0
-4825 5 0
-4825 27 0
-4825 72 0
-4825 79 0
4826 -5 -30 -63 -79 0
-4826 5 0
-4826 30 0
-4826 63 0
-4826 79 0
4827 -5 -36 -57 -79 0
-4827 5 0
-4827 36 0
-4827 57 0
-4827 79 0
-4825 4826 4827 0
-4826 4825 4827 0
-4827 4825 4826 0
4828 -5 -27 -72 -80 0
-4828 5 0
-4828 27 0
-4828 72 0
-4828 80 0
4829 -5 -30 -63 -80 0
-4829 5 0
-4829 30 0
-4829 63 0
-4829 80 0
4830 -5 -36 -57 -80 0
-4830 5 0
-4830 36 0
-4830 57 0
-4830 80 0
4831 -14 -27 -53 -72 0
-4831 14 0
-4831 27 0
-4831 53 0
-4831 72 0
4832 -14 -30 -53 -63 0
-4832 14 0
-4832 30 0
-4832 53 0
-4832 63 0
4833 -14 -36 -53 -57 0
-4833 14 0
-4833 36 0
-4833 53 0
-4833 57 0
4834 -20 -27 -47 -72 0
-4834 20 0
-4834 27 0
-4834 47 0
-4834 72 0
4835 -20 -30 -47 -63 0
-4835 20 0
-4835 30 0
-4835 47 0
-4835 63 0
4836 -20 -36 -47 -57 0
-4836 20 0
-4836 36 0
-4836 47 0
-4836 57 0
-4828 4829 4830 4831 4832 4833 4834 4835 4836 0
-4829 4828 4830 4831 4832 4833 4834 4835 4836 0
-4830 4828 4829 4831 4832 4833 4834 4835 4836 0
-4831 4828 4829 4830 4832 4833 4834 4835 4836 0
-4832 4828 4829 4830 4831 4833 4834 4835 4836 0
-4833 4828 4829 4830 4831 4832 4834 4835 4836 0
-4834 4828 4829 4830 4831 4832 4833 4835 4836 0
-4835 4828 4829 4830 4831 4832 4833 4834 4836 0
-4836 4828 4829 4830 4831 4832 4833 4834 4835 0
4837 -6 -25 -70 -80 0
-4837 6 0
-4837 25 0
-4837 70 0
-4837 80 0
4838 -6 -28 -61 -80 0
-4838 6 0
-4838 28 0
-4838 61 0
-4838 80 0
4839 -6 -34 -55 -80 0
-4839 6 0
-4839 34 0
-4839 55 0
-4839 80 0
-4837 4838 4839 0
-4838 4837 4839 0
-4839 4837 4838 0
4840 -6 -25 -70 -81 0
-4840 6 0
-4840 25 0
-4840 70 0
-4840 81 0
4841 -6 -28 -61 -81 0
-4841 6 0
-4841 28 0
-4841 61 0
-4841 81 0
4842 -6 -34 -55 -81 0
-4842 6 0
-4842 34 0
-4842 55 0
-4842 81 0
4843 -15 -25 -54 -70 0
-4843 15 0
-4843 25 0
-4843 54 0
-4843 70 0
4844 -15 -28 -54 -61 0
-4844 15 0
-4844 28 0
-4844 54 0
-4844 61 0
4845 -15 -34 -54 -55 0
-4845 15 0
-4845 34 0
-4845 54 0
-4845 55 0
4846 -21 -25 -48 -70 0
-4846 21 0
-4846 25 0
-4846 48 0
-4846 70 0
4847 -21 -28 -48 -61 0
-4847 21 0
-4847 28 0
-4847 48 0
-4847 61 0
4848 -21 -34 -48 -55 0
-4848 21 0
-4848 34 0
-4848 48 0
-4848 55 0
-4840 4841 4842 4843 4844 4845 4846 4847 4848 0
-4841 4840 4842 4843 4844 4845 4846 4847 4848 0
-4842 4840 4841 4843 4844 4845 4846 4847 4848 0
-4843 4840 4841 4842 4844 4845 4846 4847 4848 0
-4844 4840 4841 4842 4843 4845 4846 4847 4848 0
-4845 4840 4841 4842 4843 4844 4846 4847 4848 0
-4846 4840 4841 4842 4843 4844 4845 4847 4848 0
-4847 4840 4841 4842 4843 4844 4845 4846 4848 0
-4848 4840 4841 4842 4843 4844 4845 4846 4847 0
4849 -6 -25 -71 -79 0
-4849 6 0
-4849 25 0
-4849 71 0
-4849 79 0
4850 -6 -31 -64 -71 0
-4850 6 0
-4850 31 0
-4850 64 0
-4850 71 0
4851 -6 -37 -58 -71 0
-4851 6 0
-4851 37 0
-4851 58 0
-4851 71 0
-4849 4850 4851 0
-4850 4849 4851 0
-4851 4849 4850 0
4852 -6 -25 -71 -81 0
-4852 6 0
-4852 25 0
-4852 71 0
-4852 81 0
4853 -15 -25 -54 -71 0
-4853 15 0
-4853 25 0
-4853 54 0
-4853 71 0
4854 -21 -25 -48 -71 0
-4854 21 0
-4854 25 0
-4854 48 0
-4854 71 0
-4852 4853 4854 0
-4853 4852 4854 0
-4854 4852 4853 0
4855 -6 -25 -72 -79 0
-4855 6 0
-4855 25 0
-4855 72 0
-4855 79 0
4856 -6 -31 -64 -72 0
-4856 6 0
-4856 31 0
-4856 64 0
-4856 72 0
4857 -6 -37 -58 -72 0
-4857 6 0
-4857 37 0
-4857 58 0
-4857 72 0
4858 -12 -25 -51 -79 0
-4858 12 0
-4858 25 0
-4858 51 0
-4858 79 0
4859 -12 -31 -51 -64 0
-4859 12 0
-4859 31 0
-4859 51 0
-4859 64 0
4860 -12 -37 -51 -58 0
-4860 12 0
-4860 37 0
-4860 51 0
-4860 58 0
4861 -18 -25 -45 -79 0
-4861 18 0
-4861 25 0
-4861 45 0
-4861 79 0
4862 -18 -31 -45 -64 0
-4862 18 0
-4862 31 0
-4862 45 0
-4862 64 0
4863 -18 -37 -45 -58 0
-4863 18 0
-4863 37 0
-4863 45 0
-4863 58 0
-4855 4856 4857 4858 4859 4860 4861 4862 4863 0
-4856 4855 4857 4858 4859 4860 4861 4862 4863 0
-4857 4855 4856 4858 4859 4860 4861 4862 4863 0
-4858 4855 4856 4857 4859 4860 4861 4862 4863 0
-4859 4855 4856 4857 4858 4860 4861 4862 4863 0
-4860 4855 4856 4857 4858 4859 4861 4862 4863 0
-4861 4855 4856 4857 4858 4859 4860 4862 4863 0
-4862 4855 4856 4857 4858 4859 4860 4861 4863 0
-4863 4855 4856 4857 4858 4859 4860 4861 4862 0
4864 -6 -25 -72 -80 0
-4864 6 0
-4864 25 0
-4864 72 0
-4864 80 0
4865 -12 -25 -51 -80 0
-4865 12 0
-4865 25 0
-4865 51 0
-4865 80 0
4866 -18 -25 -45 -80 0
-4866 18 0
-4866 25 0
-4866 45 0
-4866 80 0
-4864 4865 4866 0
-4865 4864 4866 0
-4866 4864 4865 0
4867 -6 -26 -70 -80 0
-4867 6 0
-4867 26 0
-4867 70 0
-4867 80 0
4868 -6 -32 -65 -70 0
-4868 6 0
-4868 32 0
-4868 65 0
-4868 70 0
4869 -6 -38 -59 -70 0
-4869 6 0
-4869 38 0
-4869 59 0
-4869 70 0
-4867 4868 4869 0
-4868 4867 4869 0
-4869 4867 4868 0
4870 -6 -26 -70 -81 0
-4870 6 0
-4870 26 0
-4870 70 0
-4870 81 0
4871 -15 -26 -54 -70 0
-4871 15 0
-4871 26 0
-4871 54 0
-4871 70 0
4872 -21 -26 -48 -70 0
-4872 21 0
-4872 26 0
-4872 48 0
-4872 70 0
-4870 4871 4872 0
-4871 4870 4872 0
-4872 4870 4871 0
4873 -6 -26 -71 -79 0
-4873 6 0
-4873 26 0
-4873 71 0
-4873 79 0
4874 -6 -29 -62 -79 0
-4874 6 0
-4874 29 0
-4874 62 0
-4874 79 0
4875 -6 -35 -56 -79 0
-4875 6 0
-4875 35 0
-4875 56 0
-4875 79 0
-4873 4874 4875 0
-4874 4873 4875 0
-4875 4873 4874 0
4876 -6 -26 -71 -81 0
-4876 6 0
-4876 26 0
-4876 71 0
-4876 81 0
4877 -6 -29 -62 -81 0
-4877 6 0
-4877 29 0
-4877 62 0
-4877 81 0
4878 -6 -35 -56 -81 0
-4878 6 0
-4878 35 0
-4878 56 0
-4878 81 0
4879 -15 -26 -54 -71 0
-4879 15 0
-4879 26 0
-4879 54 0
-4879 71 0
4880 -15 -29 -54 -62 0
-4880 15 0
-4880 29 0
-4880 54 0
-4880 62 0
4881 -15 -35 -54 -56 0
-4881 15 0
-4881 35 0
-4881 54 0
-4881 56 0
4882 -21 -26 -48 -71 0
-4882 21 0
-4882 26 0
-4882 48 0
-4882 71 0
4883 -21 -29 -48 -62 0
-4883 21 0
-4883 29 0
-4883 48 0
-4883 62 0
4884 -21 -35 -48 -56 0
-4884 21 0
-4884 35 0
-4884 48 0
-4884 56 0
-4876 4877 4878 4879 4880 4881 4882 4883 4884 0
-4877 4876 4878 4879 4880 4881 4882 4883 4884 0
-4878 4876 4877 4879 4880 4881 4882 4883 4884 0
-4879 4876 4877 4878 4880 4881 4882 4883 4884 0
-4880 4876 4877 4878 4879 4881 4882 4883 4884 0
-4881 4876 4877 4878 4879 4880 4882 4883 4884 0
-4882 4876 4877 4878 4879 4880 4881 4883 4884 0
-4883 4876 4877 4878 4879 4880 4881 4882 4884 0
-4884 4876 4877 4878 4879 4880 4881 4882 4883 0
4885 -6 -26 -72 -79 0
-4885 6 0
-4885 26 0
-4885 72 0
-4885 79 0
4886 -12 -26 -51 -79 0
-4886 12 0
-4886 26 0
-4886 51 0
-4886 79 0
4887 -18 -26 -45 -79 0
-4887 18 0
-4887 26 0
-4887 45 0
-4887 79 0
-4885 4886 4887 0
-4886 4885 4887 0
-4887 4885 4886 0
4888 -6 -26 -72 -80 0
-4888 6 0
-4888 26 0
-4888 72 0
-4888 80 0
4889 -6 -32 -65 -72 0
-4889 6 0
-4889 32 0
-4889 65 0
-4889 72 0
4890 -6 -38 -59 -72 0
-4890 6 0
-4890 38 0
-4890 59 0
-4890 72 0
4891 -12 -26 -51 -80 0
-4891 12 0
-4891 26 0
-4891 51 0
-4891 80 0
4892 -12 -32 -51 -65 0
-4892 12 0
-4892 32 0
-4892 51 0
-4892 65 0
4893 -12 -38 -51 -59 0
-4893 12 0
-4893 38 0
-4893 51 0
-4893 59 0
4894 -18 -26 -45 -80 0
-4894 18 0
-4894 26 0
-4894 45 0
-4894 80 0
4895 -18 -32 -45 -65 0
-4895 18 0
-4895 32 0
-4895 45 0
-4895 65 0
4896 -18 -38 -45 -59 0
-4896 18 0
-4896 38 0
-4896 45 0
-4896 59 0
-4888 4889 4890 4891 4892 4893 4894 4895 4896 0
-4889 4888 4890 4891 4892 4893 4894 4895 4896 0
-4890 4888 4889 4891 4892 4893 4894 4895 4896 0
-4891 4888 4889 4890 4892 4893 4894 4895 4896 0
-4892 4888 4889 4890 4891 4893 4894 4895 4896 0
-4893 4888 4889 4890 4891 4892 4894 4895 4896 0
-4894 4888 4889 4890 4891 4892 4893 4895 4896 0
-4895 4888 4889 4890 4891 4892 4893 4894 4896 0
-4896 4888 4889 4890 4891 4892 4893 4894 4895 0
4897 -4 -26 -73 -77 0
-4897 4 0
-4897 26 0
-4897 73 0
-4897 77 0
4898 -4 -32 -62 -73 0
-4898 4 0
-4898 32 0
-4898 62 0
-4898 73 0
4899 -4 -35 -59 -73 0
-4899 4 0
-4899 35 0
-4899 59 0
-4899 73 0
4900 -10 -26 -52 -77 0
-4900 10 0
-4900 26 0
-4900 52 0
-4900 77 0
4901 -10 -32 -52 -62 0
-4901 10 0
-4901 32 0
-4901 52 0
-4901 62 0
4902 -10 -35 -52 -59 0
-4902 10 0
-4902 35 0
-4902 52 0
-4902 59 0
4903 -19 -26 -43 -77 0
-4903 19 0
-4903 26 0
-4903 43 0
-4903 77 0
4904 -19 -32 -43 -62 0
-4904 19 0
-4904 32 0
-4904 43 0
-4904 62 0
4905 -19 -35 -43 -59 0
-4905 19 0
-4905 35 0
-4905 43 0
-4905 59 0
-4897 4898 4899 4900 4901 4902 4903 4904 4905 0
-4898 4897 4899 4900 4901 4902 4903 4904 4905 0
-4899 4897 4898 4900 4901 4902 4903 4904 4905 0
-4900 4897 4898 4899 4901 4902 4903 4904 4905 0
-4901 4897 4898 4899 4900 4902 4903 4904 4905 0
-4902 4897 4898 4899 4900 4901 4903 4904 4905 0
-4903 4897 4898 4899 4900 4901 4902 4904 4905 0
-4904 4897 4898 4899 4900 4901 4902 4903 4905 0
-4905 4897 4898 4899 4900 4901 4902 4903 4904 0
4906 -4 -26 -73 -78 0
-4906 4 0
-4906 26 0
-4906 73 0
-4906 78 0
4907 -10 -26 -52 -78 0
-4907 10 0
-4907 26 0
-4907 52 0
-4907 78 0
4908 -19 -26 -43 -78 0
-4908 19 0
-4908 26 0
-4908 43 0
-4908 78 0
-4906 4907 4908 0
-4907 4906 4908 0
-4908 4906 4907 0
4909 -4 -26 -74 -76 0
-4909 4 0
-4909 26 0
-4909 74 0
-4909 76 0
4910 -4 -29 -65 -76 0
-4910 4 0
-4910 29 0
-4910 65 0
-4910 76 0
4911 -4 -38 -56 -76 0
-4911 4 0
-4911 38 0
-4911 56 0
-4911 76 0
4912 -13 -26 -49 -74 0
-4912 13 0
-4912 26 0
-4912 49 0
-4912 74 0
4913 -13 -29 -49 -65 0
-4913 13 0
-4913 29 0
-4913 49 0
-4913 65 0
4914 -13 -38 -49 -56 0
-4914 13 0
-4914 38 0
-4914 49 0
-4914 56 0
4915 -16 -26 -46 -74 0
-4915 16 0
-4915 26 0
-4915 46 0
-4915 74 0
4916 -16 -29 -46 -65 0
-4916 16 0
-4916 29 0
-4916 46 0
-4916 65 0
4917 -16 -38 -46 -56 0
-4917 16 0
-4917 38 0
-4917 46 0
-4917 56 0
-4909 4910 4911 4912 4913 4914 4915 4916 4917 0
-4910 4909 4911 4912 4913 4914 4915 4916 4917 0
-4911 4909 4910 4912 4913 4914 4915 4916 4917 0
-4912 4909 4910 4911 4913 4914 4915 4916 4917 0
-4913 4909 4910 4911 4912 4914 4915 4916 4917 0
-4914 4909 4910 4911 4912 4913 4915 4916 4917 0
-4915 4909 4910 4911 4912 4913 4914 4916 4917 0
-4916 4909 4910 4911 4912 4913 4914 4915 4917 0
-4917 4909 4910 4911 4912 4913 4914 4915 4916 0
4918 -4 -26 -74 -78 0
-4918 4 0
-4918 26 0
-4918 74 0
-4918 78 0
4919 -4 -29 -65 -78 0
-4919 4 0
-4919 29 0
-4919 65 0
-4919 78 0
4920 -4 -38 -56 -78 0
-4920 4 0
-4920 38 0
-4920 56 0
-4920 78 0
-4918 4919 4920 0
-4919 4918 4920 0
-4920 4918 4919 0
4921 -4 -26 -75 -76 0
-4921 4 0
-4921 26 0
-4921 75 0
-4921 76 0
4922 -13 -26 -49 -75 0
-4922 13 0
-4922 26 0
-4922 49 0
-4922 75 0
4923 -16 -26 -46 -75 0
-4923 16 0
-4923 26 0
-4923 46 0
-4923 75 0
-4921 4922 4923 0
-4922 4921 4923 0
-4923 4921 4922 0
4924 -4 -26 -75 -77 0
-4924 4 0
-4924 26 0
-4924 75 0
-4924 77 0
4925 -4 -32 -62 -75 0
-4925 4 0
-4925 32 0
-4925 62 0
-4925 75 0
4926 -4 -35 -59 -75 0
-4926 4 0
-4926 35 0
-4926 59 0
-4926 75 0
-4924 4925 4926 0
-4925 4924 4926 0
-4926 4924 4925 0
4927 -4 -27 -73 -77 0
-4927 4 0
-4927 27 0
-4927 73 0
-4927 77 0
4928 -10 -27 -52 -77 0
-4928 10 0
-4928 27 0
-4928 52 0
-4928 77 0
4929 -19 -27 -43 -77 0
-4929 19 0
-4929 27 0
-4929 43 0
-4929 77 0
-4927 4928 4929 0
-4928 4927 4929 0
-4929 4927 4928 0
4930 -4 -27 -73 -78 0
-4930 4 0
-4930 27 0
-4930 73 0
-4930 78 0
4931 -4 -33 -63 -73 0
-4931 4 0
-4931 33 0
-4931 63 0
-4931 73 0
4932 -4 -36 -60 -73 0
-4932 4 0
-4932 36 0
-4932 60 0
-4932 73 0
4933 -10 -27 -52 -78 0
-4933 10 0
-4933 27 0
-4933 52 0
-4933 78 0
4934 -10 -33 -52 -63 0
-4934 10 0
-4934 33 0
-4934 52 0
-4934 63 0
4935 -10 -36 -52 -60 0
-4935 10 0
-4935 36 0
-4935 52 0
-4935 60 0
4936 -19 -27 -43 -78 0
-4936 19 0
-4936 27 0
-4936 43 0
-4936 78 0
4937 -19 -33 -43 -63 0
-4937 19 0
-4937 33 0
-4937 43 0
-4937 63 0
4938 -19 -36 -43 -60 0
-4938 19 0
-4938 36 0
-4938 43 0
-4938 60 0
-4930 4931 4932 4933 4934 4935 4936 4937 4938 0
-4931 4930 4932 4933 4934 4935 4936 4937 4938 0
-4932 4930 4931 4933 4934 4935 4936 4937 4938 0
-4933 4930 4931 4932 4934 4935 4936 4937 4938 0
-4934 4930 4931 4932 4933 4935 4936 4937 4938 0
-4935 4930 4931 4932 4933 4934 4936 4937 4938 0
-4936 4930 4931 4932 4933 4934 4935 4937 4938 0
-4937 4930 4931 4932 4933 4934 4935 4936 4938 0
-4938 4930 4931 4932 4933 4934 4935 4936 4937 0
4939 -4 -27 -74 -76 0
-4939 4 0
-4939 27 0
-4939 74 0
-4939 76 0
4940 -13 -27 -49 -74 0
-4940 13 0
-4940 27 0
-4940 49 0
-4940 74 0
4941 -16 -27 -46 -74 0
-4941 16 0
-4941 27 0
-4941 46 0
-4941 74 0
-4939 4940 4941 0
-4940 4939 4941 0
-4941 4939 4940 0
4942 -4 -27 -74 -78 0
-4942 4 0
-4942 27 0
-4942 74 0
-4942 78 0
4943 -4 -33 -63 -74 0
-4943 4 0
-4943 33 0
-4943 63 0
-4943 74 0
4944 -4 -36 -60 -74 0
-4944 4 0
-4944 36 0
-4944 60 0
-4944 74 0
-4942 4943 4944 0
-4943 4942 4944 0
-4944 4942 4943 0
4945 -4 -27 -75 -76 0
-4945 4 0
-4945 27 0
-4945 75 0
-4945 76 0
4946 -4 -30 -66 -76 0
-4946 4 0
-4946 30 0
-4946 66 0
-4946 76 0
4947 -4 -39 -57 -76 0
-4947 4 0
-4947 39 0
-4947 57 0
-4947 76 0
4948 -13 -27 -49 -75 0
-4948 13 0
-4948 27 0
-4948 49 0
-4948 75 0
4949 -13 -30 -49 -66 0
-4949 13 0
-4949 30 0
-4949 49 0
-4949 66 0
4950 -13 -39 -49 -57 0
-4950 13 0
-4950 39 0
-4950 49 0
-4950 57 0
4951 -16 -27 -46 -75 0
-4951 16 0
-4951 27 0
-4951 46 0
-4951 75 0
4952 -16 -30 -46 -66 0
-4952 16 0
-4952 30 0
-4952 46 0
-4952 66 0
4953 -16 -39 -46 -57 0
-4953 16 0
-4953 39 0
-4953 46 0
-4953 57 0
-4945 4946 4947 4948 4949 4950 4951 4952 4953 0
-4946 4945 4947 4948 4949 4950 4951 4952 4953 0
-4947 4945 4946 4948 4949 4950 4951 4952 4953 0
-4948 4945 4946 4947 4949 4950 4951 4952 4953 0
-4949 4945 4946 4947 4948 4950 4951 4952 4953 0
-4950 4945 4946 4947 4948 4949 4951 4952 4953 0
-4951 4945 4946 4947 4948 4949 4950 4952 4953 0
-4952 4945 4946 4947 4948 4949 4950 4951 4953 0
-4953 4945 4946 4947 4948 4949 4950 4951 4952 0
4954 -4 -27 -75 -77 0
-4954 4 0
-4954 27 0
-4954 75 0
-4954 77 0
4955 -4 -30 -66 -77 0
-4955 4 0
-4955 30 0
-4955 66 0
-4955 77 0
4956 -4 -39 -57 -77 0
-4956 4 0
-4956 39 0
-4956 57 0
-4956 77 0
-4954 4955 4956 0
-4955 4954 4956 0
-4956 4954 4955 0
4957 -5 -25 -73 -77 0
-4957 5 0
-4957 25 0
-4957 73 0
-4957 77 0
4958 -5 -28 -64 -77 0
-4958 5 0
-4958 28 0
-4958 64 0
-4958 77 0
4959 -5 -37 -55 -77 0
-4959 5 0
-4959 37 0
-4959 55 0
-4959 77 0
4960 -14 -25 -50 -73 0
-4960 14 0
-4960 25 0
-4960 50 0
-4960 73 0
4961 -14 -28 -50 -64 0
-4961 14 0
-4961 28 0
-4961 50 0
-4961 64 0
4962 -14 -37 -50 -55 0
-4962 14 0
-4962 37 0
-4962 50 0
-4962 55 0
4963 -17 -25 -47 -73 0
-4963 17 0
-4963 25 0
-4963 47 0
-4963 73 0
4964 -17 -28 -47 -64 0
-4964 17 0
-4964 28 0
-4964 47 0
-4964 64 0
4965 -17 -37 -47 -55 0
-4965 17 0
-4965 37 0
-4965 47 0
-4965 55 0
-4957 4958 4959 4960 4961 4962 4963 4964 4965 0
-4958 4957 4959 4960 4961 4962 4963 4964 4965 0
-4959 4957 4958 4960 4961 4962 4963 4964 4965 0
-4960 4957 4958 4959 4961 4962 4963 4964 4965 0
-4961 4957 4958 4959 4960 4962 4963 4964 4965 0
-4962 4957 4958 4959 4960 4961 4963 4964 4965 0
-4963 4957 4958 4959 4960 4961 4962 4964 4965 0
-4964 4957 4958 4959 4960 4961 4962 4963 4965 0
-4965 4957 4958 4959 4960 4961 4962 4963 4964 0
4966 -5 -25 -73 -78 0
-4966 5 0
-4966 25 0
-4966 73 0
-4966 78 0
4967 -5 -28 -64 -78 0
-4967 5 0
-4967 28 0
-4967 64 0
-4967 78 0
4968 -5 -37 -55 -78 0
-4968 5 0
-4968 37 0
-4968 55 0
-4968 78 0
-4966 4967 4968 0
-4967 4966 4968 0
-4968 4966 4967 0
4969 -5 -25 -74 -76 0
-4969 5 0
-4969 25 0
-4969 74 0
-4969 76 0
4970 -5 -31 -61 -74 0
-4970 5 0
-4970 31 0
-4970 61 0
-4970 74 0
4971 -5 -34 -58 -74 0
-4971 5 0
-4971 34 0
-4971 58 0
-4971 74 0
4972 -11 -25 -53 -76 0
-4972 11 0
-4972 25 0
-4972 53 0
-4972 76 0
4973 -11 -31 -53 -61 0
-4973 11 0
-4973 31 0
-4973 53 0
-4973 61 0
4974 -11 -34 -53 -58 0
-4974 11 0
-4974 34 0
-4974 53 0
-4974 58 0
4975 -20 -25 -44 -76 0
-4975 20 0
-4975 25 0
-4975 44 0
-4975 76 0
4976 -20 -31 -44 -61 0
-4976 20 0
-4976 31 0
-4976 44 0
-4976 61 0
4977 -20 -34 -44 -58 0
-4977 20 0
-4977 34 0
-4977 44 0
-4977 58 0
-4969 4970 4971 4972 4973 4974 4975 4976 4977 0
-4970 4969 4971 4972 4973 4974 4975 4976 4977 0
-4971 4969 4970 4972 4973 4974 4975 4976 4977 0
-4972 4969 4970 4971 4973 4974 4975 4976 4977 0
-4973 4969 4970 4971 4972 4974 4975 4976 4977 0
-4974 4969 4970 4971 4972 4973 4975 4976 4977 0
-4975 4969 4970 4971 4972 4973 4974 4976 4977 0
-4976 4969 4970 4971 4972 4973 4974 4975 4977 0
-4977 4969 4970 4971 4972 4973 4974 4975 4976 0
4978 -5 -25 -74 -78 0
-4978 5 0
-4978 25 0
-4978 74 0
-4978 78 0
4979 -11 -25 -53 -78 0
-4979 11 0
-4979 25 0
-4979 53 0
-4979 78 0
4980 -20 -25 -44 -78 0
-4980 20 0
-4980 25 0
-4980 44 0
-4980 78 0
-4978 4979 4980 0
-4979 4978 4980 0
-4980 4978 4979 0
4981 -5 -25 -75 -76 0
-4981 5 0
-4981 25 0
-4981 75 0
-4981 76 0
4982 -5 -31 -61 -75 0
-4982 5 0
-4982 31 0
-4982 61 0
-4982 75 0
4983 -5 -34 -58 -75 0
-4983 5 0
-4983 34 0
-4983 58 0
-4983 75 0
-4981 4982 4983 0
-4982 4981 4983 0
-4983 4981 4982 0
4984 -5 -25 -75 -77 0
-4984 5 0
-4984 25 0
-4984 75 0
-4984 77 0
4985 -14 -25 -50 -75 0
-4985 14 0
-4985 25 0
-4985 50 0
-4985 75 0
4986 -17 -25 -47 -75 0
-4986 17 0
-4986 25 0
-4986 47 0
-4986 75 0
-4984 4985 4986 0
-4985 4984 4986 0
-4986 4984 4985 0
4987 -5 -27 -73 -77 0
-4987 5 0
-4987 27 0
-4987 73 0
-4987 77 0
4988 -14 -27 -50 -73 0
-4988 14 0
-4988 27 0
-4988 50 0
-4988 73 0
4989 -17 -27 -47 -73 0
-4989 17 0
-4989 27 0
-4989 47 0
-4989 73 0
-4987 4988 4989 0
-4988 4987 4989 0
-4989 4987 4988 0
4990 -5 -27 -73 -78 0
-4990 5 0
-4990 27 0
-4990 73 0
-4990 78 0
4991 -5 -33 -63 -73 0
-4991 5 0
-4991 33 0
-4991 63 0
-4991 73 0
4992 -5 -36 -60 -73 0
-4992 5 0
-4992 36 0
-4992 60 0
-4992 73 0
-4990 4991 4992 0
-4991 4990 4992 0
-4992 4990 4991 0
4993 -5 -27 -74 -76 0
-4993 5 0
-4993 27 0
-4993 74 0
-4993 76 0
4994 -11 -27 -53 -76 0
-4994 11 0
-4994 27 0
-4994 53 0
-4994 76 0
4995 -20 -27 -44 -76 0
-4995 20 0
-4995 27 0
-4995 44 0
-4995 76 0
-4993 4994 4995 0
-4994 4993 4995 0
-4995 4993 4994 0
4996 -5 -27 -74 -78 0
-4996 5 0
-4996 27 0
-4996 74 0
-4996 78 0
4997 -5 -33 -63 -74 0
-4997 5 0
-4997 33 0
-4997 63 0
-4997 74 0
4998 -5 -36 -60 -74 0
-4998 5 0
-4998 36 0
-4998 60 0
-4998 74 0
4999 -11 -27 -53 -78 0
-4999 11 0
-4999 27 0
-4999 53 0
-4999 78 0
5000 -11 -33 -53 -63 0
-5000 11 0
-5000 33 0
-5000 53 0
-5000 63 0
5001 -11 -36 -53 -60 0
-5001 11 0
-5001 36 0
-5001 53 0
-5001 60 0
5002 -20 -27 -44 -78 0
-5002 20 0
-5002 27 0
-5002 44 0
-5002 78 0
5003 -20 -33 -44 -63 0
-5003 20 0
-5003 33 0
-5003 44 0
-5003 63 0
5004 -20 -36 -44 -60 0
-5004 20 0
-5004 36 0
-5004 44 0
-5004 60 0
-4996 4997 4998 4999 5000 5001 5002 5003 5004 0
-4997 4996 4998 4999 5000 5001 5002 5003 5004 0
-4998 4996 4997 4999 5000 5001 5002 5003 5004 0
-4999 4996 4997 4998 5000 5001 5002 5003 5004 0
-5000 4996 4997 4998 4999 5001 5002 5003 5004 0
-5001 4996 4997 4998 4999 5000 5002 5003 5004 0
-5002 4996 4997 4998 4999 5000 5001 5003 5004 0
-5003 4996 4997 4998 4999 5000 5001 5002 5004 0
-5004 4996 4997 4998 4999 5000 5001 5002 5003 0
5005 -5 -27 -75 -76 0
-5005 5 0
-5005 27 0
-5005 75 0
-5005 76 0
5006 -5 -30 -66 -76 0
-5006 5 0
-5006 30 0
-5006 66 0
-5006 76 0
5007 -5 -39 -57 -76 0
-5007 5 0
-5007 39 0
-5007 57 0
-5007 76 0
-5005 5006 5007 0
-5006 5005 5007 0
-5007 5005 5006 0
5008 -5 -27 -75 -77 0
-5008 5 0
-5008 27 0
-5008 75 0
-5008 77 0
5009 -5 -30 -66 -77 0
-5009 5 0
-5009 30 0
-5009 66 0
-5009 77 0
5010 -5 -39 -57 -77 0
-5010 5 0
-5010 39 0
-5010 57 0
-5010 77 0
5011 -14 -27 -50 -75 0
-5011 14 0
-5011 27 0
-5011 50 0
-5011 75 0
5012 -14 -30 -50 -66 0
-5012 14 0
-5012 30 0
-5012 50 0
-5012 66 0
5013 -14 -39 -50 -57 0
-5013 14 0
-5013 39 0
-5013 50 0
-5013 57 0
5014 -17 -27 -47 -75 0
-5014 17 0
-5014 27 0
-5014 47 0
-5014 75 0
5015 -17 -30 -47 -66 0
-5015 17 0
-5015 30 0
-5015 47 0
-5015 66 0
5016 -17 -39 -47 -57 0
-5016 17 0
-5016 39 0
-5016 47 0
-5016 57 0
-5008 5009 5010 5011 5012 5013 5014 5015 5016 0
-5009 5008 5010 5011 5012 5013 5014 5015 5016 0
-5010 5008 5009 5011 5012 5013 5014 5015 5016 0
-5011 5008 5009 5010 5012 5013 5014 5015 5016 0
-5012 5008 5009 5010 5011 5013 5014 5015 5016 0
-5013 5008 5009 5010 5011 5012 5014 5015 5016 0
-5014 5008 5009 5010 5011 5012 5013 5015 5016 0
-5015 5008 5009 5010 5011 5012 5013 5014 5016 0
-5016 5008 5009 5010 5011 5012 5013 5014 5015 0
5017 -6 -25 -73 -77 0
-5017 6 0
-5017 25 0
-5017 73 0
-5017 77 0
5018 -6 -28 -64 -77 0
-5018 6 0
-5018 28 0
-5018 64 0
-5018 77 0
5019 -6 -37 -55 -77 0
-5019 6 0
-5019 37 0
-5019 55 0
-5019 77 0
-5017 5018 5019 0
-5018 5017 5019 0
-5019 5017 5018 0
5020 -6 -25 -73 -78 0
-5020 6 0
-5020 25 0
-5020 73 0
-5020 78 0
5021 -6 -28 -64 -78 0
-5021 6 0
-5021 28 0
-5021 64 0
-5021 78 0
5022 -6 -37 -55 -78 0
-5022 6 0
-5022 37 0
-5022 55 0
-5022 78 0
5023 -15 -25 -51 -73 0
-5023 15 0
-5023 25 0
-5023 51 0
-5023 73 0
5024 -15 -28 -51 -64 0
-5024 15 0
-5024 28 0
-5024 51 0
-5024 64 0
5025 -15 -37 -51 -55 0
-5025 15 0
-5025 37 0
-5025 51 0
-5025 55 0
5026 -18 -25 -48 -73 0
-5026 18 0
-5026 25 0
-5026 48 0
-5026 73 0
5027 -18 -28 -48 -64 0
-5027 18 0
-5027 28 0
-5027 48 0
-5027 64 0
5028 -18 -37 -48 -55 0
-5028 18 0
-5028 37 0
-5028 48 0
-5028 55 0
-5020 5021 5022 5023 5024 5025 5026 5027 5028 0
-5021 5020 5022 5023 5024 5025 5026 5027 5028 0
-5022 5020 5021 5023 5024 5025 5026 5027 5028 0
-5023 5020 5021 5022 5024 5025 5026 5027 5028 0
-5024 5020 5021 5022 5023 5025 5026 5027 5028 0
-5025 5020 5021 5022 5023 5024 5026 5027 5028 0
-5026 5020 5021 5022 5023 5024 5025 5027 5028 0
-5027 5020 5021 5022 5023 5024 5025 5026 5028 0
-5028 5020 5021 5022 5023 5024 5025 5026 5027 0
5029 -6 -25 -74 -76 0
-5029 6 0
-5029 25 0
-5029 74 0
-5029 76 0
5030 -6 -31 -61 -74 0
-5030 6 0
-5030 31 0
-5030 61 0
-5030 74 0
5031 -6 -34 -58 -74 0
-5031 6 0
-5031 34 0
-5031 58 0
-5031 74 0
-5029 5030 5031 0
-5030 5029 5031 0
-5031 5029 5030 0
5032 -6 -25 -74 -78 0
-5032 6 0
-5032 25 0
-5032 74 0
-5032 78 0
5033 -15 -25 -51 -74 0
-5033 15 0
-5033 25 0
-5033 51 0
-5033 74 0
5034 -18 -25 -48 -74 0
-5034 18 0
-5034 25 0
-5034 48 0
-5034 74 0
-5032 5033 5034 0
-5033 5032 5034 0
-5034 5032 5033 0
5035 -6 -25 -75 -76 0
-5035 6 0
-5035 25 0
-5035 75 0
-5035 76 0
5036 -6 -31 -61 -75 0
-5036 6 0
-5036 31 0
-5036 61 0
-5036 75 0
5037 -6 -34 -58 -75 0
-5037 6 0
-5037 34 0
-5037 58 0
-5037 75 0
5038 -12 -25 -54 -76 0
-5038 12 0
-5038 25 0
-5038 54 0
-5038 76 0
5039 -12 -31 -54 -61 0
-5039 12 0
-5039 31 0
-5039 54 0
-5039 61 0
5040 -12 -34 -54 -58 0
-5040 12 0
-5040 34 0
-5040 54 0
-5040 58 0
5041 -21 -25 -45 -76 0
-5041 21 0
-5041 25 0
-5041 45 0
-5041 76 0
5042 -21 -31 -45 -61 0
-5042 21 0
-5042 31 0
-5042 45 0
-5042 61 0
5043 -21 -34 -45 -58 0
-5043 21 0
-5043 34 0
-5043 45 0
-5043 58 0
-5035 5036 5037 5038 5039 5040 5041 5042 5043 0
-5036 5035 5037 5038 5039 5040 5041 5042 5043 0
-5037 5035 5036 5038 5039 5040 5041 5042 5043 0
-5038 5035 5036 5037 5039 5040 5041 5042 5043 0
-5039 5035 5036 5037 5038 5040 5041 5042 5043 0
-5040 5035 5036 5037 5038 5039 5041 5042 5043 0
-5041 5035 5036 5037 5038 5039 5040 5042 5043 0
-5042 5035 5036 5037 5038 5039 5040 5041 5043 0
-5043 5035 5036 5037 5038 5039 5040 5041 5042 0
5044 -6 -25 -75 -77 0
-5044 6 0
-5044 25 0
-5044 75 0
-5044 77 0
5045 -12 -25 -54 -77 0
-5045 12 0
-5045 25 0
-5045 54 0
-5045 77 0
5046 -21 -25 -45 -77 0
-5046 21 0
-5046 25 0
-5046 45 0
-5046 77 0
-5044 5045 5046 0
-5045 5044 5046 0
-5046 5044 5045 0
5047 -6 -26 -73 -77 0
-5047 6 0
-5047 26 0
-5047 73 0
-5047 77 0
5048 -6 -32 -62 -73 0
-5048 6 0
-5048 32 0
-5048 62 0
-5048 73 0
5049 -6 -35 -59 -73 0
-5049 6 0
-5049 35 0
-5049 59 0
-5049 73 0
-5047 5048 5049 0
-5048 5047 5049 0
-5049 5047 5048 0
5050 -6 -26 -73 -78 0
-5050 6 0
-5050 26 0
-5050 73 0
-5050 78 0
5051 -15 -26 -51 -73 0
-5051 15 0
-5051 26 0
-5051 51 0
-5051 73 0
5052 -18 -26 -48 -73 0
-5052 18 0
-5052 26 0
-5052 48 0
-5052 73 0
-5050 5051 5052 0
-5051 5050 5052 0
-5052 5050 5051 0
5053 -6 -26 -74 -76 0
-5053 6 0
-5053 26 0
-5053 74 0
-5053 76 0
5054 -6 -29 -65 -76 0
-5054 6 0
-5054 29 0
-5054 65 0
-5054 76 0
5055 -6 -38 -56 -76 0
-5055 6 0
-5055 38 0
-5055 56 0
-5055 76 0
-5053 5054 5055 0
-5054 5053 5055 0
-5055 5053 5054 0
5056 -6 -26 -74 -78 0
-5056 6 0
-5056 26 0
-5056 74 0
-5056 78 0
5057 -6 -29 -65 -78 0
-5057 6 0
-5057 29 0
-5057 65 0
-5057 78 0
5058 -6 -38 -56 -78 0
-5058 6 0
-5058 38 0
-5058 56 0
-5058 78 0
5059 -15 -26 -51 -74 0
-5059 15 0
-5059 26 0
-5059 51 0
-5059 74 0
5060 -15 -29 -51 -65 0
-5060 15 0
-5060 29 0
-5060 51 0
-5060 65 0
5061 -15 -38 -51 -56 0
-5061 15 0
-5061 38 0
-5061 51 0
-5061 56 0
5062 -18 -26 -48 -74 0
-5062 18 0
-5062 26 0
-5062 48 0
-5062 74 0
5063 -18 -29 -48 -65 0
-5063 18 0
-5063 29 0
-5063 48 0
-5063 65 0
5064 -18 -38 -48 -56 0
-5064 18 0
-5064 38 0
-5064 48 0
-5064 56 0
-5056 5057 5058 5059 5060 5061 5062 5063 5064 0
-5057 5056 5058 5059 5060 5061 5062 5063 5064 0
-5058 5056 5057 5059 5060 5061 5062 5063 5064 0
-5059 5056 5057 5058 5060 5061 5062 5063 5064 0
-5060 5056 5057 5058 5059 5061 5062 5063 5064 0
-5061 5056 5057 5058 5059 5060 5062 5063 5064 0
-5062 5056 5057 5058 5059 5060 5061 5063 5064 0
-5063 5056 5057 5058 5059 5060 5061 5062 5064 0
-5064 5056 5057 5058 5059 5060 5061 5062 5063 0
5065 -6 -26 -75 -76 0
-5065 6 0
-5065 26 0
-5065 75 0
-5065 76 0
5066 -12 -26 -54 -76 0
-5066 12 0
-5066 26 0
-5066 54 0
-5066 76 0
5067 -21 -26 -45 -76 0
-5067 21 0
-5067 26 0
-5067 45 0
-5067 76 0
-5065 5066 5067 0
-5066 5065 5067 0
-5067 5065 5066 0
5068 -6 -26 -75 -77 0
-5068 6 0
-5068 26 0
-5068 75 0
-5068 77 0
5069 -6 -32 -62 -75 0
-5069 6 0
-5069 32 0
-5069 62 0
-5069 75 0
5070 -6 -35 -59 -75 0
-5070 6 0
-5070 35 0
-5070 59 0
-5070 75 0
5071 -12 -26 -54 -77 0
-5071 12 0
-5071 26 0
-5071 54 0
-5071 77 0
5072 -12 -32 -54 -62 0
-5072 12 0
-5072 32 0
-5072 54 0
-5072 62 0
5073 -12 -35 -54 -59 0
-5073 12 0
-5073 35 0
-5073 54 0
-5073 59 0
5074 -21 -26 -45 -77 0
-5074 21 0
-5074 26 0
-5074 45 0
-5074 77 0
5075 -21 -32 -45 -62 0
-5075 21 0
-5075 32 0
-5075 45 0
-5075 62 0
5076 -21 -35 -45 -59 0
-5076 21 0
-5076 35 0
-5076 45 0
-5076 59 0
-5068 5069 5070 5071 5072 5073 5074 5075 5076 0
-5069 5068 5070 5071 5072 5073 5074 5075 5076 0
-5070 5068 5069 5071 5072 5073 5074 5075 5076 0
-5071 5068 5069 5070 5072 5073 5074 5075 5076 0
-5072 5068 5069 5070 5071 5073 5074 5075 5076 0
-5073 5068 5069 5070 5071 5072 5074 5075 5076 0
-5074 5068 5069 5070 5071 5072 5073 5075 5076 0
-5075 5068 5069 5070 5071 5072 5073 5074 5076 0
-5076 5068 5069 5070 5071 5072 5073 5074 5075 0
5077 -4 -29 -58 -82 0
-5077 4 0
-5077 29 0
-5077 58 0
-5077 82 0
5078 -4 -29 -61 -79 0
-5078 4 0
-5078 29 0
-5078 61 0
-5078 79 0
5079 -4 -29 -64 -76 0
-5079 4 0
-5079 29 0
-5079 64 0
-5079 76 0
5080 -7 -29 -46 -82 0
-5080 7 0
-5080 29 0
-5080 46 0
-5080 82 0
5081 -7 -29 -49 -79 0
-5081 7 0
-5081 29 0
-5081 49 0
-5081 79 0
5082 -7 -29 -52 -76 0
-5082 7 0
-5082 29 0
-5082 52 0
-5082 76 0
5083 -13 -29 -40 -82 0
-5083 13 0
-5083 29 0
-5083 40 0
-5083 82 0
5084 -13 -29 -49 -64 0
-5084 13 0
-5084 29 0
-5084 49 0
-5084 64 0
5085 -13 -29 -52 -61 0
-5085 13 0
-5085 29 0
-5085 52 0
-5085 61 0
5086 -16 -29 -40 -79 0
-5086 16 0
-5086 29 0
-5086 40 0
-5086 79 0
5087 -16 -29 -46 -64 0
-5087 16 0
-5087 29 0
-5087 46 0
-5087 64 0
5088 -16 -29 -52 -58 0
-5088 16 0
-5088 29 0
-5088 52 0
-5088 58 0
5089 -19 -29 -40 -76 0
-5089 19 0
-5089 29 0
-5089 40 0
-5089 76 0
5090 -19 -29 -46 -61 0
-5090 19 0
-5090 29 0
-5090 46 0
-5090 61 0
5091 -19 -29 -49 -58 0
-5091 19 0
-5091 29 0
-5091 49 0
-5091 58 0
-5077 5078 5079 5080 5081 5082 5083 5084 5085 5086 5087 5088 5089 5090 5091 0
-5078 5077 5079 5080 5081 5082 5083 5084 5085 5086 5087 5088 5089 5090 5091 0
-5079 5077 5078 5080 5081 5082 5083 5084 5085 5086 5087 5088 5089 5090 5091 0
-5080 5077 5078 5079 5081 5082 5083 5084 5085 5086 5087 5088 5089 5090 5091 0
-5081 5077 5078 5079 5080 5082 5083 5084 5085 5086 5087 5088 5089 5090 5091 0
-5082 5077 5078 5079 5080 5081 5083 5084 5085 5086 5087 5088 5089 5090 5091 0
-5083 5077 5078 5079 5080 5081 5082 5084 5085 5086 5087 5088 5089 5090 5091 0
-5084 5077 5078 5079 5080 5081 5082 5083 5085 5086 5087 5088 5089 5090 5091 0
-5085 5077 5078 5079 5080 5081 5082 5083 5084 5086 5087 5088 5089 5090 5091 0
-5086 5077 5078 5079 5080 5081 5082 5083 5084 5085 5087 5088 5089 5090 5091 0
-5087 5077 5078 5079 5080 5081 5082 5083 5084 5085 5086 5088 5089 5090 5091 0
-5088 5077 5078 5079 5080 5081 5082 5083 5084 5085 5086 5087 5089 5090 5091 0
-5089 5077 5078 5079 5080 5081 5082 5083 5084 5085 5086 5087 5088 5090 5091 0
-5090 5077 5078 5079 5080 5081 5082 5083 5084 5085 5086 5087 5088 5089 5091 0
-5091 5077 5078 5079 5080 5081 5082 5083 5084 5085 5086 5087 5088 5089 5090 0
5092 -4 -29 -58 -83 0
-5092 4 0
-5092 29 0
-5092 58 0
-5092 83 0
5093 -4 -35 -58 -74 0
-5093 4 0
-5093 35 0
-5093 58 0
-5093 74 0
5094 -4 -38 -58 -71 0
-5094 4 0
-5094 38 0
-5094 58 0
-5094 71 0
5095 -7 -29 -46 -83 0
-5095 7 0
-5095 29 0
-5095 46 0
-5095 83 0
5096 -7 -35 -46 -74 0
-5096 7 0
-5096 35 0
-5096 46 0
-5096 74 0
5097 -7 -38 -46 -71 0
-5097 7 0
-5097 38 0
-5097 46 0
-5097 71 0
5098 -13 -29 -40 -83 0
-5098 13 0
-5098 29 0
-5098 40 0
-5098 83 0
5099 -13 -35 -40 -74 0
-5099 13 0
-5099 35 0
-5099 40 0
-5099 74 0
5100 -13 -38 -40 -71 0
-5100 13 0
-5100 38 0
-5100 40 0
-5100 71 0
-5092 5093 5094 5095 5096 5097 5098 5099 5100 0
-5093 5092 5094 5095 5096 5097 5098 5099 5100 0
-5094 5092 5093 5095 5096 5097 5098 5099 5100 0
-5095 5092 5093 5094 5096 5097 5098 5099 5100 0
-5096 5092 5093 5094 5095 5097 5098 5099 5100 0
-5097 5092 5093 5094 5095 5096 5098 5099 5100 0
-5098 5092 5093 5094 5095 5096 5097 5099 5100 0
-5099 5092 5093 5094 5095 5096 5097 5098 5100 0
-5100 5092 5093 5094 5095 5096 5097 5098 5099 0
5101 -4 -29 -58 -84 0
-5101 4 0
-5101 29 0
-5101 58 0
-5101 84 0
5102 -7 -29 -46 -84 0
-5102 7 0
-5102 29 0
-5102 46 0
-5102 84 0
5103 -13 -29 -40 -84 0
-5103 13 0
-5103 29 0
-5103 40 0
-5103 84 0
-5101 5102 5103 0
-5102 5101 5103 0
-5103 5101 5102 0
5104 -4 -29 -60 -82 0
-5104 4 0
-5104 29 0
-5104 60 0
-5104 82 0
5105 -16 -29 -52 -60 0
-5105 16 0
-5105 29 0
-5105 52 0
-5105 60 0
5106 -19 -29 -49 -60 0
-5106 19 0
-5106 29 0
-5106 49 0
-5106 60 0
-5104 5105 5106 0
-5105 5104 5106 0
-5106 5104 5105 0
5107 -4 -29 -60 -83 0
-5107 4 0
-5107 29 0
-5107 60 0
-5107 83 0
5108 -4 -35 -60 -74 0
-5108 4 0
-5108 35 0
-5108 60 0
-5108 74 0
5109 -4 -38 -60 -71 0
-5109 4 0
-5109 38 0
-5109 60 0
-5109 71 0
-5107 5108 5109 0
-5108 5107 5109 0
-5109 5107 5108 0
5110 -4 -29 -60 -84 0
-5110 4 0
-5110 29 0
-5110 60 0
-5110 84 0
5111 -4 -29 -63 -81 0
-5111 4 0
-5111 29 0
-5111 63 0
-5111 81 0
5112 -4 -29 -66 -78 0
-5112 4 0
-5112 29 0
-5112 66 0
-5112 78 0
-5110 5111 5112 0
-5111 5110 5112 0
-5112 5110 5111 0
5113 -4 -30 -58 -82 0
-5113 4 0
-5113 30 0
-5113 58 0
-5113 82 0
5114 -4 -30 -61 -79 0
-5114 4 0
-5114 30 0
-5114 61 0
-5114 79 0
5115 -4 -30 -64 -76 0
-5115 4 0
-5115 30 0
-5115 64 0
-5115 76 0
5116 -7 -30 -46 -82 0
-5116 7 0
-5116 30 0
-5116 46 0
-5116 82 0
5117 -7 -30 -49 -79 0
-5117 7 0
-5117 30 0
-5117 49 0
-5117 79 0
5118 -7 -30 -52 -76 0
-5118 7 0
-5118 30 0
-5118 52 0
-5118 76 0
5119 -13 -30 -40 -82 0
-5119 13 0
-5119 30 0
-5119 40 0
-5119 82 0
5120 -13 -30 -49 -64 0
-5120 13 0
-5120 30 0
-5120 49 0
-5120 64 0
5121 -13 -30 -52 -61 0
-5121 13 0
-5121 30 0
-5121 52 0
-5121 61 0
5122 -16 -30 -40 -79 0
-5122 16 0
-5122 30 0
-5122 40 0
-5122 79 0
5123 -16 -30 -46 -64 0
-5123 16 0
-5123 30 0
-5123 46 0
-5123 64 0
5124 -16 -30 -52 -58 0
-5124 16 0
-5124 30 0
-5124 52 0
-5124 58 0
5125 -19 -30 -40 -76 0
-5125 19 0
-5125 30 0
-5125 40 0
-5125 76 0
5126 -19 -30 -46 -61 0
-5126 19 0
-5126 30 0
-5126 46 0
-5126 61 0
5127 -19 -30 -49 -58 0
-5127 19 0
-5127 30 0
-5127 49 0
-5127 58 0
-5113 5114 5115 5116 5117 5118 5119 5120 5121 5122 5123 5124 5125 5126 5127 0
-5114 5113 5115 5116 5117 5118 5119 5120 5121 5122 5123 5124 5125 5126 5127 0
-5115 5113 5114 5116 5117 5118 5119 5120 5121 5122 5123 5124 5125 5126 5127 0
-5116 5113 5114 5115 5117 5118 5119 5120 5121 5122 5123 5124 5125 5126 5127 0
-5117 5113 5114 5115 5116 5118 5119 5120 5121 5122 5123 5124 5125 5126 5127 0
-5118 5113 5114 5115 5116 5117 5119 5120 5121 5122 5123 5124 5125 5126 5127 0
-5119 5113 5114 5115 5116 5117 5118 5120 5121 5122 5123 5124 5125 5126 5127 0
-5120 5113 5114 5115 5116 5117 5118 5119 5121 5122 5123 5124 5125 5126 5127 0
-5121 5113 5114 5115 5116 5117 5118 5119 5120 5122 5123 5124 5125 5126 5127 0
-5122 5113 5114 5115 5116 5117 5118 5119 5120 5121 5123 5124 5125 5126 5127 0
-5123 5113 5114 5115 5116 5117 5118 5119 5120 5121 5122 5124 5125 5126 5127 0
-5124 5113 5114 5115 5116 5117 5118 5119 5120 5121 5122 5123 5125 5126 5127 0
-5125 5113 5114 5115 5116 5117 5118 5119 5120 5121 5122 5123 5124 5126 5127 0
-5126 5113 5114 5115 5116 5117 5118 5119 5120 5121 5122 5123 5124 5125 5127 0
-5127 5113 5114 5115 5116 5117 5118 5119 5120 5121 5122 5123 5124 5125 5126 0
5128 -4 -30 -58 -83 0
-5128 4 0
-5128 30 0
-5128 58 0
-5128 83 0
5129 -7 -30 -46 -83 0
-5129 7 0
-5129 30 0
-5129 46 0
-5129 83 0
5130 -13 -30 -40 -83 0
-5130 13 0
-5130 30 0
-5130 40 0
-5130 83 0
-5128 5129 5130 0
-5129 5128 5130 0
-5130 5128 5129 0
5131 -4 -30 -58 -84 0
-5131 4 0
-5131 30 0
-5131 58 0
-5131 84 0
5132 -4 -36 -58 -75 0
-5132 4 0
-5132 36 0
-5132 58 0
-5132 75 0
5133 -4 -39 -58 -72 0
-5133 4 0
-5133 39 0
-5133 58 0
-5133 72 0
5134 -7 -30 -46 -84 0
-5134 7 0
-5134 30 0
-5134 46 0
-5134 84 0
5135 -7 -36 -46 -75 0
-5135 7 0
-5135 36 0
-5135 46 0
-5135 75 0
5136 -7 -39 -46 -72 0
-5136 7 0
-5136 39 0
-5136 46 0
-5136 72 0
5137 -13 -30 -40 -84 0
-5137 13 0
-5137 30 0
-5137 40 0
-5137 84 0
5138 -13 -36 -40 -75 0
-5138 13 0
-5138 36 0
-5138 40 0
-5138 75 0
5139 -13 -39 -40 -72 0
-5139 13 0
-5139 39 0
-5139 40 0
-5139 72 0
-5131 5132 5133 5134 5135 5136 5137 5138 5139 0
-5132 5131 5133 5134 5135 5136 5137 5138 5139 0
-5133 5131 5132 5134 5135 5136 5137 5138 5139 0
-5134 5131 5132 5133 5135 5136 5137 5138 5139 0
-5135 5131 5132 5133 5134 5136 5137 5138 5139 0
-5136 5131 5132 5133 5134 5135 5137 5138 5139 0
-5137 5131 5132 5133 5134 5135 5136 5138 5139 0
-5138 5131 5132 5133 5134 5135 5136 5137 5139 0
-5139 5131 5132 5133 5134 5135 5136 5137 5138 0
5140 -4 -30 -59 -82 0
-5140 4 0
-5140 30 0
-5140 59 0
-5140 82 0
5141 -16 -30 -52 -59 0
-5141 16 0
-5141 30 0
-5141 52 0
-5141 59 0
5142 -19 -30 -49 -59 0
-5142 19 0
-5142 30 0
-5142 49 0
-5142 59 0
-5140 5141 5142 0
-5141 5140 5142 0
-5142 5140 5141 0
5143 -4 -30 -59 -83 0
-5143 4 0
-5143 30 0
-5143 59 0
-5143 83 0
5144 -4 -30 -62 -80 0
-5144 4 0
-5144 30 0
-5144 62 0
-5144 80 0
5145 -4 -30 -65 -77 0
-5145 4 0
-5145 30 0
-5145 65 0
-5145 77 0
-5143 5144 5145 0
-5144 5143 5145 0
-5145 5143 5144 0
5146 -4 -30 -59 -84 0
-5146 4 0
-5146 30 0
-5146 59 0
-5146 84 0
5147 -4 -36 -59 -75 0
-5147 4 0
-5147 36 0
-5147 59 0
-5147 75 0
5148 -4 -39 -59 -72 0
-5148 4 0
-5148 39 0
-5148 59 0
-5148 72 0
-5146 5147 5148 0
-5147 5146 5148 0
-5148 5146 5147 0
5149 -5 -28 -59 -82 0
-5149 5 0
-5149 28 0
-5149 59 0
-5149 82 0
5150 -5 -34 -59 -73 0
-5150 5 0
-5150 34 0
-5150 59 0
-5150 73 0
5151 -5 -37 -59 -70 0
-5151 5 0
-5151 37 0
-5151 59 0
-5151 70 0
5152 -8 -28 -47 -82 0
-5152 8 0
-5152 28 0
-5152 47 0
-5152 82 0
5153 -8 -34 -47 -73 0
-5153 8 0
-5153 34 0
-5153 47 0
-5153 73 0
5154 -8 -37 -47 -70 0
-5154 8 0
-5154 37 0
-5154 47 0
-5154 70 0
5155 -14 -28 -41 -82 0
-5155 14 0
-5155 28 0
-5155 41 0
-5155 82 0
5156 -14 -34 -41 -73 0
-5156 14 0
-5156 34 0
-5156 41 0
-5156 73 0
5157 -14 -37 -41 -70 0
-5157 14 0
-5157 37 0
-5157 41 0
-5157 70 0
-5149 5150 5151 5152 5153 5154 5155 5156 5157 0
-5150 5149 5151 5152 5153 5154 5155 5156 5157 0
-5151 5149 5150 5152 5153 5154 5155 5156 5157 0
-5152 5149 5150 5151 5153 5154 5155 5156 5157 0
-5153 5149 5150 5151 5152 5154 5155 5156 5157 0
-5154 5149 5150 5151 5152 5153 5155 5156 5157 0
-5155 5149 5150 5151 5152 5153 5154 5156 5157 0
-5156 5149 5150 5151 5152 5153 5154 5155 5157 0
-5157 5149 5150 5151 5152 5153 5154 5155 5156 0
5158 -5 -28 -59 -83 0
-5158 5 0
-5158 28 0
-5158 59 0
-5158 83 0
5159 -5 -28 -62 -80 0
-5159 5 0
-5159 28 0
-5159 62 0
-5159 80 0
5160 -5 -28 -65 -77 0
-5160 5 0
-5160 28 0
-5160 65 0
-5160 77 0
5161 -8 -28 -47 -83 0
-5161 8 0
-5161 28 0
-5161 47 0
-5161 83 0
5162 -8 -28 -50 -80 0
-5162 8 0
-5162 28 0
-5162 50 0
-5162 80 0
5163 -8 -28 -53 -77 0
-5163 8 0
-5163 28 0
-5163 53 0
-5163 77 0
5164 -14 -28 -41 -83 0
-5164 14 0
-5164 28 0
-5164 41 0
-5164 83 0
5165 -14 -28 -50 -65 0
-5165 14 0
-5165 28 0
-5165 50 0
-5165 65 0
5166 -14 -28 -53 -62 0
-5166 14 0
-5166 28 0
-5166 53 0
-5166 62 0
5167 -17 -28 -41 -80 0
-5167 17 0
-5167 28 0
-5167 41 0
-5167 80 0
5168 -17 -28 -47 -65 0
-5168 17 0
-5168 28 0
-5168 47 0
-5168 65 0
5169 -17 -28 -53 -59 0
-5169 17 0
-5169 28 0
-5169 53 0
-5169 59 0
5170 -20 -28 -41 -77 0
-5170 20 0
-5170 28 0
-5170 41 0
-5170 77 0
5171 -20 -28 -47 -62 0
-5171 20 0
-5171 28 0
-5171 47 0
-5171 62 0
5172 -20 -28 -50 -59 0
-5172 20 0
-5172 28 0
-5172 50 0
-5172 59 0
-5158 5159 5160 5161 5162 5163 5164 5165 5166 5167 5168 5169 5170 5171 5172 0
-5159 5158 5160 5161 5162 5163 5164 5165 5166 5167 5168 5169 5170 5171 5172 0
-5160 5158 5159 5161 5162 5163 5164 5165 5166 5167 5168 5169 5170 5171 5172 0
-5161 5158 5159 5160 5162 5163 5164 5165 5166 5167 5168 5169 5170 5171 5172 0
-5162 5158 5159 5160 5161 5163 5164 5165 5166 5167 5168 5169 5170 5171 5172 0
-5163 5158 5159 5160 5161 5162 5164 5165 5166 5167 5168 5169 5170 5171 5172 0
-5164 5158 5159 5160 5161 5162 5163 5165 5166 5167 5168 5169 5170 5171 5172 0
-5165 5158 5159 5160 5161 5162 5163 5164 5166 5167 5168 5169 5170 5171 5172 0
-5166 5158 5159 5160 5161 5162 5163 5164 5165 5167 5168 5169 5170 5171 5172 0
-5167 5158 5159 5160 5161 5162 5163 5164 5165 5166 5168 5169 5170 5171 5172 0
-5168 5158 5159 5160 5161 5162 5163 5164 5165 5166 5167 5169 5170 5171 5172 0
-5169 5158 5159 5160 5161 5162 5163 5164 5165 5166 5167 5168 5170 5171 5172 0
-5170 5158 5159 5160 5161 5162 5163 5164 5165 5166 5167 5168 5169 5171 5172 0
-5171 5158 5159 5160 5161 5162 5163 5164 5165 5166 5167 5168 5169 5170 5172 0
-5172 5158 5159 5160 5161 5162 5163 5164 5165 5166 5167 5168 5169 5170 5171 0
5173 -5 -28 -59 -84 0
-5173 5 0
-5173 28 0
-5173 59 0
-5173 84 0
5174 -8 -28 -47 -84 0
-5174 8 0
-5174 28 0
-5174 47 0
-5174 84 0
5175 -14 -28 -41 -84 0
-5175 14 0
-5175 28 0
-5175 41 0
-5175 84 0
-5173 5174 5175 0
-5174 5173 5175 0
-5175 5173 5174 0
5176 -5 -28 -60 -82 0
-5176 5 0
-5176 28 0
-5176 60 0
-5176 82 0
5177 -5 -34 -60 -73 0
-5177 5 0
-5177 34 0
-5177 60 0
-5177 73 0
5178 -5 -37 -60 -70 0
-5178 5 0
-5178 37 0
-5178 60 0
-5178 70 0
-5176 5177 5178 0
-5177 5176 5178 0
-5178 5176 5177 0
5179 -5 -28 -60 -83 0
-5179 5 0
-5179 28 0
-5179 60 0
-5179 83 0
5180 -17 -28 -53 -60 0
-5180 17 0
-5180 28 0
-5180 53 0
-5180 60 0
5181 -20 -28 -50 -60 0
-5181 20 0
-5181 28 0
-5181 50 0
-5181 60 0
-5179 5180 5181 0
-5180 5179 5181 0
-5181 5179 5180 0
5182 -5 -28 -60 -84 0
-5182 5 0
-5182 28 0
-5182 60 0
-5182 84 0
5183 -5 -28 -63 -81 0
-5183 5 0
-5183 28 0
-5183 63 0
-5183 81 0
5184 -5 -28 -66 -78 0
-5184 5 0
-5184 28 0
-5184 66 0
-5184 78 0
-5182 5183 5184 0
-5183 5182 5184 0
-5184 5182 5183 0
5185 -5 -30 -58 -82 0
-5185 5 0
-5185 30 0
-5185 58 0
-5185 82 0
5186 -5 -30 -61 -79 0
-5186 5 0
-5186 30 0
-5186 61 0
-5186 79 0
5187 -5 -30 -64 -76 0
-5187 5 0
-5187 30 0
-5187 64 0
-5187 76 0
-5185 5186 5187 0
-5186 5185 5187 0
-5187 5185 5186 0
5188 -5 -30 -58 -83 0
-5188 5 0
-5188 30 0
-5188 58 0
-5188 83 0
5189 -17 -30 -53 -58 0
-5189 17 0
-5189 30 0
-5189 53 0
-5189 58 0
5190 -20 -30 -50 -58 0
-5190 20 0
-5190 30 0
-5190 50 0
-5190 58 0
-5188 5189 5190 0
-5189 5188 5190 0
-5190 5188 5189 0
5191 -5 -30 -58 -84 0
-5191 5 0
-5191 30 0
-5191 58 0
-5191 84 0
5192 -5 -36 -58 -75 0
-5192 5 0
-5192 36 0
-5192 58 0
-5192 75 0
5193 -5 -39 -58 -72 0
-5193 5 0
-5193 39 0
-5193 58 0
-5193 72 0
-5191 5192 5193 0
-5192 5191 5193 0
-5193 5191 5192 0
5194 -5 -30 -59 -82 0
-5194 5 0
-5194 30 0
-5194 59 0
-5194 82 0
5195 -8 -30 -47 -82 0
-5195 8 0
-5195 30 0
-5195 47 0
-5195 82 0
5196 -14 -30 -41 -82 0
-5196 14 0
-5196 30 0
-5196 41 0
-5196 82 0
-5194 5195 5196 0
-5195 5194 5196 0
-5196 5194 5195 0
5197 -5 -30 -59 -83 0
-5197 5 0
-5197 30 0
-5197 59 0
-5197 83 0
5198 -5 -30 -62 -80 0
-5198 5 0
-5198 30 0
-5198 62 0
-5198 80 0
5199 -5 -30 -65 -77 0
-5199 5 0
-5199 30 0
-5199 65 0
-5199 77 0
5200 -8 -30 -47 -83 0
-5200 8 0
-5200 30 0
-5200 47 0
-5200 83 0
5201 -8 -30 -50 -80 0
-5201 8 0
-5201 30 0
-5201 50 0
-5201 80 0
5202 -8 -30 -53 -77 0
-5202 8 0
-5202 30 0
-5202 53 0
-5202 77 0
5203 -14 -30 -41 -83 0
-5203 14 0
-5203 30 0
-5203 41 0
-5203 83 0
5204 -14 -30 -50 -65 0
-5204 14 0
-5204 30 0
-5204 50 0
-5204 65 0
5205 -14 -30 -53 -62 0
-5205 14 0
-5205 30 0
-5205 53 0
-5205 62 0
5206 -17 -30 -41 -80 0
-5206 17 0
-5206 30 0
-5206 41 0
-5206 80 0
5207 -17 -30 -47 -65 0
-5207 17 0
-5207 30 0
-5207 47 0
-5207 65 0
5208 -17 -30 -53 -59 0
-5208 17 0
-5208 30 0
-5208 53 0
-5208 59 0
5209 -20 -30 -41 -77 0
-5209 20 0
-5209 30 0
-5209 41 0
-5209 77 0
5210 -20 -30 -47 -62 0
-5210 20 0
-5210 30 0
-5210 47 0
-5210 62 0
5211 -20 -30 -50 -59 0
-5211 20 0
-5211 30 0
-5211 50 0
-5211 59 0
-5197 5198 5199 5200 5201 5202 5203 5204 5205 5206 5207 5208 5209 5210 5211 0
-5198 5197 5199 5200 5201 5202 5203 5204 5205 5206 5207 5208 5209 5210 5211 0
-5199 5197 5198 5200 5201 5202 5203 5204 5205 5206 5207 5208 5209 5210 5211 0
-5200 5197 5198 5199 5201 5202 5203 5204 5205 5206 5207 5208 5209 5210 5211 0
-5201 5197 5198 5199 5200 5202 5203 5204 5205 5206 5207 5208 5209 5210 5211 0
-5202 5197 5198 5199 5200 5201 5203 5204 5205 5206 5207 5208 5209 5210 5211 0
-5203 5197 5198 5199 5200 5201 5202 5204 5205 5206 5207 5208 5209 5210 5211 0
-5204 5197 5198 5199 5200 5201 5202 5203 5205 5206 5207 5208 5209 5210 5211 0
-5205 5197 5198 5199 5200 5201 5202 5203 5204 5206 5207 5208 5209 5210 5211 0
-5206 5197 5198 5199 5200 5201 5202 5203 5204 5205 5207 5208 5209 5210 5211 0
-5207 5197 5198 5199 5200 5201 5202 5203 5204 5205 5206 5208 5209 5210 5211 0
-5208 5197 5198 5199 5200 5201 5202 5203 5204 5205 5206 5207 5209 5210 5211 0
-5209 5197 5198 5199 5200 5201 5202 5203 5204 5205 5206 5207 5208 5210 5211 0
-5210 5197 5198 5199 5200 5201 5202 5203 5204 5205 5206 5207 5208 5209 5211 0
-5211 5197 5198 5199 5200 5201 5202 5203 5204 5205 5206 5207 5208 5209 5210 0
5212 -5 -30 -59 -84 0
-5212 5 0
-5212 30 0
-5212 59 0
-5212 84 0
5213 -5 -36 -59 -75 0
-5213 5 0
-5213 36 0
-5213 59 0
-5213 75 0
5214 -5 -39 -59 -72 0
-5214 5 0
-5214 39 0
-5214 59 0
-5214 72 0
5215 -8 -30 -47 -84 0
-5215 8 0
-5215 30 0
-5215 47 0
-5215 84 0
5216 -8 -36 -47 -75 0
-5216 8 0
-5216 36 0
-5216 47 0
-5216 75 0
5217 -8 -39 -47 -72 0
-5217 8 0
-5217 39 0
-5217 47 0
-5217 72 0
5218 -14 -30 -41 -84 0
-5218 14 0
-5218 30 0
-5218 41 0
-5218 84 0
5219 -14 -36 -41 -75 0
-5219 14 0
-5219 36 0
-5219 41 0
-5219 75 0
5220 -14 -39 -41 -72 0
-5220 14 0
-5220 39 0
-5220 41 0
-5220 72 0
-5212 5213 5214 5215 5216 5217 5218 5219 5220 0
-5213 5212 5214 5215 5216 5217 5218 5219 5220 0
-5214 5212 5213 5215 5216 5217 5218 5219 5220 0
-5215 5212 5213 5214 5216 5217 5218 5219 5220 0
-5216 5212 5213 5214 5215 5217 5218 5219 5220 0
-5217 5212 5213 5214 5215 5216 5218 5219 5220 0
-5218 5212 5213 5214 5215 5216 5217 5219 5220 0
-5219 5212 5213 5214 5215 5216 5217 5218 5220 0
-5220 5212 5213 5214 5215 5216 5217 5218 5219 0
5221 -6 -28 -59 -82 0
-5221 6 0
-5221 28 0
-5221 59 0
-5221 82 0
5222 -6 -34 -59 -73 0
-5222 6 0
-5222 34 0
-5222 59 0
-5222 73 0
5223 -6 -37 -59 -70 0
-5223 6 0
-5223 37 0
-5223 59 0
-5223 70 0
-5221 5222 5223 0
-5222 5221 5223 0
-5223 5221 5222 0
5224 -6 -28 -59 -83 0
-5224 6 0
-5224 28 0
-5224 59 0
-5224 83 0
5225 -6 -28 -62 -80 0
-5225 6 0
-5225 28 0
-5225 62 0
-5225 80 0
5226 -6 -28 -65 -77 0
-5226 6 0
-5226 28 0
-5226 65 0
-5226 77 0
-5224 5225 5226 0
-5225 5224 5226 0
-5226 5224 5225 0
5227 -6 -28 -59 -84 0
-5227 6 0
-5227 28 0
-5227 59 0
-5227 84 0
5228 -18 -28 -54 -59 0
-5228 18 0
-5228 28 0
-5228 54 0
-5228 59 0
5229 -21 -28 -51 -59 0
-5229 21 0
-5229 28 0
-5229 51 0
-5229 59 0
-5227 5228 5229 0
-5228 5227 5229 0
-5229 5227 5228 0
5230 -6 -28 -60 -82 0
-5230 6 0
-5230 28 0
-5230 60 0
-5230 82 0
5231 -6 -34 -60 -73 0
-5231 6 0
-5231 34 0
-5231 60 0
-5231 73 0
5232 -6 -37 -60 -70 0
-5232 6 0
-5232 37 0
-5232 60 0
-5232 70 0
5233 -9 -28 -48 -82 0
-5233 9 0
-5233 28 0
-5233 48 0
-5233 82 0
5234 -9 -34 -48 -73 0
-5234 9 0
-5234 34 0
-5234 48 0
-5234 73 0
5235 -9 -37 -48 -70 0
-5235 9 0
-5235 37 0
-5235 48 0
-5235 70 0
5236 -15 -28 -42 -82 0
-5236 15 0
-5236 28 0
-5236 42 0
-5236 82 0
5237 -15 -34 -42 -73 0
-5237 15 0
-5237 34 0
-5237 42 0
-5237 73 0
5238 -15 -37 -42 -70 0
-5238 15 0
-5238 37 0
-5238 42 0
-5238 70 0
-5230 5231 5232 5233 5234 5235 5236 5237 5238 0
-5231 5230 5232 5233 5234 5235 5236 5237 5238 0
-5232 5230 5231 5233 5234 5235 5236 5237 5238 0
-5233 5230 5231 5232 5234 5235 5236 5237 5238 0
-5234 5230 5231 5232 5233 5235 5236 5237 5238 0
-5235 5230 5231 5232 5233 5234 5236 5237 5238 0
-5236 5230 5231 5232 5233 5234 5235 5237 5238 0
-5237 5230 5231 5232 5233 5234 5235 5236 5238 0
-5238 5230 5231 5232 5233 5234 5235 5236 5237 0
5239 -6 -28 -60 -83 0
-5239 6 0
-5239 28 0
-5239 60 0
-5239 83 0
5240 -9 -28 -48 -83 0
-5240 9 0
-5240 28 0
-5240 48 0
-5240 83 0
5241 -15 -28 -42 -83 0
-5241 15 0
-5241 28 0
-5241 42 0
-5241 83 0
-5239 5240 5241 0
-5240 5239 5241 0
-5241 5239 5240 0
5242 -6 -28 -60 -84 0
-5242 6 0
-5242 28 0
-5242 60 0
-5242 84 0
5243 -6 -28 -63 -81 0
-5243 6 0
-5243 28 0
-5243 63 0
-5243 81 0
5244 -6 -28 -66 -78 0
-5244 6 0
-5244 28 0
-5244 66 0
-5244 78 0
5245 -9 -28 -48 -84 0
-5245 9 0
-5245 28 0
-5245 48 0
-5245 84 0
5246 -9 -28 -51 -81 0
-5246 9 0
-5246 28 0
-5246 51 0
-5246 81 0
5247 -9 -28 -54 -78 0
-5247 9 0
-5247 28 0
-5247 54 0
-5247 78 0
5248 -15 -28 -42 -84 0
-5248 15 0
-5248 28 0
-5248 42 0
-5248 84 0
5249 -15 -28 -51 -66 0
-5249 15 0
-5249 28 0
-5249 51 0
-5249 66 0
5250 -15 -28 -54 -63 0
-5250 15 0
-5250 28 0
-5250 54 0
-5250 63 0
5251 -18 -28 -42 -81 0
-5251 18 0
-5251 28 0
-5251 42 0
-5251 81 0
5252 -18 -28 -48 -66 0
-5252 18 0
-5252 28 0
-5252 48 0
-5252 66 0
5253 -18 -28 -54 -60 0
-5253 18 0
-5253 28 0
-5253 54 0
-5253 60 0
5254 -21 -28 -42 -78 0
-5254 21 0
-5254 28 0
-5254 42 0
-5254 78 0
5255 -21 -28 -48 -63 0
-5255 21 0
-5255 28 0
-5255 48 0
-5255 63 0
5256 -21 -28 -51 -60 0
-5256 21 0
-5256 28 0
-5256 51 0
-5256 60 0
-5242 5243 5244 5245 5246 5247 5248 5249 5250 5251 5252 5253 5254 5255 5256 0
-5243 5242 5244 5245 5246 5247 5248 5249 5250 5251 5252 5253 5254 5255 5256 0
-5244 5242 5243 5245 5246 5247 5248 5249 5250 5251 5252 5253 5254 5255 5256 0
-5245 5242 5243 5244 5246 5247 5248 5249 5250 5251 5252 5253 5254 5255 5256 0
-5246 5242 5243 5244 5245 5247 5248 5249 5250 5251 5252 5253 5254 5255 5256 0
-5247 5242 5243 5244 5245 5246 5248 5249 5250 5251 5252 5253 5254 5255 5256 0
-5248 5242 5243 5244 5245 5246 5247 5249 5250 5251 5252 5253 5254 5255 5256 0
-5249 5242 5243 5244 5245 5246 5247 5248 5250 5251 5252 5253 5254 5255 5256 0
-5250 5242 5243 5244 5245 5246 5247 5248 5249 5251 5252 5253 5254 5255 5256 0
-5251 5242 5243 5244 5245 5246 5247 5248 5249 5250 5252 5253 5254 5255 5256 0
-5252 5242 5243 5244 5245 5246 5247 5248 5249 5250 5251 5253 5254 5255 5256 0
-5253 5242 5243 5244 5245 5246 5247 5248 5249 5250 5251 5252 5254 5255 5256 0
-5254 5242 5243 5244 5245 5246 5247 5248 5249 5250 5251 5252 5253 5255 5256 0
-5255 5242 5243 5244 5245 5246 5247 5248 5249 5250 5251 5252 5253 5254 5256 0
-5256 5242 5243 5244 5245 5246 5247 5248 5249 5250 5251 5252 5253 5254 5255 0
5257 -6 -29 -58 -82 0
-5257 6 0
-5257 29 0
-5257 58 0
-5257 82 0
5258 -6 -29 -61 -79 0
-5258 6 0
-5258 29 0
-5258 61 0
-5258 79 0
5259 -6 -29 -64 -76 0
-5259 6 0
-5259 29 0
-5259 64 0
-5259 76 0
-5257 5258 5259 0
-5258 5257 5259 0
-5259 5257 5258 0
5260 -6 -29 -58 -83 0
-5260 6 0
-5260 29 0
-5260 58 0
-5260 83 0
5261 -6 -35 -58 -74 0
-5261 6 0
-5261 35 0
-5261 58 0
-5261 74 0
5262 -6 -38 -58 -71 0
-5262 6 0
-5262 38 0
-5262 58 0
-5262 71 0
-5260 5261 5262 0
-5261 5260 5262 0
-5262 5260 5261 0
5263 -6 -29 -58 -84 0
-5263 6 0
-5263 29 0
-5263 58 0
-5263 84 0
5264 -18 -29 -54 -58 0
-5264 18 0
-5264 29 0
-5264 54 0
-5264 58 0
5265 -21 -29 -51 -58 0
-5265 21 0
-5265 29 0
-5265 51 0
-5265 58 0
-5263 5264 5265 0
-5264 5263 5265 0
-5265 5263 5264 0
5266 -6 -29 -60 -82 0
-5266 6 0
-5266 29 0
-5266 60 0
-5266 82 0
5267 -9 -29 -48 -82 0
-5267 9 0
-5267 29 0
-5267 48 0
-5267 82 0
5268 -15 -29 -42 -82 0
-5268 15 0
-5268 29 0
-5268 42 0
-5268 82 0
-5266 5267 5268 0
-5267 5266 5268 0
-5268 5266 5267 0
5269 -6 -29 -60 -83 0
-5269 6 0
-5269 29 0
-5269 60 0
-5269 83 0
5270 -6 -35 -60 -74 0
-5270 6 0
-5270 35 0
-5270 60 0
-5270 74 0
5271 -6 -38 -60 -71 0
-5271 6 0
-5271 38 0
-5271 60 0
-5271 71 0
5272 -9 -29 -48 -83 0
-5272 9 0
-5272 29 0
-5272 48 0
-5272 83 0
5273 -9 -35 -48 -74 0
-5273 9 0
-5273 35 0
-5273 48 0
-5273 74 0
5274 -9 -38 -48 -71 0
-5274 9 0
-5274 38 0
-5274 48 0
-5274 71 0
5275 -15 -29 -42 -83 0
-5275 15 0
-5275 29 0
-5275 42 0
-5275 83 0
5276 -15 -35 -42 -74 0
-5276 15 0
-5276 35 0
-5276 42 0
-5276 74 0
5277 -15 -38 -42 -71 0
-5277 15 0
-5277 38 0
-5277 42 0
-5277 71 0
-5269 5270 5271 5272 5273 5274 5275 5276 5277 0
-5270 5269 5271 5272 5273 5274 5275 5276 5277 0
-5271 5269 5270 5272 5273 5274 5275 5276 5277 0
-5272 5269 5270 5271 5273 5274 5275 5276 5277 0
-5273 5269 5270 5271 5272 5274 5275 5276 5277 0
-5274 5269 5270 5271 5272 5273 5275 5276 5277 0
-5275 5269 5270 5271 5272 5273 5274 5276 5277 0
-5276 5269 5270 5271 5272 5273 5274 5275 5277 0
-5277 5269 5270 5271 5272 5273 5274 5275 5276 0
5278 -6 -29 -60 -84 0
-5278 6 0
-5278 29 0
-5278 60 0
-5278 84 0
5279 -6 -29 -63 -81 0
-5279 6 0
-5279 29 0
-5279 63 0
-5279 81 0
5280 -6 -29 -66 -78 0
-5280 6 0
-5280 29 0
-5280 66 0
-5280 78 0
5281 -9 -29 -48 -84 0
-5281 9 0
-5281 29 0
-5281 48 0
-5281 84 0
5282 -9 -29 -51 -81 0
-5282 9 0
-5282 29 0
-5282 51 0
-5282 81 0
5283 -9 -29 -54 -78 0
-5283 9 0
-5283 29 0
-5283 54 0
-5283 78 0
5284 -15 -29 -42 -84 0
-5284 15 0
-5284 29 0
-5284 42 0
-5284 84 0
5285 -15 -29 -51 -66 0
-5285 15 0
-5285 29 0
-5285 51 0
-5285 66 0
5286 -15 -29 -54 -63 0
-5286 15 0
-5286 29 0
-5286 54 0
-5286 63 0
5287 -18 -29 -42 -81 0
-5287 18 0
-5287 29 0
-5287 42 0
-5287 81 0
5288 -18 -29 -48 -66 0
-5288 18 0
-5288 29 0
-5288 48 0
-5288 66 0
5289 -18 -29 -54 -60 0
-5289 18 0
-5289 29 0
-5289 54 0
-5289 60 0
5290 -21 -29 -42 -78 0
-5290 21 0
-5290 29 0
-5290 42 0
-5290 78 0
5291 -21 -29 -48 -63 0
-5291 21 0
-5291 29 0
-5291 48 0
-5291 63 0
5292 -21 -29 -51 -60 0
-5292 21 0
-5292 29 0
-5292 51 0
-5292 60 0
-5278 5279 5280 5281 5282 5283 5284 5285 5286 5287 5288 5289 5290 5291 5292 0
-5279 5278 5280 5281 5282 5283 5284 5285 5286 5287 5288 5289 5290 5291 5292 0
-5280 5278 5279 5281 5282 5283 5284 5285 5286 5287 5288 5289 5290 5291 5292 0
-5281 5278 5279 5280 5282 5283 5284 5285 5286 5287 5288 5289 5290 5291 5292 0
-5282 5278 5279 5280 5281 5283 5284 5285 5286 5287 5288 5289 5290 5291 5292 0
-5283 5278 5279 5280 5281 5282 5284 5285 5286 5287 5288 5289 5290 5291 5292 0
-5284 5278 5279 5280 5281 5282 5283 5285 5286 5287 5288 5289 5290 5291 5292 0
-5285 5278 5279 5280 5281 5282 5283 5284 5286 5287 5288 5289 5290 5291 5292 0
-5286 5278 5279 5280 5281 5282 5283 5284 5285 5287 5288 5289 5290 5291 5292 0
-5287 5278 5279 5280 5281 5282 5283 5284 5285 5286 5288 5289 5290 5291 5292 0
-5288 5278 5279 5280 5281 5282 5283 5284 5285 5286 5287 5289 5290 5291 5292 0
-5289 5278 5279 5280 5281 5282 5283 5284 5285 5286 5287 5288 5290 5291 5292 0
-5290 5278 5279 5280 5281 5282 5283 5284 5285 5286 5287 5288 5289 5291 5292 0
-5291 5278 5279 5280 5281 5282 5283 5284 5285 5286 5287 5288 5289 5290 5292 0
-5292 5278 5279 5280 5281 5282 5283 5284 5285 5286 5287 5288 5289 5290 5291 0
5293 -4 -29 -61 -80 0
-5293 4 0
-5293 29 0
-5293 61 0
-5293 80 0
5294 -4 -32 -61 -74 0
-5294 4 0
-5294 32 0
-5294 61 0
-5294 74 0
5295 -4 -38 -61 -68 0
-5295 4 0
-5295 38 0
-5295 61 0
-5295 68 0
5296 -7 -29 -49 -80 0
-5296 7 0
-5296 29 0
-5296 49 0
-5296 80 0
5297 -7 -32 -49 -74 0
-5297 7 0
-5297 32 0
-5297 49 0
-5297 74 0
5298 -7 -38 -49 -68 0
-5298 7 0
-5298 38 0
-5298 49 0
-5298 68 0
5299 -16 -29 -40 -80 0
-5299 16 0
-5299 29 0
-5299 40 0
-5299 80 0
5300 -16 -32 -40 -74 0
-5300 16 0
-5300 32 0
-5300 40 0
-5300 74 0
5301 -16 -38 -40 -68 0
-5301 16 0
-5301 38 0
-5301 40 0
-5301 68 0
-5293 5294 5295 5296 5297 5298 5299 5300 5301 0
-5294 5293 5295 5296 5297 5298 5299 5300 5301 0
-5295 5293 5294 5296 5297 5298 5299 5300 5301 0
-5296 5293 5294 5295 5297 5298 5299 5300 5301 0
-5297 5293 5294 5295 5296 5298 5299 5300 5301 0
-5298 5293 5294 5295 5296 5297 5299 5300 5301 0
-5299 5293 5294 5295 5296 5297 5298 5300 5301 0
-5300 5293 5294 5295 5296 5297 5298 5299 5301 0
-5301 5293 5294 5295 5296 5297 5298 5299 5300 0
5302 -4 -29 -61 -81 0
-5302 4 0
-5302 29 0
-5302 61 0
-5302 81 0
5303 -7 -29 -49 -81 0
-5303 7 0
-5303 29 0
-5303 49 0
-5303 81 0
5304 -16 -29 -40 -81 0
-5304 16 0
-5304 29 0
-5304 40 0
-5304 81 0
-5302 5303 5304 0
-5303 5302 5304 0
-5304 5302 5303 0
5305 -4 -29 -63 -79 0
-5305 4 0
-5305 29 0
-5305 63 0
-5305 79 0
5306 -13 -29 -52 -63 0
-5306 13 0
-5306 29 0
-5306 52 0
-5306 63 0
5307 -19 -29 -46 -63 0
-5307 19 0
-5307 29 0
-5307 46 0
-5307 63 0
-5305 5306 5307 0
-5306 5305 5307 0
-5307 5305 5306 0
5308 -4 -29 -63 -80 0
-5308 4 0
-5308 29 0
-5308 63 0
-5308 80 0
5309 -4 -32 -63 -74 0
-5309 4 0
-5309 32 0
-5309 63 0
-5309 74 0
5310 -4 -38 -63 -68 0
-5310 4 0
-5310 38 0
-5310 63 0
-5310 68 0
-5308 5309 5310 0
-5309 5308 5310 0
-5310 5308 5309 0
5311 -4 -30 -61 -80 0
-5311 4 0
-5311 30 0
-5311 61 0
-5311 80 0
5312 -7 -30 -49 -80 0
-5312 7 0
-5312 30 0
-5312 49 0
-5312 80 0
5313 -16 -30 -40 -80 0
-5313 16 0
-5313 30 0
-5313 40 0
-5313 80 0
-5311 5312 5313 0
-5312 5311 5313 0
-5313 5311 5312 0
5314 -4 -30 -61 -81 0
-5314 4 0
-5314 30 0
-5314 61 0
-5314 81 0
5315 -4 -33 -61 -75 0
-5315 4 0
-5315 33 0
-5315 61 0
-5315 75 0
5316 -4 -39 -61 -69 0
-5316 4 0
-5316 39 0
-5316 61 0
-5316 69 0
5317 -7 -30 -49 -81 0
-5317 7 0
-5317 30 0
-5317 49 0
-5317 81 0
5318 -7 -33 -49 -75 0
-5318 7 0
-5318 33 0
-5318 49 0
-5318 75 0
5319 -7 -39 -49 -69 0
-5319 7 0
-5319 39 0
-5319 49 0
-5319 69 0
5320 -16 -30 -40 -81 0
-5320 16 0
-5320 30 0
-5320 40 0
-5320 81 0
5321 -16 -33 -40 -75 0
-5321 16 0
-5321 33 0
-5321 40 0
-5321 75 0
5322 -16 -39 -40 -69 0
-5322 16 0
-5322 39 0
-5322 40 0
-5322 69 0
-5314 5315 5316 5317 5318 5319 5320 5321 5322 0
-5315 5314 5316 5317 5318 5319 5320 5321 5322 0
-5316 5314 5315 5317 5318 5319 5320 5321 5322 0
-5317 5314 5315 5316 5318 5319 5320 5321 5322 0
-5318 5314 5315 5316 5317 5319 5320 5321 5322 0
-5319 5314 5315 5316 5317 5318 5320 5321 5322 0
-5320 5314 5315 5316 5317 5318 5319 5321 5322 0
-5321 5314 5315 5316 5317 5318 5319 5320 5322 0
-5322 5314 5315 5316 5317 5318 5319 5320 5321 0
5323 -4 -30 -62 -79 0
-5323 4 0
-5323 30 0
-5323 62 0
-5323 79 0
5324 -13 -30 -52 -62 0
-5324 13 0
-5324 30 0
-5324 52 0
-5324 62 0
5325 -19 -30 -46 -62 0
-5325 19 0
-5325 30 0
-5325 46 0
-5325 62 0
-5323 5324 5325 0
-5324 5323 5325 0
-5325 5323 5324 0
5326 -4 -30 -62 -81 0
-5326 4 0
-5326 30 0
-5326 62 0
-5326 81 0
5327 -4 -33 -62 -75 0
-5327 4 0
-5327 33 0
-5327 62 0
-5327 75 0
5328 -4 -39 -62 -69 0
-5328 4 0
-5328 39 0
-5328 62 0
-5328 69 0
-5326 5327 5328 0
-5327 5326 5328 0
-5328 5326 5327 0
5329 -5 -28 -62 -79 0
-5329 5 0
-5329 28 0
-5329 62 0
-5329 79 0
5330 -5 -31 -62 -73 0
-5330 5 0
-5330 31 0
-5330 62 0
-5330 73 0
5331 -5 -37 -62 -67 0
-5331 5 0
-5331 37 0
-5331 62 0
-5331 67 0
5332 -8 -28 -50 -79 0
-5332 8 0
-5332 28 0
-5332 50 0
-5332 79 0
5333 -8 -31 -50 -73 0
-5333 8 0
-5333 31 0
-5333 50 0
-5333 73 0
5334 -8 -37 -50 -67 0
-5334 8 0
-5334 37 0
-5334 50 0
-5334 67 0
5335 -17 -28 -41 -79 0
-5335 17 0
-5335 28 0
-5335 41 0
-5335 79 0
5336 -17 -31 -41 -73 0
-5336 17 0
-5336 31 0
-5336 41 0
-5336 73 0
5337 -17 -37 -41 -67 0
-5337 17 0
-5337 37 0
-5337 41 0
-5337 67 0
-5329 5330 5331 5332 5333 5334 5335 5336 5337 0
-5330 5329 5331 5332 5333 5334 5335 5336 5337 0
-5331 5329 5330 5332 5333 5334 5335 5336 5337 0
-5332 5329 5330 5331 5333 5334 5335 5336 5337 0
-5333 5329 5330 5331 5332 5334 5335 5336 5337 0
-5334 5329 5330 5331 5332 5333 5335 5336 5337 0
-5335 5329 5330 5331 5332 5333 5334 5336 5337 0
-5336 5329 5330 5331 5332 5333 5334 5335 5337 0
-5337 5329 5330 5331 5332 5333 5334 5335 5336 0
5338 -5 -28 -62 -81 0
-5338 5 0
-5338 28 0
-5338 62 0
-5338 81 0
5339 -8 -28 -50 -81 0
-5339 8 0
-5339 28 0
-5339 50 0
-5339 81 0
5340 -17 -28 -41 -81 0
-5340 17 0
-5340 28 0
-5340 41 0
-5340 81 0
-5338 5339 5340 0
-5339 5338 5340 0
-5340 5338 5339 0
5341 -5 -28 -63 -79 0
-5341 5 0
-5341 28 0
-5341 63 0
-5341 79 0
5342 -5 -31 -63 -73 0
-5342 5 0
-5342 31 0
-5342 63 0
-5342 73 0
5343 -5 -37 -63 -67 0
-5343 5 0
-5343 37 0
-5343 63 0
-5343 67 0
-5341 5342 5343 0
-5342 5341 5343 0
-5343 5341 5342 0
5344 -5 -28 -63 -80 0
-5344 5 0
-5344 28 0
-5344 63 0
-5344 80 0
5345 -14 -28 -53 -63 0
-5345 14 0
-5345 28 0
-5345 53 0
-5345 63 0
5346 -20 -28 -47 -63 0
-5346 20 0
-5346 28 0
-5346 47 0
-5346 63 0
-5344 5345 5346 0
-5345 5344 5346 0
-5346 5344 5345 0
5347 -5 -30 -61 -80 0
-5347 5 0
-5347 30 0
-5347 61 0
-5347 80 0
5348 -14 -30 -53 -61 0
-5348 14 0
-5348 30 0
-5348 53 0
-5348 61 0
5349 -20 -30 -47 -61 0
-5349 20 0
-5349 30 0
-5349 47 0
-5349 61 0
-5347 5348 5349 0
-5348 5347 5349 0
-5349 5347 5348 0
5350 -5 -30 -61 -81 0
-5350 5 0
-5350 30 0
-5350 61 0
-5350 81 0
5351 -5 -33 -61 -75 0
-5351 5 0
-5351 33 0
-5351 61 0
-5351 75 0
5352 -5 -39 -61 -69 0
-5352 5 0
-5352 39 0
-5352 61 0
-5352 69 0
-5350 5351 5352 0
-5351 5350 5352 0
-5352 5350 5351 0
5353 -5 -30 -62 -79 0
-5353 5 0
-5353 30 0
-5353 62 0
-5353 79 0
5354 -8 -30 -50 -79 0
-5354 8 0
-5354 30 0
-5354 50 0
-5354 79 0
5355 -17 -30 -41 -79 0
-5355 17 0
-5355 30 0
-5355 41 0
-5355 79 0
-5353 5354 5355 0
-5354 5353 5355 0
-5355 5353 5354 0
5356 -5 -30 -62 -81 0
-5356 5 0
-5356 30 0
-5356 62 0
-5356 81 0
5357 -5 -33 -62 -75 0
-5357 5 0
-5357 33 0
-5357 62 0
-5357 75 0
5358 -5 -39 -62 -69 0
-5358 5 0
-5358 39 0
-5358 62 0
-5358 69 0
5359 -8 -30 -50 -81 0
-5359 8 0
-5359 30 0
-5359 50 0
-5359 81 0
5360 -8 -33 -50 -75 0
-5360 8 0
-5360 33 0
-5360 50 0
-5360 75 0
5361 -8 -39 -50 -69 0
-5361 8 0
-5361 39 0
-5361 50 0
-5361 69 0
5362 -17 -30 -41 -81 0
-5362 17 0
-5362 30 0
-5362 41 0
-5362 81 0
5363 -17 -33 -41 -75 0
-5363 17 0
-5363 33 0
-5363 41 0
-5363 75 0
5364 -17 -39 -41 -69 0
-5364 17 0
-5364 39 0
-5364 41 0
-5364 69 0
-5356 5357 5358 5359 5360 5361 5362 5363 5364 0
-5357 5356 5358 5359 5360 5361 5362 5363 5364 0
-5358 5356 5357 5359 5360 5361 5362 5363 5364 0
-5359 5356 5357 5358 5360 5361 5362 5363 5364 0
-5360 5356 5357 5358 5359 5361 5362 5363 5364 0
-5361 5356 5357 5358 5359 5360 5362 5363 5364 0
-5362 5356 5357 5358 5359 5360 5361 5363 5364 0
-5363 5356 5357 5358 5359 5360 5361 5362 5364 0
-5364 5356 5357 5358 5359 5360 5361 5362 5363 0
5365 -6 -28 -62 -79 0
-5365 6 0
-5365 28 0
-5365 62 0
-5365 79 0
5366 -6 -31 -62 -73 0
-5366 6 0
-5366 31 0
-5366 62 0
-5366 73 0
5367 -6 -37 -62 -67 0
-5367 6 0
-5367 37 0
-5367 62 0
-5367 67 0
-5365 5366 5367 0
-5366 5365 5367 0
-5367 5365 5366 0
5368 -6 -28 -62 -81 0
-5368 6 0
-5368 28 0
-5368 62 0
-5368 81 0
5369 -15 -28 -54 -62 0
-5369 15 0
-5369 28 0
-5369 54 0
-5369 62 0
5370 -21 -28 -48 -62 0
-5370 21 0
-5370 28 0
-5370 48 0
-5370 62 0
-5368 5369 5370 0
-5369 5368 5370 0
-5370 5368 5369 0
5371 -6 -28 -63 -79 0
-5371 6 0
-5371 28 0
-5371 63 0
-5371 79 0
5372 -6 -31 -63 -73 0
-5372 6 0
-5372 31 0
-5372 63 0
-5372 73 0
5373 -6 -37 -63 -67 0
-5373 6 0
-5373 37 0
-5373 63 0
-5373 67 0
5374 -9 -28 -51 -79 0
-5374 9 0
-5374 28 0
-5374 51 0
-5374 79 0
5375 -9 -31 -51 -73 0
-5375 9 0
-5375 31 0
-5375 51 0
-5375 73 0
5376 -9 -37 -51 -67 0
-5376 9 0
-5376 37 0
-5376 51 0
-5376 67 0
5377 -18 -28 -42 -79 0
-5377 18 0
-5377 28 0
-5377 42 0
-5377 79 0
5378 -18 -31 -42 -73 0
-5378 18 0
-5378 31 0
-5378 42 0
-5378 73 0
5379 -18 -37 -42 -67 0
-5379 18 0
-5379 37 0
-5379 42 0
-5379 67 0
-5371 5372 5373 5374 5375 5376 5377 5378 5379 0
-5372 5371 5373 5374 5375 5376 5377 5378 5379 0
-5373 5371 5372 5374 5375 5376 5377 5378 5379 0
-5374 5371 5372 5373 5375 5376 5377 5378 5379 0
-5375 5371 5372 5373 5374 5376 5377 5378 5379 0
-5376 5371 5372 5373 5374 5375 5377 5378 5379 0
-5377 5371 5372 5373 5374 5375 5376 5378 5379 0
-5378 5371 5372 5373 5374 5375 5376 5377 5379 0
-5379 5371 5372 5373 5374 5375 5376 5377 5378 0
5380 -6 -28 -63 -80 0
-5380 6 0
-5380 28 0
-5380 63 0
-5380 80 0
5381 -9 -28 -51 -80 0
-5381 9 0
-5381 28 0
-5381 51 0
-5381 80 0
5382 -18 -28 -42 -80 0
-5382 18 0
-5382 28 0
-5382 42 0
-5382 80 0
-5380 5381 5382 0
-5381 5380 5382 0
-5382 5380 5381 0
5383 -6 -29 -61 -80 0
-5383 6 0
-5383 29 0
-5383 61 0
-5383 80 0
5384 -6 -32 -61 -74 0
-5384 6 0
-5384 32 0
-5384 61 0
-5384 74 0
5385 -6 -38 -61 -68 0
-5385 6 0
-5385 38 0
-5385 61 0
-5385 68 0
-5383 5384 5385 0
-5384 5383 5385 0
-5385 5383 5384 0
5386 -6 -29 -61 -81 0
-5386 6 0
-5386 29 0
-5386 61 0
-5386 81 0
5387 -15 -29 -54 -61 0
-5387 15 0
-5387 29 0
-5387 54 0
-5387 61 0
5388 -21 -29 -48 -61 0
-5388 21 0
-5388 29 0
-5388 48 0
-5388 61 0
-5386 5387 5388 0
-5387 5386 5388 0
-5388 5386 5387 0
5389 -6 -29 -63 -79 0
-5389 6 0
-5389 29 0
-5389 63 0
-5389 79 0
5390 -9 -29 -51 -79 0
-5390 9 0
-5390 29 0
-5390 51 0
-5390 79 0
5391 -18 -29 -42 -79 0
-5391 18 0
-5391 29 0
-5391 42 0
-5391 79 0
-5389 5390 5391 0
-5390 5389 5391 0
-5391 5389 5390 0
5392 -6 -29 -63 -80 0
-5392 6 0
-5392 29 0
-5392 63 0
-5392 80 0
5393 -6 -32 -63 -74 0
-5393 6 0
-5393 32 0
-5393 63 0
-5393 74 0
5394 -6 -38 -63 -68 0
-5394 6 0
-5394 38 0
-5394 63 0
-5394 68 0
5395 -9 -29 -51 -80 0
-5395 9 0
-5395 29 0
-5395 51 0
-5395 80 0
5396 -9 -32 -51 -74 0
-5396 9 0
-5396 32 0
-5396 51 0
-5396 74 0
5397 -9 -38 -51 -68 0
-5397 9 0
-5397 38 0
-5397 51 0
-5397 68 0
5398 -18 -29 -42 -80 0
-5398 18 0
-5398 29 0
-5398 42 0
-5398 80 0
5399 -18 -32 -42 -74 0
-5399 18 0
-5399 32 0
-5399 42 0
-5399 74 0
5400 -18 -38 -42 -68 0
-5400 18 0
-5400 38 0
-5400 42 0
-5400 68 0
-5392 5393 5394 5395 5396 5397 5398 5399 5400 0
-5393 5392 5394 5395 5396 5397 5398 5399 5400 0
-5394 5392 5393 5395 5396 5397 5398 5399 5400 0
-5395 5392 5393 5394 5396 5397 5398 5399 5400 0
-5396 5392 5393 5394 5395 5397 5398 5399 5400 0
-5397 5392 5393 5394 5395 5396 5398 5399 5400 0
-5398 5392 5393 5394 5395 5396 5397 5399 5400 0
-5399 5392 5393 5394 5395 5396 5397 5398 5400 0
-5400 5392 5393 5394 5395 5396 5397 5398 5399 0
5401 -4 -29 -64 -77 0
-5401 4 0
-5401 29 0
-5401 64 0
-5401 77 0
5402 -4 -32 -64 -71 0
-5402 4 0
-5402 32 0
-5402 64 0
-5402 71 0
5403 -4 -35 -64 -68 0
-5403 4 0
-5403 35 0
-5403 64 0
-5403 68 0
5404 -7 -29 -52 -77 0
-5404 7 0
-5404 29 0
-5404 52 0
-5404 77 0
5405 -7 -32 -52 -71 0
-5405 7 0
-5405 32 0
-5405 52 0
-5405 71 0
5406 -7 -35 -52 -68 0
-5406 7 0
-5406 35 0
-5406 52 0
-5406 68 0
5407 -19 -29 -40 -77 0
-5407 19 0
-5407 29 0
-5407 40 0
-5407 77 0
5408 -19 -32 -40 -71 0
-5408 19 0
-5408 32 0
-5408 40 0
-5408 71 0
5409 -19 -35 -40 -68 0
-5409 19 0
-5409 35 0
-5409 40 0
-5409 68 0
-5401 5402 5403 5404 5405 5406 5407 5408 5409 0
-5402 5401 5403 5404 5405 5406 5407 5408 5409 0
-5403 5401 5402 5404 5405 5406 5407 5408 5409 0
-5404 5401 5402 5403 5405 5406 5407 5408 5409 0
-5405 5401 5402 5403 5404 5406 5407 5408 5409 0
-5406 5401 5402 5403 5404 5405 5407 5408 5409 0
-5407 5401 5402 5403 5404 5405 5406 5408 5409 0
-5408 5401 5402 5403 5404 5405 5406 5407 5409 0
-5409 5401 5402 5403 5404 5405 5406 5407 5408 0
5410 -4 -29 -64 -78 0
-5410 4 0
-5410 29 0
-5410 64 0
-5410 78 0
5411 -7 -29 -52 -78 0
-5411 7 0
-5411 29 0
-5411 52 0
-5411 78 0
5412 -19 -29 -40 -78 0
-5412 19 0
-5412 29 0
-5412 40 0
-5412 78 0
-5410 5411 5412 0
-5411 5410 5412 0
-5412 5410 5411 0
5413 -4 -29 -66 -76 0
-5413 4 0
-5413 29 0
-5413 66 0
-5413 76 0
5414 -13 -29 -49 -66 0
-5414 13 0
-5414 29 0
-5414 49 0
-5414 66 0
5415 -16 -29 -46 -66 0
-5415 16 0
-5415 29 0
-5415 46 0
-5415 66 0
-5413 5414 5415 0
-5414 5413 5415 0
-5415 5413 5414 0
5416 -4 -29 -66 -77 0
-5416 4 0
-5416 29 0
-5416 66 0
-5416 77 0
5417 -4 -32 -66 -71 0
-5417 4 0
-5417 32 0
-5417 66 0
-5417 71 0
5418 -4 -35 -66 -68 0
-5418 4 0
-5418 35 0
-5418 66 0
-5418 68 0
-5416 5417 5418 0
-5417 5416 5418 0
-5418 5416 5417 0
5419 -4 -30 -64 -77 0
-5419 4 0
-5419 30 0
-5419 64 0
-5419 77 0
5420 -7 -30 -52 -77 0
-5420 7 0
-5420 30 0
-5420 52 0
-5420 77 0
5421 -19 -30 -40 -77 0
-5421 19 0
-5421 30 0
-5421 40 0
-5421 77 0
-5419 5420 5421 0
-5420 5419 5421 0
-5421 5419 5420 0
5422 -4 -30 -64 -78 0
-5422 4 0
-5422 30 0
-5422 64 0
-5422 78 0
5423 -4 -33 -64 -72 0
-5423 4 0
-5423 33 0
-5423 64 0
-5423 72 0
5424 -4 -36 -64 -69 0
-5424 4 0
-5424 36 0
-5424 64 0
-5424 69 0
5425 -7 -30 -52 -78 0
-5425 7 0
-5425 30 0
-5425 52 0
-5425 78 0
5426 -7 -33 -52 -72 0
-5426 7 0
-5426 33 0
-5426 52 0
-5426 72 0
5427 -7 -36 -52 -69 0
-5427 7 0
-5427 36 0
-5427 52 0
-5427 69 0
5428 -19 -30 -40 -78 0
-5428 19 0
-5428 30 0
-5428 40 0
-5428 78 0
5429 -19 -33 -40 -72 0
-5429 19 0
-5429 33 0
-5429 40 0
-5429 72 0
5430 -19 -36 -40 -69 0
-5430 19 0
-5430 36 0
-5430 40 0
-5430 69 0
-5422 5423 5424 5425 5426 5427 5428 5429 5430 0
-5423 5422 5424 5425 5426 5427 5428 5429 5430 0
-5424 5422 5423 5425 5426 5427 5428 5429 5430 0
-5425 5422 5423 5424 5426 5427 5428 5429 5430 0
-5426 5422 5423 5424 5425 5427 5428 5429 5430 0
-5427 5422 5423 5424 5425 5426 5428 5429 5430 0
-5428 5422 5423 5424 5425 5426 5427 5429 5430 0
-5429 5422 5423 5424 5425 5426 5427 5428 5430 0
-5430 5422 5423 5424 5425 5426 5427 5428 5429 0
5431 -4 -30 -65 -76 0
-5431 4 0
-5431 30 0
-5431 65 0
-5431 76 0
5432 -13 -30 -49 -65 0
-5432 13 0
-5432 30 0
-5432 49 0
-5432 65 0
5433 -16 -30 -46 -65 0
-5433 16 0
-5433 30 0
-5433 46 0
-5433 65 0
-5431 5432 5433 0
-5432 5431 5433 0
-5433 5431 5432 0
5434 -4 -30 -65 -78 0
-5434 4 0
-5434 30 0
-5434 65 0
-5434 78 0
5435 -4 -33 -65 -72 0
-5435 4 0
-5435 33 0
-5435 65 0
-5435 72 0
5436 -4 -36 -65 -69 0
-5436 4 0
-5436 36 0
-5436 65 0
-5436 69 0
-5434 5435 5436 0
-5435 5434 5436 0
-5436 5434 5435 0
5437 -5 -28 -65 -76 0
-5437 5 0
-5437 28 0
-5437 65 0
-5437 76 0
5438 -5 -31 -65 -70 0
-5438 5 0
-5438 31 0
-5438 65 0
-5438 70 0
5439 -5 -34 -65 -67 0
-5439 5 0
-5439 34 0
-5439 65 0
-5439 67 0
5440 -8 -28 -53 -76 0
-5440 8 0
-5440 28 0
-5440 53 0
-5440 76 0
5441 -8 -31 -53 -70 0
-5441 8 0
-5441 31 0
-5441 53 0
-5441 70 0
5442 -8 -34 -53 -67 0
-5442 8 0
-5442 34 0
-5442 53 0
-5442 67 0
5443 -20 -28 -41 -76 0
-5443 20 0
-5443 28 0
-5443 41 0
-5443 76 0
5444 -20 -31 -41 -70 0
-5444 20 0
-5444 31 0
-5444 41 0
-5444 70 0
5445 -20 -34 -41 -67 0
-5445 20 0
-5445 34 0
-5445 41 0
-5445 67 0
-5437 5438 5439 5440 5441 5442 5443 5444 5445 0
-5438 5437 5439 5440 5441 5442 5443 5444 5445 0
-5439 5437 5438 5440 5441 5442 5443 5444 5445 0
-5440 5437 5438 5439 5441 5442 5443 5444 5445 0
-5441 5437 5438 5439 5440 5442 5443 5444 5445 0
-5442 5437 5438 5439 5440 5441 5443 5444 5445 0
-5443 5437 5438 5439 5440 5441 5442 5444 5445 0
-5444 5437 5438 5439 5440 5441 5442 5443 5445 0
-5445 5437 5438 5439 5440 5441 5442 5443 5444 0
5446 -5 -28 -65 -78 0
-5446 5 0
-5446 28 0
-5446 65 0
-5446 78 0
5447 -8 -28 -53 -78 0
-5447 8 0
-5447 28 0
-5447 53 0
-5447 78 0
5448 -20 -28 -41 -78 0
-5448 20 0
-5448 28 0
-5448 41 0
-5448 78 0
-5446 5447 5448 0
-5447 5446 5448 0
-5448 5446 5447 0
5449 -5 -28 -66 -76 0
-5449 5 0
-5449 28 0
-5449 66 0
-5449 76 0
5450 -5 -31 -66 -70 0
-5450 5 0
-5450 31 0
-5450 66 0
-5450 70 0
5451 -5 -34 -66 -67 0
-5451 5 0
-5451 34 0
-5451 66 0
-5451 67 0
-5449 5450 5451 0
-5450 5449 5451 0
-5451 5449 5450 0
5452 -5 -28 -66 -77 0
-5452 5 0
-5452 28 0
-5452 66 0
-5452 77 0
5453 -14 -28 -50 -66 0
-5453 14 0
-5453 28 0
-5453 50 0
-5453 66 0
5454 -17 -28 -47 -66 0
-5454 17 0
-5454 28 0
-5454 47 0
-5454 66 0
-5452 5453 5454 0
-5453 5452 5454 0
-5454 5452 5453 0
5455 -5 -30 -64 -77 0
-5455 5 0
-5455 30 0
-5455 64 0
-5455 77 0
5456 -14 -30 -50 -64 0
-5456 14 0
-5456 30 0
-5456 50 0
-5456 64 0
5457 -17 -30 -47 -64 0
-5457 17 0
-5457 30 0
-5457 47 0
-5457 64 0
-5455 5456 5457 0
-5456 5455 5457 0
-5457 5455 5456 0
5458 -5 -30 -64 -78 0
-5458 5 0
-5458 30 0
-5458 64 0
-5458 78 0
5459 -5 -33 -64 -72 0
-5459 5 0
-5459 33 0
-5459 64 0
-5459 72 0
5460 -5 -36 -64 -69 0
-5460 5 0
-5460 36 0
-5460 64 0
-5460 69 0
-5458 5459 5460 0
-5459 5458 5460 0
-5460 5458 5459 0
5461 -5 -30 -65 -76 0
-5461 5 0
-5461 30 0
-5461 65 0
-5461 76 0
5462 -8 -30 -53 -76 0
-5462 8 0
-5462 30 0
-5462 53 0
-5462 76 0
5463 -20 -30 -41 -76 0
-5463 20 0
-5463 30 0
-5463 41 0
-5463 76 0
-5461 5462 5463 0
-5462 5461 5463 0
-5463 5461 5462 0
5464 -5 -30 -65 -78 0
-5464 5 0
-5464 30 0
-5464 65 0
-5464 78 0
5465 -5 -33 -65 -72 0
-5465 5 0
-5465 33 0
-5465 65 0
-5465 72 0
5466 -5 -36 -65 -69 0
-5466 5 0
-5466 36 0
-5466 65 0
-5466 69 0
5467 -8 -30 -53 -78 0
-5467 8 0
-5467 30 0
-5467 53 0
-5467 78 0
5468 -8 -33 -53 -72 0
-5468 8 0
-5468 33 0
-5468 53 0
-5468 72 0
5469 -8 -36 -53 -69 0
-5469 8 0
-5469 36 0
-5469 53 0
-5469 69 0
5470 -20 -30 -41 -78 0
-5470 20 0
-5470 30 0
-5470 41 0
-5470 78 0
5471 -20 -33 -41 -72 0
-5471 20 0
-5471 33 0
-5471 41 0
-5471 72 0
5472 -20 -36 -41 -69 0
-5472 20 0
-5472 36 0
-5472 41 0
-5472 69 0
-5464 5465 5466 5467 5468 5469 5470 5471 5472 0
-5465 5464 5466 5467 5468 5469 5470 5471 5472 0
-5466 5464 5465 5467 5468 5469 5470 5471 5472 0
-5467 5464 5465 5466 5468 5469 5470 5471 5472 0
-5468 5464 5465 5466 5467 5469 5470 5471 5472 0
-5469 5464 5465 5466 5467 5468 5470 5471 5472 0
-5470 5464 5465 5466 5467 5468 5469 5471 5472 0
-5471 5464 5465 5466 5467 5468 5469 5470 5472 0
-5472 5464 5465 5466 5467 5468 5469 5470 5471 0
5473 -6 -28 -65 -76 0
-5473 6 0
-5473 28 0
-5473 65 0
-5473 76 0
5474 -6 -31 -65 -70 0
-5474 6 0
-5474 31 0
-5474 65 0
-5474 70 0
5475 -6 -34 -65 -67 0
-5475 6 0
-5475 34 0
-5475 65 0
-5475 67 0
-5473 5474 5475 0
-5474 5473 5475 0
-5475 5473 5474 0
5476 -6 -28 -65 -78 0
-5476 6 0
-5476 28 0
-5476 65 0
-5476 78 0
5477 -15 -28 -51 -65 0
-5477 15 0
-5477 28 0
-5477 51 0
-5477 65 0
5478 -18 -28 -48 -65 0
-5478 18 0
-5478 28 0
-5478 48 0
-5478 65 0
-5476 5477 5478 0
-5477 5476 5478 0
-5478 5476 5477 0
5479 -6 -28 -66 -76 0
-5479 6 0
-5479 28 0
-5479 66 0
-5479 76 0
5480 -6 -31 -66 -70 0
-5480 6 0
-5480 31 0
-5480 66 0
-5480 70 0
5481 -6 -34 -66 -67 0
-5481 6 0
-5481 34 0
-5481 66 0
-5481 67 0
5482 -9 -28 -54 -76 0
-5482 9 0
-5482 28 0
-5482 54 0
-5482 76 0
5483 -9 -31 -54 -70 0
-5483 9 0
-5483 31 0
-5483 54 0
-5483 70 0
5484 -9 -34 -54 -67 0
-5484 9 0
-5484 34 0
-5484 54 0
-5484 67 0
5485 -21 -28 -42 -76 0
-5485 21 0
-5485 28 0
-5485 42 0
-5485 76 0
5486 -21 -31 -42 -70 0
-5486 21 0
-5486 31 0
-5486 42 0
-5486 70 0
5487 -21 -34 -42 -67 0
-5487 21 0
-5487 34 0
-5487 42 0
-5487 67 0
-5479 5480 5481 5482 5483 5484 5485 5486 5487 0
-5480 5479 5481 5482 5483 5484 5485 5486 5487 0
-5481 5479 5480 5482 5483 5484 5485 5486 5487 0
-5482 5479 5480 5481 5483 5484 5485 5486 5487 0
-5483 5479 5480 5481 5482 5484 5485 5486 5487 0
-5484 5479 5480 5481 5482 5483 5485 5486 5487 0
-5485 5479 5480 5481 5482 5483 5484 5486 5487 0
-5486 5479 5480 5481 5482 5483 5484 5485 5487 0
-5487 5479 5480 5481 5482 5483 5484 5485 5486 0
5488 -6 -28 -66 -77 0
-5488 6 0
-5488 28 0
-5488 66 0
-5488 77 0
5489 -9 -28 -54 -77 0
-5489 9 0
-5489 28 0
-5489 54 0
-5489 77 0
5490 -21 -28 -42 -77 0
-5490 21 0
-5490 28 0
-5490 42 0
-5490 77 0
-5488 5489 5490 0
-5489 5488 5490 0
-5490 5488 5489 0
5491 -6 -29 -64 -77 0
-5491 6 0
-5491 29 0
-5491 64 0
-5491 77 0
5492 -6 -32 -64 -71 0
-5492 6 0
-5492 32 0
-5492 64 0
-5492 71 0
5493 -6 -35 -64 -68 0
-5493 6 0
-5493 35 0
-5493 64 0
-5493 68 0
-5491 5492 5493 0
-5492 5491 5493 0
-5493 5491 5492 0
5494 -6 -29 -64 -78 0
-5494 6 0
-5494 29 0
-5494 64 0
-5494 78 0
5495 -15 -29 -51 -64 0
-5495 15 0
-5495 29 0
-5495 51 0
-5495 64 0
5496 -18 -29 -48 -64 0
-5496 18 0
-5496 29 0
-5496 48 0
-5496 64 0
-5494 5495 5496 0
-5495 5494 5496 0
-5496 5494 5495 0
5497 -6 -29 -66 -76 0
-5497 6 0
-5497 29 0
-5497 66 0
-5497 76 0
5498 -9 -29 -54 -76 0
-5498 9 0
-5498 29 0
-5498 54 0
-5498 76 0
5499 -21 -29 -42 -76 0
-5499 21 0
-5499 29 0
-5499 42 0
-5499 76 0
-5497 5498 5499 0
-5498 5497 5499 0
-5499 5497 5498 0
5500 -6 -29 -66 -77 0
-5500 6 0
-5500 29 0
-5500 66 0
-5500 77 0
5501 -6 -32 -66 -71 0
-5501 6 0
-5501 32 0
-5501 66 0
-5501 71 0
5502 -6 -35 -66 -68 0
-5502 6 0
-5502 35 0
-5502 66 0
-5502 68 0
5503 -9 -29 -54 -77 0
-5503 9 0
-5503 29 0
-5503 54 0
-5503 77 0
5504 -9 -32 -54 -71 0
-5504 9 0
-5504 32 0
-5504 54 0
-5504 71 0
5505 -9 -35 -54 -68 0
-5505 9 0
-5505 35 0
-5505 54 0
-5505 68 0
5506 -21 -29 -42 -77 0
-5506 21 0
-5506 29 0
-5506 42 0
-5506 77 0
5507 -21 -32 -42 -71 0
-5507 21 0
-5507 32 0
-5507 42 0
-5507 71 0
5508 -21 -35 -42 -68 0
-5508 21 0
-5508 35 0
-5508 42 0
-5508 68 0
-5500 5501 5502 5503 5504 5505 5506 5507 5508 0
-5501 5500 5502 5503 5504 5505 5506 5507 5508 0
-5502 5500 5501 5503 5504 5505 5506 5507 5508 0
-5503 5500 5501 5502 5504 5505 5506 5507 5508 0
-5504 5500 5501 5502 5503 5505 5506 5507 5508 0
-5505 5500 5501 5502 5503 5504 5506 5507 5508 0
-5506 5500 5501 5502 5503 5504 5505 5507 5508 0
-5507 5500 5501 5502 5503 5504 5505 5506 5508 0
-5508 5500 5501 5502 5503 5504 5505 5506 5507 0
5509 -4 -32 -55 -82 0
-5509 4 0
-5509 32 0
-5509 55 0
-5509 82 0
5510 -4 -32 -61 -73 0
-5510 4 0
-5510 32 0
-5510 61 0
-5510 73 0
5511 -4 -32 -64 -70 0
-5511 4 0
-5511 32 0
-5511 64 0
-5511 70 0
5512 -7 -32 -43 -82 0
-5512 7 0
-5512 32 0
-5512 43 0
-5512 82 0
5513 -7 -32 -49 -73 0
-5513 7 0
-5513 32 0
-5513 49 0
-5513 73 0
5514 -7 -32 -52 -70 0
-5514 7 0
-5514 32 0
-5514 52 0
-5514 70 0
5515 -10 -32 -40 -82 0
-5515 10 0
-5515 32 0
-5515 40 0
-5515 82 0
5516 -10 -32 -49 -64 0
-5516 10 0
-5516 32 0
-5516 49 0
-5516 64 0
5517 -10 -32 -52 -61 0
-5517 10 0
-5517 32 0
-5517 52 0
-5517 61 0
5518 -16 -32 -40 -73 0
-5518 16 0
-5518 32 0
-5518 40 0
-5518 73 0
5519 -16 -32 -43 -64 0
-5519 16 0
-5519 32 0
-5519 43 0
-5519 64 0
5520 -16 -32 -52 -55 0
-5520 16 0
-5520 32 0
-5520 52 0
-5520 55 0
5521 -19 -32 -40 -70 0
-5521 19 0
-5521 32 0
-5521 40 0
-5521 70 0
5522 -19 -32 -43 -61 0
-5522 19 0
-5522 32 0
-5522 43 0
-5522 61 0
5523 -19 -32 -49 -55 0
-5523 19 0
-5523 32 0
-5523 49 0
-5523 55 0
-5509 5510 5511 5512 5513 5514 5515 5516 5517 5518 5519 5520 5521 5522 5523 0
-5510 5509 5511 5512 5513 5514 5515 5516 5517 5518 5519 5520 5521 5522 5523 0
-5511 5509 5510 5512 5513 5514 5515 5516 5517 5518 5519 5520 5521 5522 5523 0
-5512 5509 5510 5511 5513 5514 5515 5516 5517 5518 5519 5520 5521 5522 5523 0
-5513 5509 5510 5511 5512 5514 5515 5516 5517 5518 5519 5520 5521 5522 5523 0
-5514 5509 5510 5511 5512 5513 5515 5516 5517 5518 5519 5520 5521 5522 5523 0
-5515 5509 5510 5511 5512 5513 5514 5516 5517 5518 5519 5520 5521 5522 5523 0
-5516 5509 5510 5511 5512 5513 5514 5515 5517 5518 5519 5520 5521 5522 5523 0
-5517 5509 5510 5511 5512 5513 5514 5515 5516 5518 5519 5520 5521 5522 5523 0
-5518 5509 5510 5511 5512 5513 5514 5515 5516 5517 5519 5520 5521 5522 5523 0
-5519 5509 5510 5511 5512 5513 5514 5515 5516 5517 5518 5520 5521 5522 5523 0
-5520 5509 5510 5511 5512 5513 5514 5515 5516 5517 5518 5519 5521 5522 5523 0
-5521 5509 5510 5511 5512 5513 5514 5515 5516 5517 5518 5519 5520 5522 5523 0
-5522 5509 5510 5511 5512 5513 5514 5515 5516 5517 5518 5519 5520 5521 5523 0
-5523 5509 5510 5511 5512 5513 5514 5515 5516 5517 5518 5519 5520 5521 5522 0
5524 -4 -32 -55 -83 0
-5524 4 0
-5524 32 0
-5524 55 0
-5524 83 0
5525 -4 -35 -55 -80 0
-5525 4 0
-5525 35 0
-5525 55 0
-5525 80 0
5526 -4 -38 -55 -77 0
-5526 4 0
-5526 38 0
-5526 55 0
-5526 77 0
5527 -7 -32 -43 -83 0
-5527 7 0
-5527 32 0
-5527 43 0
-5527 83 0
5528 -7 -35 -43 -80 0
-5528 7 0
-5528 35 0
-5528 43 0
-5528 80 0
5529 -7 -38 -43 -77 0
-5529 7 0
-5529 38 0
-5529 43 0
-5529 77 0
5530 -10 -32 -40 -83 0
-5530 10 0
-5530 32 0
-5530 40 0
-5530 83 0
5531 -10 -35 -40 -80 0
-5531 10 0
-5531 35 0
-5531 40 0
-5531 80 0
5532 -10 -38 -40 -77 0
-5532 10 0
-5532 38 0
-5532 40 0
-5532 77 0
-5524 5525 5526 5527 5528 5529 5530 5531 5532 0
-5525 5524 5526 5527 5528 5529 5530 5531 5532 0
-5526 5524 5525 5527 5528 5529 5530 5531 5532 0
-5527 5524 5525 5526 5528 5529 5530 5531 5532 0
-5528 5524 5525 5526 5527 5529 5530 5531 5532 0
-5529 5524 5525 5526 5527 5528 5530 5531 5532 0
-5530 5524 5525 5526 5527 5528 5529 5531 5532 0
-5531 5524 5525 5526 5527 5528 5529 5530 5532 0
-5532 5524 5525 5526 5527 5528 5529 5530 5531 0
5533 -4 -32 -55 -84 0
-5533 4 0
-5533 32 0
-5533 55 0
-5533 84 0
5534 -7 -32 -43 -84 0
-5534 7 0
-5534 32 0
-5534 43 0
-5534 84 0
5535 -10 -32 -40 -84 0
-5535 10 0
-5535 32 0
-5535 40 0
-5535 84 0
-5533 5534 5535 0
-5534 5533 5535 0
-5535 5533 5534 0
5536 -4 -32 -57 -82 0
-5536 4 0
-5536 32 0
-5536 57 0
-5536 82 0
5537 -16 -32 -52 -57 0
-5537 16 0
-5537 32 0
-5537 52 0
-5537 57 0
5538 -19 -32 -49 -57 0
-5538 19 0
-5538 32 0
-5538 49 0
-5538 57 0
-5536 5537 5538 0
-5537 5536 5538 0
-5538 5536 5537 0
5539 -4 -32 -57 -83 0
-5539 4 0
-5539 32 0
-5539 57 0
-5539 83 0
5540 -4 -35 -57 -80 0
-5540 4 0
-5540 35 0
-5540 57 0
-5540 80 0
5541 -4 -38 -57 -77 0
-5541 4 0
-5541 38 0
-5541 57 0
-5541 77 0
-5539 5540 5541 0
-5540 5539 5541 0
-5541 5539 5540 0
5542 -4 -32 -57 -84 0
-5542 4 0
-5542 32 0
-5542 57 0
-5542 84 0
5543 -4 -32 -63 -75 0
-5543 4 0
-5543 32 0
-5543 63 0
-5543 75 0
5544 -4 -32 -66 -72 0
-5544 4 0
-5544 32 0
-5544 66 0
-5544 72 0
-5542 5543 5544 0
-5543 5542 5544 0
-5544 5542 5543 0
5545 -4 -33 -55 -82 0
-5545 4 0
-5545 33 0
-5545 55 0
-5545 82 0
5546 -4 -33 -61 -73 0
-5546 4 0
-5546 33 0
-5546 61 0
-5546 73 0
5547 -4 -33 -64 -70 0
-5547 4 0
-5547 33 0
-5547 64 0
-5547 70 0
5548 -7 -33 -43 -82 0
-5548 7 0
-5548 33 0
-5548 43 0
-5548 82 0
5549 -7 -33 -49 -73 0
-5549 7 0
-5549 33 0
-5549 49 0
-5549 73 0
5550 -7 -33 -52 -70 0
-5550 7 0
-5550 33 0
-5550 52 0
-5550 70 0
5551 -10 -33 -40 -82 0
-5551 10 0
-5551 33 0
-5551 40 0
-5551 82 0
5552 -10 -33 -49 -64 0
-5552 10 0
-5552 33 0
-5552 49 0
-5552 64 0
5553 -10 -33 -52 -61 0
-5553 10 0
-5553 33 0
-5553 52 0
-5553 61 0
5554 -16 -33 -40 -73 0
-5554 16 0
-5554 33 0
-5554 40 0
-5554 73 0
5555 -16 -33 -43 -64 0
-5555 16 0
-5555 33 0
-5555 43 0
-5555 64 0
5556 -16 -33 -52 -55 0
-5556 16 0
-5556 33 0
-5556 52 0
-5556 55 0
5557 -19 -33 -40 -70 0
-5557 19 0
-5557 33 0
-5557 40 0
-5557 70 0
5558 -19 -33 -43 -61 0
-5558 19 0
-5558 33 0
-5558 43 0
-5558 61 0
5559 -19 -33 -49 -55 0
-5559 19 0
-5559 33 0
-5559 49 0
-5559 55 0
-5545 5546 5547 5548 5549 5550 5551 5552 5553 5554 5555 5556 5557 5558 5559 0
-5546 5545 5547 5548 5549 5550 5551 5552 5553 5554 5555 5556 5557 5558 5559 0
-5547 5545 5546 5548 5549 5550 5551 5552 5553 5554 5555 5556 5557 5558 5559 0
-5548 5545 5546 5547 5549 5550 5551 5552 5553 5554 5555 5556 5557 5558 5559 0
-5549 5545 5546 5547 5548 5550 5551 5552 5553 5554 5555 5556 5557 5558 5559 0
-5550 5545 5546 5547 5548 5549 5551 5552 5553 5554 5555 5556 5557 5558 5559 0
-5551 5545 5546 5547 5548 5549 5550 5552 5553 5554 5555 5556 5557 5558 5559 0
-5552 5545 5546 5547 5548 5549 5550 5551 5553 5554 5555 5556 5557 5558 5559 0
-5553 5545 5546 5547 5548 5549 5550 5551 5552 5554 5555 5556 5557 5558 5559 0
-5554 5545 5546 5547 5548 5549 5550 5551 5552 5553 5555 5556 5557 5558 5559 0
-5555 5545 5546 5547 5548 5549 5550 5551 5552 5553 5554 5556 5557 5558 5559 0
-5556 5545 5546 5547 5548 5549 5550 5551 5552 5553 5554 5555 5557 5558 5559 0
-5557 5545 5546 5547 5548 5549 5550 5551 5552 5553 5554 5555 5556 5558 5559 0
-5558 5545 5546 5547 5548 5549 5550 5551 5552 5553 5554 5555 5556 5557 5559 0
-5559 5545 5546 5547 5548 5549 5550 5551 5552 5553 5554 5555 5556 5557 5558 0
5560 -4 -33 -55 -83 0
-5560 4 0
-5560 33 0
-5560 55 0
-5560 83 0
5561 -7 -33 -43 -83 0
-5561 7 0
-5561 33 0
-5561 43 0
-5561 83 0
5562 -10 -33 -40 -83 0
-5562 10 0
-5562 33 0
-5562 40 0
-5562 83 0
-5560 5561 5562 0
-5561 5560 5562 0
-5562 5560 5561 0
5563 -4 -33 -55 -84 0
-5563 4 0
-5563 33 0
-5563 55 0
-5563 84 0
5564 -4 -36 -55 -81 0
-5564 4 0
-5564 36 0
-5564 55 0
-5564 81 0
5565 -4 -39 -55 -78 0
-5565 4 0
-5565 39 0
-5565 55 0
-5565 78 0
5566 -7 -33 -43 -84 0
-5566 7 0
-5566 33 0
-5566 43 0
-5566 84 0
5567 -7 -36 -43 -81 0
-5567 7 0
-5567 36 0
-5567 43 0
-5567 81 0
5568 -7 -39 -43 -78 0
-5568 7 0
-5568 39 0
-5568 43 0
-5568 78 0
5569 -10 -33 -40 -84 0
-5569 10 0
-5569 33 0
-5569 40 0
-5569 84 0
5570 -10 -36 -40 -81 0
-5570 10 0
-5570 36 0
-5570 40 0
-5570 81 0
5571 -10 -39 -40 -78 0
-5571 10 0
-5571 39 0
-5571 40 0
-5571 78 0
-5563 5564 5565 5566 5567 5568 5569 5570 5571 0
-5564 5563 5565 5566 5567 5568 5569 5570 5571 0
-5565 5563 5564 5566 5567 5568 5569 5570 5571 0
-5566 5563 5564 5565 5567 5568 5569 5570 5571 0
-5567 5563 5564 5565 5566 5568 5569 5570 5571 0
-5568 5563 5564 5565 5566 5567 5569 5570 5571 0
-5569 5563 5564 5565 5566 5567 5568 5570 5571 0
-5570 5563 5564 5565 5566 5567 5568 5569 5571 0
-5571 5563 5564 5565 5566 5567 5568 5569 5570 0
5572 -4 -33 -56 -82 0
-5572 4 0
-5572 33 0
-5572 56 0
-5572 82 0
5573 -16 -33 -52 -56 0
-5573 16 0
-5573 33 0
-5573 52 0
-5573 56 0
5574 -19 -33 -49 -56 0
-5574 19 0
-5574 33 0
-5574 49 0
-5574 56 0
-5572 5573 5574 0
-5573 5572 5574 0
-5574 5572 5573 0
5575 -4 -33 -56 -83 0
-5575 4 0
-5575 33 0
-5575 56 0
-5575 83 0
5576 -4 -33 -62 -74 0
-5576 4 0
-5576 33 0
-5576 62 0
-5576 74 0
5577 -4 -33 -65 -71 0
-5577 4 0
-5577 33 0
-5577 65 0
-5577 71 0
-5575 5576 5577 0
-5576 5575 5577 0
-5577 5575 5576 0
5578 -4 -33 -56 -84 0
-5578 4 0
-5578 33 0
-5578 56 0
-5578 84 0
5579 -4 -36 -56 -81 0
-5579 4 0
-5579 36 0
-5579 56 0
-5579 81 0
5580 -4 -39 -56 -78 0
-5580 4 0
-5580 39 0
-5580 56 0
-5580 78 0
-5578 5579 5580 0
-5579 5578 5580 0
-5580 5578 5579 0
5581 -5 -31 -56 -82 0
-5581 5 0
-5581 31 0
-5581 56 0
-5581 82 0
5582 -5 -34 -56 -79 0
-5582 5 0
-5582 34 0
-5582 56 0
-5582 79 0
5583 -5 -37 -56 -76 0
-5583 5 0
-5583 37 0
-5583 56 0
-5583 76 0
5584 -8 -31 -44 -82 0
-5584 8 0
-5584 31 0
-5584 44 0
-5584 82 0
5585 -8 -34 -44 -79 0
-5585 8 0
-5585 34 0
-5585 44 0
-5585 79 0
5586 -8 -37 -44 -76 0
-5586 8 0
-5586 37 0
-5586 44 0
-5586 76 0
5587 -11 -31 -41 -82 0
-5587 11 0
-5587 31 0
-5587 41 0
-5587 82 0
5588 -11 -34 -41 -79 0
-5588 11 0
-5588 34 0
-5588 41 0
-5588 79 0
5589 -11 -37 -41 -76 0
-5589 11 0
-5589 37 0
-5589 41 0
-5589 76 0
-5581 5582 5583 5584 5585 5586 5587 5588 5589 0
-5582 5581 5583 5584 5585 5586 5587 5588 5589 0
-5583 5581 5582 5584 5585 5586 5587 5588 5589 0
-5584 5581 5582 5583 5585 5586 5587 5588 5589 0
-5585 5581 5582 5583 5584 5586 5587 5588 5589 0
-5586 5581 5582 5583 5584 5585 5587 5588 5589 0
-5587 5581 5582 5583 5584 5585 5586 5588 5589 0
-5588 5581 5582 5583 5584 5585 5586 5587 5589 0
-5589 5581 5582 5583 5584 5585 5586 5587 5588 0
5590 -5 -31 -56 -83 0
-5590 5 0
-5590 31 0
-5590 56 0
-5590 83 0
5591 -5 -31 -62 -74 0
-5591 5 0
-5591 31 0
-5591 62 0
-5591 74 0
5592 -5 -31 -65 -71 0
-5592 5 0
-5592 31 0
-5592 65 0
-5592 71 0
5593 -8 -31 -44 -83 0
-5593 8 0
-5593 31 0
-5593 44 0
-5593 83 0
5594 -8 -31 -50 -74 0
-5594 8 0
-5594 31 0
-5594 50 0
-5594 74 0
5595 -8 -31 -53 -71 0
-5595 8 0
-5595 31 0
-5595 53 0
-5595 71 0
5596 -11 -31 -41 -83 0
-5596 11 0
-5596 31 0
-5596 41 0
-5596 83 0
5597 -11 -31 -50 -65 0
-5597 11 0
-5597 31 0
-5597 50 0
-5597 65 0
5598 -11 -31 -53 -62 0
-5598 11 0
-5598 31 0
-5598 53 0
-5598 62 0
5599 -17 -31 -41 -74 0
-5599 17 0
-5599 31 0
-5599 41 0
-5599 74 0
5600 -17 -31 -44 -65 0
-5600 17 0
-5600 31 0
-5600 44 0
-5600 65 0
5601 -17 -31 -53 -56 0
-5601 17 0
-5601 31 0
-5601 53 0
-5601 56 0
5602 -20 -31 -41 -71 0
-5602 20 0
-5602 31 0
-5602 41 0
-5602 71 0
5603 -20 -31 -44 -62 0
-5603 20 0
-5603 31 0
-5603 44 0
-5603 62 0
5604 -20 -31 -50 -56 0
-5604 20 0
-5604 31 0
-5604 50 0
-5604 56 0
-5590 5591 5592 5593 5594 5595 5596 5597 5598 5599 5600 5601 5602 5603 5604 0
-5591 5590 5592 5593 5594 5595 5596 5597 5598 5599 5600 5601 5602 5603 5604 0
-5592 5590 5591 5593 5594 5595 5596 5597 5598 5599 5600 5601 5602 5603 5604 0
-5593 5590 5591 5592 5594 5595 5596 5597 5598 5599 5600 5601 5602 5603 5604 0
-5594 5590 5591 5592 5593 5595 5596 5597 5598 5599 5600 5601 5602 5603 5604 0
-5595 5590 5591 5592 5593 5594 5596 5597 5598 5599 5600 5601 5602 5603 5604 0
-5596 5590 5591 5592 5593 5594 5595 5597 5598 5599 5600 5601 5602 5603 5604 0
-5597 5590 5591 5592 5593 5594 5595 5596 5598 5599 5600 5601 5602 5603 5604 0
-5598 5590 5591 5592 5593 5594 5595 5596 5597 5599 5600 5601 5602 5603 5604 0
-5599 5590 5591 5592 5593 5594 5595 5596 5597 5598 5600 5601 5602 5603 5604 0
-5600 5590 5591 5592 5593 5594 5595 5596 5597 5598 5599 5601 5602 5603 5604 0
-5601 5590 5591 5592 5593 5594 5595 5596 5597 5598 5599 5600 5602 5603 5604 0
-5602 5590 5591 5592 5593 5594 5595 5596 5597 5598 5599 5600 5601 5603 5604 0
-5603 5590 5591 5592 5593 5594 5595 5596 5597 5598 5599 5600 5601 5602 5604 0
-5604 5590 5591 5592 5593 5594 5595 5596 5597 5598 5599 5600 5601 5602 5603 0
5605 -5 -31 -56 -84 0
-5605 5 0
-5605 31 0
-5605 56 0
-5605 84 0
5606 -8 -31 -44 -84 0
-5606 8 0
-5606 31 0
-5606 44 0
-5606 84 0
5607 -11 -31 -41 -84 0
-5607 11 0
-5607 31 0
-5607 41 0
-5607 84 0
-5605 5606 5607 0
-5606 5605 5607 0
-5607 5605 5606 0
5608 -5 -31 -57 -82 0
-5608 5 0
-5608 31 0
-5608 57 0
-5608 82 0
5609 -5 -34 -57 -79 0
-5609 5 0
-5609 34 0
-5609 57 0
-5609 79 0
5610 -5 -37 -57 -76 0
-5610 5 0
-5610 37 0
-5610 57 0
-5610 76 0
-5608 5609 5610 0
-5609 5608 5610 0
-5610 5608 5609 0
5611 -5 -31 -57 -83 0
-5611 5 0
-5611 31 0
-5611 57 0
-5611 83 0
5612 -17 -31 -53 -57 0
-5612 17 0
-5612 31 0
-5612 53 0
-5612 57 0
5613 -20 -31 -50 -57 0
-5613 20 0
-5613 31 0
-5613 50 0
-5613 57 0
-5611 5612 5613 0
-5612 5611 5613 0
-5613 5611 5612 0
5614 -5 -31 -57 -84 0
-5614 5 0
-5614 31 0
-5614 57 0
-5614 84 0
5615 -5 -31 -63 -75 0
-5615 5 0
-5615 31 0
-5615 63 0
-5615 75 0
5616 -5 -31 -66 -72 0
-5616 5 0
-5616 31 0
-5616 66 0
-5616 72 0
-5614 5615 5616 0
-5615 5614 5616 0
-5616 5614 5615 0
5617 -5 -33 -55 -82 0
-5617 5 0
-5617 33 0
-5617 55 0
-5617 82 0
5618 -5 -33 -61 -73 0
-5618 5 0
-5618 33 0
-5618 61 0
-5618 73 0
5619 -5 -33 -64 -70 0
-5619 5 0
-5619 33 0
-5619 64 0
-5619 70 0
-5617 5618 5619 0
-5618 5617 5619 0
-5619 5617 5618 0
5620 -5 -33 -55 -83 0
-5620 5 0
-5620 33 0
-5620 55 0
-5620 83 0
5621 -17 -33 -53 -55 0
-5621 17 0
-5621 33 0
-5621 53 0
-5621 55 0
5622 -20 -33 -50 -55 0
-5622 20 0
-5622 33 0
-5622 50 0
-5622 55 0
-5620 5621 5622 0
-5621 5620 5622 0
-5622 5620 5621 0
5623 -5 -33 -55 -84 0
-5623 5 0
-5623 33 0
-5623 55 0
-5623 84 0
5624 -5 -36 -55 -81 0
-5624 5 0
-5624 36 0
-5624 55 0
-5624 81 0
5625 -5 -39 -55 -78 0
-5625 5 0
-5625 39 0
-5625 55 0
-5625 78 0
-5623 5624 5625 0
-5624 5623 5625 0
-5625 5623 5624 0
5626 -5 -33 -56 -82 0
-5626 5 0
-5626 33 0
-5626 56 0
-5626 82 0
5627 -8 -33 -44 -82 0
-5627 8 0
-5627 33 0
-5627 44 0
-5627 82 0
5628 -11 -33 -41 -82 0
-5628 11 0
-5628 33 0
-5628 41 0
-5628 82 0
-5626 5627 5628 0
-5627 5626 5628 0
-5628 5626 5627 0
5629 -5 -33 -56 -83 0
-5629 5 0
-5629 33 0
-5629 56 0
-5629 83 0
5630 -5 -33 -62 -74 0
-5630 5 0
-5630 33 0
-5630 62 0
-5630 74 0
5631 -5 -33 -65 -71 0
-5631 5 0
-5631 33 0
-5631 65 0
-5631 71 0
5632 -8 -33 -44 -83 0
-5632 8 0
-5632 33 0
-5632 44 0
-5632 83 0
5633 -8 -33 -50 -74 0
-5633 8 0
-5633 33 0
-5633 50 0
-5633 74 0
5634 -8 -33 -53 -71 0
-5634 8 0
-5634 33 0
-5634 53 0
-5634 71 0
5635 -11 -33 -41 -83 0
-5635 11 0
-5635 33 0
-5635 41 0
-5635 83 0
5636 -11 -33 -50 -65 0
-5636 11 0
-5636 33 0
-5636 50 0
-5636 65 0
5637 -11 -33 -53 -62 0
-5637 11 0
-5637 33 0
-5637 53 0
-5637 62 0
5638 -17 -33 -41 -74 0
-5638 17 0
-5638 33 0
-5638 41 0
-5638 74 0
5639 -17 -33 -44 -65 0
-5639 17 0
-5639 33 0
-5639 44 0
-5639 65 0
5640 -17 -33 -53 -56 0
-5640 17 0
-5640 33 0
-5640 53 0
-5640 56 0
5641 -20 -33 -41 -71 0
-5641 20 0
-5641 33 0
-5641 41 0
-5641 71 0
5642 -20 -33 -44 -62 0
-5642 20 0
-5642 33 0
-5642 44 0
-5642 62 0
5643 -20 -33 -50 -56 0
-5643 20 0
-5643 33 0
-5643 50 0
-5643 56 0
-5629 5630 5631 5632 5633 5634 5635 5636 5637 5638 5639 5640 5641 5642 5643 0
-5630 5629 5631 5632 5633 5634 5635 5636 5637 5638 5639 5640 5641 5642 5643 0
-5631 5629 5630 5632 5633 5634 5635 5636 5637 5638 5639 5640 5641 5642 5643 0
-5632 5629 5630 5631 5633 5634 5635 5636 5637 5638 5639 5640 5641 5642 5643 0
-5633 5629 5630 5631 5632 5634 5635 5636 5637 5638 5639 5640 5641 5642 5643 0
-5634 5629 5630 5631 5632 5633 5635 5636 5637 5638 5639 5640 5641 5642 5643 0
-5635 5629 5630 5631 5632 5633 5634 5636 5637 5638 5639 5640 5641 5642 5643 0
-5636 5629 5630 5631 5632 5633 5634 5635 5637 5638 5639 5640 5641 5642 5643 0
-5637 5629 5630 5631 5632 5633 5634 5635 5636 5638 5639 5640 5641 5642 5643 0
-5638 5629 5630 5631 5632 5633 5634 5635 5636 5637 5639 5640 5641 5642 5643 0
-5639 5629 5630 5631 5632 5633 5634 5635 5636 5637 5638 5640 5641 5642 5643 0
-5640 5629 5630 5631 5632 5633 5634 5635 5636 5637 5638 5639 5641 5642 5643 0
-5641 5629 5630 5631 5632 5633 5634 5635 5636 5637 5638 5639 5640 5642 5643 0
-5642 5629 5630 5631 5632 5633 5634 5635 5636 5637 5638 5639 5640 5641 5643 0
-5643 5629 5630 5631 5632 5633 5634 5635 5636 5637 5638 5639 5640 5641 5642 0
5644 -5 -33 -56 -84 0
-5644 5 0
-5644 33 0
-5644 56 0
-5644 84 0
5645 -5 -36 -56 -81 0
-5645 5 0
-5645 36 0
-5645 56 0
-5645 81 0
5646 -5 -39 -56 -78 0
-5646 5 0
-5646 39 0
-5646 56 0
-5646 78 0
5647 -8 -33 -44 -84 0
-5647 8 0
-5647 33 0
-5647 44 0
-5647 84 0
5648 -8 -36 -44 -81 0
-5648 8 0
-5648 36 0
-5648 44 0
-5648 81 0
5649 -8 -39 -44 -78 0
-5649 8 0
-5649 39 0
-5649 44 0
-5649 78 0
5650 -11 -33 -41 -84 0
-5650 11 0
-5650 33 0
-5650 41 0
-5650 84 0
5651 -11 -36 -41 -81 0
-5651 11 0
-5651 36 0
-5651 41 0
-5651 81 0
5652 -11 -39 -41 -78 0
-5652 11 0
-5652 39 0
-5652 41 0
-5652 78 0
-5644 5645 5646 5647 5648 5649 5650 5651 5652 0
-5645 5644 5646 5647 5648 5649 5650 5651 5652 0
-5646 5644 5645 5647 5648 5649 5650 5651 5652 0
-5647 5644 5645 5646 5648 5649 5650 5651 5652 0
-5648 5644 5645 5646 5647 5649 5650 5651 5652 0
-5649 5644 5645 5646 5647 5648 5650 5651 5652 0
-5650 5644 5645 5646 5647 5648 5649 5651 5652 0
-5651 5644 5645 5646 5647 5648 5649 5650 5652 0
-5652 5644 5645 5646 5647 5648 5649 5650 5651 0
5653 -6 -31 -56 -82 0
-5653 6 0
-5653 31 0
-5653 56 0
-5653 82 0
5654 -6 -34 -56 -79 0
-5654 6 0
-5654 34 0
-5654 56 0
-5654 79 0
5655 -6 -37 -56 -76 0
-5655 6 0
-5655 37 0
-5655 56 0
-5655 76 0
-5653 5654 5655 0
-5654 5653 5655 0
-5655 5653 5654 0
5656 -6 -31 -56 -83 0
-5656 6 0
-5656 31 0
-5656 56 0
-5656 83 0
5657 -6 -31 -62 -74 0
-5657 6 0
-5657 31 0
-5657 62 0
-5657 74 0
5658 -6 -31 -65 -71 0
-5658 6 0
-5658 31 0
-5658 65 0
-5658 71 0
-5656 5657 5658 0
-5657 5656 5658 0
-5658 5656 5657 0
5659 -6 -31 -56 -84 0
-5659 6 0
-5659 31 0
-5659 56 0
-5659 84 0
5660 -18 -31 -54 -56 0
-5660 18 0
-5660 31 0
-5660 54 0
-5660 56 0
5661 -21 -31 -51 -56 0
-5661 21 0
-5661 31 0
-5661 51 0
-5661 56 0
-5659 5660 5661 0
-5660 5659 5661 0
-5661 5659 5660 0
5662 -6 -31 -57 -82 0
-5662 6 0
-5662 31 0
-5662 57 0
-5662 82 0
5663 -6 -34 -57 -79 0
-5663 6 0
-5663 34 0
-5663 57 0
-5663 79 0
5664 -6 -37 -57 -76 0
-5664 6 0
-5664 37 0
-5664 57 0
-5664 76 0
5665 -9 -31 -45 -82 0
-5665 9 0
-5665 31 0
-5665 45 0
-5665 82 0
5666 -9 -34 -45 -79 0
-5666 9 0
-5666 34 0
-5666 45 0
-5666 79 0
5667 -9 -37 -45 -76 0
-5667 9 0
-5667 37 0
-5667 45 0
-5667 76 0
5668 -12 -31 -42 -82 0
-5668 12 0
-5668 31 0
-5668 42 0
-5668 82 0
5669 -12 -34 -42 -79 0
-5669 12 0
-5669 34 0
-5669 42 0
-5669 79 0
5670 -12 -37 -42 -76 0
-5670 12 0
-5670 37 0
-5670 42 0
-5670 76 0
-5662 5663 5664 5665 5666 5667 5668 5669 5670 0
-5663 5662 5664 5665 5666 5667 5668 5669 5670 0
-5664 5662 5663 5665 5666 5667 5668 5669 5670 0
-5665 5662 5663 5664 5666 5667 5668 5669 5670 0
-5666 5662 5663 5664 5665 5667 5668 5669 5670 0
-5667 5662 5663 5664 5665 5666 5668 5669 5670 0
-5668 5662 5663 5664 5665 5666 5667 5669 5670 0
-5669 5662 5663 5664 5665 5666 5667 5668 5670 0
-5670 5662 5663 5664 5665 5666 5667 5668 5669 0
5671 -6 -31 -57 -83 0
-5671 6 0
-5671 31 0
-5671 57 0
-5671 83 0
5672 -9 -31 -45 -83 0
-5672 9 0
-5672 31 0
-5672 45 0
-5672 83 0
5673 -12 -31 -42 -83 0
-5673 12 0
-5673 31 0
-5673 42 0
-5673 83 0
-5671 5672 5673 0
-5672 5671 5673 0
-5673 5671 5672 0
5674 -6 -31 -57 -84 0
-5674 6 0
-5674 31 0
-5674 57 0
-5674 84 0
5675 -6 -31 -63 -75 0
-5675 6 0
-5675 31 0
-5675 63 0
-5675 75 0
5676 -6 -31 -66 -72 0
-5676 6 0
-5676 31 0
-5676 66 0
-5676 72 0
5677 -9 -31 -45 -84 0
-5677 9 0
-5677 31 0
-5677 45 0
-5677 84 0
5678 -9 -31 -51 -75 0
-5678 9 0
-5678 31 0
-5678 51 0
-5678 75 0
5679 -9 -31 -54 -72 0
-5679 9 0
-5679 31 0
-5679 54 0
-5679 72 0
5680 -12 -31 -42 -84 0
-5680 12 0
-5680 31 0
-5680 42 0
-5680 84 0
5681 -12 -31 -51 -66 0
-5681 12 0
-5681 31 0
-5681 51 0
-5681 66 0
5682 -12 -31 -54 -63 0
-5682 12 0
-5682 31 0
-5682 54 0
-5682 63 0
5683 -18 -31 -42 -75 0
-5683 18 0
-5683 31 0
-5683 42 0
-5683 75 0
5684 -18 -31 -45 -66 0
-5684 18 0
-5684 31 0
-5684 45 0
-5684 66 0
5685 -18 -31 -54 -57 0
-5685 18 0
-5685 31 0
-5685 54 0
-5685 57 0
5686 -21 -31 -42 -72 0
-5686 21 0
-5686 31 0
-5686 42 0
-5686 72 0
5687 -21 -31 -45 -63 0
-5687 21 0
-5687 31 0
-5687 45 0
-5687 63 0
5688 -21 -31 -51 -57 0
-5688 21 0
-5688 31 0
-5688 51 0
-5688 57 0
-5674 5675 5676 5677 5678 5679 5680 5681 5682 5683 5684 5685 5686 5687 5688 0
-5675 5674 5676 5677 5678 5679 5680 5681 5682 5683 5684 5685 5686 5687 5688 0
-5676 5674 5675 5677 5678 5679 5680 5681 5682 5683 5684 5685 5686 5687 5688 0
-5677 5674 5675 5676 5678 5679 5680 5681 5682 5683 5684 5685 5686 5687 5688 0
-5678 5674 5675 5676 5677 5679 5680 5681 5682 5683 5684 5685 5686 5687 5688 0
-5679 5674 5675 5676 5677 5678 5680 5681 5682 5683 5684 5685 5686 5687 5688 0
-5680 5674 5675 5676 5677 5678 5679 5681 5682 5683 5684 5685 5686 5687 5688 0
-5681 5674 5675 5676 5677 5678 5679 5680 5682 5683 5684 5685 5686 5687 5688 0
-5682 5674 5675 5676 5677 5678 5679 5680 5681 5683 5684 5685 5686 5687 5688 0
-5683 5674 5675 5676 5677 5678 5679 5680 5681 5682 5684 5685 5686 5687 5688 0
-5684 5674 5675 5676 5677 5678 5679 5680 5681 5682 5683 5685 5686 5687 5688 0
-5685 5674 5675 5676 5677 5678 5679 5680 5681 5682 5683 5684 5686 5687 5688 0
-5686 5674 5675 5676 5677 5678 5679 5680 5681 5682 5683 5684 5685 5687 5688 0
-5687 5674 5675 5676 5677 5678 5679 5680 5681 5682 5683 5684 5685 5686 5688 0
-5688 5674 5675 5676 5677 5678 5679 5680 5681 5682 5683 5684 5685 5686 5687 0
5689 -6 -32 -55 -82 0
-5689 6 0
-5689 32 0
-5689 55 0
-5689 82 0
5690 -6 -32 -61 -73 0
-5690 6 0
-5690 32 0
-5690 61 0
-5690 73 0
5691 -6 -32 -64 -70 0
-5691 6 0
-5691 32 0
-5691 64 0
-5691 70 0
-5689 5690 5691 0
-5690 5689 5691 0
-5691 5689 5690 0
5692 -6 -32 -55 -83 0
-5692 6 0
-5692 32 0
-5692 55 0
-5692 83 0
5693 -6 -35 -55 -80 0
-5693 6 0
-5693 35 0
-5693 55 0
-5693 80 0
5694 -6 -38 -55 -77 0
-5694 6 0
-5694 38 0
-5694 55 0
-5694 77 0
-5692 5693 5694 0
-5693 5692 5694 0
-5694 5692 5693 0
5695 -6 -32 -55 -84 0
-5695 6 0
-5695 32 0
-5695 55 0
-5695 84 0
5696 -18 -32 -54 -55 0
-5696 18 0
-5696 32 0
-5696 54 0
-5696 55 0
5697 -21 -32 -51 -55 0
-5697 21 0
-5697 32 0
-5697 51 0
-5697 55 0
-5695 5696 5697 0
-5696 5695 5697 0
-5697 5695 5696 0
5698 -6 -32 -57 -82 0
-5698 6 0
-5698 32 0
-5698 57 0
-5698 82 0
5699 -9 -32 -45 -82 0
-5699 9 0
-5699 32 0
-5699 45 0
-5699 82 0
5700 -12 -32 -42 -82 0
-5700 12 0
-5700 32 0
-5700 42 0
-5700 82 0
-5698 5699 5700 0
-5699 5698 5700 0
-5700 5698 5699 0
5701 -6 -32 -57 -83 0
-5701 6 0
-5701 32 0
-5701 57 0
-5701 83 0
5702 -6 -35 -57 -80 0
-5702 6 0
-5702 35 0
-5702 57 0
-5702 80 0
5703 -6 -38 -57 -77 0
-5703 6 0
-5703 38 0
-5703 57 0
-5703 77 0
5704 -9 -32 -45 -83 0
-5704 9 0
-5704 32 0
-5704 45 0
-5704 83 0
5705 -9 -35 -45 -80 0
-5705 9 0
-5705 35 0
-5705 45 0
-5705 80 0
5706 -9 -38 -45 -77 0
-5706 9 0
-5706 38 0
-5706 45 0
-5706 77 0
5707 -12 -32 -42 -83 0
-5707 12 0
-5707 32 0
-5707 42 0
-5707 83 0
5708 -12 -35 -42 -80 0
-5708 12 0
-5708 35 0
-5708 42 0
-5708 80 0
5709 -12 -38 -42 -77 0
-5709 12 0
-5709 38 0
-5709 42 0
-5709 77 0
-5701 5702 5703 5704 5705 5706 5707 5708 5709 0
-5702 5701 5703 5704 5705 5706 5707 5708 5709 0
-5703 5701 5702 5704 5705 5706 5707 5708 5709 0
-5704 5701 5702 5703 5705 5706 5707 5708 5709 0
-5705 5701 5702 5703 5704 5706 5707 5708 5709 0
-5706 5701 5702 5703 5704 5705 5707 5708 5709 0
-5707 5701 5702 5703 5704 5705 5706 5708 5709 0
-5708 5701 5702 5703 5704 5705 5706 5707 5709 0
-5709 5701 5702 5703 5704 5705 5706 5707 5708 0
5710 -6 -32 -57 -84 0
-5710 6 0
-5710 32 0
-5710 57 0
-5710 84 0
5711 -6 -32 -63 -75 0
-5711 6 0
-5711 32 0
-5711 63 0
-5711 75 0
5712 -6 -32 -66 -72 0
-5712 6 0
-5712 32 0
-5712 66 0
-5712 72 0
5713 -9 -32 -45 -84 0
-5713 9 0
-5713 32 0
-5713 45 0
-5713 84 0
5714 -9 -32 -51 -75 0
-5714 9 0
-5714 32 0
-5714 51 0
-5714 75 0
5715 -9 -32 -54 -72 0
-5715 9 0
-5715 32 0
-5715 54 0
-5715 72 0
5716 -12 -32 -42 -84 0
-5716 12 0
-5716 32 0
-5716 42 0
-5716 84 0
5717 -12 -32 -51 -66 0
-5717 12 0
-5717 32 0
-5717 51 0
-5717 66 0
5718 -12 -32 -54 -63 0
-5718 12 0
-5718 32 0
-5718 54 0
-5718 63 0
5719 -18 -32 -42 -75 0
-5719 18 0
-5719 32 0
-5719 42 0
-5719 75 0
5720 -18 -32 -45 -66 0
-5720 18 0
-5720 32 0
-5720 45 0
-5720 66 0
5721 -18 -32 -54 -57 0
-5721 18 0
-5721 32 0
-5721 54 0
-5721 57 0
5722 -21 -32 -42 -72 0
-5722 21 0
-5722 32 0
-5722 42 0
-5722 72 0
5723 -21 -32 -45 -63 0
-5723 21 0
-5723 32 0
-5723 45 0
-5723 63 0
5724 -21 -32 -51 -57 0
-5724 21 0
-5724 32 0
-5724 51 0
-5724 57 0
-5710 5711 5712 5713 5714 5715 5716 5717 5718 5719 5720 5721 5722 5723 5724 0
-5711 5710 5712 5713 5714 5715 5716 5717 5718 5719 5720 5721 5722 5723 5724 0
-5712 5710 5711 5713 5714 5715 5716 5717 5718 5719 5720 5721 5722 5723 5724 0
-5713 5710 5711 5712 5714 5715 5716 5717 5718 5719 5720 5721 5722 5723 5724 0
-5714 5710 5711 5712 5713 5715 5716 5717 5718 5719 5720 5721 5722 5723 5724 0
-5715 5710 5711 5712 5713 5714 5716 5717 5718 5719 5720 5721 5722 5723 5724 0
-5716 5710 5711 5712 5713 5714 5715 5717 5718 5719 5720 5721 5722 5723 5724 0
-5717 5710 5711 5712 5713 5714 5715 5716 5718 5719 5720 5721 5722 5723 5724 0
-5718 5710 5711 5712 5713 5714 5715 5716 5717 5719 5720 5721 5722 5723 5724 0
-5719 5710 5711 5712 5713 5714 5715 5716 5717 5718 5720 5721 5722 5723 5724 0
-5720 5710 5711 5712 5713 5714 5715 5716 5717 5718 5719 5721 5722 5723 5724 0
-5721 5710 5711 5712 5713 5714 5715 5716 5717 5718 5719 5720 5722 5723 5724 0
-5722 5710 5711 5712 5713 5714 5715 5716 5717 5718 5719 5720 5721 5723 5724 0
-5723 5710 5711 5712 5713 5714 5715 5716 5717 5718 5719 5720 5721 5722 5724 0
-5724 5710 5711 5712 5713 5714 5715 5716 5717 5718 5719 5720 5721 5722 5723 0
5725 -4 -32 -61 -75 0
-5725 4 0
-5725 32 0
-5725 61 0
-5725 75 0
5726 -7 -32 -49 -75 0
-5726 7 0
-5726 32 0
-5726 49 0
-5726 75 0
5727 -16 -32 -40 -75 0
-5727 16 0
-5727 32 0
-5727 40 0
-5727 75 0
-5725 5726 5727 0
-5726 5725 5727 0
-5727 5725 5726 0
5728 -4 -32 -63 -73 0
-5728 4 0
-5728 32 0
-5728 63 0
-5728 73 0
5729 -10 -32 -52 -63 0
-5729 10 0
-5729 32 0
-5729 52 0
-5729 63 0
5730 -19 -32 -43 -63 0
-5730 19 0
-5730 32 0
-5730 43 0
-5730 63 0
-5728 5729 5730 0
-5729 5728 5730 0
-5730 5728 5729 0
5731 -4 -33 -61 -74 0
-5731 4 0
-5731 33 0
-5731 61 0
-5731 74 0
5732 -7 -33 -49 -74 0
-5732 7 0
-5732 33 0
-5732 49 0
-5732 74 0
5733 -16 -33 -40 -74 0
-5733 16 0
-5733 33 0
-5733 40 0
-5733 74 0
-5731 5732 5733 0
-5732 5731 5733 0
-5733 5731 5732 0
5734 -4 -33 -62 -73 0
-5734 4 0
-5734 33 0
-5734 62 0
-5734 73 0
5735 -10 -33 -52 -62 0
-5735 10 0
-5735 33 0
-5735 52 0
-5735 62 0
5736 -19 -33 -43 -62 0
-5736 19 0
-5736 33 0
-5736 43 0
-5736 62 0
-5734 5735 5736 0
-5735 5734 5736 0
-5736 5734 5735 0
5737 -5 -31 -62 -75 0
-5737 5 0
-5737 31 0
-5737 62 0
-5737 75 0
5738 -8 -31 -50 -75 0
-5738 8 0
-5738 31 0
-5738 50 0
-5738 75 0
5739 -17 -31 -41 -75 0
-5739 17 0
-5739 31 0
-5739 41 0
-5739 75 0
-5737 5738 5739 0
-5738 5737 5739 0
-5739 5737 5738 0
5740 -5 -31 -63 -74 0
-5740 5 0
-5740 31 0
-5740 63 0
-5740 74 0
5741 -11 -31 -53 -63 0
-5741 11 0
-5741 31 0
-5741 53 0
-5741 63 0
5742 -20 -31 -44 -63 0
-5742 20 0
-5742 31 0
-5742 44 0
-5742 63 0
-5740 5741 5742 0
-5741 5740 5742 0
-5742 5740 5741 0
5743 -5 -33 -61 -74 0
-5743 5 0
-5743 33 0
-5743 61 0
-5743 74 0
5744 -11 -33 -53 -61 0
-5744 11 0
-5744 33 0
-5744 53 0
-5744 61 0
5745 -20 -33 -44 -61 0
-5745 20 0
-5745 33 0
-5745 44 0
-5745 61 0
-5743 5744 5745 0
-5744 5743 5745 0
-5745 5743 5744 0
5746 -5 -33 -62 -73 0
-5746 5 0
-5746 33 0
-5746 62 0
-5746 73 0
5747 -8 -33 -50 -73 0
-5747 8 0
-5747 33 0
-5747 50 0
-5747 73 0
5748 -17 -33 -41 -73 0
-5748 17 0
-5748 33 0
-5748 41 0
-5748 73 0
-5746 5747 5748 0
-5747 5746 5748 0
-5748 5746 5747 0
5749 -6 -31 -62 -75 0
-5749 6 0
-5749 31 0
-5749 62 0
-5749 75 0
5750 -12 -31 -54 -62 0
-5750 12 0
-5750 31 0
-5750 54 0
-5750 62 0
5751 -21 -31 -45 -62 0
-5751 21 0
-5751 31 0
-5751 45 0
-5751 62 0
-5749 5750 5751 0
-5750 5749 5751 0
-5751 5749 5750 0
5752 -6 -31 -63 -74 0
-5752 6 0
-5752 31 0
-5752 63 0
-5752 74 0
5753 -9 -31 -51 -74 0
-5753 9 0
-5753 31 0
-5753 51 0
-5753 74 0
5754 -18 -31 -42 -74 0
-5754 18 0
-5754 31 0
-5754 42 0
-5754 74 0
-5752 5753 5754 0
-5753 5752 5754 0
-5754 5752 5753 0
5755 -6 -32 -61 -75 0
-5755 6 0
-5755 32 0
-5755 61 0
-5755 75 0
5756 -12 -32 -54 -61 0
-5756 12 0
-5756 32 0
-5756 54 0
-5756 61 0
5757 -21 -32 -45 -61 0
-5757 21 0
-5757 32 0
-5757 45 0
-5757 61 0
-5755 5756 5757 0
-5756 5755 5757 0
-5757 5755 5756 0
5758 -6 -32 -63 -73 0
-5758 6 0
-5758 32 0
-5758 63 0
-5758 73 0
5759 -9 -32 -51 -73 0
-5759 9 0
-5759 32 0
-5759 51 0
-5759 73 0
5760 -18 -32 -42 -73 0
-5760 18 0
-5760 32 0
-5760 42 0
-5760 73 0
-5758 5759 5760 0
-5759 5758 5760 0
-5760 5758 5759 0
5761 -4 -32 -64 -72 0
-5761 4 0
-5761 32 0
-5761 64 0
-5761 72 0
5762 -7 -32 -52 -72 0
-5762 7 0
-5762 32 0
-5762 52 0
-5762 72 0
5763 -19 -32 -40 -72 0
-5763 19 0
-5763 32 0
-5763 40 0
-5763 72 0
-5761 5762 5763 0
-5762 5761 5763 0
-5763 5761 5762 0
5764 -4 -32 -66 -70 0
-5764 4 0
-5764 32 0
-5764 66 0
-5764 70 0
5765 -10 -32 -49 -66 0
-5765 10 0
-5765 32 0
-5765 49 0
-5765 66 0
5766 -16 -32 -43 -66 0
-5766 16 0
-5766 32 0
-5766 43 0
-5766 66 0
-5764 5765 5766 0
-5765 5764 5766 0
-5766 5764 5765 0
5767 -4 -33 -64 -71 0
-5767 4 0
-5767 33 0
-5767 64 0
-5767 71 0
5768 -7 -33 -52 -71 0
-5768 7 0
-5768 33 0
-5768 52 0
-5768 71 0
5769 -19 -33 -40 -71 0
-5769 19 0
-5769 33 0
-5769 40 0
-5769 71 0
-5767 5768 5769 0
-5768 5767 5769 0
-5769 5767 5768 0
5770 -4 -33 -65 -70 0
-5770 4 0
-5770 33 0
-5770 65 0
-5770 70 0
5771 -10 -33 -49 -65 0
-5771 10 0
-5771 33 0
-5771 49 0
-5771 65 0
5772 -16 -33 -43 -65 0
-5772 16 0
-5772 33 0
-5772 43 0
-5772 65 0
-5770 5771 5772 0
-5771 5770 5772 0
-5772 5770 5771 0
5773 -5 -31 -65 -72 0
-5773 5 0
-5773 31 0
-5773 65 0
-5773 72 0
5774 -8 -31 -53 -72 0
-5774 8 0
-5774 31 0
-5774 53 0
-5774 72 0
5775 -20 -31 -41 -72 0
-5775 20 0
-5775 31 0
-5775 41 0
-5775 72 0
-5773 5774 5775 0
-5774 5773 5775 0
-5775 5773 5774 0
5776 -5 -31 -66 -71 0
-5776 5 0
-5776 31 0
-5776 66 0
-5776 71 0
5777 -11 -31 -50 -66 0
-5777 11 0
-5777 31 0
-5777 50 0
-5777 66 0
5778 -17 -31 -44 -66 0
-5778 17 0
-5778 31 0
-5778 44 0
-5778 66 0
-5776 5777 5778 0
-5777 5776 5778 0
-5778 5776 5777 0
5779 -5 -33 -64 -71 0
-5779 5 0
-5779 33 0
-5779 64 0
-5779 71 0
5780 -11 -33 -50 -64 0
-5780 11 0
-5780 33 0
-5780 50 0
-5780 64 0
5781 -17 -33 -44 -64 0
-5781 17 0
-5781 33 0
-5781 44 0
-5781 64 0
-5779 5780 5781 0
-5780 5779 5781 0
-5781 5779 5780 0
5782 -5 -33 -65 -70 0
-5782 5 0
-5782 33 0
-5782 65 0
-5782 70 0
5783 -8 -33 -53 -70 0
-5783 8 0
-5783 33 0
-5783 53 0
-5783 70 0
5784 -20 -33 -41 -70 0
-5784 20 0
-5784 33 0
-5784 41 0
-5784 70 0
-5782 5783 5784 0
-5783 5782 5784 0
-5784 5782 5783 0
5785 -6 -31 -65 -72 0
-5785 6 0
-5785 31 0
-5785 65 0
-5785 72 0
5786 -12 -31 -51 -65 0
-5786 12 0
-5786 31 0
-5786 51 0
-5786 65 0
5787 -18 -31 -45 -65 0
-5787 18 0
-5787 31 0
-5787 45 0
-5787 65 0
-5785 5786 5787 0
-5786 5785 5787 0
-5787 5785 5786 0
5788 -6 -31 -66 -71 0
-5788 6 0
-5788 31 0
-5788 66 0
-5788 71 0
5789 -9 -31 -54 -71 0
-5789 9 0
-5789 31 0
-5789 54 0
-5789 71 0
5790 -21 -31 -42 -71 0
-5790 21 0
-5790 31 0
-5790 42 0
-5790 71 0
-5788 5789 5790 0
-5789 5788 5790 0
-5790 5788 5789 0
5791 -6 -32 -64 -72 0
-5791 6 0
-5791 32 0
-5791 64 0
-5791 72 0
5792 -12 -32 -51 -64 0
-5792 12 0
-5792 32 0
-5792 51 0
-5792 64 0
5793 -18 -32 -45 -64 0
-5793 18 0
-5793 32 0
-5793 45 0
-5793 64 0
-5791 5792 5793 0
-5792 5791 5793 0
-5793 5791 5792 0
5794 -6 -32 -66 -70 0
-5794 6 0
-5794 32 0
-5794 66 0
-5794 70 0
5795 -9 -32 -54 -70 0
-5795 9 0
-5795 32 0
-5795 54 0
-5795 70 0
5796 -21 -32 -42 -70 0
-5796 21 0
-5796 32 0
-5796 42 0
-5796 70 0
-5794 5795 5796 0
-5795 5794 5796 0
-5796 5794 5795 0
5797 -4 -35 -55 -79 0
-5797 4 0
-5797 35 0
-5797 55 0
-5797 79 0
5798 -4 -35 -58 -73 0
-5798 4 0
-5798 35 0
-5798 58 0
-5798 73 0
5799 -4 -35 -64 -67 0
-5799 4 0
-5799 35 0
-5799 64 0
-5799 67 0
5800 -7 -35 -43 -79 0
-5800 7 0
-5800 35 0
-5800 43 0
-5800 79 0
5801 -7 -35 -46 -73 0
-5801 7 0
-5801 35 0
-5801 46 0
-5801 73 0
5802 -7 -35 -52 -67 0
-5802 7 0
-5802 35 0
-5802 52 0
-5802 67 0
5803 -10 -35 -40 -79 0
-5803 10 0
-5803 35 0
-5803 40 0
-5803 79 0
5804 -10 -35 -46 -64 0
-5804 10 0
-5804 35 0
-5804 46 0
-5804 64 0
5805 -10 -35 -52 -58 0
-5805 10 0
-5805 35 0
-5805 52 0
-5805 58 0
5806 -13 -35 -40 -73 0
-5806 13 0
-5806 35 0
-5806 40 0
-5806 73 0
5807 -13 -35 -43 -64 0
-5807 13 0
-5807 35 0
-5807 43 0
-5807 64 0
5808 -13 -35 -52 -55 0
-5808 13 0
-5808 35 0
-5808 52 0
-5808 55 0
5809 -19 -35 -40 -67 0
-5809 19 0
-5809 35 0
-5809 40 0
-5809 67 0
5810 -19 -35 -43 -58 0
-5810 19 0
-5810 35 0
-5810 43 0
-5810 58 0
5811 -19 -35 -46 -55 0
-5811 19 0
-5811 35 0
-5811 46 0
-5811 55 0
-5797 5798 5799 5800 5801 5802 5803 5804 5805 5806 5807 5808 5809 5810 5811 0
-5798 5797 5799 5800 5801 5802 5803 5804 5805 5806 5807 5808 5809 5810 5811 0
-5799 5797 5798 5800 5801 5802 5803 5804 5805 5806 5807 5808 5809 5810 5811 0
-5800 5797 5798 5799 5801 5802 5803 5804 5805 5806 5807 5808 5809 5810 5811 0
-5801 5797 5798 5799 5800 5802 5803 5804 5805 5806 5807 5808 5809 5810 5811 0
-5802 5797 5798 5799 5800 5801 5803 5804 5805 5806 5807 5808 5809 5810 5811 0
-5803 5797 5798 5799 5800 5801 5802 5804 5805 5806 5807 5808 5809 5810 5811 0
-5804 5797 5798 5799 5800 5801 5802 5803 5805 5806 5807 5808 5809 5810 5811 0
-5805 5797 5798 5799 5800 5801 5802 5803 5804 5806 5807 5808 5809 5810 5811 0
-5806 5797 5798 5799 5800 5801 5802 5803 5804 5805 5807 5808 5809 5810 5811 0
-5807 5797 5798 5799 5800 5801 5802 5803 5804 5805 5806 5808 5809 5810 5811 0
-5808 5797 5798 5799 5800 5801 5802 5803 5804 5805 5806 5807 5809 5810 5811 0
-5809 5797 5798 5799 5800 5801 5802 5803 5804 5805 5806 5807 5808 5810 5811 0
-5810 5797 5798 5799 5800 5801 5802 5803 5804 5805 5806 5807 5808 5809 5811 0
-5811 5797 5798 5799 5800 5801 5802 5803 5804 5805 5806 5807 5808 5809 5810 0
5812 -4 -35 -55 -81 0
-5812 4 0
-5812 35 0
-5812 55 0
-5812 81 0
5813 -7 -35 -43 -81 0
-5813 7 0
-5813 35 0
-5813 43 0
-5813 81 0
5814 -10 -35 -40 -81 0
-5814 10 0
-5814 35 0
-5814 40 0
-5814 81 0
-5812 5813 5814 0
-5813 5812 5814 0
-5814 5812 5813 0
5815 -4 -35 -57 -79 0
-5815 4 0
-5815 35 0
-5815 57 0
-5815 79 0
5816 -13 -35 -52 -57 0
-5816 13 0
-5816 35 0
-5816 52 0
-5816 57 0
5817 -19 -35 -46 -57 0
-5817 19 0
-5817 35 0
-5817 46 0
-5817 57 0
-5815 5816 5817 0
-5816 5815 5817 0
-5817 5815 5816 0
5818 -4 -35 -57 -81 0
-5818 4 0
-5818 35 0
-5818 57 0
-5818 81 0
5819 -4 -35 -60 -75 0
-5819 4 0
-5819 35 0
-5819 60 0
-5819 75 0
5820 -4 -35 -66 -69 0
-5820 4 0
-5820 35 0
-5820 66 0
-5820 69 0
-5818 5819 5820 0
-5819 5818 5820 0
-5820 5818 5819 0
5821 -4 -36 -55 -79 0
-5821 4 0
-5821 36 0
-5821 55 0
-5821 79 0
5822 -4 -36 -58 -73 0
-5822 4 0
-5822 36 0
-5822 58 0
-5822 73 0
5823 -4 -36 -64 -67 0
-5823 4 0
-5823 36 0
-5823 64 0
-5823 67 0
5824 -7 -36 -43 -79 0
-5824 7 0
-5824 36 0
-5824 43 0
-5824 79 0
5825 -7 -36 -46 -73 0
-5825 7 0
-5825 36 0
-5825 46 0
-5825 73 0
5826 -7 -36 -52 -67 0
-5826 7 0
-5826 36 0
-5826 52 0
-5826 67 0
5827 -10 -36 -40 -79 0
-5827 10 0
-5827 36 0
-5827 40 0
-5827 79 0
5828 -10 -36 -46 -64 0
-5828 10 0
-5828 36 0
-5828 46 0
-5828 64 0
5829 -10 -36 -52 -58 0
-5829 10 0
-5829 36 0
-5829 52 0
-5829 58 0
5830 -13 -36 -40 -73 0
-5830 13 0
-5830 36 0
-5830 40 0
-5830 73 0
5831 -13 -36 -43 -64 0
-5831 13 0
-5831 36 0
-5831 43 0
-5831 64 0
5832 -13 -36 -52 -55 0
-5832 13 0
-5832 36 0
-5832 52 0
-5832 55 0
5833 -19 -36 -40 -67 0
-5833 19 0
-5833 36 0
-5833 40 0
-5833 67 0
5834 -19 -36 -43 -58 0
-5834 19 0
-5834 36 0
-5834 43 0
-5834 58 0
5835 -19 -36 -46 -55 0
-5835 19 0
-5835 36 0
-5835 46 0
-5835 55 0
-5821 5822 5823 5824 5825 5826 5827 5828 5829 5830 5831 5832 5833 5834 5835 0
-5822 5821 5823 5824 5825 5826 5827 5828 5829 5830 5831 5832 5833 5834 5835 0
-5823 5821 5822 5824 5825 5826 5827 5828 5829 5830 5831 5832 5833 5834 5835 0
-5824 5821 5822 5823 5825 5826 5827 5828 5829 5830 5831 5832 5833 5834 5835 0
-5825 5821 5822 5823 5824 5826 5827 5828 5829 5830 5831 5832 5833 5834 5835 0
-5826 5821 5822 5823 5824 5825 5827 5828 5829 5830 5831 5832 5833 5834 5835 0
-5827 5821 5822 5823 5824 5825 5826 5828 5829 5830 5831 5832 5833 5834 5835 0
-5828 5821 5822 5823 5824 5825 5826 5827 5829 5830 5831 5832 5833 5834 5835 0
-5829 5821 5822 5823 5824 5825 5826 5827 5828 5830 5831 5832 5833 5834 5835 0
-5830 5821 5822 5823 5824 5825 5826 5827 5828 5829 5831 5832 5833 5834 5835 0
-5831 5821 5822 5823 5824 5825 5826 5827 5828 5829 5830 5832 5833 5834 5835 0
-5832 5821 5822 5823 5824 5825 5826 5827 5828 5829 5830 5831 5833 5834 5835 0
-5833 5821 5822 5823 5824 5825 5826 5827 5828 5829 5830 5831 5832 5834 5835 0
-5834 5821 5822 5823 5824 5825 5826 5827 5828 5829 5830 5831 5832 5833 5835 0
-5835 5821 5822 5823 5824 5825 5826 5827 5828 5829 5830 5831 5832 5833 5834 0
5836 -4 -36 -55 -80 0
-5836 4 0
-5836 36 0
-5836 55 0
-5836 80 0
5837 -7 -36 -43 -80 0
-5837 7 0
-5837 36 0
-5837 43 0
-5837 80 0
5838 -10 -36 -40 -80 0
-5838 10 0
-5838 36 0
-5838 40 0
-5838 80 0
-5836 5837 5838 0
-5837 5836 5838 0
-5838 5836 5837 0
5839 -4 -36 -56 -79 0
-5839 4 0
-5839 36 0
-5839 56 0
-5839 79 0
5840 -13 -36 -52 -56 0
-5840 13 0
-5840 36 0
-5840 52 0
-5840 56 0
5841 -19 -36 -46 -56 0
-5841 19 0
-5841 36 0
-5841 46 0
-5841 56 0
-5839 5840 5841 0
-5840 5839 5841 0
-5841 5839 5840 0
5842 -4 -36 -56 -80 0
-5842 4 0
-5842 36 0
-5842 56 0
-5842 80 0
5843 -4 -36 -59 -74 0
-5843 4 0
-5843 36 0
-5843 59 0
-5843 74 0
5844 -4 -36 -65 -68 0
-5844 4 0
-5844 36 0
-5844 65 0
-5844 68 0
-5842 5843 5844 0
-5843 5842 5844 0
-5844 5842 5843 0
5845 -5 -34 -56 -80 0
-5845 5 0
-5845 34 0
-5845 56 0
-5845 80 0
5846 -5 -34 -59 -74 0
-5846 5 0
-5846 34 0
-5846 59 0
-5846 74 0
5847 -5 -34 -65 -68 0
-5847 5 0
-5847 34 0
-5847 65 0
-5847 68 0
5848 -8 -34 -44 -80 0
-5848 8 0
-5848 34 0
-5848 44 0
-5848 80 0
5849 -8 -34 -47 -74 0
-5849 8 0
-5849 34 0
-5849 47 0
-5849 74 0
5850 -8 -34 -53 -68 0
-5850 8 0
-5850 34 0
-5850 53 0
-5850 68 0
5851 -11 -34 -41 -80 0
-5851 11 0
-5851 34 0
-5851 41 0
-5851 80 0
5852 -11 -34 -47 -65 0
-5852 11 0
-5852 34 0
-5852 47 0
-5852 65 0
5853 -11 -34 -53 -59 0
-5853 11 0
-5853 34 0
-5853 53 0
-5853 59 0
5854 -14 -34 -41 -74 0
-5854 14 0
-5854 34 0
-5854 41 0
-5854 74 0
5855 -14 -34 -44 -65 0
-5855 14 0
-5855 34 0
-5855 44 0
-5855 65 0
5856 -14 -34 -53 -56 0
-5856 14 0
-5856 34 0
-5856 53 0
-5856 56 0
5857 -20 -34 -41 -68 0
-5857 20 0
-5857 34 0
-5857 41 0
-5857 68 0
5858 -20 -34 -44 -59 0
-5858 20 0
-5858 34 0
-5858 44 0
-5858 59 0
5859 -20 -34 -47 -56 0
-5859 20 0
-5859 34 0
-5859 47 0
-5859 56 0
-5845 5846 5847 5848 5849 5850 5851 5852 5853 5854 5855 5856 5857 5858 5859 0
-5846 5845 5847 5848 5849 5850 5851 5852 5853 5854 5855 5856 5857 5858 5859 0
-5847 5845 5846 5848 5849 5850 5851 5852 5853 5854 5855 5856 5857 5858 5859 0
-5848 5845 5846 5847 5849 5850 5851 5852 5853 5854 5855 5856 5857 5858 5859 0
-5849 5845 5846 5847 5848 5850 5851 5852 5853 5854 5855 5856 5857 5858 5859 0
-5850 5845 5846 5847 5848 5849 5851 5852 5853 5854 5855 5856 5857 5858 5859 0
-5851 5845 5846 5847 5848 5849 5850 5852 5853 5854 5855 5856 5857 5858 5859 0
-5852 5845 5846 5847 5848 5849 5850 5851 5853 5854 5855 5856 5857 5858 5859 0
-5853 5845 5846 5847 5848 5849 5850 5851 5852 5854 5855 5856 5857 5858 5859 0
-5854 5845 5846 5847 5848 5849 5850 5851 5852 5853 5855 5856 5857 5858 5859 0
-5855 5845 5846 5847 5848 5849 5850 5851 5852 5853 5854 5856 5857 5858 5859 0
-5856 5845 5846 5847 5848 5849 5850 5851 5852 5853 5854 5855 5857 5858 5859 0
-5857 5845 5846 5847 5848 5849 5850 5851 5852 5853 5854 5855 5856 5858 5859 0
-5858 5845 5846 5847 5848 5849 5850 5851 5852 5853 5854 5855 5856 5857 5859 0
-5859 5845 5846 5847 5848 5849 5850 5851 5852 5853 5854 5855 5856 5857 5858 0
5860 -5 -34 -56 -81 0
-5860 5 0
-5860 34 0
-5860 56 0
-5860 81 0
5861 -8 -34 -44 -81 0
-5861 8 0
-5861 34 0
-5861 44 0
-5861 81 0
5862 -11 -34 -41 -81 0
-5862 11 0
-5862 34 0
-5862 41 0
-5862 81 0
-5860 5861 5862 0
-5861 5860 5862 0
-5862 5860 5861 0
5863 -5 -34 -57 -80 0
-5863 5 0
-5863 34 0
-5863 57 0
-5863 80 0
5864 -14 -34 -53 -57 0
-5864 14 0
-5864 34 0
-5864 53 0
-5864 57 0
5865 -20 -34 -47 -57 0
-5865 20 0
-5865 34 0
-5865 47 0
-5865 57 0
-5863 5864 5865 0
-5864 5863 5865 0
-5865 5863 5864 0
5866 -5 -34 -57 -81 0
-5866 5 0
-5866 34 0
-5866 57 0
-5866 81 0
5867 -5 -34 -60 -75 0
-5867 5 0
-5867 34 0
-5867 60 0
-5867 75 0
5868 -5 -34 -66 -69 0
-5868 5 0
-5868 34 0
-5868 66 0
-5868 69 0
-5866 5867 5868 0
-5867 5866 5868 0
-5868 5866 5867 0
5869 -5 -36 -55 -79 0
-5869 5 0
-5869 36 0
-5869 55 0
-5869 79 0
5870 -5 -36 -58 -73 0
-5870 5 0
-5870 36 0
-5870 58 0
-5870 73 0
5871 -5 -36 -64 -67 0
-5871 5 0
-5871 36 0
-5871 64 0
-5871 67 0
-5869 5870 5871 0
-5870 5869 5871 0
-5871 5869 5870 0
5872 -5 -36 -55 -80 0
-5872 5 0
-5872 36 0
-5872 55 0
-5872 80 0
5873 -14 -36 -53 -55 0
-5873 14 0
-5873 36 0
-5873 53 0
-5873 55 0
5874 -20 -36 -47 -55 0
-5874 20 0
-5874 36 0
-5874 47 0
-5874 55 0
-5872 5873 5874 0
-5873 5872 5874 0
-5874 5872 5873 0
5875 -5 -36 -56 -79 0
-5875 5 0
-5875 36 0
-5875 56 0
-5875 79 0
5876 -8 -36 -44 -79 0
-5876 8 0
-5876 36 0
-5876 44 0
-5876 79 0
5877 -11 -36 -41 -79 0
-5877 11 0
-5877 36 0
-5877 41 0
-5877 79 0
-5875 5876 5877 0
-5876 5875 5877 0
-5877 5875 5876 0
5878 -5 -36 -56 -80 0
-5878 5 0
-5878 36 0
-5878 56 0
-5878 80 0
5879 -5 -36 -59 -74 0
-5879 5 0
-5879 36 0
-5879 59 0
-5879 74 0
5880 -5 -36 -65 -68 0
-5880 5 0
-5880 36 0
-5880 65 0
-5880 68 0
5881 -8 -36 -44 -80 0
-5881 8 0
-5881 36 0
-5881 44 0
-5881 80 0
5882 -8 -36 -47 -74 0
-5882 8 0
-5882 36 0
-5882 47 0
-5882 74 0
5883 -8 -36 -53 -68 0
-5883 8 0
-5883 36 0
-5883 53 0
-5883 68 0
5884 -11 -36 -41 -80 0
-5884 11 0
-5884 36 0
-5884 41 0
-5884 80 0
5885 -11 -36 -47 -65 0
-5885 11 0
-5885 36 0
-5885 47 0
-5885 65 0
5886 -11 -36 -53 -59 0
-5886 11 0
-5886 36 0
-5886 53 0
-5886 59 0
5887 -14 -36 -41 -74 0
-5887 14 0
-5887 36 0
-5887 41 0
-5887 74 0
5888 -14 -36 -44 -65 0
-5888 14 0
-5888 36 0
-5888 44 0
-5888 65 0
5889 -14 -36 -53 -56 0
-5889 14 0
-5889 36 0
-5889 53 0
-5889 56 0
5890 -20 -36 -41 -68 0
-5890 20 0
-5890 36 0
-5890 41 0
-5890 68 0
5891 -20 -36 -44 -59 0
-5891 20 0
-5891 36 0
-5891 44 0
-5891 59 0
5892 -20 -36 -47 -56 0
-5892 20 0
-5892 36 0
-5892 47 0
-5892 56 0
-5878 5879 5880 5881 5882 5883 5884 5885 5886 5887 5888 5889 5890 5891 5892 0
-5879 5878 5880 5881 5882 5883 5884 5885 5886 5887 5888 5889 5890 5891 5892 0
-5880 5878 5879 5881 5882 5883 5884 5885 5886 5887 5888 5889 5890 5891 5892 0
-5881 5878 5879 5880 5882 5883 5884 5885 5886 5887 5888 5889 5890 5891 5892 0
-5882 5878 5879 5880 5881 5883 5884 5885 5886 5887 5888 5889 5890 5891 5892 0
-5883 5878 5879 5880 5881 5882 5884 5885 5886 5887 5888 5889 5890 5891 5892 0
-5884 5878 5879 5880 5881 5882 5883 5885 5886 5887 5888 5889 5890 5891 5892 0
-5885 5878 5879 5880 5881 5882 5883 5884 5886 5887 5888 5889 5890 5891 5892 0
-5886 5878 5879 5880 5881 5882 5883 5884 5885 5887 5888 5889 5890 5891 5892 0
-5887 5878 5879 5880 5881 5882 5883 5884 5885 5886 5888 5889 5890 5891 5892 0
-5888 5878 5879 5880 5881 5882 5883 5884 5885 5886 5887 5889 5890 5891 5892 0
-5889 5878 5879 5880 5881 5882 5883 5884 5885 5886 5887 5888 5890 5891 5892 0
-5890 5878 5879 5880 5881 5882 5883 5884 5885 5886 5887 5888 5889 5891 5892 0
-5891 5878 5879 5880 5881 5882 5883 5884 5885 5886 5887 5888 5889 5890 5892 0
-5892 5878 5879 5880 5881 5882 5883 5884 5885 5886 5887 5888 5889 5890 5891 0
5893 -6 -34 -56 -80 0
-5893 6 0
-5893 34 0
-5893 56 0
-5893 80 0
5894 -6 -34 -59 -74 0
-5894 6 0
-5894 34 0
-5894 59 0
-5894 74 0
5895 -6 -34 -65 -68 0
-5895 6 0
-5895 34 0
-5895 65 0
-5895 68 0
-5893 5894 5895 0
-5894 5893 5895 0
-5895 5893 5894 0
5896 -6 -34 -56 -81 0
-5896 6 0
-5896 34 0
-5896 56 0
-5896 81 0
5897 -15 -34 -54 -56 0
-5897 15 0
-5897 34 0
-5897 54 0
-5897 56 0
5898 -21 -34 -48 -56 0
-5898 21 0
-5898 34 0
-5898 48 0
-5898 56 0
-5896 5897 5898 0
-5897 5896 5898 0
-5898 5896 5897 0
5899 -6 -34 -57 -80 0
-5899 6 0
-5899 34 0
-5899 57 0
-5899 80 0
5900 -9 -34 -45 -80 0
-5900 9 0
-5900 34 0
-5900 45 0
-5900 80 0
5901 -12 -34 -42 -80 0
-5901 12 0
-5901 34 0
-5901 42 0
-5901 80 0
-5899 5900 5901 0
-5900 5899 5901 0
-5901 5899 5900 0
5902 -6 -34 -57 -81 0
-5902 6 0
-5902 34 0
-5902 57 0
-5902 81 0
5903 -6 -34 -60 -75 0
-5903 6 0
-5903 34 0
-5903 60 0
-5903 75 0
5904 -6 -34 -66 -69 0
-5904 6 0
-5904 34 0
-5904 66 0
-5904 69 0
5905 -9 -34 -45 -81 0
-5905 9 0
-5905 34 0
-5905 45 0
-5905 81 0
5906 -9 -34 -48 -75 0
-5906 9 0
-5906 34 0
-5906 48 0
-5906 75 0
5907 -9 -34 -54 -69 0
-5907 9 0
-5907 34 0
-5907 54 0
-5907 69 0
5908 -12 -34 -42 -81 0
-5908 12 0
-5908 34 0
-5908 42 0
-5908 81 0
5909 -12 -34 -48 -66 0
-5909 12 0
-5909 34 0
-5909 48 0
-5909 66 0
5910 -12 -34 -54 -60 0
-5910 12 0
-5910 34 0
-5910 54 0
-5910 60 0
5911 -15 -34 -42 -75 0
-5911 15 0
-5911 34 0
-5911 42 0
-5911 75 0
5912 -15 -34 -45 -66 0
-5912 15 0
-5912 34 0
-5912 45 0
-5912 66 0
5913 -15 -34 -54 -57 0
-5913 15 0
-5913 34 0
-5913 54 0
-5913 57 0
5914 -21 -34 -42 -69 0
-5914 21 0
-5914 34 0
-5914 42 0
-5914 69 0
5915 -21 -34 -45 -60 0
-5915 21 0
-5915 34 0
-5915 45 0
-5915 60 0
5916 -21 -34 -48 -57 0
-5916 21 0
-5916 34 0
-5916 48 0
-5916 57 0
-5902 5903 5904 5905 5906 5907 5908 5909 5910 5911 5912 5913 5914 5915 5916 0
-5903 5902 5904 5905 5906 5907 5908 5909 5910 5911 5912 5913 5914 5915 5916 0
-5904 5902 5903 5905 5906 5907 5908 5909 5910 5911 5912 5913 5914 5915 5916 0
-5905 5902 5903 5904 5906 5907 5908 5909 5910 5911 5912 5913 5914 5915 5916 0
-5906 5902 5903 5904 5905 5907 5908 5909 5910 5911 5912 5913 5914 5915 5916 0
-5907 5902 5903 5904 5905 5906 5908 5909 5910 5911 5912 5913 5914 5915 5916 0
-5908 5902 5903 5904 5905 5906 5907 5909 5910 5911 5912 5913 5914 5915 5916 0
-5909 5902 5903 5904 5905 5906 5907 5908 5910 5911 5912 5913 5914 5915 5916 0
-5910 5902 5903 5904 5905 5906 5907 5908 5909 5911 5912 5913 5914 5915 5916 0
-5911 5902 5903 5904 5905 5906 5907 5908 5909 5910 5912 5913 5914 5915 5916 0
-5912 5902 5903 5904 5905 5906 5907 5908 5909 5910 5911 5913 5914 5915 5916 0
-5913 5902 5903 5904 5905 5906 5907 5908 5909 5910 5911 5912 5914 5915 5916 0
-5914 5902 5903 5904 5905 5906 5907 5908 5909 5910 5911 5912 5913 5915 5916 0
-5915 5902 5903 5904 5905 5906 5907 5908 5909 5910 5911 5912 5913 5914 5916 0
-5916 5902 5903 5904 5905 5906 5907 5908 5909 5910 5911 5912 5913 5914 5915 0
5917 -6 -35 -55 -79 0
-5917 6 0
-5917 35 0
-5917 55 0
-5917 79 0
5918 -6 -35 -58 -73 0
-5918 6 0
-5918 35 0
-5918 58 0
-5918 73 0
5919 -6 -35 -64 -67 0
-5919 6 0
-5919 35 0
-5919 64 0
-5919 67 0
-5917 5918 5919 0
-5918 5917 5919 0
-5919 5917 5918 0
5920 -6 -35 -55 -81 0
-5920 6 0
-5920 35 0
-5920 55 0
-5920 81 0
5921 -15 -35 -54 -55 0
-5921 15 0
-5921 35 0
-5921 54 0
-5921 55 0
5922 -21 -35 -48 -55 0
-5922 21 0
-5922 35 0
-5922 48 0
-5922 55 0
-5920 5921 5922 0
-5921 5920 5922 0
-5922 5920 5921 0
5923 -6 -35 -57 -79 0
-5923 6 0
-5923 35 0
-5923 57 0
-5923 79 0
5924 -9 -35 -45 -79 0
-5924 9 0
-5924 35 0
-5924 45 0
-5924 79 0
5925 -12 -35 -42 -79 0
-5925 12 0
-5925 35 0
-5925 42 0
-5925 79 0
-5923 5924 5925 0
-5924 5923 5925 0
-5925 5923 5924 0
5926 -6 -35 -57 -81 0
-5926 6 0
-5926 35 0
-5926 57 0
-5926 81 0
5927 -6 -35 -60 -75 0
-5927 6 0
-5927 35 0
-5927 60 0
-5927 75 0
5928 -6 -35 -66 -69 0
-5928 6 0
-5928 35 0
-5928 66 0
-5928 69 0
5929 -9 -35 -45 -81 0
-5929 9 0
-5929 35 0
-5929 45 0
-5929 81 0
5930 -9 -35 -48 -75 0
-5930 9 0
-5930 35 0
-5930 48 0
-5930 75 0
5931 -9 -35 -54 -69 0
-5931 9 0
-5931 35 0
-5931 54 0
-5931 69 0
5932 -12 -35 -42 -81 0
-5932 12 0
-5932 35 0
-5932 42 0
-5932 81 0
5933 -12 -35 -48 -66 0
-5933 12 0
-5933 35 0
-5933 48 0
-5933 66 0
5934 -12 -35 -54 -60 0
-5934 12 0
-5934 35 0
-5934 54 0
-5934 60 0
5935 -15 -35 -42 -75 0
-5935 15 0
-5935 35 0
-5935 42 0
-5935 75 0
5936 -15 -35 -45 -66 0
-5936 15 0
-5936 35 0
-5936 45 0
-5936 66 0
5937 -15 -35 -54 -57 0
-5937 15 0
-5937 35 0
-5937 54 0
-5937 57 0
5938 -21 -35 -42 -69 0
-5938 21 0
-5938 35 0
-5938 42 0
-5938 69 0
5939 -21 -35 -45 -60 0
-5939 21 0
-5939 35 0
-5939 45 0
-5939 60 0
5940 -21 -35 -48 -57 0
-5940 21 0
-5940 35 0
-5940 48 0
-5940 57 0
-5926 5927 5928 5929 5930 5931 5932 5933 5934 5935 5936 5937 5938 5939 5940 0
-5927 5926 5928 5929 5930 5931 5932 5933 5934 5935 5936 5937 5938 5939 5940 0
-5928 5926 5927 5929 5930 5931 5932 5933 5934 5935 5936 5937 5938 5939 5940 0
-5929 5926 5927 5928 5930 5931 5932 5933 5934 5935 5936 5937 5938 5939 5940 0
-5930 5926 5927 5928 5929 5931 5932 5933 5934 5935 5936 5937 5938 5939 5940 0
-5931 5926 5927 5928 5929 5930 5932 5933 5934 5935 5936 5937 5938 5939 5940 0
-5932 5926 5927 5928 5929 5930 5931 5933 5934 5935 5936 5937 5938 5939 5940 0
-5933 5926 5927 5928 5929 5930 5931 5932 5934 5935 5936 5937 5938 5939 5940 0
-5934 5926 5927 5928 5929 5930 5931 5932 5933 5935 5936 5937 5938 5939 5940 0
-5935 5926 5927 5928 5929 5930 5931 5932 5933 5934 5936 5937 5938 5939 5940 0
-5936 5926 5927 5928 5929 5930 5931 5932 5933 5934 5935 5937 5938 5939 5940 0
-5937 5926 5927 5928 5929 5930 5931 5932 5933 5934 5935 5936 5938 5939 5940 0
-5938 5926 5927 5928 5929 5930 5931 5932 5933 5934 5935 5936 5937 5939 5940 0
-5939 5926 5927 5928 5929 5930 5931 5932 5933 5934 5935 5936 5937 5938 5940 0
-5940 5926 5927 5928 5929 5930 5931 5932 5933 5934 5935 5936 5937 5938 5939 0
5941 -4 -35 -58 -75 0
-5941 4 0
-5941 35 0
-5941 58 0
-5941 75 0
5942 -7 -35 -46 -75 0
-5942 7 0
-5942 35 0
-5942 46 0
-5942 75 0
5943 -13 -35 -40 -75 0
-5943 13 0
-5943 35 0
-5943 40 0
-5943 75 0
-5941 5942 5943 0
-5942 5941 5943 0
-5943 5941 5942 0
5944 -4 -35 -60 -73 0
-5944 4 0
-5944 35 0
-5944 60 0
-5944 73 0
5945 -10 -35 -52 -60 0
-5945 10 0
-5945 35 0
-5945 52 0
-5945 60 0
5946 -19 -35 -43 -60 0
-5946 19 0
-5946 35 0
-5946 43 0
-5946 60 0
-5944 5945 5946 0
-5945 5944 5946 0
-5946 5944 5945 0
5947 -4 -36 -58 -74 0
-5947 4 0
-5947 36 0
-5947 58 0
-5947 74 0
5948 -7 -36 -46 -74 0
-5948 7 0
-5948 36 0
-5948 46 0
-5948 74 0
5949 -13 -36 -40 -74 0
-5949 13 0
-5949 36 0
-5949 40 0
-5949 74 0
-5947 5948 5949 0
-5948 5947 5949 0
-5949 5947 5948 0
5950 -4 -36 -59 -73 0
-5950 4 0
-5950 36 0
-5950 59 0
-5950 73 0
5951 -10 -36 -52 -59 0
-5951 10 0
-5951 36 0
-5951 52 0
-5951 59 0
5952 -19 -36 -43 -59 0
-5952 19 0
-5952 36 0
-5952 43 0
-5952 59 0
-5950 5951 5952 0
-5951 5950 5952 0
-5952 5950 5951 0
5953 -5 -34 -59 -75 0
-5953 5 0
-5953 34 0
-5953 59 0
-5953 75 0
5954 -8 -34 -47 -75 0
-5954 8 0
-5954 34 0
-5954 47 0
-5954 75 0
5955 -14 -34 -41 -75 0
-5955 14 0
-5955 34 0
-5955 41 0
-5955 75 0
-5953 5954 5955 0
-5954 5953 5955 0
-5955 5953 5954 0
5956 -5 -34 -60 -74 0
-5956 5 0
-5956 34 0
-5956 60 0
-5956 74 0
5957 -11 -34 -53 -60 0
-5957 11 0
-5957 34 0
-5957 53 0
-5957 60 0
5958 -20 -34 -44 -60 0
-5958 20 0
-5958 34 0
-5958 44 0
-5958 60 0
-5956 5957 5958 0
-5957 5956 5958 0
-5958 5956 5957 0
5959 -5 -36 -58 -74 0
-5959 5 0
-5959 36 0
-5959 58 0
-5959 74 0
5960 -11 -36 -53 -58 0
-5960 11 0
-5960 36 0
-5960 53 0
-5960 58 0
5961 -20 -36 -44 -58 0
-5961 20 0
-5961 36 0
-5961 44 0
-5961 58 0
-5959 5960 5961 0
-5960 5959 5961 0
-5961 5959 5960 0
5962 -5 -36 -59 -73 0
-5962 5 0
-5962 36 0
-5962 59 0
-5962 73 0
5963 -8 -36 -47 -73 0
-5963 8 0
-5963 36 0
-5963 47 0
-5963 73 0
5964 -14 -36 -41 -73 0
-5964 14 0
-5964 36 0
-5964 41 0
-5964 73 0
-5962 5963 5964 0
-5963 5962 5964 0
-5964 5962 5963 0
5965 -6 -34 -59 -75 0
-5965 6 0
-5965 34 0
-5965 59 0
-5965 75 0
5966 -12 -34 -54 -59 0
-5966 12 0
-5966 34 0
-5966 54 0
-5966 59 0
5967 -21 -34 -45 -59 0
-5967 21 0
-5967 34 0
-5967 45 0
-5967 59 0
-5965 5966 5967 0
-5966 5965 5967 0
-5967 5965 5966 0
5968 -6 -34 -60 -74 0
-5968 6 0
-5968 34 0
-5968 60 0
-5968 74 0
5969 -9 -34 -48 -74 0
-5969 9 0
-5969 34 0
-5969 48 0
-5969 74 0
5970 -15 -34 -42 -74 0
-5970 15 0
-5970 34 0
-5970 42 0
-5970 74 0
-5968 5969 5970 0
-5969 5968 5970 0
-5970 5968 5969 0
5971 -6 -35 -58 -75 0
-5971 6 0
-5971 35 0
-5971 58 0
-5971 75 0
5972 -12 -35 -54 -58 0
-5972 12 0
-5972 35 0
-5972 54 0
-5972 58 0
5973 -21 -35 -45 -58 0
-5973 21 0
-5973 35 0
-5973 45 0
-5973 58 0
-5971 5972 5973 0
-5972 5971 5973 0
-5973 5971 5972 0
5974 -6 -35 -60 -73 0
-5974 6 0
-5974 35 0
-5974 60 0
-5974 73 0
5975 -9 -35 -48 -73 0
-5975 9 0
-5975 35 0
-5975 48 0
-5975 73 0
5976 -15 -35 -42 -73 0
-5976 15 0
-5976 35 0
-5976 42 0
-5976 73 0
-5974 5975 5976 0
-5975 5974 5976 0
-5976 5974 5975 0
5977 -4 -35 -64 -69 0
-5977 4 0
-5977 35 0
-5977 64 0
-5977 69 0
5978 -7 -35 -52 -69 0
-5978 7 0
-5978 35 0
-5978 52 0
-5978 69 0
5979 -19 -35 -40 -69 0
-5979 19 0
-5979 35 0
-5979 40 0
-5979 69 0
-5977 5978 5979 0
-5978 5977 5979 0
-5979 5977 5978 0
5980 -4 -35 -66 -67 0
-5980 4 0
-5980 35 0
-5980 66 0
-5980 67 0
5981 -10 -35 -46 -66 0
-5981 10 0
-5981 35 0
-5981 46 0
-5981 66 0
5982 -13 -35 -43 -66 0
-5982 13 0
-5982 35 0
-5982 43 0
-5982 66 0
-5980 5981 5982 0
-5981 5980 5982 0
-5982 5980 5981 0
5983 -4 -36 -64 -68 0
-5983 4 0
-5983 36 0
-5983 64 0
-5983 68 0
5984 -7 -36 -52 -68 0
-5984 7 0
-5984 36 0
-5984 52 0
-5984 68 0
5985 -19 -36 -40 -68 0
-5985 19 0
-5985 36 0
-5985 40 0
-5985 68 0
-5983 5984 5985 0
-5984 5983 5985 0
-5985 5983 5984 0
5986 -4 -36 -65 -67 0
-5986 4 0
-5986 36 0
-5986 65 0
-5986 67 0
5987 -10 -36 -46 -65 0
-5987 10 0
-5987 36 0
-5987 46 0
-5987 65 0
5988 -13 -36 -43 -65 0
-5988 13 0
-5988 36 0
-5988 43 0
-5988 65 0
-5986 5987 5988 0
-5987 5986 5988 0
-5988 5986 5987 0
5989 -5 -34 -65 -69 0
-5989 5 0
-5989 34 0
-5989 65 0
-5989 69 0
5990 -8 -34 -53 -69 0
-5990 8 0
-5990 34 0
-5990 53 0
-5990 69 0
5991 -20 -34 -41 -69 0
-5991 20 0
-5991 34 0
-5991 41 0
-5991 69 0
-5989 5990 5991 0
-5990 5989 5991 0
-5991 5989 5990 0
5992 -5 -34 -66 -68 0
-5992 5 0
-5992 34 0
-5992 66 0
-5992 68 0
5993 -11 -34 -47 -66 0
-5993 11 0
-5993 34 0
-5993 47 0
-5993 66 0
5994 -14 -34 -44 -66 0
-5994 14 0
-5994 34 0
-5994 44 0
-5994 66 0
-5992 5993 5994 0
-5993 5992 5994 0
-5994 5992 5993 0
5995 -5 -36 -64 -68 0
-5995 5 0
-5995 36 0
-5995 64 0
-5995 68 0
5996 -11 -36 -47 -64 0
-5996 11 0
-5996 36 0
-5996 47 0
-5996 64 0
5997 -14 -36 -44 -64 0
-5997 14 0
-5997 36 0
-5997 44 0
-5997 64 0
-5995 5996 5997 0
-5996 5995 5997 0
-5997 5995 5996 0
5998 -5 -36 -65 -67 0
-5998 5 0
-5998 36 0
-5998 65 0
-5998 67 0
5999 -8 -36 -53 -67 0
-5999 8 0
-5999 36 0
-5999 53 0
-5999 67 0
6000 -20 -36 -41 -67 0
-6000 20 0
-6000 36 0
-6000 41 0
-6000 67 0
-5998 5999 6000 0
-5999 5998 6000 0
-6000 5998 5999 0
6001 -6 -34 -65 -69 0
-6001 6 0
-6001 34 0
-6001 65 0
-6001 69 0
6002 -12 -34 -48 -65 0
-6002 12 0
-6002 34 0
-6002 48 0
-6002 65 0
6003 -15 -34 -45 -65 0
-6003 15 0
-6003 34 0
-6003 45 0
-6003 65 0
-6001 6002 6003 0
-6002 6001 6003 0
-6003 6001 6002 0
6004 -6 -34 -66 -68 0
-6004 6 0
-6004 34 0
-6004 66 0
-6004 68 0
6005 -9 -34 -54 -68 0
-6005 9 0
-6005 34 0
-6005 54 0
-6005 68 0
6006 -21 -34 -42 -68 0
-6006 21 0
-6006 34 0
-6006 42 0
-6006 68 0
-6004 6005 6006 0
-6005 6004 6006 0
-6006 6004 6005 0
6007 -6 -35 -64 -69 0
-6007 6 0
-6007 35 0
-6007 64 0
-6007 69 0
6008 -12 -35 -48 -64 0
-6008 12 0
-6008 35 0
-6008 48 0
-6008 64 0
6009 -15 -35 -45 -64 0
-6009 15 0
-6009 35 0
-6009 45 0
-6009 64 0
-6007 6008 6009 0
-6008 6007 6009 0
-6009 6007 6008 0
6010 -6 -35 -66 -67 0
-6010 6 0
-6010 35 0
-6010 66 0
-6010 67 0
6011 -9 -35 -54 -67 0
-6011 9 0
-6011 35 0
-6011 54 0
-6011 67 0
6012 -21 -35 -42 -67 0
-6012 21 0
-6012 35 0
-6012 42 0
-6012 67 0
-6010 6011 6012 0
-6011 6010 6012 0
-6012 6010 6011 0
6013 -4 -38 -55 -76 0
-6013 4 0
-6013 38 0
-6013 55 0
-6013 76 0
6014 -4 -38 -58 -70 0
-6014 4 0
-6014 38 0
-6014 58 0
-6014 70 0
6015 -4 -38 -61 -67 0
-6015 4 0
-6015 38 0
-6015 61 0
-6015 67 0
6016 -7 -38 -43 -76 0
-6016 7 0
-6016 38 0
-6016 43 0
-6016 76 0
6017 -7 -38 -46 -70 0
-6017 7 0
-6017 38 0
-6017 46 0
-6017 70 0
6018 -7 -38 -49 -67 0
-6018 7 0
-6018 38 0
-6018 49 0
-6018 67 0
6019 -10 -38 -40 -76 0
-6019 10 0
-6019 38 0
-6019 40 0
-6019 76 0
6020 -10 -38 -46 -61 0
-6020 10 0
-6020 38 0
-6020 46 0
-6020 61 0
6021 -10 -38 -49 -58 0
-6021 10 0
-6021 38 0
-6021 49 0
-6021 58 0
6022 -13 -38 -40 -70 0
-6022 13 0
-6022 38 0
-6022 40 0
-6022 70 0
6023 -13 -38 -43 -61 0
-6023 13 0
-6023 38 0
-6023 43 0
-6023 61 0
6024 -13 -38 -49 -55 0
-6024 13 0
-6024 38 0
-6024 49 0
-6024 55 0
6025 -16 -38 -40 -67 0
-6025 16 0
-6025 38 0
-6025 40 0
-6025 67 0
6026 -16 -38 -43 -58 0
-6026 16 0
-6026 38 0
-6026 43 0
-6026 58 0
6027 -16 -38 -46 -55 0
-6027 16 0
-6027 38 0
-6027 46 0
-6027 55 0
-6013 6014 6015 6016 6017 6018 6019 6020 6021 6022 6023 6024 6025 6026 6027 0
-6014 6013 6015 6016 6017 6018 6019 6020 6021 6022 6023 6024 6025 6026 6027 0
-6015 6013 6014 6016 6017 6018 6019 6020 6021 6022 6023 6024 6025 6026 6027 0
-6016 6013 6014 6015 6017 6018 6019 6020 6021 6022 6023 6024 6025 6026 6027 0
-6017 6013 6014 6015 6016 6018 6019 6020 6021 6022 6023 6024 6025 6026 6027 0
-6018 6013 6014 6015 6016 6017 6019 6020 6021 6022 6023 6024 6025 6026 6027 0
-6019 6013 6014 6015 6016 6017 6018 6020 6021 6022 6023 6024 6025 6026 6027 0
-6020 6013 6014 6015 6016 6017 6018 6019 6021 6022 6023 6024 6025 6026 6027 0
-6021 6013 6014 6015 6016 6017 6018 6019 6020 6022 6023 6024 6025 6026 6027 0
-6022 6013 6014 6015 6016 6017 6018 6019 6020 6021 6023 6024 6025 6026 6027 0
-6023 6013 6014 6015 6016 6017 6018 6019 6020 6021 6022 6024 6025 6026 6027 0
-6024 6013 6014 6015 6016 6017 6018 6019 6020 6021 6022 6023 6025 6026 6027 0
-6025 6013 6014 6015 6016 6017 6018 6019 6020 6021 6022 6023 6024 6026 6027 0
-6026 6013 6014 6015 6016 6017 6018 6019 6020 6021 6022 6023 6024 6025 6027 0
-6027 6013 6014 6015 6016 6017 6018 6019 6020 6021 6022 6023 6024 6025 6026 0
6028 -4 -38 -55 -78 0
-6028 4 0
-6028 38 0
-6028 55 0
-6028 78 0
6029 -7 -38 -43 -78 0
-6029 7 0
-6029 38 0
-6029 43 0
-6029 78 0
6030 -10 -38 -40 -78 0
-6030 10 0
-6030 38 0
-6030 40 0
-6030 78 0
-6028 6029 6030 0
-6029 6028 6030 0
-6030 6028 6029 0
6031 -4 -38 -57 -76 0
-6031 4 0
-6031 38 0
-6031 57 0
-6031 76 0
6032 -13 -38 -49 -57 0
-6032 13 0
-6032 38 0
-6032 49 0
-6032 57 0
6033 -16 -38 -46 -57 0
-6033 16 0
-6033 38 0
-6033 46 0
-6033 57 0
-6031 6032 6033 0
-6032 6031 6033 0
-6033 6031 6032 0
6034 -4 -38 -57 -78 0
-6034 4 0
-6034 38 0
-6034 57 0
-6034 78 0
6035 -4 -38 -60 -72 0
-6035 4 0
-6035 38 0
-6035 60 0
-6035 72 0
6036 -4 -38 -63 -69 0
-6036 4 0
-6036 38 0
-6036 63 0
-6036 69 0
-6034 6035 6036 0
-6035 6034 6036 0
-6036 6034 6035 0
6037 -4 -39 -55 -76 0
-6037 4 0
-6037 39 0
-6037 55 0
-6037 76 0
6038 -4 -39 -58 -70 0
-6038 4 0
-6038 39 0
-6038 58 0
-6038 70 0
6039 -4 -39 -61 -67 0
-6039 4 0
-6039 39 0
-6039 61 0
-6039 67 0
6040 -7 -39 -43 -76 0
-6040 7 0
-6040 39 0
-6040 43 0
-6040 76 0
6041 -7 -39 -46 -70 0
-6041 7 0
-6041 39 0
-6041 46 0
-6041 70 0
6042 -7 -39 -49 -67 0
-6042 7 0
-6042 39 0
-6042 49 0
-6042 67 0
6043 -10 -39 -40 -76 0
-6043 10 0
-6043 39 0
-6043 40 0
-6043 76 0
6044 -10 -39 -46 -61 0
-6044 10 0
-6044 39 0
-6044 46 0
-6044 61 0
6045 -10 -39 -49 -58 0
-6045 10 0
-6045 39 0
-6045 49 0
-6045 58 0
6046 -13 -39 -40 -70 0
-6046 13 0
-6046 39 0
-6046 40 0
-6046 70 0
6047 -13 -39 -43 -61 0
-6047 13 0
-6047 39 0
-6047 43 0
-6047 61 0
6048 -13 -39 -49 -55 0
-6048 13 0
-6048 39 0
-6048 49 0
-6048 55 0
6049 -16 -39 -40 -67 0
-6049 16 0
-6049 39 0
-6049 40 0
-6049 67 0
6050 -16 -39 -43 -58 0
-6050 16 0
-6050 39 0
-6050 43 0
-6050 58 0
6051 -16 -39 -46 -55 0
-6051 16 0
-6051 39 0
-6051 46 0
-6051 55 0
-6037 6038 6039 6040 6041 6042 6043 6044 6045 6046 6047 6048 6049 6050 6051 0
-6038 6037 6039 6040 6041 6042 6043 6044 6045 6046 6047 6048 6049 6050 6051 0
-6039 6037 6038 6040 6041 6042 6043 6044 6045 6046 6047 6048 6049 6050 6051 0
-6040 6037 6038 6039 6041 6042 6043 6044 6045 6046 6047 6048 6049 6050 6051 0
-6041 6037 6038 6039 6040 6042 6043 6044 6045 6046 6047 6048 6049 6050 6051 0
-6042 6037 6038 6039 6040 6041 6043 6044 6045 6046 6047 6048 6049 6050 6051 0
-6043 6037 6038 6039 6040 6041 6042 6044 6045 6046 6047 6048 6049 6050 6051 0
-6044 6037 6038 6039 6040 6041 6042 6043 6045 6046 6047 6048 6049 6050 6051 0
-6045 6037 6038 6039 6040 6041 6042 6043 6044 6046 6047 6048 6049 6050 6051 0
-6046 6037 6038 6039 6040 6041 6042 6043 6044 6045 6047 6048 6049 6050 6051 0
-6047 6037 6038 6039 6040 6041 6042 6043 6044 6045 6046 6048 6049 6050 6051 0
-6048 6037 6038 6039 6040 6041 6042 6043 6044 6045 6046 6047 6049 6050 6051 0
-6049 6037 6038 6039 6040 6041 6042 6043 6044 6045 6046 6047 6048 6050 6051 0
-6050 6037 6038 6039 6040 6041 6042 6043 6044 6045 6046 6047 6048 6049 6051 0
-6051 6037 6038 6039 6040 6041 6042 6043 6044 6045 6046 6047 6048 6049 6050 0
6052 -4 -39 -55 -77 0
-6052 4 0
-6052 39 0
-6052 55 0
-6052 77 0
6053 -7 -39 -43 -77 0
-6053 7 0
-6053 39 0
-6053 43 0
-6053 77 0
6054 -10 -39 -40 -77 0
-6054 10 0
-6054 39 0
-6054 40 0
-6054 77 0
-6052 6053 6054 0
-6053 6052 6054 0
-6054 6052 6053 0
6055 -4 -39 -56 -76 0
-6055 4 0
-6055 39 0
-6055 56 0
-6055 76 0
6056 -13 -39 -49 -56 0
-6056 13 0
-6056 39 0
-6056 49 0
-6056 56 0
6057 -16 -39 -46 -56 0
-6057 16 0
-6057 39 0
-6057 46 0
-6057 56 0
-6055 6056 6057 0
-6056 6055 6057 0
-6057 6055 6056 0
6058 -4 -39 -56 -77 0
-6058 4 0
-6058 39 0
-6058 56 0
-6058 77 0
6059 -4 -39 -59 -71 0
-6059 4 0
-6059 39 0
-6059 59 0
-6059 71 0
6060 -4 -39 -62 -68 0
-6060 4 0
-6060 39 0
-6060 62 0
-6060 68 0
-6058 6059 6060 0
-6059 6058 6060 0
-6060 6058 6059 0
6061 -5 -37 -56 -77 0
-6061 5 0
-6061 37 0
-6061 56 0
-6061 77 0
6062 -5 -37 -59 -71 0
-6062 5 0
-6062 37 0
-6062 59 0
-6062 71 0
6063 -5 -37 -62 -68 0
-6063 5 0
-6063 37 0
-6063 62 0
-6063 68 0
6064 -8 -37 -44 -77 0
-6064 8 0
-6064 37 0
-6064 44 0
-6064 77 0
6065 -8 -37 -47 -71 0
-6065 8 0
-6065 37 0
-6065 47 0
-6065 71 0
6066 -8 -37 -50 -68 0
-6066 8 0
-6066 37 0
-6066 50 0
-6066 68 0
6067 -11 -37 -41 -77 0
-6067 11 0
-6067 37 0
-6067 41 0
-6067 77 0
6068 -11 -37 -47 -62 0
-6068 11 0
-6068 37 0
-6068 47 0
-6068 62 0
6069 -11 -37 -50 -59 0
-6069 11 0
-6069 37 0
-6069 50 0
-6069 59 0
6070 -14 -37 -41 -71 0
-6070 14 0
-6070 37 0
-6070 41 0
-6070 71 0
6071 -14 -37 -44 -62 0
-6071 14 0
-6071 37 0
-6071 44 0
-6071 62 0
6072 -14 -37 -50 -56 0
-6072 14 0
-6072 37 0
-6072 50 0
-6072 56 0
6073 -17 -37 -41 -68 0
-6073 17 0
-6073 37 0
-6073 41 0
-6073 68 0
6074 -17 -37 -44 -59 0
-6074 17 0
-6074 37 0
-6074 44 0
-6074 59 0
6075 -17 -37 -47 -56 0
-6075 17 0
-6075 37 0
-6075 47 0
-6075 56 0
-6061 6062 6063 6064 6065 6066 6067 6068 6069 6070 6071 6072 6073 6074 6075 0
-6062 6061 6063 6064 6065 6066 6067 6068 6069 6070 6071 6072 6073 6074 6075 0
-6063 6061 6062 6064 6065 6066 6067 6068 6069 6070 6071 6072 6073 6074 6075 0
-6064 6061 6062 6063 6065 6066 6067 6068 6069 6070 6071 6072 6073 6074 6075 0
-6065 6061 6062 6063 6064 6066 6067 6068 6069 6070 6071 6072 6073 6074 6075 0
-6066 6061 6062 6063 6064 6065 6067 6068 6069 6070 6071 6072 6073 6074 6075 0
-6067 6061 6062 6063 6064 6065 6066 6068 6069 6070 6071 6072 6073 6074 6075 0
-6068 6061 6062 6063 6064 6065 6066 6067 6069 6070 6071 6072 6073 6074 6075 0
-6069 6061 6062 6063 6064 6065 6066 6067 6068 6070 6071 6072 6073 6074 6075 0
-6070 6061 6062 6063 6064 6065 6066 6067 6068 6069 6071 6072 6073 6074 6075 0
-6071 6061 6062 6063 6064 6065 6066 6067 6068 6069 6070 6072 6073 6074 6075 0
-6072 6061 6062 6063 6064 6065 6066 6067 6068 6069 6070 6071 6073 6074 6075 0
-6073 6061 6062 6063 6064 6065 6066 6067 6068 6069 6070 6071 6072 6074 6075 0
-6074 6061 6062 6063 6064 6065 6066 6067 6068 6069 6070 6071 6072 6073 6075 0
-6075 6061 6062 6063 6064 6065 6066 6067 6068 6069 6070 6071 6072 6073 6074 0
6076 -5 -37 -56 -78 0
-6076 5 0
-6076 37 0
-6076 56 0
-6076 78 0
6077 -8 -37 -44 -78 0
-6077 8 0
-6077 37 0
-6077 44 0
-6077 78 0
6078 -11 -37 -41 -78 0
-6078 11 0
-6078 37 0
-6078 41 0
-6078 78 0
-6076 6077 6078 0
-6077 6076 6078 0
-6078 6076 6077 0
6079 -5 -37 -57 -77 0
-6079 5 0
-6079 37 0
-6079 57 0
-6079 77 0
6080 -14 -37 -50 -57 0
-6080 14 0
-6080 37 0
-6080 50 0
-6080 57 0
6081 -17 -37 -47 -57 0
-6081 17 0
-6081 37 0
-6081 47 0
-6081 57 0
-6079 6080 6081 0
-6080 6079 6081 0
-6081 6079 6080 0
6082 -5 -37 -57 -78 0
-6082 5 0
-6082 37 0
-6082 57 0
-6082 78 0
6083 -5 -37 -60 -72 0
-6083 5 0
-6083 37 0
-6083 60 0
-6083 72 0
6084 -5 -37 -63 -69 0
-6084 5 0
-6084 37 0
-6084 63 0
-6084 69 0
-6082 6083 6084 0
-6083 6082 6084 0
-6084 6082 6083 0
6085 -5 -39 -55 -76 0
-6085 5 0
-6085 39 0
-6085 55 0
-6085 76 0
6086 -5 -39 -58 -70 0
-6086 5 0
-6086 39 0
-6086 58 0
-6086 70 0
6087 -5 -39 -61 -67 0
-6087 5 0
-6087 39 0
-6087 61 0
-6087 67 0
-6085 6086 6087 0
-6086 6085 6087 0
-6087 6085 6086 0
6088 -5 -39 -55 -77 0
-6088 5 0
-6088 39 0
-6088 55 0
-6088 77 0
6089 -14 -39 -50 -55 0
-6089 14 0
-6089 39 0
-6089 50 0
-6089 55 0
6090 -17 -39 -47 -55 0
-6090 17 0
-6090 39 0
-6090 47 0
-6090 55 0
-6088 6089 6090 0
-6089 6088 6090 0
-6090 6088 6089 0
6091 -5 -39 -56 -76 0
-6091 5 0
-6091 39 0
-6091 56 0
-6091 76 0
6092 -8 -39 -44 -76 0
-6092 8 0
-6092 39 0
-6092 44 0
-6092 76 0
6093 -11 -39 -41 -76 0
-6093 11 0
-6093 39 0
-6093 41 0
-6093 76 0
-6091 6092 6093 0
-6092 6091 6093 0
-6093 6091 6092 0
6094 -5 -39 -56 -77 0
-6094 5 0
-6094 39 0
-6094 56 0
-6094 77 0
6095 -5 -39 -59 -71 0
-6095 5 0
-6095 39 0
-6095 59 0
-6095 71 0
6096 -5 -39 -62 -68 0
-6096 5 0
-6096 39 0
-6096 62 0
-6096 68 0
6097 -8 -39 -44 -77 0
-6097 8 0
-6097 39 0
-6097 44 0
-6097 77 0
6098 -8 -39 -47 -71 0
-6098 8 0
-6098 39 0
-6098 47 0
-6098 71 0
6099 -8 -39 -50 -68 0
-6099 8 0
-6099 39 0
-6099 50 0
-6099 68 0
6100 -11 -39 -41 -77 0
-6100 11 0
-6100 39 0
-6100 41 0
-6100 77 0
6101 -11 -39 -47 -62 0
-6101 11 0
-6101 39 0
-6101 47 0
-6101 62 0
6102 -11 -39 -50 -59 0
-6102 11 0
-6102 39 0
-6102 50 0
-6102 59 0
6103 -14 -39 -41 -71 0
-6103 14 0
-6103 39 0
-6103 41 0
-6103 71 0
6104 -14 -39 -44 -62 0
-6104 14 0
-6104 39 0
-6104 44 0
-6104 62 0
6105 -14 -39 -50 -56 0
-6105 14 0
-6105 39 0
-6105 50 0
-6105 56 0
6106 -17 -39 -41 -68 0
-6106 17 0
-6106 39 0
-6106 41 0
-6106 68 0
6107 -17 -39 -44 -59 0
-6107 17 0
-6107 39 0
-6107 44 0
-6107 59 0
6108 -17 -39 -47 -56 0
-6108 17 0
-6108 39 0
-6108 47 0
-6108 56 0
-6094 6095 6096 6097 6098 6099 6100 6101 6102 6103 6104 6105 6106 6107 6108 0
-6095 6094 6096 6097 6098 6099 6100 6101 6102 6103 6104 6105 6106 6107 6108 0
-6096 6094 6095 6097 6098 6099 6100 6101 6102 6103 6104 6105 6106 6107 6108 0
-6097 6094 6095 6096 6098 6099 6100 6101 6102 6103 6104 6105 6106 6107 6108 0
-6098 6094 6095 6096 6097 6099 6100 6101 6102 6103 6104 6105 6106 6107 6108 0
-6099 6094 6095 6096 6097 6098 6100 6101 6102 6103 6104 6105 6106 6107 6108 0
-6100 6094 6095 6096 6097 6098 6099 6101 6102 6103 6104 6105 6106 6107 6108 0
-6101 6094 6095 6096 6097 6098 6099 6100 6102 6103 6104 6105 6106 6107 6108 0
-6102 6094 6095 6096 6097 6098 6099 6100 6101 6103 6104 6105 6106 6107 6108 0
-6103 6094 6095 6096 6097 6098 6099 6100 6101 6102 6104 6105 6106 6107 6108 0
-6104 6094 6095 6096 6097 6098 6099 6100 6101 6102 6103 6105 6106 6107 6108 0
-6105 6094 6095 6096 6097 6098 6099 6100 6101 6102 6103 6104 6106 6107 6108 0
-6106 6094 6095 6096 6097 6098 6099 6100 6101 6102 6103 6104 6105 6107 6108 0
-6107 6094 6095 6096 6097 6098 6099 6100 6101 6102 6103 6104 6105 6106 6108 0
-6108 6094 6095 6096 6097 6098 6099 6100 6101 6102 6103 6104 6105 6106 6107 0
6109 -6 -37 -56 -77 0
-6109 6 0
-6109 37 0
-6109 56 0
-6109 77 0
6110 -6 -37 -59 -71 0
-6110 6 0
-6110 37 0
-6110 59 0
-6110 71 0
6111 -6 -37 -62 -68 0
-6111 6 0
-6111 37 0
-6111 62 0
-6111 68 0
-6109 6110 6111 0
-6110 6109 6111 0
-6111 6109 6110 0
6112 -6 -37 -56 -78 0
-6112 6 0
-6112 37 0
-6112 56 0
-6112 78 0
6113 -15 -37 -51 -56 0
-6113 15 0
-6113 37 0
-6113 51 0
-6113 56 0
6114 -18 -37 -48 -56 0
-6114 18 0
-6114 37 0
-6114 48 0
-6114 56 0
-6112 6113 6114 0
-6113 6112 6114 0
-6114 6112 6113 0
6115 -6 -37 -57 -77 0
-6115 6 0
-6115 37 0
-6115 57 0
-6115 77 0
6116 -9 -37 -45 -77 0
-6116 9 0
-6116 37 0
-6116 45 0
-6116 77 0
6117 -12 -37 -42 -77 0
-6117 12 0
-6117 37 0
-6117 42 0
-6117 77 0
-6115 6116 6117 0
-6116 6115 6117 0
-6117 6115 6116 0
6118 -6 -37 -57 -78 0
-6118 6 0
-6118 37 0
-6118 57 0
-6118 78 0
6119 -6 -37 -60 -72 0
-6119 6 0
-6119 37 0
-6119 60 0
-6119 72 0
6120 -6 -37 -63 -69 0
-6120 6 0
-6120 37 0
-6120 63 0
-6120 69 0
6121 -9 -37 -45 -78 0
-6121 9 0
-6121 37 0
-6121 45 0
-6121 78 0
6122 -9 -37 -48 -72 0
-6122 9 0
-6122 37 0
-6122 48 0
-6122 72 0
6123 -9 -37 -51 -69 0
-6123 9 0
-6123 37 0
-6123 51 0
-6123 69 0
6124 -12 -37 -42 -78 0
-6124 12 0
-6124 37 0
-6124 42 0
-6124 78 0
6125 -12 -37 -48 -63 0
-6125 12 0
-6125 37 0
-6125 48 0
-6125 63 0
6126 -12 -37 -51 -60 0
-6126 12 0
-6126 37 0
-6126 51 0
-6126 60 0
6127 -15 -37 -42 -72 0
-6127 15 0
-6127 37 0
-6127 42 0
-6127 72 0
6128 -15 -37 -45 -63 0
-6128 15 0
-6128 37 0
-6128 45 0
-6128 63 0
6129 -15 -37 -51 -57 0
-6129 15 0
-6129 37 0
-6129 51 0
-6129 57 0
6130 -18 -37 -42 -69 0
-6130 18 0
-6130 37 0
-6130 42 0
-6130 69 0
6131 -18 -37 -45 -60 0
-6131 18 0
-6131 37 0
-6131 45 0
-6131 60 0
6132 -18 -37 -48 -57 0
-6132 18 0
-6132 37 0
-6132 48 0
-6132 57 0
-6118 6119 6120 6121 6122 6123 6124 6125 6126 6127 6128 6129 6130 6131 6132 0
-6119 6118 6120 6121 6122 6123 6124 6125 6126 6127 6128 6129 6130 6131 6132 0
-6120 6118 6119 6121 6122 6123 6124 6125 6126 6127 6128 6129 6130 6131 6132 0
-6121 6118 6119 6120 6122 6123 6124 6125 6126 6127 6128 6129 6130 6131 6132 0
-6122 6118 6119 6120 6121 6123 6124 6125 6126 6127 6128 6129 6130 6131 6132 0
-6123 6118 6119 6120 6121 6122 6124 6125 6126 6127 6128 6129 6130 6131 6132 0
-6124 6118 6119 6120 6121 6122 6123 6125 6126 6127 6128 6129 6130 6131 6132 0
-6125 6118 6119 6120 6121 6122 6123 6124 6126 6127 6128 6129 6130 6131 6132 0
-6126 6118 6119 6120 6121 6122 6123 6124 6125 6127 6128 6129 6130 6131 6132 0
-6127 6118 6119 6120 6121 6122 6123 6124 6125 6126 6128 6129 6130 6131 6132 0
-6128 6118 6119 6120 6121 6122 6123 6124 6125 6126 6127 6129 6130 6131 6132 0
-6129 6118 6119 6120 6121 6122 6123 6124 6125 6126 6127 6128 6130 6131 6132 0
-6130 6118 6119 6120 6121 6122 6123 6124 6125 6126 6127 6128 6129 6131 6132 0
-6131 6118 6119 6120 6121 6122 6123 6124 6125 6126 6127 6128 6129 6130 6132 0
-6132 6118 6119 6120 6121 6122 6123 6124 6125 6126 6127 6128 6129 6130 6131 0
6133 -6 -38 -55 -76 0
-6133 6 0
-6133 38 0
-6133 55 0
-6133 76 0
6134 -6 -38 -58 -70 0
-6134 6 0
-6134 38 0
-6134 58 0
-6134 70 0
6135 -6 -38 -61 -67 0
-6135 6 0
-6135 38 0
-6135 61 0
-6135 67 0
-6133 6134 6135 0
-6134 6133 6135 0
-6135 6133 6134 0
6136 -6 -38 -55 -78 0
-6136 6 0
-6136 38 0
-6136 55 0
-6136 78 0
6137 -15 -38 -51 -55 0
-6137 15 0
-6137 38 0
-6137 51 0
-6137 55 0
6138 -18 -38 -48 -55 0
-6138 18 0
-6138 38 0
-6138 48 0
-6138 55 0
-6136 6137 6138 0
-6137 6136 6138 0
-6138 6136 6137 0
6139 -6 -38 -57 -76 0
-6139 6 0
-6139 38 0
-6139 57 0
-6139 76 0
6140 -9 -38 -45 -76 0
-6140 9 0
-6140 38 0
-6140 45 0
-6140 76 0
6141 -12 -38 -42 -76 0
-6141 12 0
-6141 38 0
-6141 42 0
-6141 76 0
-6139 6140 6141 0
-6140 6139 6141 0
-6141 6139 6140 0
6142 -6 -38 -57 -78 0
-6142 6 0
-6142 38 0
-6142 57 0
-6142 78 0
6143 -6 -38 -60 -72 0
-6143 6 0
-6143 38 0
-6143 60 0
-6143 72 0
6144 -6 -38 -63 -69 0
-6144 6 0
-6144 38 0
-6144 63 0
-6144 69 0
6145 -9 -38 -45 -78 0
-6145 9 0
-6145 38 0
-6145 45 0
-6145 78 0
6146 -9 -38 -48 -72 0
-6146 9 0
-6146 38 0
-6146 48 0
-6146 72 0
6147 -9 -38 -51 -69 0
-6147 9 0
-6147 38 0
-6147 51 0
-6147 69 0
6148 -12 -38 -42 -78 0
-6148 12 0
-6148 38 0
-6148 42 0
-6148 78 0
6149 -12 -38 -48 -63 0
-6149 12 0
-6149 38 0
-6149 48 0
-6149 63 0
6150 -12 -38 -51 -60 0
-6150 12 0
-6150 38 0
-6150 51 0
-6150 60 0
6151 -15 -38 -42 -72 0
-6151 15 0
-6151 38 0
-6151 42 0
-6151 72 0
6152 -15 -38 -45 -63 0
-6152 15 0
-6152 38 0
-6152 45 0
-6152 63 0
6153 -15 -38 -51 -57 0
-6153 15 0
-6153 38 0
-6153 51 0
-6153 57 0
6154 -18 -38 -42 -69 0
-6154 18 0
-6154 38 0
-6154 42 0
-6154 69 0
6155 -18 -38 -45 -60 0
-6155 18 0
-6155 38 0
-6155 45 0
-6155 60 0
6156 -18 -38 -48 -57 0
-6156 18 0
-6156 38 0
-6156 48 0
-6156 57 0
-6142 6143 6144 6145 6146 6147 6148 6149 6150 6151 6152 6153 6154 6155 6156 0
-6143 6142 6144 6145 6146 6147 6148 6149 6150 6151 6152 6153 6154 6155 6156 0
-6144 6142 6143 6145 6146 6147 6148 6149 6150 6151 6152 6153 6154 6155 6156 0
-6145 6142 6143 6144 6146 6147 6148 6149 6150 6151 6152 6153 6154 6155 6156 0
-6146 6142 6143 6144 6145 6147 6148 6149 6150 6151 6152 6153 6154 6155 6156 0
-6147 6142 6143 6144 6145 6146 6148 6149 6150 6151 6152 6153 6154 6155 6156 0
-6148 6142 6143 6144 6145 6146 6147 6149 6150 6151 6152 6153 6154 6155 6156 0
-6149 6142 6143 6144 6145 6146 6147 6148 6150 6151 6152 6153 6154 6155 6156 0
-6150 6142 6143 6144 6145 6146 6147 6148 6149 6151 6152 6153 6154 6155 6156 0
-6151 6142 6143 6144 6145 6146 6147 6148 6149 6150 6152 6153 6154 6155 6156 0
-6152 6142 6143 6144 6145 6146 6147 6148 6149 6150 6151 6153 6154 6155 6156 0
-6153 6142 6143 6144 6145 6146 6147 6148 6149 6150 6151 6152 6154 6155 6156 0
-6154 6142 6143 6144 6145 6146 6147 6148 6149 6150 6151 6152 6153 6155 6156 0
-6155 6142 6143 6144 6145 6146 6147 6148 6149 6150 6151 6152 6153 6154 6156 0
-6156 6142 6143 6144 6145 6146 6147 6148 6149 6150 6151 6152 6153 6154 6155 0
6157 -4 -38 -58 -72 0
-6157 4 0
-6157 38 0
-6157 58 0
-6157 72 0
6158 -7 -38 -46 -72 0
-6158 7 0
-6158 38 0
-6158 46 0
-6158 72 0
6159 -13 -38 -40 -72 0
-6159 13 0
-6159 38 0
-6159 40 0
-6159 72 0
-6157 6158 6159 0
-6158 6157 6159 0
-6159 6157 6158 0
6160 -4 -38 -60 -70 0
-6160 4 0
-6160 38 0
-6160 60 0
-6160 70 0
6161 -10 -38 -49 -60 0
-6161 10 0
-6161 38 0
-6161 49 0
-6161 60 0
6162 -16 -38 -43 -60 0
-6162 16 0
-6162 38 0
-6162 43 0
-6162 60 0
-6160 6161 6162 0
-6161 6160 6162 0
-6162 6160 6161 0
6163 -4 -39 -58 -71 0
-6163 4 0
-6163 39 0
-6163 58 0
-6163 71 0
6164 -7 -39 -46 -71 0
-6164 7 0
-6164 39 0
-6164 46 0
-6164 71 0
6165 -13 -39 -40 -71 0
-6165 13 0
-6165 39 0
-6165 40 0
-6165 71 0
-6163 6164 6165 0
-6164 6163 6165 0
-6165 6163 6164 0
6166 -4 -39 -59 -70 0
-6166 4 0
-6166 39 0
-6166 59 0
-6166 70 0
6167 -10 -39 -49 -59 0
-6167 10 0
-6167 39 0
-6167 49 0
-6167 59 0
6168 -16 -39 -43 -59 0
-6168 16 0
-6168 39 0
-6168 43 0
-6168 59 0
-6166 6167 6168 0
-6167 6166 6168 0
-6168 6166 6167 0
6169 -5 -37 -59 -72 0
-6169 5 0
-6169 37 0
-6169 59 0
-6169 72 0
6170 -8 -37 -47 -72 0
-6170 8 0
-6170 37 0
-6170 47 0
-6170 72 0
6171 -14 -37 -41 -72 0
-6171 14 0
-6171 37 0
-6171 41 0
-6171 72 0
-6169 6170 6171 0
-6170 6169 6171 0
-6171 6169 6170 0
6172 -5 -37 -60 -71 0
-6172 5 0
-6172 37 0
-6172 60 0
-6172 71 0
6173 -11 -37 -50 -60 0
-6173 11 0
-6173 37 0
-6173 50 0
-6173 60 0
6174 -17 -37 -44 -60 0
-6174 17 0
-6174 37 0
-6174 44 0
-6174 60 0
-6172 6173 6174 0
-6173 6172 6174 0
-6174 6172 6173 0
6175 -5 -39 -58 -71 0
-6175 5 0
-6175 39 0
-6175 58 0
-6175 71 0
6176 -11 -39 -50 -58 0
-6176 11 0
-6176 39 0
-6176 50 0
-6176 58 0
6177 -17 -39 -44 -58 0
-6177 17 0
-6177 39 0
-6177 44 0
-6177 58 0
-6175 6176 6177 0
-6176 6175 6177 0
-6177 6175 6176 0
6178 -5 -39 -59 -70 0
-6178 5 0
-6178 39 0
-6178 59 0
-6178 70 0
6179 -8 -39 -47 -70 0
-6179 8 0
-6179 39 0
-6179 47 0
-6179 70 0
6180 -14 -39 -41 -70 0
-6180 14 0
-6180 39 0
-6180 41 0
-6180 70 0
-6178 6179 6180 0
-6179 6178 6180 0
-6180 6178 6179 0
6181 -6 -37 -59 -72 0
-6181 6 0
-6181 37 0
-6181 59 0
-6181 72 0
6182 -12 -37 -51 -59 0
-6182 12 0
-6182 37 0
-6182 51 0
-6182 59 0
6183 -18 -37 -45 -59 0
-6183 18 0
-6183 37 0
-6183 45 0
-6183 59 0
-6181 6182 6183 0
-6182 6181 6183 0
-6183 6181 6182 0
6184 -6 -37 -60 -71 0
-6184 6 0
-6184 37 0
-6184 60 0
-6184 71 0
6185 -9 -37 -48 -71 0
-6185 9 0
-6185 37 0
-6185 48 0
-6185 71 0
6186 -15 -37 -42 -71 0
-6186 15 0
-6186 37 0
-6186 42 0
-6186 71 0
-6184 6185 6186 0
-6185 6184 6186 0
-6186 6184 6185 0
6187 -6 -38 -58 -72 0
-6187 6 0
-6187 38 0
-6187 58 0
-6187 72 0
6188 -12 -38 -51 -58 0
-6188 12 0
-6188 38 0
-6188 51 0
-6188 58 0
6189 -18 -38 -45 -58 0
-6189 18 0
-6189 38 0
-6189 45 0
-6189 58 0
-6187 6188 6189 0
-6188 6187 6189 0
-6189 6187 6188 0
6190 -6 -38 -60 -70 0
-6190 6 0
-6190 38 0
-6190 60 0
-6190 70 0
6191 -9 -38 -48 -70 0
-6191 9 0
-6191 38 0
-6191 48 0
-6191 70 0
6192 -15 -38 -42 -70 0
-6192 15 0
-6192 38 0
-6192 42 0
-6192 70 0
-6190 6191 6192 0
-6191 6190 6192 0
-6192 6190 6191 0
6193 -4 -38 -61 -69 0
-6193 4 0
-6193 38 0
-6193 61 0
-6193 69 0
6194 -7 -38 -49 -69 0
-6194 7 0
-6194 38 0
-6194 49 0
-6194 69 0
6195 -16 -38 -40 -69 0
-6195 16 0
-6195 38 0
-6195 40 0
-6195 69 0
-6193 6194 6195 0
-6194 6193 6195 0
-6195 6193 6194 0
6196 -4 -38 -63 -67 0
-6196 4 0
-6196 38 0
-6196 63 0
-6196 67 0
6197 -10 -38 -46 -63 0
-6197 10 0
-6197 38 0
-6197 46 0
-6197 63 0
6198 -13 -38 -43 -63 0
-6198 13 0
-6198 38 0
-6198 43 0
-6198 63 0
-6196 6197 6198 0
-6197 6196 6198 0
-6198 6196 6197 0
6199 -4 -39 -61 -68 0
-6199 4 0
-6199 39 0
-6199 61 0
-6199 68 0
6200 -7 -39 -49 -68 0
-6200 7 0
-6200 39 0
-6200 49 0
-6200 68 0
6201 -16 -39 -40 -68 0
-6201 16 0
-6201 39 0
-6201 40 0
-6201 68 0
-6199 6200 6201 0
-6200 6199 6201 0
-6201 6199 6200 0
6202 -4 -39 -62 -67 0
-6202 4 0
-6202 39 0
-6202 62 0
-6202 67 0
6203 -10 -39 -46 -62 0
-6203 10 0
-6203 39 0
-6203 46 0
-6203 62 0
6204 -13 -39 -43 -62 0
-6204 13 0
-6204 39 0
-6204 43 0
-6204 62 0
-6202 6203 6204 0
-6203 6202 6204 0
-6204 6202 6203 0
6205 -5 -37 -62 -69 0
-6205 5 0
-6205 37 0
-6205 62 0
-6205 69 0
6206 -8 -37 -50 -69 0
-6206 8 0
-6206 37 0
-6206 50 0
-6206 69 0
6207 -17 -37 -41 -69 0
-6207 17 0
-6207 37 0
-6207 41 0
-6207 69 0
-6205 6206 6207 0
-6206 6205 6207 0
-6207 6205 6206 0
6208 -5 -37 -63 -68 0
-6208 5 0
-6208 37 0
-6208 63 0
-6208 68 0
6209 -11 -37 -47 -63 0
-6209 11 0
-6209 37 0
-6209 47 0
-6209 63 0
6210 -14 -37 -44 -63 0
-6210 14 0
-6210 37 0
-6210 44 0
-6210 63 0
-6208 6209 6210 0
-6209 6208 6210 0
-6210 6208 6209 0
6211 -5 -39 -61 -68 0
-6211 5 0
-6211 39 0
-6211 61 0
-6211 68 0
6212 -11 -39 -47 -61 0
-6212 11 0
-6212 39 0
-6212 47 0
-6212 61 0
6213 -14 -39 -44 -61 0
-6213 14 0
-6213 39 0
-6213 44 0
-6213 61 0
-6211 6212 6213 0
-6212 6211 6213 0
-6213 6211 6212 0
6214 -5 -39 -62 -67 0
-6214 5 0
-6214 39 0
-6214 62 0
-6214 67 0
6215 -8 -39 -50 -67 0
-6215 8 0
-6215 39 0
-6215 50 0
-6215 67 0
6216 -17 -39 -41 -67 0
-6216 17 0
-6216 39 0
-6216 41 0
-6216 67 0
-6214 6215 6216 0
-6215 6214 6216 0
-6216 6214 6215 0
6217 -6 -37 -62 -69 0
-6217 6 0
-6217 37 0
-6217 62 0
-6217 69 0
6218 -12 -37 -48 -62 0
-6218 12 0
-6218 37 0
-6218 48 0
-6218 62 0
6219 -15 -37 -45 -62 0
-6219 15 0
-6219 37 0
-6219 45 0
-6219 62 0
-6217 6218 6219 0
-6218 6217 6219 0
-6219 6217 6218 0
6220 -6 -37 -63 -68 0
-6220 6 0
-6220 37 0
-6220 63 0
-6220 68 0
6221 -9 -37 -51 -68 0
-6221 9 0
-6221 37 0
-6221 51 0
-6221 68 0
6222 -18 -37 -42 -68 0
-6222 18 0
-6222 37 0
-6222 42 0
-6222 68 0
-6220 6221 6222 0
-6221 6220 6222 0
-6222 6220 6221 0
6223 -6 -38 -61 -69 0
-6223 6 0
-6223 38 0
-6223 61 0
-6223 69 0
6224 -12 -38 -48 -61 0
-6224 12 0
-6224 38 0
-6224 48 0
-6224 61 0
6225 -15 -38 -45 -61 0
-6225 15 0
-6225 38 0
-6225 45 0
-6225 61 0
-6223 6224 6225 0
-6224 6223 6225 0
-6225 6223 6224 0
6226 -6 -38 -63 -67 0
-6226 6 0
-6226 38 0
-6226 63 0
-6226 67 0
6227 -9 -38 -51 -67 0
-6227 9 0
-6227 38 0
-6227 51 0
-6227 67 0
6228 -18 -38 -42 -67 0
-6228 18 0
-6228 38 0
-6228 42 0
-6228 67 0
-6226 6227 6228 0
-6227 6226 6228 0
-6228 6226 6227 0
6229 -7 -23 -67 -82 0
-6229 7 0
-6229 23 0
-6229 67 0
-6229 82 0
6230 -7 -23 -70 -79 0
-6230 7 0
-6230 23 0
-6230 70 0
-6230 79 0
6231 -7 -23 -73 -76 0
-6231 7 0
-6231 23 0
-6231 73 0
-6231 76 0
6232 -10 -23 -58 -82 0
-6232 10 0
-6232 23 0
-6232 58 0
-6232 82 0
6233 -10 -23 -61 -79 0
-6233 10 0
-6233 23 0
-6233 61 0
-6233 79 0
6234 -10 -23 -64 -76 0
-6234 10 0
-6234 23 0
-6234 64 0
-6234 76 0
6235 -13 -23 -55 -82 0
-6235 13 0
-6235 23 0
-6235 55 0
-6235 82 0
6236 -13 -23 -61 -73 0
-6236 13 0
-6236 23 0
-6236 61 0
-6236 73 0
6237 -13 -23 -64 -70 0
-6237 13 0
-6237 23 0
-6237 64 0
-6237 70 0
6238 -16 -23 -55 -79 0
-6238 16 0
-6238 23 0
-6238 55 0
-6238 79 0
6239 -16 -23 -58 -73 0
-6239 16 0
-6239 23 0
-6239 58 0
-6239 73 0
6240 -16 -23 -64 -67 0
-6240 16 0
-6240 23 0
-6240 64 0
-6240 67 0
6241 -19 -23 -55 -76 0
-6241 19 0
-6241 23 0
-6241 55 0
-6241 76 0
6242 -19 -23 -58 -70 0
-6242 19 0
-6242 23 0
-6242 58 0
-6242 70 0
6243 -19 -23 -61 -67 0
-6243 19 0
-6243 23 0
-6243 61 0
-6243 67 0
-6229 6230 6231 6232 6233 6234 6235 6236 6237 6238 6239 6240 6241 6242 6243 0
-6230 6229 6231 6232 6233 6234 6235 6236 6237 6238 6239 6240 6241 6242 6243 0
-6231 6229 6230 6232 6233 6234 6235 6236 6237 6238 6239 6240 6241 6242 6243 0
-6232 6229 6230 6231 6233 6234 6235 6236 6237 6238 6239 6240 6241 6242 6243 0
-6233 6229 6230 6231 6232 6234 6235 6236 6237 6238 6239 6240 6241 6242 6243 0
-6234 6229 6230 6231 6232 6233 6235 6236 6237 6238 6239 6240 6241 6242 6243 0
-6235 6229 6230 6231 6232 6233 6234 6236 6237 6238 6239 6240 6241 6242 6243 0
-6236 6229 6230 6231 6232 6233 6234 6235 6237 6238 6239 6240 6241 6242 6243 0
-6237 6229 6230 6231 6232 6233 6234 6235 6236 6238 6239 6240 6241 6242 6243 0
-6238 6229 6230 6231 6232 6233 6234 6235 6236 6237 6239 6240 6241 6242 6243 0
-6239 6229 6230 6231 6232 6233 6234 6235 6236 6237 6238 6240 6241 6242 6243 0
-6240 6229 6230 6231 6232 6233 6234 6235 6236 6237 6238 6239 6241 6242 6243 0
-6241 6229 6230 6231 6232 6233 6234 6235 6236 6237 6238 6239 6240 6242 6243 0
-6242 6229 6230 6231 6232 6233 6234 6235 6236 6237 6238 6239 6240 6241 6243 0
-6243 6229 6230 6231 6232 6233 6234 6235 6236 6237 6238 6239 6240 6241 6242 0
6244 -7 -23 -67 -83 0
-6244 7 0
-6244 23 0
-6244 67 0
-6244 83 0
6245 -7 -35 -53 -67 0
-6245 7 0
-6245 35 0
-6245 53 0
-6245 67 0
6246 -7 -38 -50 -67 0
-6246 7 0
-6246 38 0
-6246 50 0
-6246 67 0
6247 -10 -23 -58 -83 0
-6247 10 0
-6247 23 0
-6247 58 0
-6247 83 0
6248 -10 -35 -53 -58 0
-6248 10 0
-6248 35 0
-6248 53 0
-6248 58 0
6249 -10 -38 -50 -58 0
-6249 10 0
-6249 38 0
-6249 50 0
-6249 58 0
6250 -13 -23 -55 -83 0
-6250 13 0
-6250 23 0
-6250 55 0
-6250 83 0
6251 -13 -35 -53 -55 0
-6251 13 0
-6251 35 0
-6251 53 0
-6251 55 0
6252 -13 -38 -50 -55 0
-6252 13 0
-6252 38 0
-6252 50 0
-6252 55 0
-6244 6245 6246 6247 6248 6249 6250 6251 6252 0
-6245 6244 6246 6247 6248 6249 6250 6251 6252 0
-6246 6244 6245 6247 6248 6249 6250 6251 6252 0
-6247 6244 6245 6246 6248 6249 6250 6251 6252 0
-6248 6244 6245 6246 6247 6249 6250 6251 6252 0
-6249 6244 6245 6246 6247 6248 6250 6251 6252 0
-6250 6244 6245 6246 6247 6248 6249 6251 6252 0
-6251 6244 6245 6246 6247 6248 6249 6250 6252 0
-6252 6244 6245 6246 6247 6248 6249 6250 6251 0
6253 -7 -23 -67 -84 0
-6253 7 0
-6253 23 0
-6253 67 0
-6253 84 0
6254 -10 -23 -58 -84 0
-6254 10 0
-6254 23 0
-6254 58 0
-6254 84 0
6255 -13 -23 -55 -84 0
-6255 13 0
-6255 23 0
-6255 55 0
-6255 84 0
-6253 6254 6255 0
-6254 6253 6255 0
-6255 6253 6254 0
6256 -7 -23 -68 -82 0
-6256 7 0
-6256 23 0
-6256 68 0
-6256 82 0
6257 -7 -29 -47 -82 0
-6257 7 0
-6257 29 0
-6257 47 0
-6257 82 0
6258 -7 -32 -44 -82 0
-6258 7 0
-6258 32 0
-6258 44 0
-6258 82 0
6259 -16 -23 -64 -68 0
-6259 16 0
-6259 23 0
-6259 64 0
-6259 68 0
6260 -16 -29 -47 -64 0
-6260 16 0
-6260 29 0
-6260 47 0
-6260 64 0
6261 -16 -32 -44 -64 0
-6261 16 0
-6261 32 0
-6261 44 0
-6261 64 0
6262 -19 -23 -61 -68 0
-6262 19 0
-6262 23 0
-6262 61 0
-6262 68 0
6263 -19 -29 -47 -61 0
-6263 19 0
-6263 29 0
-6263 47 0
-6263 61 0
6264 -19 -32 -44 -61 0
-6264 19 0
-6264 32 0
-6264 44 0
-6264 61 0
-6256 6257 6258 6259 6260 6261 6262 6263 6264 0
-6257 6256 6258 6259 6260 6261 6262 6263 6264 0
-6258 6256 6257 6259 6260 6261 6262 6263 6264 0
-6259 6256 6257 6258 6260 6261 6262 6263 6264 0
-6260 6256 6257 6258 6259 6261 6262 6263 6264 0
-6261 6256 6257 6258 6259 6260 6262 6263 6264 0
-6262 6256 6257 6258 6259 6260 6261 6263 6264 0
-6263 6256 6257 6258 6259 6260 6261 6262 6264 0
-6264 6256 6257 6258 6259 6260 6261 6262 6263 0
6265 -7 -23 -68 -83 0
-6265 7 0
-6265 23 0
-6265 68 0
-6265 83 0
6266 -7 -23 -71 -80 0
-6266 7 0
-6266 23 0
-6266 71 0
-6266 80 0
6267 -7 -23 -74 -77 0
-6267 7 0
-6267 23 0
-6267 74 0
-6267 77 0
6268 -7 -29 -47 -83 0
-6268 7 0
-6268 29 0
-6268 47 0
-6268 83 0
6269 -7 -29 -50 -80 0
-6269 7 0
-6269 29 0
-6269 50 0
-6269 80 0
6270 -7 -29 -53 -77 0
-6270 7 0
-6270 29 0
-6270 53 0
-6270 77 0
6271 -7 -32 -44 -83 0
-6271 7 0
-6271 32 0
-6271 44 0
-6271 83 0
6272 -7 -32 -50 -74 0
-6272 7 0
-6272 32 0
-6272 50 0
-6272 74 0
6273 -7 -32 -53 -71 0
-6273 7 0
-6273 32 0
-6273 53 0
-6273 71 0
6274 -7 -35 -44 -80 0
-6274 7 0
-6274 35 0
-6274 44 0
-6274 80 0
6275 -7 -35 -47 -74 0
-6275 7 0
-6275 35 0
-6275 47 0
-6275 74 0
6276 -7 -35 -53 -68 0
-6276 7 0
-6276 35 0
-6276 53 0
-6276 68 0
6277 -7 -38 -44 -77 0
-6277 7 0
-6277 38 0
-6277 44 0
-6277 77 0
6278 -7 -38 -47 -71 0
-6278 7 0
-6278 38 0
-6278 47 0
-6278 71 0
6279 -7 -38 -50 -68 0
-6279 7 0
-6279 38 0
-6279 50 0
-6279 68 0
-6265 6266 6267 6268 6269 6270 6271 6272 6273 6274 6275 6276 6277 6278 6279 0
-6266 6265 6267 6268 6269 6270 6271 6272 6273 6274 6275 6276 6277 6278 6279 0
-6267 6265 6266 6268 6269 6270 6271 6272 6273 6274 6275 6276 6277 6278 6279 0
-6268 6265 6266 6267 6269 6270 6271 6272 6273 6274 6275 6276 6277 6278 6279 0
-6269 6265 6266 6267 6268 6270 6271 6272 6273 6274 6275 6276 6277 6278 6279 0
-6270 6265 6266 6267 6268 6269 6271 6272 6273 6274 6275 6276 6277 6278 6279 0
-6271 6265 6266 6267 6268 6269 6270 6272 6273 6274 6275 6276 6277 6278 6279 0
-6272 6265 6266 6267 6268 6269 6270 6271 6273 6274 6275 6276 6277 6278 6279 0
-6273 6265 6266 6267 6268 6269 6270 6271 6272 6274 6275 6276 6277 6278 6279 0
-6274 6265 6266 6267 6268 6269 6270 6271 6272 6273 6275 6276 6277 6278 6279 0
-6275 6265 6266 6267 6268 6269 6270 6271 6272 6273 6274 6276 6277 6278 6279 0
-6276 6265 6266 6267 6268 6269 6270 6271 6272 6273 6274 6275 6277 6278 6279 0
-6277 6265 6266 6267 6268 6269 6270 6271 6272 6273 6274 6275 6276 6278 6279 0
-6278 6265 6266 6267 6268 6269 6270 6271 6272 6273 6274 6275 6276 6277 6279 0
-6279 6265 6266 6267 6268 6269 6270 6271 6272 6273 6274 6275 6276 6277 6278 0
6280 -7 -23 -68 -84 0
-6280 7 0
-6280 23 0
-6280 68 0
-6280 84 0
6281 -7 -29 -47 -84 0
-6281 7 0
-6281 29 0
-6281 47 0
-6281 84 0
6282 -7 -32 -44 -84 0
-6282 7 0
-6282 32 0
-6282 44 0
-6282 84 0
-6280 6281 6282 0
-6281 6280 6282 0
-6282 6280 6281 0
6283 -7 -23 -69 -82 0
-6283 7 0
-6283 23 0
-6283 69 0
-6283 82 0
6284 -16 -23 -64 -69 0
-6284 16 0
-6284 23 0
-6284 64 0
-6284 69 0
6285 -19 -23 -61 -69 0
-6285 19 0
-6285 23 0
-6285 61 0
-6285 69 0
-6283 6284 6285 0
-6284 6283 6285 0
-6285 6283 6284 0
6286 -7 -23 -69 -83 0
-6286 7 0
-6286 23 0
-6286 69 0
-6286 83 0
6287 -7 -35 -53 -69 0
-6287 7 0
-6287 35 0
-6287 53 0
-6287 69 0
6288 -7 -38 -50 -69 0
-6288 7 0
-6288 38 0
-6288 50 0
-6288 69 0
-6286 6287 6288 0
-6287 6286 6288 0
-6288 6286 6287 0
6289 -7 -23 -69 -84 0
-6289 7 0
-6289 23 0
-6289 69 0
-6289 84 0
6290 -7 -23 -72 -81 0
-6290 7 0
-6290 23 0
-6290 72 0
-6290 81 0
6291 -7 -23 -75 -78 0
-6291 7 0
-6291 23 0
-6291 75 0
-6291 78 0
-6289 6290 6291 0
-6290 6289 6291 0
-6291 6289 6290 0
6292 -7 -24 -67 -82 0
-6292 7 0
-6292 24 0
-6292 67 0
-6292 82 0
6293 -7 -24 -70 -79 0
-6293 7 0
-6293 24 0
-6293 70 0
-6293 79 0
6294 -7 -24 -73 -76 0
-6294 7 0
-6294 24 0
-6294 73 0
-6294 76 0
6295 -10 -24 -58 -82 0
-6295 10 0
-6295 24 0
-6295 58 0
-6295 82 0
6296 -10 -24 -61 -79 0
-6296 10 0
-6296 24 0
-6296 61 0
-6296 79 0
6297 -10 -24 -64 -76 0
-6297 10 0
-6297 24 0
-6297 64 0
-6297 76 0
6298 -13 -24 -55 -82 0
-6298 13 0
-6298 24 0
-6298 55 0
-6298 82 0
6299 -13 -24 -61 -73 0
-6299 13 0
-6299 24 0
-6299 61 0
-6299 73 0
6300 -13 -24 -64 -70 0
-6300 13 0
-6300 24 0
-6300 64 0
-6300 70 0
6301 -16 -24 -55 -79 0
-6301 16 0
-6301 24 0
-6301 55 0
-6301 79 0
6302 -16 -24 -58 -73 0
-6302 16 0
-6302 24 0
-6302 58 0
-6302 73 0
6303 -16 -24 -64 -67 0
-6303 16 0
-6303 24 0
-6303 64 0
-6303 67 0
6304 -19 -24 -55 -76 0
-6304 19 0
-6304 24 0
-6304 55 0
-6304 76 0
6305 -19 -24 -58 -70 0
-6305 19 0
-6305 24 0
-6305 58 0
-6305 70 0
6306 -19 -24 -61 -67 0
-6306 19 0
-6306 24 0
-6306 61 0
-6306 67 0
-6292 6293 6294 6295 6296 6297 6298 6299 6300 6301 6302 6303 6304 6305 6306 0
-6293 6292 6294 6295 6296 6297 6298 6299 6300 6301 6302 6303 6304 6305 6306 0
-6294 6292 6293 6295 6296 6297 6298 6299 6300 6301 6302 6303 6304 6305 6306 0
-6295 6292 6293 6294 6296 6297 6298 6299 6300 6301 6302 6303 6304 6305 6306 0
-6296 6292 6293 6294 6295 6297 6298 6299 6300 6301 6302 6303 6304 6305 6306 0
-6297 6292 6293 6294 6295 6296 6298 6299 6300 6301 6302 6303 6304 6305 6306 0
-6298 6292 6293 6294 6295 6296 6297 6299 6300 6301 6302 6303 6304 6305 6306 0
-6299 6292 6293 6294 6295 6296 6297 6298 6300 6301 6302 6303 6304 6305 6306 0
-6300 6292 6293 6294 6295 6296 6297 6298 6299 6301 6302 6303 6304 6305 6306 0
-6301 6292 6293 6294 6295 6296 6297 6298 6299 6300 6302 6303 6304 6305 6306 0
-6302 6292 6293 6294 6295 6296 6297 6298 6299 6300 6301 6303 6304 6305 6306 0
-6303 6292 6293 6294 6295 6296 6297 6298 6299 6300 6301 6302 6304 6305 6306 0
-6304 6292 6293 6294 6295 6296 6297 6298 6299 6300 6301 6302 6303 6305 6306 0
-6305 6292 6293 6294 6295 6296 6297 6298 6299 6300 6301 6302 6303 6304 6306 0
-6306 6292 6293 6294 6295 6296 6297 6298 6299 6300 6301 6302 6303 6304 6305 0
6307 -7 -24 -67 -83 0
-6307 7 0
-6307 24 0
-6307 67 0
-6307 83 0
6308 -10 -24 -58 -83 0
-6308 10 0
-6308 24 0
-6308 58 0
-6308 83 0
6309 -13 -24 -55 -83 0
-6309 13 0
-6309 24 0
-6309 55 0
-6309 83 0
-6307 6308 6309 0
-6308 6307 6309 0
-6309 6307 6308 0
6310 -7 -24 -67 -84 0
-6310 7 0
-6310 24 0
-6310 67 0
-6310 84 0
6311 -7 -36 -54 -67 0
-6311 7 0
-6311 36 0
-6311 54 0
-6311 67 0
6312 -7 -39 -51 -67 0
-6312 7 0
-6312 39 0
-6312 51 0
-6312 67 0
6313 -10 -24 -58 -84 0
-6313 10 0
-6313 24 0
-6313 58 0
-6313 84 0
6314 -10 -36 -54 -58 0
-6314 10 0
-6314 36 0
-6314 54 0
-6314 58 0
6315 -10 -39 -51 -58 0
-6315 10 0
-6315 39 0
-6315 51 0
-6315 58 0
6316 -13 -24 -55 -84 0
-6316 13 0
-6316 24 0
-6316 55 0
-6316 84 0
6317 -13 -36 -54 -55 0
-6317 13 0
-6317 36 0
-6317 54 0
-6317 55 0
6318 -13 -39 -51 -55 0
-6318 13 0
-6318 39 0
-6318 51 0
-6318 55 0
-6310 6311 6312 6313 6314 6315 6316 6317 6318 0
-6311 6310 6312 6313 6314 6315 6316 6317 6318 0
-6312 6310 6311 6313 6314 6315 6316 6317 6318 0
-6313 6310 6311 6312 6314 6315 6316 6317 6318 0
-6314 6310 6311 6312 6313 6315 6316 6317 6318 0
-6315 6310 6311 6312 6313 6314 6316 6317 6318 0
-6316 6310 6311 6312 6313 6314 6315 6317 6318 0
-6317 6310 6311 6312 6313 6314 6315 6316 6318 0
-6318 6310 6311 6312 6313 6314 6315 6316 6317 0
6319 -7 -24 -68 -82 0
-6319 7 0
-6319 24 0
-6319 68 0
-6319 82 0
6320 -16 -24 -64 -68 0
-6320 16 0
-6320 24 0
-6320 64 0
-6320 68 0
6321 -19 -24 -61 -68 0
-6321 19 0
-6321 24 0
-6321 61 0
-6321 68 0
-6319 6320 6321 0
-6320 6319 6321 0
-6321 6319 6320 0
6322 -7 -24 -68 -83 0
-6322 7 0
-6322 24 0
-6322 68 0
-6322 83 0
6323 -7 -24 -71 -80 0
-6323 7 0
-6323 24 0
-6323 71 0
-6323 80 0
6324 -7 -24 -74 -77 0
-6324 7 0
-6324 24 0
-6324 74 0
-6324 77 0
-6322 6323 6324 0
-6323 6322 6324 0
-6324 6322 6323 0
6325 -7 -24 -68 -84 0
-6325 7 0
-6325 24 0
-6325 68 0
-6325 84 0
6326 -7 -36 -54 -68 0
-6326 7 0
-6326 36 0
-6326 54 0
-6326 68 0
6327 -7 -39 -51 -68 0
-6327 7 0
-6327 39 0
-6327 51 0
-6327 68 0
-6325 6326 6327 0
-6326 6325 6327 0
-6327 6325 6326 0
6328 -7 -24 -69 -82 0
-6328 7 0
-6328 24 0
-6328 69 0
-6328 82 0
6329 -7 -30 -48 -82 0
-6329 7 0
-6329 30 0
-6329 48 0
-6329 82 0
6330 -7 -33 -45 -82 0
-6330 7 0
-6330 33 0
-6330 45 0
-6330 82 0
6331 -16 -24 -64 -69 0
-6331 16 0
-6331 24 0
-6331 64 0
-6331 69 0
6332 -16 -30 -48 -64 0
-6332 16 0
-6332 30 0
-6332 48 0
-6332 64 0
6333 -16 -33 -45 -64 0
-6333 16 0
-6333 33 0
-6333 45 0
-6333 64 0
6334 -19 -24 -61 -69 0
-6334 19 0
-6334 24 0
-6334 61 0
-6334 69 0
6335 -19 -30 -48 -61 0
-6335 19 0
-6335 30 0
-6335 48 0
-6335 61 0
6336 -19 -33 -45 -61 0
-6336 19 0
-6336 33 0
-6336 45 0
-6336 61 0
-6328 6329 6330 6331 6332 6333 6334 6335 6336 0
-6329 6328 6330 6331 6332 6333 6334 6335 6336 0
-6330 6328 6329 6331 6332 6333 6334 6335 6336 0
-6331 6328 6329 6330 6332 6333 6334 6335 6336 0
-6332 6328 6329 6330 6331 6333 6334 6335 6336 0
-6333 6328 6329 6330 6331 6332 6334 6335 6336 0
-6334 6328 6329 6330 6331 6332 6333 6335 6336 0
-6335 6328 6329 6330 6331 6332 6333 6334 6336 0
-6336 6328 6329 6330 6331 6332 6333 6334 6335 0
6337 -7 -24 -69 -83 0
-6337 7 0
-6337 24 0
-6337 69 0
-6337 83 0
6338 -7 -30 -48 -83 0
-6338 7 0
-6338 30 0
-6338 48 0
-6338 83 0
6339 -7 -33 -45 -83 0
-6339 7 0
-6339 33 0
-6339 45 0
-6339 83 0
-6337 6338 6339 0
-6338 6337 6339 0
-6339 6337 6338 0
6340 -7 -24 -69 -84 0
-6340 7 0
-6340 24 0
-6340 69 0
-6340 84 0
6341 -7 -24 -72 -81 0
-6341 7 0
-6341 24 0
-6341 72 0
-6341 81 0
6342 -7 -24 -75 -78 0
-6342 7 0
-6342 24 0
-6342 75 0
-6342 78 0
6343 -7 -30 -48 -84 0
-6343 7 0
-6343 30 0
-6343 48 0
-6343 84 0
6344 -7 -30 -51 -81 0
-6344 7 0
-6344 30 0
-6344 51 0
-6344 81 0
6345 -7 -30 -54 -78 0
-6345 7 0
-6345 30 0
-6345 54 0
-6345 78 0
6346 -7 -33 -45 -84 0
-6346 7 0
-6346 33 0
-6346 45 0
-6346 84 0
6347 -7 -33 -51 -75 0
-6347 7 0
-6347 33 0
-6347 51 0
-6347 75 0
6348 -7 -33 -54 -72 0
-6348 7 0
-6348 33 0
-6348 54 0
-6348 72 0
6349 -7 -36 -45 -81 0
-6349 7 0
-6349 36 0
-6349 45 0
-6349 81 0
6350 -7 -36 -48 -75 0
-6350 7 0
-6350 36 0
-6350 48 0
-6350 75 0
6351 -7 -36 -54 -69 0
-6351 7 0
-6351 36 0
-6351 54 0
-6351 69 0
6352 -7 -39 -45 -78 0
-6352 7 0
-6352 39 0
-6352 45 0
-6352 78 0
6353 -7 -39 -48 -72 0
-6353 7 0
-6353 39 0
-6353 48 0
-6353 72 0
6354 -7 -39 -51 -69 0
-6354 7 0
-6354 39 0
-6354 51 0
-6354 69 0
-6340 6341 6342 6343 6344 6345 6346 6347 6348 6349 6350 6351 6352 6353 6354 0
-6341 6340 6342 6343 6344 6345 6346 6347 6348 6349 6350 6351 6352 6353 6354 0
-6342 6340 6341 6343 6344 6345 6346 6347 6348 6349 6350 6351 6352 6353 6354 0
-6343 6340 6341 6342 6344 6345 6346 6347 6348 6349 6350 6351 6352 6353 6354 0
-6344 6340 6341 6342 6343 6345 6346 6347 6348 6349 6350 6351 6352 6353 6354 0
-6345 6340 6341 6342 6343 6344 6346 6347 6348 6349 6350 6351 6352 6353 6354 0
-6346 6340 6341 6342 6343 6344 6345 6347 6348 6349 6350 6351 6352 6353 6354 0
-6347 6340 6341 6342 6343 6344 6345 6346 6348 6349 6350 6351 6352 6353 6354 0
-6348 6340 6341 6342 6343 6344 6345 6346 6347 6349 6350 6351 6352 6353 6354 0
-6349 6340 6341 6342 6343 6344 6345 6346 6347 6348 6350 6351 6352 6353 6354 0
-6350 6340 6341 6342 6343 6344 6345 6346 6347 6348 6349 6351 6352 6353 6354 0
-6351 6340 6341 6342 6343 6344 6345 6346 6347 6348 6349 6350 6352 6353 6354 0
-6352 6340 6341 6342 6343 6344 6345 6346 6347 6348 6349 6350 6351 6353 6354 0
-6353 6340 6341 6342 6343 6344 6345 6346 6347 6348 6349 6350 6351 6352 6354 0
-6354 6340 6341 6342 6343 6344 6345 6346 6347 6348 6349 6350 6351 6352 6353 0
6355 -8 -22 -67 -82 0
-6355 8 0
-6355 22 0
-6355 67 0
-6355 82 0
6356 -8 -22 -70 -79 0
-6356 8 0
-6356 22 0
-6356 70 0
-6356 79 0
6357 -8 -22 -73 -76 0
-6357 8 0
-6357 22 0
-6357 73 0
-6357 76 0
6358 -8 -28 -46 -82 0
-6358 8 0
-6358 28 0
-6358 46 0
-6358 82 0
6359 -8 -28 -49 -79 0
-6359 8 0
-6359 28 0
-6359 49 0
-6359 79 0
6360 -8 -28 -52 -76 0
-6360 8 0
-6360 28 0
-6360 52 0
-6360 76 0
6361 -8 -31 -43 -82 0
-6361 8 0
-6361 31 0
-6361 43 0
-6361 82 0
6362 -8 -31 -49 -73 0
-6362 8 0
-6362 31 0
-6362 49 0
-6362 73 0
6363 -8 -31 -52 -70 0
-6363 8 0
-6363 31 0
-6363 52 0
-6363 70 0
6364 -8 -34 -43 -79 0
-6364 8 0
-6364 34 0
-6364 43 0
-6364 79 0
6365 -8 -34 -46 -73 0
-6365 8 0
-6365 34 0
-6365 46 0
-6365 73 0
6366 -8 -34 -52 -67 0
-6366 8 0
-6366 34 0
-6366 52 0
-6366 67 0
6367 -8 -37 -43 -76 0
-6367 8 0
-6367 37 0
-6367 43 0
-6367 76 0
6368 -8 -37 -46 -70 0
-6368 8 0
-6368 37 0
-6368 46 0
-6368 70 0
6369 -8 -37 -49 -67 0
-6369 8 0
-6369 37 0
-6369 49 0
-6369 67 0
-6355 6356 6357 6358 6359 6360 6361 6362 6363 6364 6365 6366 6367 6368 6369 0
-6356 6355 6357 6358 6359 6360 6361 6362 6363 6364 6365 6366 6367 6368 6369 0
-6357 6355 6356 6358 6359 6360 6361 6362 6363 6364 6365 6366 6367 6368 6369 0
-6358 6355 6356 6357 6359 6360 6361 6362 6363 6364 6365 6366 6367 6368 6369 0
-6359 6355 6356 6357 6358 6360 6361 6362 6363 6364 6365 6366 6367 6368 6369 0
-6360 6355 6356 6357 6358 6359 6361 6362 6363 6364 6365 6366 6367 6368 6369 0
-6361 6355 6356 6357 6358 6359 6360 6362 6363 6364 6365 6366 6367 6368 6369 0
-6362 6355 6356 6357 6358 6359 6360 6361 6363 6364 6365 6366 6367 6368 6369 0
-6363 6355 6356 6357 6358 6359 6360 6361 6362 6364 6365 6366 6367 6368 6369 0
-6364 6355 6356 6357 6358 6359 6360 6361 6362 6363 6365 6366 6367 6368 6369 0
-6365 6355 6356 6357 6358 6359 6360 6361 6362 6363 6364 6366 6367 6368 6369 0
-6366 6355 6356 6357 6358 6359 6360 6361 6362 6363 6364 6365 6367 6368 6369 0
-6367 6355 6356 6357 6358 6359 6360 6361 6362 6363 6364 6365 6366 6368 6369 0
-6368 6355 6356 6357 6358 6359 6360 6361 6362 6363 6364 6365 6366 6367 6369 0
-6369 6355 6356 6357 6358 6359 6360 6361 6362 6363 6364 6365 6366 6367 6368 0
6370 -8 -22 -67 -83 0
-6370 8 0
-6370 22 0
-6370 67 0
-6370 83 0
6371 -8 -28 -46 -83 0
-6371 8 0
-6371 28 0
-6371 46 0
-6371 83 0
6372 -8 -31 -43 -83 0
-6372 8 0
-6372 31 0
-6372 43 0
-6372 83 0
6373 -17 -22 -65 -67 0
-6373 17 0
-6373 22 0
-6373 65 0
-6373 67 0
6374 -17 -28 -46 -65 0
-6374 17 0
-6374 28 0
-6374 46 0
-6374 65 0
6375 -17 -31 -43 -65 0
-6375 17 0
-6375 31 0
-6375 43 0
-6375 65 0
6376 -20 -22 -62 -67 0
-6376 20 0
-6376 22 0
-6376 62 0
-6376 67 0
6377 -20 -28 -46 -62 0
-6377 20 0
-6377 28 0
-6377 46 0
-6377 62 0
6378 -20 -31 -43 -62 0
-6378 20 0
-6378 31 0
-6378 43 0
-6378 62 0
-6370 6371 6372 6373 6374 6375 6376 6377 6378 0
-6371 6370 6372 6373 6374 6375 6376 6377 6378 0
-6372 6370 6371 6373 6374 6375 6376 6377 6378 0
-6373 6370 6371 6372 6374 6375 6376 6377 6378 0
-6374 6370 6371 6372 6373 6375 6376 6377 6378 0
-6375 6370 6371 6372 6373 6374 6376 6377 6378 0
-6376 6370 6371 6372 6373 6374 6375 6377 6378 0
-6377 6370 6371 6372 6373 6374 6375 6376 6378 0
-6378 6370 6371 6372 6373 6374 6375 6376 6377 0
6379 -8 -22 -67 -84 0
-6379 8 0
-6379 22 0
-6379 67 0
-6379 84 0
6380 -8 -28 -46 -84 0
-6380 8 0
-6380 28 0
-6380 46 0
-6380 84 0
6381 -8 -31 -43 -84 0
-6381 8 0
-6381 31 0
-6381 43 0
-6381 84 0
-6379 6380 6381 0
-6380 6379 6381 0
-6381 6379 6380 0
6382 -8 -22 -68 -82 0
-6382 8 0
-6382 22 0
-6382 68 0
-6382 82 0
6383 -8 -34 -52 -68 0
-6383 8 0
-6383 34 0
-6383 52 0
-6383 68 0
6384 -8 -37 -49 -68 0
-6384 8 0
-6384 37 0
-6384 49 0
-6384 68 0
6385 -11 -22 -59 -82 0
-6385 11 0
-6385 22 0
-6385 59 0
-6385 82 0
6386 -11 -34 -52 -59 0
-6386 11 0
-6386 34 0
-6386 52 0
-6386 59 0
6387 -11 -37 -49 -59 0
-6387 11 0
-6387 37 0
-6387 49 0
-6387 59 0
6388 -14 -22 -56 -82 0
-6388 14 0
-6388 22 0
-6388 56 0
-6388 82 0
6389 -14 -34 -52 -56 0
-6389 14 0
-6389 34 0
-6389 52 0
-6389 56 0
6390 -14 -37 -49 -56 0
-6390 14 0
-6390 37 0
-6390 49 0
-6390 56 0
-6382 6383 6384 6385 6386 6387 6388 6389 6390 0
-6383 6382 6384 6385 6386 6387 6388 6389 6390 0
-6384 6382 6383 6385 6386 6387 6388 6389 6390 0
-6385 6382 6383 6384 6386 6387 6388 6389 6390 0
-6386 6382 6383 6384 6385 6387 6388 6389 6390 0
-6387 6382 6383 6384 6385 6386 6388 6389 6390 0
-6388 6382 6383 6384 6385 6386 6387 6389 6390 0
-6389 6382 6383 6384 6385 6386 6387 6388 6390 0
-6390 6382 6383 6384 6385 6386 6387 6388 6389 0
6391 -8 -22 -68 -83 0
-6391 8 0
-6391 22 0
-6391 68 0
-6391 83 0
6392 -8 -22 -71 -80 0
-6392 8 0
-6392 22 0
-6392 71 0
-6392 80 0
6393 -8 -22 -74 -77 0
-6393 8 0
-6393 22 0
-6393 74 0
-6393 77 0
6394 -11 -22 -59 -83 0
-6394 11 0
-6394 22 0
-6394 59 0
-6394 83 0
6395 -11 -22 -62 -80 0
-6395 11 0
-6395 22 0
-6395 62 0
-6395 80 0
6396 -11 -22 -65 -77 0
-6396 11 0
-6396 22 0
-6396 65 0
-6396 77 0
6397 -14 -22 -56 -83 0
-6397 14 0
-6397 22 0
-6397 56 0
-6397 83 0
6398 -14 -22 -62 -74 0
-6398 14 0
-6398 22 0
-6398 62 0
-6398 74 0
6399 -14 -22 -65 -71 0
-6399 14 0
-6399 22 0
-6399 65 0
-6399 71 0
6400 -17 -22 -56 -80 0
-6400 17 0
-6400 22 0
-6400 56 0
-6400 80 0
6401 -17 -22 -59 -74 0
-6401 17 0
-6401 22 0
-6401 59 0
-6401 74 0
6402 -17 -22 -65 -68 0
-6402 17 0
-6402 22 0
-6402 65 0
-6402 68 0
6403 -20 -22 -56 -77 0
-6403 20 0
-6403 22 0
-6403 56 0
-6403 77 0
6404 -20 -22 -59 -71 0
-6404 20 0
-6404 22 0
-6404 59 0
-6404 71 0
6405 -20 -22 -62 -68 0
-6405 20 0
-6405 22 0
-6405 62 0
-6405 68 0
-6391 6392 6393 6394 6395 6396 6397 6398 6399 6400 6401 6402 6403 6404 6405 0
-6392 6391 6393 6394 6395 6396 6397 6398 6399 6400 6401 6402 6403 6404 6405 0
-6393 6391 6392 6394 6395 6396 6397 6398 6399 6400 6401 6402 6403 6404 6405 0
-6394 6391 6392 6393 6395 6396 6397 6398 6399 6400 6401 6402 6403 6404 6405 0
-6395 6391 6392 6393 6394 6396 6397 6398 6399 6400 6401 6402 6403 6404 6405 0
-6396 6391 6392 6393 6394 6395 6397 6398 6399 6400 6401 6402 6403 6404 6405 0
-6397 6391 6392 6393 6394 6395 6396 6398 6399 6400 6401 6402 6403 6404 6405 0
-6398 6391 6392 6393 6394 6395 6396 6397 6399 6400 6401 6402 6403 6404 6405 0
-6399 6391 6392 6393 6394 6395 6396 6397 6398 6400 6401 6402 6403 6404 6405 0
-6400 6391 6392 6393 6394 6395 6396 6397 6398 6399 6401 6402 6403 6404 6405 0
-6401 6391 6392 6393 6394 6395 6396 6397 6398 6399 6400 6402 6403 6404 6405 0
-6402 6391 6392 6393 6394 6395 6396 6397 6398 6399 6400 6401 6403 6404 6405 0
-6403 6391 6392 6393 6394 6395 6396 6397 6398 6399 6400 6401 6402 6404 6405 0
-6404 6391 6392 6393 6394 6395 6396 6397 6398 6399 6400 6401 6402 6403 6405 0
-6405 6391 6392 6393 6394 6395 6396 6397 6398 6399 6400 6401 6402 6403 6404 0
6406 -8 -22 -68 -84 0
-6406 8 0
-6406 22 0
-6406 68 0
-6406 84 0
6407 -11 -22 -59 -84 0
-6407 11 0
-6407 22 0
-6407 59 0
-6407 84 0
6408 -14 -22 -56 -84 0
-6408 14 0
-6408 22 0
-6408 56 0
-6408 84 0
-6406 6407 6408 0
-6407 6406 6408 0
-6408 6406 6407 0
6409 -8 -22 -69 -82 0
-6409 8 0
-6409 22 0
-6409 69 0
-6409 82 0
6410 -8 -34 -52 -69 0
-6410 8 0
-6410 34 0
-6410 52 0
-6410 69 0
6411 -8 -37 -49 -69 0
-6411 8 0
-6411 37 0
-6411 49 0
-6411 69 0
-6409 6410 6411 0
-6410 6409 6411 0
-6411 6409 6410 0
6412 -8 -22 -69 -83 0
-6412 8 0
-6412 22 0
-6412 69 0
-6412 83 0
6413 -17 -22 -65 -69 0
-6413 17 0
-6413 22 0
-6413 65 0
-6413 69 0
6414 -20 -22 -62 -69 0
-6414 20 0
-6414 22 0
-6414 62 0
-6414 69 0
-6412 6413 6414 0
-6413 6412 6414 0
-6414 6412 6413 0
6415 -8 -22 -69 -84 0
-6415 8 0
-6415 22 0
-6415 69 0
-6415 84 0
6416 -8 -22 -72 -81 0
-6416 8 0
-6416 22 0
-6416 72 0
-6416 81 0
6417 -8 -22 -75 -78 0
-6417 8 0
-6417 22 0
-6417 75 0
-6417 78 0
-6415 6416 6417 0
-6416 6415 6417 0
-6417 6415 6416 0
6418 -8 -24 -67 -82 0
-6418 8 0
-6418 24 0
-6418 67 0
-6418 82 0
6419 -8 -24 -70 -79 0
-6419 8 0
-6419 24 0
-6419 70 0
-6419 79 0
6420 -8 -24 -73 -76 0
-6420 8 0
-6420 24 0
-6420 73 0
-6420 76 0
-6418 6419 6420 0
-6419 6418 6420 0
-6420 6418 6419 0
6421 -8 -24 -67 -83 0
-6421 8 0
-6421 24 0
-6421 67 0
-6421 83 0
6422 -17 -24 -65 -67 0
-6422 17 0
-6422 24 0
-6422 65 0
-6422 67 0
6423 -20 -24 -62 -67 0
-6423 20 0
-6423 24 0
-6423 62 0
-6423 67 0
-6421 6422 6423 0
-6422 6421 6423 0
-6423 6421 6422 0
6424 -8 -24 -67 -84 0
-6424 8 0
-6424 24 0
-6424 67 0
-6424 84 0
6425 -8 -36 -54 -67 0
-6425 8 0
-6425 36 0
-6425 54 0
-6425 67 0
6426 -8 -39 -51 -67 0
-6426 8 0
-6426 39 0
-6426 51 0
-6426 67 0
-6424 6425 6426 0
-6425 6424 6426 0
-6426 6424 6425 0
6427 -8 -24 -68 -82 0
-6427 8 0
-6427 24 0
-6427 68 0
-6427 82 0
6428 -11 -24 -59 -82 0
-6428 11 0
-6428 24 0
-6428 59 0
-6428 82 0
6429 -14 -24 -56 -82 0
-6429 14 0
-6429 24 0
-6429 56 0
-6429 82 0
-6427 6428 6429 0
-6428 6427 6429 0
-6429 6427 6428 0
6430 -8 -24 -68 -83 0
-6430 8 0
-6430 24 0
-6430 68 0
-6430 83 0
6431 -8 -24 -71 -80 0
-6431 8 0
-6431 24 0
-6431 71 0
-6431 80 0
6432 -8 -24 -74 -77 0
-6432 8 0
-6432 24 0
-6432 74 0
-6432 77 0
6433 -11 -24 -59 -83 0
-6433 11 0
-6433 24 0
-6433 59 0
-6433 83 0
6434 -11 -24 -62 -80 0
-6434 11 0
-6434 24 0
-6434 62 0
-6434 80 0
6435 -11 -24 -65 -77 0
-6435 11 0
-6435 24 0
-6435 65 0
-6435 77 0
6436 -14 -24 -56 -83 0
-6436 14 0
-6436 24 0
-6436 56 0
-6436 83 0
6437 -14 -24 -62 -74 0
-6437 14 0
-6437 24 0
-6437 62 0
-6437 74 0
6438 -14 -24 -65 -71 0
-6438 14 0
-6438 24 0
-6438 65 0
-6438 71 0
6439 -17 -24 -56 -80 0
-6439 17 0
-6439 24 0
-6439 56 0
-6439 80 0
6440 -17 -24 -59 -74 0
-6440 17 0
-6440 24 0
-6440 59 0
-6440 74 0
6441 -17 -24 -65 -68 0
-6441 17 0
-6441 24 0
-6441 65 0
-6441 68 0
6442 -20 -24 -56 -77 0
-6442 20 0
-6442 24 0
-6442 56 0
-6442 77 0
6443 -20 -24 -59 -71 0
-6443 20 0
-6443 24 0
-6443 59 0
-6443 71 0
6444 -20 -24 -62 -68 0
-6444 20 0
-6444 24 0
-6444 62 0
-6444 68 0
-6430 6431 6432 6433 6434 6435 6436 6437 6438 6439 6440 6441 6442 6443 6444 0
-6431 6430 6432 6433 6434 6435 6436 6437 6438 6439 6440 6441 6442 6443 6444 0
-6432 6430 6431 6433 6434 6435 6436 6437 6438 6439 6440 6441 6442 6443 6444 0
-6433 6430 6431 6432 6434 6435 6436 6437 6438 6439 6440 6441 6442 6443 6444 0
-6434 6430 6431 6432 6433 6435 6436 6437 6438 6439 6440 6441 6442 6443 6444 0
-6435 6430 6431 6432 6433 6434 6436 6437 6438 6439 6440 6441 6442 6443 6444 0
-6436 6430 6431 6432 6433 6434 6435 6437 6438 6439 6440 6441 6442 6443 6444 0
-6437 6430 6431 6432 6433 6434 6435 6436 6438 6439 6440 6441 6442 6443 6444 0
-6438 6430 6431 6432 6433 6434 6435 6436 6437 6439 6440 6441 6442 6443 6444 0
-6439 6430 6431 6432 6433 6434 6435 6436 6437 6438 6440 6441 6442 6443 6444 0
-6440 6430 6431 6432 6433 6434 6435 6436 6437 6438 6439 6441 6442 6443 6444 0
-6441 6430 6431 6432 6433 6434 6435 6436 6437 6438 6439 6440 6442 6443 6444 0
-6442 6430 6431 6432 6433 6434 6435 6436 6437 6438 6439 6440 6441 6443 6444 0
-6443 6430 6431 6432 6433 6434 6435 6436 6437 6438 6439 6440 6441 6442 6444 0
-6444 6430 6431 6432 6433 6434 6435 6436 6437 6438 6439 6440 6441 6442 6443 0
6445 -8 -24 -68 -84 0
-6445 8 0
-6445 24 0
-6445 68 0
-6445 84 0
6446 -8 -36 -54 -68 0
-6446 8 0
-6446 36 0
-6446 54 0
-6446 68 0
6447 -8 -39 -51 -68 0
-6447 8 0
-6447 39 0
-6447 51 0
-6447 68 0
6448 -11 -24 -59 -84 0
-6448 11 0
-6448 24 0
-6448 59 0
-6448 84 0
6449 -11 -36 -54 -59 0
-6449 11 0
-6449 36 0
-6449 54 0
-6449 59 0
6450 -11 -39 -51 -59 0
-6450 11 0
-6450 39 0
-6450 51 0
-6450 59 0
6451 -14 -24 -56 -84 0
-6451 14 0
-6451 24 0
-6451 56 0
-6451 84 0
6452 -14 -36 -54 -56 0
-6452 14 0
-6452 36 0
-6452 54 0
-6452 56 0
6453 -14 -39 -51 -56 0
-6453 14 0
-6453 39 0
-6453 51 0
-6453 56 0
-6445 6446 6447 6448 6449 6450 6451 6452 6453 0
-6446 6445 6447 6448 6449 6450 6451 6452 6453 0
-6447 6445 6446 6448 6449 6450 6451 6452 6453 0
-6448 6445 6446 6447 6449 6450 6451 6452 6453 0
-6449 6445 6446 6447 6448 6450 6451 6452 6453 0
-6450 6445 6446 6447 6448 6449 6451 6452 6453 0
-6451 6445 6446 6447 6448 6449 6450 6452 6453 0
-6452 6445 6446 6447 6448 6449 6450 6451 6453 0
-6453 6445 6446 6447 6448 6449 6450 6451 6452 0
6454 -8 -24 -69 -82 0
-6454 8 0
-6454 24 0
-6454 69 0
-6454 82 0
6455 -8 -30 -48 -82 0
-6455 8 0
-6455 30 0
-6455 48 0
-6455 82 0
6456 -8 -33 -45 -82 0
-6456 8 0
-6456 33 0
-6456 45 0
-6456 82 0
-6454 6455 6456 0
-6455 6454 6456 0
-6456 6454 6455 0
6457 -8 -24 -69 -83 0
-6457 8 0
-6457 24 0
-6457 69 0
-6457 83 0
6458 -8 -30 -48 -83 0
-6458 8 0
-6458 30 0
-6458 48 0
-6458 83 0
6459 -8 -33 -45 -83 0
-6459 8 0
-6459 33 0
-6459 45 0
-6459 83 0
6460 -17 -24 -65 -69 0
-6460 17 0
-6460 24 0
-6460 65 0
-6460 69 0
6461 -17 -30 -48 -65 0
-6461 17 0
-6461 30 0
-6461 48 0
-6461 65 0
6462 -17 -33 -45 -65 0
-6462 17 0
-6462 33 0
-6462 45 0
-6462 65 0
6463 -20 -24 -62 -69 0
-6463 20 0
-6463 24 0
-6463 62 0
-6463 69 0
6464 -20 -30 -48 -62 0
-6464 20 0
-6464 30 0
-6464 48 0
-6464 62 0
6465 -20 -33 -45 -62 0
-6465 20 0
-6465 33 0
-6465 45 0
-6465 62 0
-6457 6458 6459 6460 6461 6462 6463 6464 6465 0
-6458 6457 6459 6460 6461 6462 6463 6464 6465 0
-6459 6457 6458 6460 6461 6462 6463 6464 6465 0
-6460 6457 6458 6459 6461 6462 6463 6464 6465 0
-6461 6457 6458 6459 6460 6462 6463 6464 6465 0
-6462 6457 6458 6459 6460 6461 6463 6464 6465 0
-6463 6457 6458 6459 6460 6461 6462 6464 6465 0
-6464 6457 6458 6459 6460 6461 6462 6463 6465 0
-6465 6457 6458 6459 6460 6461 6462 6463 6464 0
6466 -8 -24 -69 -84 0
-6466 8 0
-6466 24 0
-6466 69 0
-6466 84 0
6467 -8 -24 -72 -81 0
-6467 8 0
-6467 24 0
-6467 72 0
-6467 81 0
6468 -8 -24 -75 -78 0
-6468 8 0
-6468 24 0
-6468 75 0
-6468 78 0
6469 -8 -30 -48 -84 0
-6469 8 0
-6469 30 0
-6469 48 0
-6469 84 0
6470 -8 -30 -51 -81 0
-6470 8 0
-6470 30 0
-6470 51 0
-6470 81 0
6471 -8 -30 -54 -78 0
-6471 8 0
-6471 30 0
-6471 54 0
-6471 78 0
6472 -8 -33 -45 -84 0
-6472 8 0
-6472 33 0
-6472 45 0
-6472 84 0
6473 -8 -33 -51 -75 0
-6473 8 0
-6473 33 0
-6473 51 0
-6473 75 0
6474 -8 -33 -54 -72 0
-6474 8 0
-6474 33 0
-6474 54 0
-6474 72 0
6475 -8 -36 -45 -81 0
-6475 8 0
-6475 36 0
-6475 45 0
-6475 81 0
6476 -8 -36 -48 -75 0
-6476 8 0
-6476 36 0
-6476 48 0
-6476 75 0
6477 -8 -36 -54 -69 0
-6477 8 0
-6477 36 0
-6477 54 0
-6477 69 0
6478 -8 -39 -45 -78 0
-6478 8 0
-6478 39 0
-6478 45 0
-6478 78 0
6479 -8 -39 -48 -72 0
-6479 8 0
-6479 39 0
-6479 48 0
-6479 72 0
6480 -8 -39 -51 -69 0
-6480 8 0
-6480 39 0
-6480 51 0
-6480 69 0
-6466 6467 6468 6469 6470 6471 6472 6473 6474 6475 6476 6477 6478 6479 6480 0
-6467 6466 6468 6469 6470 6471 6472 6473 6474 6475 6476 6477 6478 6479 6480 0
-6468 6466 6467 6469 6470 6471 6472 6473 6474 6475 6476 6477 6478 6479 6480 0
-6469 6466 6467 6468 6470 6471 6472 6473 6474 6475 6476 6477 6478 6479 6480 0
-6470 6466 6467 6468 6469 6471 6472 6473 6474 6475 6476 6477 6478 6479 6480 0
-6471 6466 6467 6468 6469 6470 6472 6473 6474 6475 6476 6477 6478 6479 6480 0
-6472 6466 6467 6468 6469 6470 6471 6473 6474 6475 6476 6477 6478 6479 6480 0
-6473 6466 6467 6468 6469 6470 6471 6472 6474 6475 6476 6477 6478 6479 6480 0
-6474 6466 6467 6468 6469 6470 6471 6472 6473 6475 6476 6477 6478 6479 6480 0
-6475 6466 6467 6468 6469 6470 6471 6472 6473 6474 6476 6477 6478 6479 6480 0
-6476 6466 6467 6468 6469 6470 6471 6472 6473 6474 6475 6477 6478 6479 6480 0
-6477 6466 6467 6468 6469 6470 6471 6472 6473 6474 6475 6476 6478 6479 6480 0
-6478 6466 6467 6468 6469 6470 6471 6472 6473 6474 6475 6476 6477 6479 6480 0
-6479 6466 6467 6468 6469 6470 6471 6472 6473 6474 6475 6476 6477 6478 6480 0
-6480 6466 6467 6468 6469 6470 6471 6472 6473 6474 6475 6476 6477 6478 6479 0
6481 -9 -22 -67 -82 0
-6481 9 0
-6481 22 0
-6481 67 0
-6481 82 0
6482 -9 -22 -70 -79 0
-6482 9 0
-6482 22 0
-6482 70 0
-6482 79 0
6483 -9 -22 -73 -76 0
-6483 9 0
-6483 22 0
-6483 73 0
-6483 76 0
6484 -9 -28 -46 -82 0
-6484 9 0
-6484 28 0
-6484 46 0
-6484 82 0
6485 -9 -28 -49 -79 0
-6485 9 0
-6485 28 0
-6485 49 0
-6485 79 0
6486 -9 -28 -52 -76 0
-6486 9 0
-6486 28 0
-6486 52 0
-6486 76 0
6487 -9 -31 -43 -82 0
-6487 9 0
-6487 31 0
-6487 43 0
-6487 82 0
6488 -9 -31 -49 -73 0
-6488 9 0
-6488 31 0
-6488 49 0
-6488 73 0
6489 -9 -31 -52 -70 0
-6489 9 0
-6489 31 0
-6489 52 0
-6489 70 0
6490 -9 -34 -43 -79 0
-6490 9 0
-6490 34 0
-6490 43 0
-6490 79 0
6491 -9 -34 -46 -73 0
-6491 9 0
-6491 34 0
-6491 46 0
-6491 73 0
6492 -9 -34 -52 -67 0
-6492 9 0
-6492 34 0
-6492 52 0
-6492 67 0
6493 -9 -37 -43 -76 0
-6493 9 0
-6493 37 0
-6493 43 0
-6493 76 0
6494 -9 -37 -46 -70 0
-6494 9 0
-6494 37 0
-6494 46 0
-6494 70 0
6495 -9 -37 -49 -67 0
-6495 9 0
-6495 37 0
-6495 49 0
-6495 67 0
-6481 6482 6483 6484 6485 6486 6487 6488 6489 6490 6491 6492 6493 6494 6495 0
-6482 6481 6483 6484 6485 6486 6487 6488 6489 6490 6491 6492 6493 6494 6495 0
-6483 6481 6482 6484 6485 6486 6487 6488 6489 6490 6491 6492 6493 6494 6495 0
-6484 6481 6482 6483 6485 6486 6487 6488 6489 6490 6491 6492 6493 6494 6495 0
-6485 6481 6482 6483 6484 6486 6487 6488 6489 6490 6491 6492 6493 6494 6495 0
-6486 6481 6482 6483 6484 6485 6487 6488 6489 6490 6491 6492 6493 6494 6495 0
-6487 6481 6482 6483 6484 6485 6486 6488 6489 6490 6491 6492 6493 6494 6495 0
-6488 6481 6482 6483 6484 6485 6486 6487 6489 6490 6491 6492 6493 6494 6495 0
-6489 6481 6482 6483 6484 6485 6486 6487 6488 6490 6491 6492 6493 6494 6495 0
-6490 6481 6482 6483 6484 6485 6486 6487 6488 6489 6491 6492 6493 6494 6495 0
-6491 6481 6482 6483 6484 6485 6486 6487 6488 6489 6490 6492 6493 6494 6495 0
-6492 6481 6482 6483 6484 6485 6486 6487 6488 6489 6490 6491 6493 6494 6495 0
-6493 6481 6482 6483 6484 6485 6486 6487 6488 6489 6490 6491 6492 6494 6495 0
-6494 6481 6482 6483 6484 6485 6486 6487 6488 6489 6490 6491 6492 6493 6495 0
-6495 6481 6482 6483 6484 6485 6486 6487 6488 6489 6490 6491 6492 6493 6494 0
6496 -9 -22 -67 -83 0
-6496 9 0
-6496 22 0
-6496 67 0
-6496 83 0
6497 -9 -28 -46 -83 0
-6497 9 0
-6497 28 0
-6497 46 0
-6497 83 0
6498 -9 -31 -43 -83 0
-6498 9 0
-6498 31 0
-6498 43 0
-6498 83 0
-6496 6497 6498 0
-6497 6496 6498 0
-6498 6496 6497 0
6499 -9 -22 -67 -84 0
-6499 9 0
-6499 22 0
-6499 67 0
-6499 84 0
6500 -9 -28 -46 -84 0
-6500 9 0
-6500 28 0
-6500 46 0
-6500 84 0
6501 -9 -31 -43 -84 0
-6501 9 0
-6501 31 0
-6501 43 0
-6501 84 0
6502 -18 -22 -66 -67 0
-6502 18 0
-6502 22 0
-6502 66 0
-6502 67 0
6503 -18 -28 -46 -66 0
-6503 18 0
-6503 28 0
-6503 46 0
-6503 66 0
6504 -18 -31 -43 -66 0
-6504 18 0
-6504 31 0
-6504 43 0
-6504 66 0
6505 -21 -22 -63 -67 0
-6505 21 0
-6505 22 0
-6505 63 0
-6505 67 0
6506 -21 -28 -46 -63 0
-6506 21 0
-6506 28 0
-6506 46 0
-6506 63 0
6507 -21 -31 -43 -63 0
-6507 21 0
-6507 31 0
-6507 43 0
-6507 63 0
-6499 6500 6501 6502 6503 6504 6505 6506 6507 0
-6500 6499 6501 6502 6503 6504 6505 6506 6507 0
-6501 6499 6500 6502 6503 6504 6505 6506 6507 0
-6502 6499 6500 6501 6503 6504 6505 6506 6507 0
-6503 6499 6500 6501 6502 6504 6505 6506 6507 0
-6504 6499 6500 6501 6502 6503 6505 6506 6507 0
-6505 6499 6500 6501 6502 6503 6504 6506 6507 0
-6506 6499 6500 6501 6502 6503 6504 6505 6507 0
-6507 6499 6500 6501 6502 6503 6504 6505 6506 0
6508 -9 -22 -68 -82 0
-6508 9 0
-6508 22 0
-6508 68 0
-6508 82 0
6509 -9 -34 -52 -68 0
-6509 9 0
-6509 34 0
-6509 52 0
-6509 68 0
6510 -9 -37 -49 -68 0
-6510 9 0
-6510 37 0
-6510 49 0
-6510 68 0
-6508 6509 6510 0
-6509 6508 6510 0
-6510 6508 6509 0
6511 -9 -22 -68 -83 0
-6511 9 0
-6511 22 0
-6511 68 0
-6511 83 0
6512 -9 -22 -71 -80 0
-6512 9 0
-6512 22 0
-6512 71 0
-6512 80 0
6513 -9 -22 -74 -77 0
-6513 9 0
-6513 22 0
-6513 74 0
-6513 77 0
-6511 6512 6513 0
-6512 6511 6513 0
-6513 6511 6512 0
6514 -9 -22 -68 -84 0
-6514 9 0
-6514 22 0
-6514 68 0
-6514 84 0
6515 -18 -22 -66 -68 0
-6515 18 0
-6515 22 0
-6515 66 0
-6515 68 0
6516 -21 -22 -63 -68 0
-6516 21 0
-6516 22 0
-6516 63 0
-6516 68 0
-6514 6515 6516 0
-6515 6514 6516 0
-6516 6514 6515 0
6517 -9 -22 -69 -82 0
-6517 9 0
-6517 22 0
-6517 69 0
-6517 82 0
6518 -9 -34 -52 -69 0
-6518 9 0
-6518 34 0
-6518 52 0
-6518 69 0
6519 -9 -37 -49 -69 0
-6519 9 0
-6519 37 0
-6519 49 0
-6519 69 0
6520 -12 -22 -60 -82 0
-6520 12 0
-6520 22 0
-6520 60 0
-6520 82 0
6521 -12 -34 -52 -60 0
-6521 12 0
-6521 34 0
-6521 52 0
-6521 60 0
6522 -12 -37 -49 -60 0
-6522 12 0
-6522 37 0
-6522 49 0
-6522 60 0
6523 -15 -22 -57 -82 0
-6523 15 0
-6523 22 0
-6523 57 0
-6523 82 0
6524 -15 -34 -52 -57 0
-6524 15 0
-6524 34 0
-6524 52 0
-6524 57 0
6525 -15 -37 -49 -57 0
-6525 15 0
-6525 37 0
-6525 49 0
-6525 57 0
-6517 6518 6519 6520 6521 6522 6523 6524 6525 0
-6518 6517 6519 6520 6521 6522 6523 6524 6525 0
-6519 6517 6518 6520 6521 6522 6523 6524 6525 0
-6520 6517 6518 6519 6521 6522 6523 6524 6525 0
-6521 6517 6518 6519 6520 6522 6523 6524 6525 0
-6522 6517 6518 6519 6520 6521 6523 6524 6525 0
-6523 6517 6518 6519 6520 6521 6522 6524 6525 0
-6524 6517 6518 6519 6520 6521 6522 6523 6525 0
-6525 6517 6518 6519 6520 6521 6522 6523 6524 0
6526 -9 -22 -69 -83 0
-6526 9 0
-6526 22 0
-6526 69 0
-6526 83 0
6527 -12 -22 -60 -83 0
-6527 12 0
-6527 22 0
-6527 60 0
-6527 83 0
6528 -15 -22 -57 -83 0
-6528 15 0
-6528 22 0
-6528 57 0
-6528 83 0
-6526 6527 6528 0
-6527 6526 6528 0
-6528 6526 6527 0
6529 -9 -22 -69 -84 0
-6529 9 0
-6529 22 0
-6529 69 0
-6529 84 0
6530 -9 -22 -72 -81 0
-6530 9 0
-6530 22 0
-6530 72 0
-6530 81 0
6531 -9 -22 -75 -78 0
-6531 9 0
-6531 22 0
-6531 75 0
-6531 78 0
6532 -12 -22 -60 -84 0
-6532 12 0
-6532 22 0
-6532 60 0
-6532 84 0
6533 -12 -22 -63 -81 0
-6533 12 0
-6533 22 0
-6533 63 0
-6533 81 0
6534 -12 -22 -66 -78 0
-6534 12 0
-6534 22 0
-6534 66 0
-6534 78 0
6535 -15 -22 -57 -84 0
-6535 15 0
-6535 22 0
-6535 57 0
-6535 84 0
6536 -15 -22 -63 -75 0
-6536 15 0
-6536 22 0
-6536 63 0
-6536 75 0
6537 -15 -22 -66 -72 0
-6537 15 0
-6537 22 0
-6537 66 0
-6537 72 0
6538 -18 -22 -57 -81 0
-6538 18 0
-6538 22 0
-6538 57 0
-6538 81 0
6539 -18 -22 -60 -75 0
-6539 18 0
-6539 22 0
-6539 60 0
-6539 75 0
6540 -18 -22 -66 -69 0
-6540 18 0
-6540 22 0
-6540 66 0
-6540 69 0
6541 -21 -22 -57 -78 0
-6541 21 0
-6541 22 0
-6541 57 0
-6541 78 0
6542 -21 -22 -60 -72 0
-6542 21 0
-6542 22 0
-6542 60 0
-6542 72 0
6543 -21 -22 -63 -69 0
-6543 21 0
-6543 22 0
-6543 63 0
-6543 69 0
-6529 6530 6531 6532 6533 6534 6535 6536 6537 6538 6539 6540 6541 6542 6543 0
-6530 6529 6531 6532 6533 6534 6535 6536 6537 6538 6539 6540 6541 6542 6543 0
-6531 6529 6530 6532 6533 6534 6535 6536 6537 6538 6539 6540 6541 6542 6543 0
-6532 6529 6530 6531 6533 6534 6535 6536 6537 6538 6539 6540 6541 6542 6543 0
-6533 6529 6530 6531 6532 6534 6535 6536 6537 6538 6539 6540 6541 6542 6543 0
-6534 6529 6530 6531 6532 6533 6535 6536 6537 6538 6539 6540 6541 6542 6543 0
-6535 6529 6530 6531 6532 6533 6534 6536 6537 6538 6539 6540 6541 6542 6543 0
-6536 6529 6530 6531 6532 6533 6534 6535 6537 6538 6539 6540 6541 6542 6543 0
-6537 6529 6530 6531 6532 6533 6534 6535 6536 6538 6539 6540 6541 6542 6543 0
-6538 6529 6530 6531 6532 6533 6534 6535 6536 6537 6539 6540 6541 6542 6543 0
-6539 6529 6530 6531 6532 6533 6534 6535 6536 6537 6538 6540 6541 6542 6543 0
-6540 6529 6530 6531 6532 6533 6534 6535 6536 6537 6538 6539 6541 6542 6543 0
-6541 6529 6530 6531 6532 6533 6534 6535 6536 6537 6538 6539 6540 6542 6543 0
-6542 6529 6530 6531 6532 6533 6534 6535 6536 6537 6538 6539 6540 6541 6543 0
-6543 6529 6530 6531 6532 6533 6534 6535 6536 6537 6538 6539 6540 6541 6542 0
6544 -9 -23 -67 -82 0
-6544 9 0
-6544 23 0
-6544 67 0
-6544 82 0
6545 -9 -23 -70 -79 0
-6545 9 0
-6545 23 0
-6545 70 0
-6545 79 0
6546 -9 -23 -73 -76 0
-6546 9 0
-6546 23 0
-6546 73 0
-6546 76 0
-6544 6545 6546 0
-6545 6544 6546 0
-6546 6544 6545 0
6547 -9 -23 -67 -83 0
-6547 9 0
-6547 23 0
-6547 67 0
-6547 83 0
6548 -9 -35 -53 -67 0
-6548 9 0
-6548 35 0
-6548 53 0
-6548 67 0
6549 -9 -38 -50 -67 0
-6549 9 0
-6549 38 0
-6549 50 0
-6549 67 0
-6547 6548 6549 0
-6548 6547 6549 0
-6549 6547 6548 0
6550 -9 -23 -67 -84 0
-6550 9 0
-6550 23 0
-6550 67 0
-6550 84 0
6551 -18 -23 -66 -67 0
-6551 18 0
-6551 23 0
-6551 66 0
-6551 67 0
6552 -21 -23 -63 -67 0
-6552 21 0
-6552 23 0
-6552 63 0
-6552 67 0
-6550 6551 6552 0
-6551 6550 6552 0
-6552 6550 6551 0
6553 -9 -23 -68 -82 0
-6553 9 0
-6553 23 0
-6553 68 0
-6553 82 0
6554 -9 -29 -47 -82 0
-6554 9 0
-6554 29 0
-6554 47 0
-6554 82 0
6555 -9 -32 -44 -82 0
-6555 9 0
-6555 32 0
-6555 44 0
-6555 82 0
-6553 6554 6555 0
-6554 6553 6555 0
-6555 6553 6554 0
6556 -9 -23 -68 -83 0
-6556 9 0
-6556 23 0
-6556 68 0
-6556 83 0
6557 -9 -23 -71 -80 0
-6557 9 0
-6557 23 0
-6557 71 0
-6557 80 0
6558 -9 -23 -74 -77 0
-6558 9 0
-6558 23 0
-6558 74 0
-6558 77 0
6559 -9 -29 -47 -83 0
-6559 9 0
-6559 29 0
-6559 47 0
-6559 83 0
6560 -9 -29 -50 -80 0
-6560 9 0
-6560 29 0
-6560 50 0
-6560 80 0
6561 -9 -29 -53 -77 0
-6561 9 0
-6561 29 0
-6561 53 0
-6561 77 0
6562 -9 -32 -44 -83 0
-6562 9 0
-6562 32 0
-6562 44 0
-6562 83 0
6563 -9 -32 -50 -74 0
-6563 9 0
-6563 32 0
-6563 50 0
-6563 74 0
6564 -9 -32 -53 -71 0
-6564 9 0
-6564 32 0
-6564 53 0
-6564 71 0
6565 -9 -35 -44 -80 0
-6565 9 0
-6565 35 0
-6565 44 0
-6565 80 0
6566 -9 -35 -47 -74 0
-6566 9 0
-6566 35 0
-6566 47 0
-6566 74 0
6567 -9 -35 -53 -68 0
-6567 9 0
-6567 35 0
-6567 53 0
-6567 68 0
6568 -9 -38 -44 -77 0
-6568 9 0
-6568 38 0
-6568 44 0
-6568 77 0
6569 -9 -38 -47 -71 0
-6569 9 0
-6569 38 0
-6569 47 0
-6569 71 0
6570 -9 -38 -50 -68 0
-6570 9 0
-6570 38 0
-6570 50 0
-6570 68 0
-6556 6557 6558 6559 6560 6561 6562 6563 6564 6565 6566 6567 6568 6569 6570 0
-6557 6556 6558 6559 6560 6561 6562 6563 6564 6565 6566 6567 6568 6569 6570 0
-6558 6556 6557 6559 6560 6561 6562 6563 6564 6565 6566 6567 6568 6569 6570 0
-6559 6556 6557 6558 6560 6561 6562 6563 6564 6565 6566 6567 6568 6569 6570 0
-6560 6556 6557 6558 6559 6561 6562 6563 6564 6565 6566 6567 6568 6569 6570 0
-6561 6556 6557 6558 6559 6560 6562 6563 6564 6565 6566 6567 6568 6569 6570 0
-6562 6556 6557 6558 6559 6560 6561 6563 6564 6565 6566 6567 6568 6569 6570 0
-6563 6556 6557 6558 6559 6560 6561 6562 6564 6565 6566 6567 6568 6569 6570 0
-6564 6556 6557 6558 6559 6560 6561 6562 6563 6565 6566 6567 6568 6569 6570 0
-6565 6556 6557 6558 6559 6560 6561 6562 6563 6564 6566 6567 6568 6569 6570 0
-6566 6556 6557 6558 6559 6560 6561 6562 6563 6564 6565 6567 6568 6569 6570 0
-6567 6556 6557 6558 6559 6560 6561 6562 6563 6564 6565 6566 6568 6569 6570 0
-6568 6556 6557 6558 6559 6560 6561 6562 6563 6564 6565 6566 6567 6569 6570 0
-6569 6556 6557 6558 6559 6560 6561 6562 6563 6564 6565 6566 6567 6568 6570 0
-6570 6556 6557 6558 6559 6560 6561 6562 6563 6564 6565 6566 6567 6568 6569 0
6571 -9 -23 -68 -84 0
-6571 9 0
-6571 23 0
-6571 68 0
-6571 84 0
6572 -9 -29 -47 -84 0
-6572 9 0
-6572 29 0
-6572 47 0
-6572 84 0
6573 -9 -32 -44 -84 0
-6573 9 0
-6573 32 0
-6573 44 0
-6573 84 0
6574 -18 -23 -66 -68 0
-6574 18 0
-6574 23 0
-6574 66 0
-6574 68 0
6575 -18 -29 -47 -66 0
-6575 18 0
-6575 29 0
-6575 47 0
-6575 66 0
6576 -18 -32 -44 -66 0
-6576 18 0
-6576 32 0
-6576 44 0
-6576 66 0
6577 -21 -23 -63 -68 0
-6577 21 0
-6577 23 0
-6577 63 0
-6577 68 0
6578 -21 -29 -47 -63 0
-6578 21 0
-6578 29 0
-6578 47 0
-6578 63 0
6579 -21 -32 -44 -63 0
-6579 21 0
-6579 32 0
-6579 44 0
-6579 63 0
-6571 6572 6573 6574 6575 6576 6577 6578 6579 0
-6572 6571 6573 6574 6575 6576 6577 6578 6579 0
-6573 6571 6572 6574 6575 6576 6577 6578 6579 0
-6574 6571 6572 6573 6575 6576 6577 6578 6579 0
-6575 6571 6572 6573 6574 6576 6577 6578 6579 0
-6576 6571 6572 6573 6574 6575 6577 6578 6579 0
-6577 6571 6572 6573 6574 6575 6576 6578 6579 0
-6578 6571 6572 6573 6574 6575 6576 6577 6579 0
-6579 6571 6572 6573 6574 6575 6576 6577 6578 0
6580 -9 -23 -69 -82 0
-6580 9 0
-6580 23 0
-6580 69 0
-6580 82 0
6581 -12 -23 -60 -82 0
-6581 12 0
-6581 23 0
-6581 60 0
-6581 82 0
6582 -15 -23 -57 -82 0
-6582 15 0
-6582 23 0
-6582 57 0
-6582 82 0
-6580 6581 6582 0
-6581 6580 6582 0
-6582 6580 6581 0
6583 -9 -23 -69 -83 0
-6583 9 0
-6583 23 0
-6583 69 0
-6583 83 0
6584 -9 -35 -53 -69 0
-6584 9 0
-6584 35 0
-6584 53 0
-6584 69 0
6585 -9 -38 -50 -69 0
-6585 9 0
-6585 38 0
-6585 50 0
-6585 69 0
6586 -12 -23 -60 -83 0
-6586 12 0
-6586 23 0
-6586 60 0
-6586 83 0
6587 -12 -35 -53 -60 0
-6587 12 0
-6587 35 0
-6587 53 0
-6587 60 0
6588 -12 -38 -50 -60 0
-6588 12 0
-6588 38 0
-6588 50 0
-6588 60 0
6589 -15 -23 -57 -83 0
-6589 15 0
-6589 23 0
-6589 57 0
-6589 83 0
6590 -15 -35 -53 -57 0
-6590 15 0
-6590 35 0
-6590 53 0
-6590 57 0
6591 -15 -38 -50 -57 0
-6591 15 0
-6591 38 0
-6591 50 0
-6591 57 0
-6583 6584 6585 6586 6587 6588 6589 6590 6591 0
-6584 6583 6585 6586 6587 6588 6589 6590 6591 0
-6585 6583 6584 6586 6587 6588 6589 6590 6591 0
-6586 6583 6584 6585 6587 6588 6589 6590 6591 0
-6587 6583 6584 6585 6586 6588 6589 6590 6591 0
-6588 6583 6584 6585 6586 6587 6589 6590 6591 0
-6589 6583 6584 6585 6586 6587 6588 6590 6591 0
-6590 6583 6584 6585 6586 6587 6588 6589 6591 0
-6591 6583 6584 6585 6586 6587 6588 6589 6590 0
6592 -9 -23 -69 -84 0
-6592 9 0
-6592 23 0
-6592 69 0
-6592 84 0
6593 -9 -23 -72 -81 0
-6593 9 0
-6593 23 0
-6593 72 0
-6593 81 0
6594 -9 -23 -75 -78 0
-6594 9 0
-6594 23 0
-6594 75 0
-6594 78 0
6595 -12 -23 -60 -84 0
-6595 12 0
-6595 23 0
-6595 60 0
-6595 84 0
6596 -12 -23 -63 -81 0
-6596 12 0
-6596 23 0
-6596 63 0
-6596 81 0
6597 -12 -23 -66 -78 0
-6597 12 0
-6597 23 0
-6597 66 0
-6597 78 0
6598 -15 -23 -57 -84 0
-6598 15 0
-6598 23 0
-6598 57 0
-6598 84 0
6599 -15 -23 -63 -75 0
-6599 15 0
-6599 23 0
-6599 63 0
-6599 75 0
6600 -15 -23 -66 -72 0
-6600 15 0
-6600 23 0
-6600 66 0
-6600 72 0
6601 -18 -23 -57 -81 0
-6601 18 0
-6601 23 0
-6601 57 0
-6601 81 0
6602 -18 -23 -60 -75 0
-6602 18 0
-6602 23 0
-6602 60 0
-6602 75 0
6603 -18 -23 -66 -69 0
-6603 18 0
-6603 23 0
-6603 66 0
-6603 69 0
6604 -21 -23 -57 -78 0
-6604 21 0
-6604 23 0
-6604 57 0
-6604 78 0
6605 -21 -23 -60 -72 0
-6605 21 0
-6605 23 0
-6605 60 0
-6605 72 0
6606 -21 -23 -63 -69 0
-6606 21 0
-6606 23 0
-6606 63 0
-6606 69 0
-6592 6593 6594 6595 6596 6597 6598 6599 6600 6601 6602 6603 6604 6605 6606 0
-6593 6592 6594 6595 6596 6597 6598 6599 6600 6601 6602 6603 6604 6605 6606 0
-6594 6592 6593 6595 6596 6597 6598 6599 6600 6601 6602 6603 6604 6605 6606 0
-6595 6592 6593 6594 6596 6597 6598 6599 6600 6601 6602 6603 6604 6605 6606 0
-6596 6592 6593 6594 6595 6597 6598 6599 6600 6601 6602 6603 6604 6605 6606 0
-6597 6592 6593 6594 6595 6596 6598 6599 6600 6601 6602 6603 6604 6605 6606 0
-6598 6592 6593 6594 6595 6596 6597 6599 6600 6601 6602 6603 6604 6605 6606 0
-6599 6592 6593 6594 6595 6596 6597 6598 6600 6601 6602 6603 6604 6605 6606 0
-6600 6592 6593 6594 6595 6596 6597 6598 6599 6601 6602 6603 6604 6605 6606 0
-6601 6592 6593 6594 6595 6596 6597 6598 6599 6600 6602 6603 6604 6605 6606 0
-6602 6592 6593 6594 6595 6596 6597 6598 6599 6600 6601 6603 6604 6605 6606 0
-6603 6592 6593 6594 6595 6596 6597 6598 6599 6600 6601 6602 6604 6605 6606 0
-6604 6592 6593 6594 6595 6596 6597 6598 6599 6600 6601 6602 6603 6605 6606 0
-6605 6592 6593 6594 6595 6596 6597 6598 6599 6600 6601 6602 6603 6604 6606 0
-6606 6592 6593 6594 6595 6596 6597 6598 6599 6600 6601 6602 6603 6604 6605 0
6607 -7 -23 -70 -80 0
-6607 7 0
-6607 23 0
-6607 70 0
-6607 80 0
6608 -7 -32 -53 -70 0
-6608 7 0
-6608 32 0
-6608 53 0
-6608 70 0
6609 -7 -38 -47 -70 0
-6609 7 0
-6609 38 0
-6609 47 0
-6609 70 0
6610 -10 -23 -61 -80 0
-6610 10 0
-6610 23 0
-6610 61 0
-6610 80 0
6611 -10 -32 -53 -61 0
-6611 10 0
-6611 32 0
-6611 53 0
-6611 61 0
6612 -10 -38 -47 -61 0
-6612 10 0
-6612 38 0
-6612 47 0
-6612 61 0
6613 -16 -23 -55 -80 0
-6613 16 0
-6613 23 0
-6613 55 0
-6613 80 0
6614 -16 -32 -53 -55 0
-6614 16 0
-6614 32 0
-6614 53 0
-6614 55 0
6615 -16 -38 -47 -55 0
-6615 16 0
-6615 38 0
-6615 47 0
-6615 55 0
-6607 6608 6609 6610 6611 6612 6613 6614 6615 0
-6608 6607 6609 6610 6611 6612 6613 6614 6615 0
-6609 6607 6608 6610 6611 6612 6613 6614 6615 0
-6610 6607 6608 6609 6611 6612 6613 6614 6615 0
-6611 6607 6608 6609 6610 6612 6613 6614 6615 0
-6612 6607 6608 6609 6610 6611 6613 6614 6615 0
-6613 6607 6608 6609 6610 6611 6612 6614 6615 0
-6614 6607 6608 6609 6610 6611 6612 6613 6615 0
-6615 6607 6608 6609 6610 6611 6612 6613 6614 0
6616 -7 -23 -70 -81 0
-6616 7 0
-6616 23 0
-6616 70 0
-6616 81 0
6617 -10 -23 -61 -81 0
-6617 10 0
-6617 23 0
-6617 61 0
-6617 81 0
6618 -16 -23 -55 -81 0
-6618 16 0
-6618 23 0
-6618 55 0
-6618 81 0
-6616 6617 6618 0
-6617 6616 6618 0
-6618 6616 6617 0
6619 -7 -23 -71 -79 0
-6619 7 0
-6619 23 0
-6619 71 0
-6619 79 0
6620 -7 -29 -50 -79 0
-6620 7 0
-6620 29 0
-6620 50 0
-6620 79 0
6621 -7 -35 -44 -79 0
-6621 7 0
-6621 35 0
-6621 44 0
-6621 79 0
6622 -13 -23 -64 -71 0
-6622 13 0
-6622 23 0
-6622 64 0
-6622 71 0
6623 -13 -29 -50 -64 0
-6623 13 0
-6623 29 0
-6623 50 0
-6623 64 0
6624 -13 -35 -44 -64 0
-6624 13 0
-6624 35 0
-6624 44 0
-6624 64 0
6625 -19 -23 -58 -71 0
-6625 19 0
-6625 23 0
-6625 58 0
-6625 71 0
6626 -19 -29 -50 -58 0
-6626 19 0
-6626 29 0
-6626 50 0
-6626 58 0
6627 -19 -35 -44 -58 0
-6627 19 0
-6627 35 0
-6627 44 0
-6627 58 0
-6619 6620 6621 6622 6623 6624 6625 6626 6627 0
-6620 6619 6621 6622 6623 6624 6625 6626 6627 0
-6621 6619 6620 6622 6623 6624 6625 6626 6627 0
-6622 6619 6620 6621 6623 6624 6625 6626 6627 0
-6623 6619 6620 6621 6622 6624 6625 6626 6627 0
-6624 6619 6620 6621 6622 6623 6625 6626 6627 0
-6625 6619 6620 6621 6622 6623 6624 6626 6627 0
-6626 6619 6620 6621 6622 6623 6624 6625 6627 0
-6627 6619 6620 6621 6622 6623 6624 6625 6626 0
6628 -7 -23 -71 -81 0
-6628 7 0
-6628 23 0
-6628 71 0
-6628 81 0
6629 -7 -29 -50 -81 0
-6629 7 0
-6629 29 0
-6629 50 0
-6629 81 0
6630 -7 -35 -44 -81 0
-6630 7 0
-6630 35 0
-6630 44 0
-6630 81 0
-6628 6629 6630 0
-6629 6628 6630 0
-6630 6628 6629 0
6631 -7 -23 -72 -79 0
-6631 7 0
-6631 23 0
-6631 72 0
-6631 79 0
6632 -13 -23 -64 -72 0
-6632 13 0
-6632 23 0
-6632 64 0
-6632 72 0
6633 -19 -23 -58 -72 0
-6633 19 0
-6633 23 0
-6633 58 0
-6633 72 0
-6631 6632 6633 0
-6632 6631 6633 0
-6633 6631 6632 0
6634 -7 -23 -72 -80 0
-6634 7 0
-6634 23 0
-6634 72 0
-6634 80 0
6635 -7 -32 -53 -72 0
-6635 7 0
-6635 32 0
-6635 53 0
-6635 72 0
6636 -7 -38 -47 -72 0
-6636 7 0
-6636 38 0
-6636 47 0
-6636 72 0
-6634 6635 6636 0
-6635 6634 6636 0
-6636 6634 6635 0
6637 -7 -24 -70 -80 0
-6637 7 0
-6637 24 0
-6637 70 0
-6637 80 0
6638 -10 -24 -61 -80 0
-6638 10 0
-6638 24 0
-6638 61 0
-6638 80 0
6639 -16 -24 -55 -80 0
-6639 16 0
-6639 24 0
-6639 55 0
-6639 80 0
-6637 6638 6639 0
-6638 6637 6639 0
-6639 6637 6638 0
6640 -7 -24 -70 -81 0
-6640 7 0
-6640 24 0
-6640 70 0
-6640 81 0
6641 -7 -33 -54 -70 0
-6641 7 0
-6641 33 0
-6641 54 0
-6641 70 0
6642 -7 -39 -48 -70 0
-6642 7 0
-6642 39 0
-6642 48 0
-6642 70 0
6643 -10 -24 -61 -81 0
-6643 10 0
-6643 24 0
-6643 61 0
-6643 81 0
6644 -10 -33 -54 -61 0
-6644 10 0
-6644 33 0
-6644 54 0
-6644 61 0
6645 -10 -39 -48 -61 0
-6645 10 0
-6645 39 0
-6645 48 0
-6645 61 0
6646 -16 -24 -55 -81 0
-6646 16 0
-6646 24 0
-6646 55 0
-6646 81 0
6647 -16 -33 -54 -55 0
-6647 16 0
-6647 33 0
-6647 54 0
-6647 55 0
6648 -16 -39 -48 -55 0
-6648 16 0
-6648 39 0
-6648 48 0
-6648 55 0
-6640 6641 6642 6643 6644 6645 6646 6647 6648 0
-6641 6640 6642 6643 6644 6645 6646 6647 6648 0
-6642 6640 6641 6643 6644 6645 6646 6647 6648 0
-6643 6640 6641 6642 6644 6645 6646 6647 6648 0
-6644 6640 6641 6642 6643 6645 6646 6647 6648 0
-6645 6640 6641 6642 6643 6644 6646 6647 6648 0
-6646 6640 6641 6642 6643 6644 6645 6647 6648 0
-6647 6640 6641 6642 6643 6644 6645 6646 6648 0
-6648 6640 6641 6642 6643 6644 6645 6646 6647 0
6649 -7 -24 -71 -79 0
-6649 7 0
-6649 24 0
-6649 71 0
-6649 79 0
6650 -13 -24 -64 -71 0
-6650 13 0
-6650 24 0
-6650 64 0
-6650 71 0
6651 -19 -24 -58 -71 0
-6651 19 0
-6651 24 0
-6651 58 0
-6651 71 0
-6649 6650 6651 0
-6650 6649 6651 0
-6651 6649 6650 0
6652 -7 -24 -71 -81 0
-6652 7 0
-6652 24 0
-6652 71 0
-6652 81 0
6653 -7 -33 -54 -71 0
-6653 7 0
-6653 33 0
-6653 54 0
-6653 71 0
6654 -7 -39 -48 -71 0
-6654 7 0
-6654 39 0
-6654 48 0
-6654 71 0
-6652 6653 6654 0
-6653 6652 6654 0
-6654 6652 6653 0
6655 -7 -24 -72 -79 0
-6655 7 0
-6655 24 0
-6655 72 0
-6655 79 0
6656 -7 -30 -51 -79 0
-6656 7 0
-6656 30 0
-6656 51 0
-6656 79 0
6657 -7 -36 -45 -79 0
-6657 7 0
-6657 36 0
-6657 45 0
-6657 79 0
6658 -13 -24 -64 -72 0
-6658 13 0
-6658 24 0
-6658 64 0
-6658 72 0
6659 -13 -30 -51 -64 0
-6659 13 0
-6659 30 0
-6659 51 0
-6659 64 0
6660 -13 -36 -45 -64 0
-6660 13 0
-6660 36 0
-6660 45 0
-6660 64 0
6661 -19 -24 -58 -72 0
-6661 19 0
-6661 24 0
-6661 58 0
-6661 72 0
6662 -19 -30 -51 -58 0
-6662 19 0
-6662 30 0
-6662 51 0
-6662 58 0
6663 -19 -36 -45 -58 0
-6663 19 0
-6663 36 0
-6663 45 0
-6663 58 0
-6655 6656 6657 6658 6659 6660 6661 6662 6663 0
-6656 6655 6657 6658 6659 6660 6661 6662 6663 0
-6657 6655 6656 6658 6659 6660 6661 6662 6663 0
-6658 6655 6656 6657 6659 6660 6661 6662 6663 0
-6659 6655 6656 6657 6658 6660 6661 6662 6663 0
-6660 6655 6656 6657 6658 6659 6661 6662 6663 0
-6661 6655 6656 6657 6658 6659 6660 6662 6663 0
-6662 6655 6656 6657 6658 6659 6660 6661 6663 0
-6663 6655 6656 6657 6658 6659 6660 6661 6662 0
6664 -7 -24 -72 -80 0
-6664 7 0
-6664 24 0
-6664 72 0
-6664 80 0
6665 -7 -30 -51 -80 0
-6665 7 0
-6665 30 0
-6665 51 0
-6665 80 0
6666 -7 -36 -45 -80 0
-6666 7 0
-6666 36 0
-6666 45 0
-6666 80 0
-6664 6665 6666 0
-6665 6664 6666 0
-6666 6664 6665 0
6667 -8 -22 -70 -80 0
-6667 8 0
-6667 22 0
-6667 70 0
-6667 80 0
6668 -8 -28 -49 -80 0
-6668 8 0
-6668 28 0
-6668 49 0
-6668 80 0
6669 -8 -34 -43 -80 0
-6669 8 0
-6669 34 0
-6669 43 0
-6669 80 0
6670 -14 -22 -65 -70 0
-6670 14 0
-6670 22 0
-6670 65 0
-6670 70 0
6671 -14 -28 -49 -65 0
-6671 14 0
-6671 28 0
-6671 49 0
-6671 65 0
6672 -14 -34 -43 -65 0
-6672 14 0
-6672 34 0
-6672 43 0
-6672 65 0
6673 -20 -22 -59 -70 0
-6673 20 0
-6673 22 0
-6673 59 0
-6673 70 0
6674 -20 -28 -49 -59 0
-6674 20 0
-6674 28 0
-6674 49 0
-6674 59 0
6675 -20 -34 -43 -59 0
-6675 20 0
-6675 34 0
-6675 43 0
-6675 59 0
-6667 6668 6669 6670 6671 6672 6673 6674 6675 0
-6668 6667 6669 6670 6671 6672 6673 6674 6675 0
-6669 6667 6668 6670 6671 6672 6673 6674 6675 0
-6670 6667 6668 6669 6671 6672 6673 6674 6675 0
-6671 6667 6668 6669 6670 6672 6673 6674 6675 0
-6672 6667 6668 6669 6670 6671 6673 6674 6675 0
-6673 6667 6668 6669 6670 6671 6672 6674 6675 0
-6674 6667 6668 6669 6670 6671 6672 6673 6675 0
-6675 6667 6668 6669 6670 6671 6672 6673 6674 0
6676 -8 -22 -70 -81 0
-6676 8 0
-6676 22 0
-6676 70 0
-6676 81 0
6677 -8 -28 -49 -81 0
-6677 8 0
-6677 28 0
-6677 49 0
-6677 81 0
6678 -8 -34 -43 -81 0
-6678 8 0
-6678 34 0
-6678 43 0
-6678 81 0
-6676 6677 6678 0
-6677 6676 6678 0
-6678 6676 6677 0
6679 -8 -22 -71 -79 0
-6679 8 0
-6679 22 0
-6679 71 0
-6679 79 0
6680 -8 -31 -52 -71 0
-6680 8 0
-6680 31 0
-6680 52 0
-6680 71 0
6681 -8 -37 -46 -71 0
-6681 8 0
-6681 37 0
-6681 46 0
-6681 71 0
6682 -11 -22 -62 -79 0
-6682 11 0
-6682 22 0
-6682 62 0
-6682 79 0
6683 -11 -31 -52 -62 0
-6683 11 0
-6683 31 0
-6683 52 0
-6683 62 0
6684 -11 -37 -46 -62 0
-6684 11 0
-6684 37 0
-6684 46 0
-6684 62 0
6685 -17 -22 -56 -79 0
-6685 17 0
-6685 22 0
-6685 56 0
-6685 79 0
6686 -17 -31 -52 -56 0
-6686 17 0
-6686 31 0
-6686 52 0
-6686 56 0
6687 -17 -37 -46 -56 0
-6687 17 0
-6687 37 0
-6687 46 0
-6687 56 0
-6679 6680 6681 6682 6683 6684 6685 6686 6687 0
-6680 6679 6681 6682 6683 6684 6685 6686 6687 0
-6681 6679 6680 6682 6683 6684 6685 6686 6687 0
-6682 6679 6680 6681 6683 6684 6685 6686 6687 0
-6683 6679 6680 6681 6682 6684 6685 6686 6687 0
-6684 6679 6680 6681 6682 6683 6685 6686 6687 0
-6685 6679 6680 6681 6682 6683 6684 6686 6687 0
-6686 6679 6680 6681 6682 6683 6684 6685 6687 0
-6687 6679 6680 6681 6682 6683 6684 6685 6686 0
6688 -8 -22 -71 -81 0
-6688 8 0
-6688 22 0
-6688 71 0
-6688 81 0
6689 -11 -22 -62 -81 0
-6689 11 0
-6689 22 0
-6689 62 0
-6689 81 0
6690 -17 -22 -56 -81 0
-6690 17 0
-6690 22 0
-6690 56 0
-6690 81 0
-6688 6689 6690 0
-6689 6688 6690 0
-6690 6688 6689 0
6691 -8 -22 -72 -79 0
-6691 8 0
-6691 22 0
-6691 72 0
-6691 79 0
6692 -8 -31 -52 -72 0
-6692 8 0
-6692 31 0
-6692 52 0
-6692 72 0
6693 -8 -37 -46 -72 0
-6693 8 0
-6693 37 0
-6693 46 0
-6693 72 0
-6691 6692 6693 0
-6692 6691 6693 0
-6693 6691 6692 0
6694 -8 -22 -72 -80 0
-6694 8 0
-6694 22 0
-6694 72 0
-6694 80 0
6695 -14 -22 -65 -72 0
-6695 14 0
-6695 22 0
-6695 65 0
-6695 72 0
6696 -20 -22 -59 -72 0
-6696 20 0
-6696 22 0
-6696 59 0
-6696 72 0
-6694 6695 6696 0
-6695 6694 6696 0
-6696 6694 6695 0
6697 -8 -24 -70 -80 0
-6697 8 0
-6697 24 0
-6697 70 0
-6697 80 0
6698 -14 -24 -65 -70 0
-6698 14 0
-6698 24 0
-6698 65 0
-6698 70 0
6699 -20 -24 -59 -70 0
-6699 20 0
-6699 24 0
-6699 59 0
-6699 70 0
-6697 6698 6699 0
-6698 6697 6699 0
-6699 6697 6698 0
6700 -8 -24 -70 -81 0
-6700 8 0
-6700 24 0
-6700 70 0
-6700 81 0
6701 -8 -33 -54 -70 0
-6701 8 0
-6701 33 0
-6701 54 0
-6701 70 0
6702 -8 -39 -48 -70 0
-6702 8 0
-6702 39 0
-6702 48 0
-6702 70 0
-6700 6701 6702 0
-6701 6700 6702 0
-6702 6700 6701 0
6703 -8 -24 -71 -79 0
-6703 8 0
-6703 24 0
-6703 71 0
-6703 79 0
6704 -11 -24 -62 -79 0
-6704 11 0
-6704 24 0
-6704 62 0
-6704 79 0
6705 -17 -24 -56 -79 0
-6705 17 0
-6705 24 0
-6705 56 0
-6705 79 0
-6703 6704 6705 0
-6704 6703 6705 0
-6705 6703 6704 0
6706 -8 -24 -71 -81 0
-6706 8 0
-6706 24 0
-6706 71 0
-6706 81 0
6707 -8 -33 -54 -71 0
-6707 8 0
-6707 33 0
-6707 54 0
-6707 71 0
6708 -8 -39 -48 -71 0
-6708 8 0
-6708 39 0
-6708 48 0
-6708 71 0
6709 -11 -24 -62 -81 0
-6709 11 0
-6709 24 0
-6709 62 0
-6709 81 0
6710 -11 -33 -54 -62 0
-6710 11 0
-6710 33 0
-6710 54 0
-6710 62 0
6711 -11 -39 -48 -62 0
-6711 11 0
-6711 39 0
-6711 48 0
-6711 62 0
6712 -17 -24 -56 -81 0
-6712 17 0
-6712 24 0
-6712 56 0
-6712 81 0
6713 -17 -33 -54 -56 0
-6713 17 0
-6713 33 0
-6713 54 0
-6713 56 0
6714 -17 -39 -48 -56 0
-6714 17 0
-6714 39 0
-6714 48 0
-6714 56 0
-6706 6707 6708 6709 6710 6711 6712 6713 6714 0
-6707 6706 6708 6709 6710 6711 6712 6713 6714 0
-6708 6706 6707 6709 6710 6711 6712 6713 6714 0
-6709 6706 6707 6708 6710 6711 6712 6713 6714 0
-6710 6706 6707 6708 6709 6711 6712 6713 6714 0
-6711 6706 6707 6708 6709 6710 6712 6713 6714 0
-6712 6706 6707 6708 6709 6710 6711 6713 6714 0
-6713 6706 6707 6708 6709 6710 6711 6712 6714 0
-6714 6706 6707 6708 6709 6710 6711 6712 6713 0
6715 -8 -24 -72 -79 0
-6715 8 0
-6715 24 0
-6715 72 0
-6715 79 0
6716 -8 -30 -51 -79 0
-6716 8 0
-6716 30 0
-6716 51 0
-6716 79 0
6717 -8 -36 -45 -79 0
-6717 8 0
-6717 36 0
-6717 45 0
-6717 79 0
-6715 6716 6717 0
-6716 6715 6717 0
-6717 6715 6716 0
6718 -8 -24 -72 -80 0
-6718 8 0
-6718 24 0
-6718 72 0
-6718 80 0
6719 -8 -30 -51 -80 0
-6719 8 0
-6719 30 0
-6719 51 0
-6719 80 0
6720 -8 -36 -45 -80 0
-6720 8 0
-6720 36 0
-6720 45 0
-6720 80 0
6721 -14 -24 -65 -72 0
-6721 14 0
-6721 24 0
-6721 65 0
-6721 72 0
6722 -14 -30 -51 -65 0
-6722 14 0
-6722 30 0
-6722 51 0
-6722 65 0
6723 -14 -36 -45 -65 0
-6723 14 0
-6723 36 0
-6723 45 0
-6723 65 0
6724 -20 -24 -59 -72 0
-6724 20 0
-6724 24 0
-6724 59 0
-6724 72 0
6725 -20 -30 -51 -59 0
-6725 20 0
-6725 30 0
-6725 51 0
-6725 59 0
6726 -20 -36 -45 -59 0
-6726 20 0
-6726 36 0
-6726 45 0
-6726 59 0
-6718 6719 6720 6721 6722 6723 6724 6725 6726 0
-6719 6718 6720 6721 6722 6723 6724 6725 6726 0
-6720 6718 6719 6721 6722 6723 6724 6725 6726 0
-6721 6718 6719 6720 6722 6723 6724 6725 6726 0
-6722 6718 6719 6720 6721 6723 6724 6725 6726 0
-6723 6718 6719 6720 6721 6722 6724 6725 6726 0
-6724 6718 6719 6720 6721 6722 6723 6725 6726 0
-6725 6718 6719 6720 6721 6722 6723 6724 6726 0
-6726 6718 6719 6720 6721 6722 6723 6724 6725 0
6727 -9 -22 -70 -80 0
-6727 9 0
-6727 22 0
-6727 70 0
-6727 80 0
6728 -9 -28 -49 -80 0
-6728 9 0
-6728 28 0
-6728 49 0
-6728 80 0
6729 -9 -34 -43 -80 0
-6729 9 0
-6729 34 0
-6729 43 0
-6729 80 0
-6727 6728 6729 0
-6728 6727 6729 0
-6729 6727 6728 0
6730 -9 -22 -70 -81 0
-6730 9 0
-6730 22 0
-6730 70 0
-6730 81 0
6731 -9 -28 -49 -81 0
-6731 9 0
-6731 28 0
-6731 49 0
-6731 81 0
6732 -9 -34 -43 -81 0
-6732 9 0
-6732 34 0
-6732 43 0
-6732 81 0
6733 -15 -22 -66 -70 0
-6733 15 0
-6733 22 0
-6733 66 0
-6733 70 0
6734 -15 -28 -49 -66 0
-6734 15 0
-6734 28 0
-6734 49 0
-6734 66 0
6735 -15 -34 -43 -66 0
-6735 15 0
-6735 34 0
-6735 43 0
-6735 66 0
6736 -21 -22 -60 -70 0
-6736 21 0
-6736 22 0
-6736 60 0
-6736 70 0
6737 -21 -28 -49 -60 0
-6737 21 0
-6737 28 0
-6737 49 0
-6737 60 0
6738 -21 -34 -43 -60 0
-6738 21 0
-6738 34 0
-6738 43 0
-6738 60 0
-6730 6731 6732 6733 6734 6735 6736 6737 6738 0
-6731 6730 6732 6733 6734 6735 6736 6737 6738 0
-6732 6730 6731 6733 6734 6735 6736 6737 6738 0
-6733 6730 6731 6732 6734 6735 6736 6737 6738 0
-6734 6730 6731 6732 6733 6735 6736 6737 6738 0
-6735 6730 6731 6732 6733 6734 6736 6737 6738 0
-6736 6730 6731 6732 6733 6734 6735 6737 6738 0
-6737 6730 6731 6732 6733 6734 6735 6736 6738 0
-6738 6730 6731 6732 6733 6734 6735 6736 6737 0
6739 -9 -22 -71 -79 0
-6739 9 0
-6739 22 0
-6739 71 0
-6739 79 0
6740 -9 -31 -52 -71 0
-6740 9 0
-6740 31 0
-6740 52 0
-6740 71 0
6741 -9 -37 -46 -71 0
-6741 9 0
-6741 37 0
-6741 46 0
-6741 71 0
-6739 6740 6741 0
-6740 6739 6741 0
-6741 6739 6740 0
6742 -9 -22 -71 -81 0
-6742 9 0
-6742 22 0
-6742 71 0
-6742 81 0
6743 -15 -22 -66 -71 0
-6743 15 0
-6743 22 0
-6743 66 0
-6743 71 0
6744 -21 -22 -60 -71 0
-6744 21 0
-6744 22 0
-6744 60 0
-6744 71 0
-6742 6743 6744 0
-6743 6742 6744 0
-6744 6742 6743 0
6745 -9 -22 -72 -79 0
-6745 9 0
-6745 22 0
-6745 72 0
-6745 79 0
6746 -9 -31 -52 -72 0
-6746 9 0
-6746 31 0
-6746 52 0
-6746 72 0
6747 -9 -37 -46 -72 0
-6747 9 0
-6747 37 0
-6747 46 0
-6747 72 0
6748 -12 -22 -63 -79 0
-6748 12 0
-6748 22 0
-6748 63 0
-6748 79 0
6749 -12 -31 -52 -63 0
-6749 12 0
-6749 31 0
-6749 52 0
-6749 63 0
6750 -12 -37 -46 -63 0
-6750 12 0
-6750 37 0
-6750 46 0
-6750 63 0
6751 -18 -22 -57 -79 0
-6751 18 0
-6751 22 0
-6751 57 0
-6751 79 0
6752 -18 -31 -52 -57 0
-6752 18 0
-6752 31 0
-6752 52 0
-6752 57 0
6753 -18 -37 -46 -57 0
-6753 18 0
-6753 37 0
-6753 46 0
-6753 57 0
-6745 6746 6747 6748 6749 6750 6751 6752 6753 0
-6746 6745 6747 6748 6749 6750 6751 6752 6753 0
-6747 6745 6746 6748 6749 6750 6751 6752 6753 0
-6748 6745 6746 6747 6749 6750 6751 6752 6753 0
-6749 6745 6746 6747 6748 6750 6751 6752 6753 0
-6750 6745 6746 6747 6748 6749 6751 6752 6753 0
-6751 6745 6746 6747 6748 6749 6750 6752 6753 0
-6752 6745 6746 6747 6748 6749 6750 6751 6753 0
-6753 6745 6746 6747 6748 6749 6750 6751 6752 0
6754 -9 -22 -72 -80 0
-6754 9 0
-6754 22 0
-6754 72 0
-6754 80 0
6755 -12 -22 -63 -80 0
-6755 12 0
-6755 22 0
-6755 63 0
-6755 80 0
6756 -18 -22 -57 -80 0
-6756 18 0
-6756 22 0
-6756 57 0
-6756 80 0
-6754 6755 6756 0
-6755 6754 6756 0
-6756 6754 6755 0
6757 -9 -23 -70 -80 0
-6757 9 0
-6757 23 0
-6757 70 0
-6757 80 0
6758 -9 -32 -53 -70 0
-6758 9 0
-6758 32 0
-6758 53 0
-6758 70 0
6759 -9 -38 -47 -70 0
-6759 9 0
-6759 38 0
-6759 47 0
-6759 70 0
-6757 6758 6759 0
-6758 6757 6759 0
-6759 6757 6758 0
6760 -9 -23 -70 -81 0
-6760 9 0
-6760 23 0
-6760 70 0
-6760 81 0
6761 -15 -23 -66 -70 0
-6761 15 0
-6761 23 0
-6761 66 0
-6761 70 0
6762 -21 -23 -60 -70 0
-6762 21 0
-6762 23 0
-6762 60 0
-6762 70 0
-6760 6761 6762 0
-6761 6760 6762 0
-6762 6760 6761 0
6763 -9 -23 -71 -79 0
-6763 9 0
-6763 23 0
-6763 71 0
-6763 79 0
6764 -9 -29 -50 -79 0
-6764 9 0
-6764 29 0
-6764 50 0
-6764 79 0
6765 -9 -35 -44 -79 0
-6765 9 0
-6765 35 0
-6765 44 0
-6765 79 0
-6763 6764 6765 0
-6764 6763 6765 0
-6765 6763 6764 0
6766 -9 -23 -71 -81 0
-6766 9 0
-6766 23 0
-6766 71 0
-6766 81 0
6767 -9 -29 -50 -81 0
-6767 9 0
-6767 29 0
-6767 50 0
-6767 81 0
6768 -9 -35 -44 -81 0
-6768 9 0
-6768 35 0
-6768 44 0
-6768 81 0
6769 -15 -23 -66 -71 0
-6769 15 0
-6769 23 0
-6769 66 0
-6769 71 0
6770 -15 -29 -50 -66 0
-6770 15 0
-6770 29 0
-6770 50 0
-6770 66 0
6771 -15 -35 -44 -66 0
-6771 15 0
-6771 35 0
-6771 44 0
-6771 66 0
6772 -21 -23 -60 -71 0
-6772 21 0
-6772 23 0
-6772 60 0
-6772 71 0
6773 -21 -29 -50 -60 0
-6773 21 0
-6773 29 0
-6773 50 0
-6773 60 0
6774 -21 -35 -44 -60 0
-6774 21 0
-6774 35 0
-6774 44 0
-6774 60 0
-6766 6767 6768 6769 6770 6771 6772 6773 6774 0
-6767 6766 6768 6769 6770 6771 6772 6773 6774 0
-6768 6766 6767 6769 6770 6771 6772 6773 6774 0
-6769 6766 6767 6768 6770 6771 6772 6773 6774 0
-6770 6766 6767 6768 6769 6771 6772 6773 6774 0
-6771 6766 6767 6768 6769 6770 6772 6773 6774 0
-6772 6766 6767 6768 6769 6770 6771 6773 6774 0
-6773 6766 6767 6768 6769 6770 6771 6772 6774 0
-6774 6766 6767 6768 6769 6770 6771 6772 6773 0
6775 -9 -23 -72 -79 0
-6775 9 0
-6775 23 0
-6775 72 0
-6775 79 0
6776 -12 -23 -63 -79 0
-6776 12 0
-6776 23 0
-6776 63 0
-6776 79 0
6777 -18 -23 -57 -79 0
-6777 18 0
-6777 23 0
-6777 57 0
-6777 79 0
-6775 6776 6777 0
-6776 6775 6777 0
-6777 6775 6776 0
6778 -9 -23 -72 -80 0
-6778 9 0
-6778 23 0
-6778 72 0
-6778 80 0
6779 -9 -32 -53 -72 0
-6779 9 0
-6779 32 0
-6779 53 0
-6779 72 0
6780 -9 -38 -47 -72 0
-6780 9 0
-6780 38 0
-6780 47 0
-6780 72 0
6781 -12 -23 -63 -80 0
-6781 12 0
-6781 23 0
-6781 63 0
-6781 80 0
6782 -12 -32 -53 -63 0
-6782 12 0
-6782 32 0
-6782 53 0
-6782 63 0
6783 -12 -38 -47 -63 0
-6783 12 0
-6783 38 0
-6783 47 0
-6783 63 0
6784 -18 -23 -57 -80 0
-6784 18 0
-6784 23 0
-6784 57 0
-6784 80 0
6785 -18 -32 -53 -57 0
-6785 18 0
-6785 32 0
-6785 53 0
-6785 57 0
6786 -18 -38 -47 -57 0
-6786 18 0
-6786 38 0
-6786 47 0
-6786 57 0
-6778 6779 6780 6781 6782 6783 6784 6785 6786 0
-6779 6778 6780 6781 6782 6783 6784 6785 6786 0
-6780 6778 6779 6781 6782 6783 6784 6785 6786 0
-6781 6778 6779 6780 6782 6783 6784 6785 6786 0
-6782 6778 6779 6780 6781 6783 6784 6785 6786 0
-6783 6778 6779 6780 6781 6782 6784 6785 6786 0
-6784 6778 6779 6780 6781 6782 6783 6785 6786 0
-6785 6778 6779 6780 6781 6782 6783 6784 6786 0
-6786 6778 6779 6780 6781 6782 6783 6784 6785 0
6787 -7 -23 -73 -77 0
-6787 7 0
-6787 23 0
-6787 73 0
-6787 77 0
6788 -7 -32 -50 -73 0
-6788 7 0
-6788 32 0
-6788 50 0
-6788 73 0
6789 -7 -35 -47 -73 0
-6789 7 0
-6789 35 0
-6789 47 0
-6789 73 0
6790 -10 -23 -64 -77 0
-6790 10 0
-6790 23 0
-6790 64 0
-6790 77 0
6791 -10 -32 -50 -64 0
-6791 10 0
-6791 32 0
-6791 50 0
-6791 64 0
6792 -10 -35 -47 -64 0
-6792 10 0
-6792 35 0
-6792 47 0
-6792 64 0
6793 -19 -23 -55 -77 0
-6793 19 0
-6793 23 0
-6793 55 0
-6793 77 0
6794 -19 -32 -50 -55 0
-6794 19 0
-6794 32 0
-6794 50 0
-6794 55 0
6795 -19 -35 -47 -55 0
-6795 19 0
-6795 35 0
-6795 47 0
-6795 55 0
-6787 6788 6789 6790 6791 6792 6793 6794 6795 0
-6788 6787 6789 6790 6791 6792 6793 6794 6795 0
-6789 6787 6788 6790 6791 6792 6793 6794 6795 0
-6790 6787 6788 6789 6791 6792 6793 6794 6795 0
-6791 6787 6788 6789 6790 6792 6793 6794 6795 0
-6792 6787 6788 6789 6790 6791 6793 6794 6795 0
-6793 6787 6788 6789 6790 6791 6792 6794 6795 0
-6794 6787 6788 6789 6790 6791 6792 6793 6795 0
-6795 6787 6788 6789 6790 6791 6792 6793 6794 0
6796 -7 -23 -73 -78 0
-6796 7 0
-6796 23 0
-6796 73 0
-6796 78 0
6797 -10 -23 -64 -78 0
-6797 10 0
-6797 23 0
-6797 64 0
-6797 78 0
6798 -19 -23 -55 -78 0
-6798 19 0
-6798 23 0
-6798 55 0
-6798 78 0
-6796 6797 6798 0
-6797 6796 6798 0
-6798 6796 6797 0
6799 -7 -23 -74 -76 0
-6799 7 0
-6799 23 0
-6799 74 0
-6799 76 0
6800 -7 -29 -53 -76 0
-6800 7 0
-6800 29 0
-6800 53 0
-6800 76 0
6801 -7 -38 -44 -76 0
-6801 7 0
-6801 38 0
-6801 44 0
-6801 76 0
6802 -13 -23 -61 -74 0
-6802 13 0
-6802 23 0
-6802 61 0
-6802 74 0
6803 -13 -29 -53 -61 0
-6803 13 0
-6803 29 0
-6803 53 0
-6803 61 0
6804 -13 -38 -44 -61 0
-6804 13 0
-6804 38 0
-6804 44 0
-6804 61 0
6805 -16 -23 -58 -74 0
-6805 16 0
-6805 23 0
-6805 58 0
-6805 74 0
6806 -16 -29 -53 -58 0
-6806 16 0
-6806 29 0
-6806 53 0
-6806 58 0
6807 -16 -38 -44 -58 0
-6807 16 0
-6807 38 0
-6807 44 0
-6807 58 0
-6799 6800 6801 6802 6803 6804 6805 6806 6807 0
-6800 6799 6801 6802 6803 6804 6805 6806 6807 0
-6801 6799 6800 6802 6803 6804 6805 6806 6807 0
-6802 6799 6800 6801 6803 6804 6805 6806 6807 0
-6803 6799 6800 6801 6802 6804 6805 6806 6807 0
-6804 6799 6800 6801 6802 6803 6805 6806 6807 0
-6805 6799 6800 6801 6802 6803 6804 6806 6807 0
-6806 6799 6800 6801 6802 6803 6804 6805 6807 0
-6807 6799 6800 6801 6802 6803 6804 6805 6806 0
6808 -7 -23 -74 -78 0
-6808 7 0
-6808 23 0
-6808 74 0
-6808 78 0
6809 -7 -29 -53 -78 0
-6809 7 0
-6809 29 0
-6809 53 0
-6809 78 0
6810 -7 -38 -44 -78 0
-6810 7 0
-6810 38 0
-6810 44 0
-6810 78 0
-6808 6809 6810 0
-6809 6808 6810 0
-6810 6808 6809 0
6811 -7 -23 -75 -76 0
-6811 7 0
-6811 23 0
-6811 75 0
-6811 76 0
6812 -13 -23 -61 -75 0
-6812 13 0
-6812 23 0
-6812 61 0
-6812 75 0
6813 -16 -23 -58 -75 0
-6813 16 0
-6813 23 0
-6813 58 0
-6813 75 0
-6811 6812 6813 0
-6812 6811 6813 0
-6813 6811 6812 0
6814 -7 -23 -75 -77 0
-6814 7 0
-6814 23 0
-6814 75 0
-6814 77 0
6815 -7 -32 -50 -75 0
-6815 7 0
-6815 32 0
-6815 50 0
-6815 75 0
6816 -7 -35 -47 -75 0
-6816 7 0
-6816 35 0
-6816 47 0
-6816 75 0
-6814 6815 6816 0
-6815 6814 6816 0
-6816 6814 6815 0
6817 -7 -24 -73 -77 0
-6817 7 0
-6817 24 0
-6817 73 0
-6817 77 0
6818 -10 -24 -64 -77 0
-6818 10 0
-6818 24 0
-6818 64 0
-6818 77 0
6819 -19 -24 -55 -77 0
-6819 19 0
-6819 24 0
-6819 55 0
-6819 77 0
-6817 6818 6819 0
-6818 6817 6819 0
-6819 6817 6818 0
6820 -7 -24 -73 -78 0
-6820 7 0
-6820 24 0
-6820 73 0
-6820 78 0
6821 -7 -33 -51 -73 0
-6821 7 0
-6821 33 0
-6821 51 0
-6821 73 0
6822 -7 -36 -48 -73 0
-6822 7 0
-6822 36 0
-6822 48 0
-6822 73 0
6823 -10 -24 -64 -78 0
-6823 10 0
-6823 24 0
-6823 64 0
-6823 78 0
6824 -10 -33 -51 -64 0
-6824 10 0
-6824 33 0
-6824 51 0
-6824 64 0
6825 -10 -36 -48 -64 0
-6825 10 0
-6825 36 0
-6825 48 0
-6825 64 0
6826 -19 -24 -55 -78 0
-6826 19 0
-6826 24 0
-6826 55 0
-6826 78 0
6827 -19 -33 -51 -55 0
-6827 19 0
-6827 33 0
-6827 51 0
-6827 55 0
6828 -19 -36 -48 -55 0
-6828 19 0
-6828 36 0
-6828 48 0
-6828 55 0
-6820 6821 6822 6823 6824 6825 6826 6827 6828 0
-6821 6820 6822 6823 6824 6825 6826 6827 6828 0
-6822 6820 6821 6823 6824 6825 6826 6827 6828 0
-6823 6820 6821 6822 6824 6825 6826 6827 6828 0
-6824 6820 6821 6822 6823 6825 6826 6827 6828 0
-6825 6820 6821 6822 6823 6824 6826 6827 6828 0
-6826 6820 6821 6822 6823 6824 6825 6827 6828 0
-6827 6820 6821 6822 6823 6824 6825 6826 6828 0
-6828 6820 6821 6822 6823 6824 6825 6826 6827 0
6829 -7 -24 -74 -76 0
-6829 7 0
-6829 24 0
-6829 74 0
-6829 76 0
6830 -13 -24 -61 -74 0
-6830 13 0
-6830 24 0
-6830 61 0
-6830 74 0
6831 -16 -24 -58 -74 0
-6831 16 0
-6831 24 0
-6831 58 0
-6831 74 0
-6829 6830 6831 0
-6830 6829 6831 0
-6831 6829 6830 0
6832 -7 -24 -74 -78 0
-6832 7 0
-6832 24 0
-6832 74 0
-6832 78 0
6833 -7 -33 -51 -74 0
-6833 7 0
-6833 33 0
-6833 51 0
-6833 74 0
6834 -7 -36 -48 -74 0
-6834 7 0
-6834 36 0
-6834 48 0
-6834 74 0
-6832 6833 6834 0
-6833 6832 6834 0
-6834 6832 6833 0
6835 -7 -24 -75 -76 0
-6835 7 0
-6835 24 0
-6835 75 0
-6835 76 0
6836 -7 -30 -54 -76 0
-6836 7 0
-6836 30 0
-6836 54 0
-6836 76 0
6837 -7 -39 -45 -76 0
-6837 7 0
-6837 39 0
-6837 45 0
-6837 76 0
6838 -13 -24 -61 -75 0
-6838 13 0
-6838 24 0
-6838 61 0
-6838 75 0
6839 -13 -30 -54 -61 0
-6839 13 0
-6839 30 0
-6839 54 0
-6839 61 0
6840 -13 -39 -45 -61 0
-6840 13 0
-6840 39 0
-6840 45 0
-6840 61 0
6841 -16 -24 -58 -75 0
-6841 16 0
-6841 24 0
-6841 58 0
-6841 75 0
6842 -16 -30 -54 -58 0
-6842 16 0
-6842 30 0
-6842 54 0
-6842 58 0
6843 -16 -39 -45 -58 0
-6843 16 0
-6843 39 0
-6843 45 0
-6843 58 0
-6835 6836 6837 6838 6839 6840 6841 6842 6843 0
-6836 6835 6837 6838 6839 6840 6841 6842 6843 0
-6837 6835 6836 6838 6839 6840 6841 6842 6843 0
-6838 6835 6836 6837 6839 6840 6841 6842 6843 0
-6839 6835 6836 6837 6838 6840 6841 6842 6843 0
-6840 6835 6836 6837 6838 6839 6841 6842 6843 0
-6841 6835 6836 6837 6838 6839 6840 6842 6843 0
-6842 6835 6836 6837 6838 6839 6840 6841 6843 0
-6843 6835 6836 6837 6838 6839 6840 6841 6842 0
6844 -7 -24 -75 -77 0
-6844 7 0
-6844 24 0
-6844 75 0
-6844 77 0
6845 -7 -30 -54 -77 0
-6845 7 0
-6845 30 0
-6845 54 0
-6845 77 0
6846 -7 -39 -45 -77 0
-6846 7 0
-6846 39 0
-6846 45 0
-6846 77 0
-6844 6845 6846 0
-6845 6844 6846 0
-6846 6844 6845 0
6847 -8 -22 -73 -77 0
-6847 8 0
-6847 22 0
-6847 73 0
-6847 77 0
6848 -8 -28 -52 -77 0
-6848 8 0
-6848 28 0
-6848 52 0
-6848 77 0
6849 -8 -37 -43 -77 0
-6849 8 0
-6849 37 0
-6849 43 0
-6849 77 0
6850 -14 -22 -62 -73 0
-6850 14 0
-6850 22 0
-6850 62 0
-6850 73 0
6851 -14 -28 -52 -62 0
-6851 14 0
-6851 28 0
-6851 52 0
-6851 62 0
6852 -14 -37 -43 -62 0
-6852 14 0
-6852 37 0
-6852 43 0
-6852 62 0
6853 -17 -22 -59 -73 0
-6853 17 0
-6853 22 0
-6853 59 0
-6853 73 0
6854 -17 -28 -52 -59 0
-6854 17 0
-6854 28 0
-6854 52 0
-6854 59 0
6855 -17 -37 -43 -59 0
-6855 17 0
-6855 37 0
-6855 43 0
-6855 59 0
-6847 6848 6849 6850 6851 6852 6853 6854 6855 0
-6848 6847 6849 6850 6851 6852 6853 6854 6855 0
-6849 6847 6848 6850 6851 6852 6853 6854 6855 0
-6850 6847 6848 6849 6851 6852 6853 6854 6855 0
-6851 6847 6848 6849 6850 6852 6853 6854 6855 0
-6852 6847 6848 6849 6850 6851 6853 6854 6855 0
-6853 6847 6848 6849 6850 6851 6852 6854 6855 0
-6854 6847 6848 6849 6850 6851 6852 6853 6855 0
-6855 6847 6848 6849 6850 6851 6852 6853 6854 0
6856 -8 -22 -73 -78 0
-6856 8 0
-6856 22 0
-6856 73 0
-6856 78 0
6857 -8 -28 -52 -78 0
-6857 8 0
-6857 28 0
-6857 52 0
-6857 78 0
6858 -8 -37 -43 -78 0
-6858 8 0
-6858 37 0
-6858 43 0
-6858 78 0
-6856 6857 6858 0
-6857 6856 6858 0
-6858 6856 6857 0
6859 -8 -22 -74 -76 0
-6859 8 0
-6859 22 0
-6859 74 0
-6859 76 0
6860 -8 -31 -49 -74 0
-6860 8 0
-6860 31 0
-6860 49 0
-6860 74 0
6861 -8 -34 -46 -74 0
-6861 8 0
-6861 34 0
-6861 46 0
-6861 74 0
6862 -11 -22 -65 -76 0
-6862 11 0
-6862 22 0
-6862 65 0
-6862 76 0
6863 -11 -31 -49 -65 0
-6863 11 0
-6863 31 0
-6863 49 0
-6863 65 0
6864 -11 -34 -46 -65 0
-6864 11 0
-6864 34 0
-6864 46 0
-6864 65 0
6865 -20 -22 -56 -76 0
-6865 20 0
-6865 22 0
-6865 56 0
-6865 76 0
6866 -20 -31 -49 -56 0
-6866 20 0
-6866 31 0
-6866 49 0
-6866 56 0
6867 -20 -34 -46 -56 0
-6867 20 0
-6867 34 0
-6867 46 0
-6867 56 0
-6859 6860 6861 6862 6863 6864 6865 6866 6867 0
-6860 6859 6861 6862 6863 6864 6865 6866 6867 0
-6861 6859 6860 6862 6863 6864 6865 6866 6867 0
-6862 6859 6860 6861 6863 6864 6865 6866 6867 0
-6863 6859 6860 6861 6862 6864 6865 6866 6867 0
-6864 6859 6860 6861 6862 6863 6865 6866 6867 0
-6865 6859 6860 6861 6862 6863 6864 6866 6867 0
-6866 6859 6860 6861 6862 6863 6864 6865 6867 0
-6867 6859 6860 6861 6862 6863 6864 6865 6866 0
6868 -8 -22 -74 -78 0
-6868 8 0
-6868 22 0
-6868 74 0
-6868 78 0
6869 -11 -22 -65 -78 0
-6869 11 0
-6869 22 0
-6869 65 0
-6869 78 0
6870 -20 -22 -56 -78 0
-6870 20 0
-6870 22 0
-6870 56 0
-6870 78 0
-6868 6869 6870 0
-6869 6868 6870 0
-6870 6868 6869 0
6871 -8 -22 -75 -76 0
-6871 8 0
-6871 22 0
-6871 75 0
-6871 76 0
6872 -8 -31 -49 -75 0
-6872 8 0
-6872 31 0
-6872 49 0
-6872 75 0
6873 -8 -34 -46 -75 0
-6873 8 0
-6873 34 0
-6873 46 0
-6873 75 0
-6871 6872 6873 0
-6872 6871 6873 0
-6873 6871 6872 0
6874 -8 -22 -75 -77 0
-6874 8 0
-6874 22 0
-6874 75 0
-6874 77 0
6875 -14 -22 -62 -75 0
-6875 14 0
-6875 22 0
-6875 62 0
-6875 75 0
6876 -17 -22 -59 -75 0
-6876 17 0
-6876 22 0
-6876 59 0
-6876 75 0
-6874 6875 6876 0
-6875 6874 6876 0
-6876 6874 6875 0
6877 -8 -24 -73 -77 0
-6877 8 0
-6877 24 0
-6877 73 0
-6877 77 0
6878 -14 -24 -62 -73 0
-6878 14 0
-6878 24 0
-6878 62 0
-6878 73 0
6879 -17 -24 -59 -73 0
-6879 17 0
-6879 24 0
-6879 59 0
-6879 73 0
-6877 6878 6879 0
-6878 6877 6879 0
-6879 6877 6878 0
6880 -8 -24 -73 -78 0
-6880 8 0
-6880 24 0
-6880 73 0
-6880 78 0
6881 -8 -33 -51 -73 0
-6881 8 0
-6881 33 0
-6881 51 0
-6881 73 0
6882 -8 -36 -48 -73 0
-6882 8 0
-6882 36 0
-6882 48 0
-6882 73 0
-6880 6881 6882 0
-6881 6880 6882 0
-6882 6880 6881 0
6883 -8 -24 -74 -76 0
-6883 8 0
-6883 24 0
-6883 74 0
-6883 76 0
6884 -11 -24 -65 -76 0
-6884 11 0
-6884 24 0
-6884 65 0
-6884 76 0
6885 -20 -24 -56 -76 0
-6885 20 0
-6885 24 0
-6885 56 0
-6885 76 0
-6883 6884 6885 0
-6884 6883 6885 0
-6885 6883 6884 0
6886 -8 -24 -74 -78 0
-6886 8 0
-6886 24 0
-6886 74 0
-6886 78 0
6887 -8 -33 -51 -74 0
-6887 8 0
-6887 33 0
-6887 51 0
-6887 74 0
6888 -8 -36 -48 -74 0
-6888 8 0
-6888 36 0
-6888 48 0
-6888 74 0
6889 -11 -24 -65 -78 0
-6889 11 0
-6889 24 0
-6889 65 0
-6889 78 0
6890 -11 -33 -51 -65 0
-6890 11 0
-6890 33 0
-6890 51 0
-6890 65 0
6891 -11 -36 -48 -65 0
-6891 11 0
-6891 36 0
-6891 48 0
-6891 65 0
6892 -20 -24 -56 -78 0
-6892 20 0
-6892 24 0
-6892 56 0
-6892 78 0
6893 -20 -33 -51 -56 0
-6893 20 0
-6893 33 0
-6893 51 0
-6893 56 0
6894 -20 -36 -48 -56 0
-6894 20 0
-6894 36 0
-6894 48 0
-6894 56 0
-6886 6887 6888 6889 6890 6891 6892 6893 6894 0
-6887 6886 6888 6889 6890 6891 6892 6893 6894 0
-6888 6886 6887 6889 6890 6891 6892 6893 6894 0
-6889 6886 6887 6888 6890 6891 6892 6893 6894 0
-6890 6886 6887 6888 6889 6891 6892 6893 6894 0
-6891 6886 6887 6888 6889 6890 6892 6893 6894 0
-6892 6886 6887 6888 6889 6890 6891 6893 6894 0
-6893 6886 6887 6888 6889 6890 6891 6892 6894 0
-6894 6886 6887 6888 6889 6890 6891 6892 6893 0
6895 -8 -24 -75 -76 0
-6895 8 0
-6895 24 0
-6895 75 0
-6895 76 0
6896 -8 -30 -54 -76 0
-6896 8 0
-6896 30 0
-6896 54 0
-6896 76 0
6897 -8 -39 -45 -76 0
-6897 8 0
-6897 39 0
-6897 45 0
-6897 76 0
-6895 6896 6897 0
-6896 6895 6897 0
-6897 6895 6896 0
6898 -8 -24 -75 -77 0
-6898 8 0
-6898 24 0
-6898 75 0
-6898 77 0
6899 -8 -30 -54 -77 0
-6899 8 0
-6899 30 0
-6899 54 0
-6899 77 0
6900 -8 -39 -45 -77 0
-6900 8 0
-6900 39 0
-6900 45 0
-6900 77 0
6901 -14 -24 -62 -75 0
-6901 14 0
-6901 24 0
-6901 62 0
-6901 75 0
6902 -14 -30 -54 -62 0
-6902 14 0
-6902 30 0
-6902 54 0
-6902 62 0
6903 -14 -39 -45 -62 0
-6903 14 0
-6903 39 0
-6903 45 0
-6903 62 0
6904 -17 -24 -59 -75 0
-6904 17 0
-6904 24 0
-6904 59 0
-6904 75 0
6905 -17 -30 -54 -59 0
-6905 17 0
-6905 30 0
-6905 54 0
-6905 59 0
6906 -17 -39 -45 -59 0
-6906 17 0
-6906 39 0
-6906 45 0
-6906 59 0
-6898 6899 6900 6901 6902 6903 6904 6905 6906 0
-6899 6898 6900 6901 6902 6903 6904 6905 6906 0
-6900 6898 6899 6901 6902 6903 6904 6905 6906 0
-6901 6898 6899 6900 6902 6903 6904 6905 6906 0
-6902 6898 6899 6900 6901 6903 6904 6905 6906 0
-6903 6898 6899 6900 6901 6902 6904 6905 6906 0
-6904 6898 6899 6900 6901 6902 6903 6905 6906 0
-6905 6898 6899 6900 6901 6902 6903 6904 6906 0
-6906 6898 6899 6900 6901 6902 6903 6904 6905 0
6907 -9 -22 -73 -77 0
-6907 9 0
-6907 22 0
-6907 73 0
-6907 77 0
6908 -9 -28 -52 -77 0
-6908 9 0
-6908 28 0
-6908 52 0
-6908 77 0
6909 -9 -37 -43 -77 0
-6909 9 0
-6909 37 0
-6909 43 0
-6909 77 0
-6907 6908 6909 0
-6908 6907 6909 0
-6909 6907 6908 0
6910 -9 -22 -73 -78 0
-6910 9 0
-6910 22 0
-6910 73 0
-6910 78 0
6911 -9 -28 -52 -78 0
-6911 9 0
-6911 28 0
-6911 52 0
-6911 78 0
6912 -9 -37 -43 -78 0
-6912 9 0
-6912 37 0
-6912 43 0
-6912 78 0
6913 -15 -22 -63 -73 0
-6913 15 0
-6913 22 0
-6913 63 0
-6913 73 0
6914 -15 -28 -52 -63 0
-6914 15 0
-6914 28 0
-6914 52 0
-6914 63 0
6915 -15 -37 -43 -63 0
-6915 15 0
-6915 37 0
-6915 43 0
-6915 63 0
6916 -18 -22 -60 -73 0
-6916 18 0
-6916 22 0
-6916 60 0
-6916 73 0
6917 -18 -28 -52 -60 0
-6917 18 0
-6917 28 0
-6917 52 0
-6917 60 0
6918 -18 -37 -43 -60 0
-6918 18 0
-6918 37 0
-6918 43 0
-6918 60 0
-6910 6911 6912 6913 6914 6915 6916 6917 6918 0
-6911 6910 6912 6913 6914 6915 6916 6917 6918 0
-6912 6910 6911 6913 6914 6915 6916 6917 6918 0
-6913 6910 6911 6912 6914 6915 6916 6917 6918 0
-6914 6910 6911 6912 6913 6915 6916 6917 6918 0
-6915 6910 6911 6912 6913 6914 6916 6917 6918 0
-6916 6910 6911 6912 6913 6914 6915 6917 6918 0
-6917 6910 6911 6912 6913 6914 6915 6916 6918 0
-6918 6910 6911 6912 6913 6914 6915 6916 6917 0
6919 -9 -22 -74 -76 0
-6919 9 0
-6919 22 0
-6919 74 0
-6919 76 0
6920 -9 -31 -49 -74 0
-6920 9 0
-6920 31 0
-6920 49 0
-6920 74 0
6921 -9 -34 -46 -74 0
-6921 9 0
-6921 34 0
-6921 46 0
-6921 74 0
-6919 6920 6921 0
-6920 6919 6921 0
-6921 6919 6920 0
6922 -9 -22 -74 -78 0
-6922 9 0
-6922 22 0
-6922 74 0
-6922 78 0
6923 -15 -22 -63 -74 0
-6923 15 0
-6923 22 0
-6923 63 0
-6923 74 0
6924 -18 -22 -60 -74 0
-6924 18 0
-6924 22 0
-6924 60 0
-6924 74 0
-6922 6923 6924 0
-6923 6922 6924 0
-6924 6922 6923 0
6925 -9 -22 -75 -76 0
-6925 9 0
-6925 22 0
-6925 75 0
-6925 76 0
6926 -9 -31 -49 -75 0
-6926 9 0
-6926 31 0
-6926 49 0
-6926 75 0
6927 -9 -34 -46 -75 0
-6927 9 0
-6927 34 0
-6927 46 0
-6927 75 0
6928 -12 -22 -66 -76 0
-6928 12 0
-6928 22 0
-6928 66 0
-6928 76 0
6929 -12 -31 -49 -66 0
-6929 12 0
-6929 31 0
-6929 49 0
-6929 66 0
6930 -12 -34 -46 -66 0
-6930 12 0
-6930 34 0
-6930 46 0
-6930 66 0
6931 -21 -22 -57 -76 0
-6931 21 0
-6931 22 0
-6931 57 0
-6931 76 0
6932 -21 -31 -49 -57 0
-6932 21 0
-6932 31 0
-6932 49 0
-6932 57 0
6933 -21 -34 -46 -57 0
-6933 21 0
-6933 34 0
-6933 46 0
-6933 57 0
-6925 6926 6927 6928 6929 6930 6931 6932 6933 0
-6926 6925 6927 6928 6929 6930 6931 6932 6933 0
-6927 6925 6926 6928 6929 6930 6931 6932 6933 0
-6928 6925 6926 6927 6929 6930 6931 6932 6933 0
-6929 6925 6926 6927 6928 6930 6931 6932 6933 0
-6930 6925 6926 6927 6928 6929 6931 6932 6933 0
-6931 6925 6926 6927 6928 6929 6930 6932 6933 0
-6932 6925 6926 6927 6928 6929 6930 6931 6933 0
-6933 6925 6926 6927 6928 6929 6930 6931 6932 0
6934 -9 -22 -75 -77 0
-6934 9 0
-6934 22 0
-6934 75 0
-6934 77 0
6935 -12 -22 -66 -77 0
-6935 12 0
-6935 22 0
-6935 66 0
-6935 77 0
6936 -21 -22 -57 -77 0
-6936 21 0
-6936 22 0
-6936 57 0
-6936 77 0
-6934 6935 6936 0
-6935 6934 6936 0
-6936 6934 6935 0
6937 -9 -23 -73 -77 0
-6937 9 0
-6937 23 0
-6937 73 0
-6937 77 0
6938 -9 -32 -50 -73 0
-6938 9 0
-6938 32 0
-6938 50 0
-6938 73 0
6939 -9 -35 -47 -73 0
-6939 9 0
-6939 35 0
-6939 47 0
-6939 73 0
-6937 6938 6939 0
-6938 6937 6939 0
-6939 6937 6938 0
6940 -9 -23 -73 -78 0
-6940 9 0
-6940 23 0
-6940 73 0
-6940 78 0
6941 -15 -23 -63 -73 0
-6941 15 0
-6941 23 0
-6941 63 0
-6941 73 0
6942 -18 -23 -60 -73 0
-6942 18 0
-6942 23 0
-6942 60 0
-6942 73 0
-6940 6941 6942 0
-6941 6940 6942 0
-6942 6940 6941 0
6943 -9 -23 -74 -76 0
-6943 9 0
-6943 23 0
-6943 74 0
-6943 76 0
6944 -9 -29 -53 -76 0
-6944 9 0
-6944 29 0
-6944 53 0
-6944 76 0
6945 -9 -38 -44 -76 0
-6945 9 0
-6945 38 0
-6945 44 0
-6945 76 0
-6943 6944 6945 0
-6944 6943 6945 0
-6945 6943 6944 0
6946 -9 -23 -74 -78 0
-6946 9 0
-6946 23 0
-6946 74 0
-6946 78 0
6947 -9 -29 -53 -78 0
-6947 9 0
-6947 29 0
-6947 53 0
-6947 78 0
6948 -9 -38 -44 -78 0
-6948 9 0
-6948 38 0
-6948 44 0
-6948 78 0
6949 -15 -23 -63 -74 0
-6949 15 0
-6949 23 0
-6949 63 0
-6949 74 0
6950 -15 -29 -53 -63 0
-6950 15 0
-6950 29 0
-6950 53 0
-6950 63 0
6951 -15 -38 -44 -63 0
-6951 15 0
-6951 38 0
-6951 44 0
-6951 63 0
6952 -18 -23 -60 -74 0
-6952 18 0
-6952 23 0
-6952 60 0
-6952 74 0
6953 -18 -29 -53 -60 0
-6953 18 0
-6953 29 0
-6953 53 0
-6953 60 0
6954 -18 -38 -44 -60 0
-6954 18 0
-6954 38 0
-6954 44 0
-6954 60 0
-6946 6947 6948 6949 6950 6951 6952 6953 6954 0
-6947 6946 6948 6949 6950 6951 6952 6953 6954 0
-6948 6946 6947 6949 6950 6951 6952 6953 6954 0
-6949 6946 6947 6948 6950 6951 6952 6953 6954 0
-6950 6946 6947 6948 6949 6951 6952 6953 6954 0
-6951 6946 6947 6948 6949 6950 6952 6953 6954 0
-6952 6946 6947 6948 6949 6950 6951 6953 6954 0
-6953 6946 6947 6948 6949 6950 6951 6952 6954 0
-6954 6946 6947 6948 6949 6950 6951 6952 6953 0
6955 -9 -23 -75 -76 0
-6955 9 0
-6955 23 0
-6955 75 0
-6955 76 0
6956 -12 -23 -66 -76 0
-6956 12 0
-6956 23 0
-6956 66 0
-6956 76 0
6957 -21 -23 -57 -76 0
-6957 21 0
-6957 23 0
-6957 57 0
-6957 76 0
-6955 6956 6957 0
-6956 6955 6957 0
-6957 6955 6956 0
6958 -9 -23 -75 -77 0
-6958 9 0
-6958 23 0
-6958 75 0
-6958 77 0
6959 -9 -32 -50 -75 0
-6959 9 0
-6959 32 0
-6959 50 0
-6959 75 0
6960 -9 -35 -47 -75 0
-6960 9 0
-6960 35 0
-6960 47 0
-6960 75 0
6961 -12 -23 -66 -77 0
-6961 12 0
-6961 23 0
-6961 66 0
-6961 77 0
6962 -12 -32 -50 -66 0
-6962 12 0
-6962 32 0
-6962 50 0
-6962 66 0
6963 -12 -35 -47 -66 0
-6963 12 0
-6963 35 0
-6963 47 0
-6963 66 0
6964 -21 -23 -57 -77 0
-6964 21 0
-6964 23 0
-6964 57 0
-6964 77 0
6965 -21 -32 -50 -57 0
-6965 21 0
-6965 32 0
-6965 50 0
-6965 57 0
6966 -21 -35 -47 -57 0
-6966 21 0
-6966 35 0
-6966 47 0
-6966 57 0
-6958 6959 6960 6961 6962 6963 6964 6965 6966 0
-6959 6958 6960 6961 6962 6963 6964 6965 6966 0
-6960 6958 6959 6961 6962 6963 6964 6965 6966 0
-6961 6958 6959 6960 6962 6963 6964 6965 6966 0
-6962 6958 6959 6960 6961 6963 6964 6965 6966 0
-6963 6958 6959 6960 6961 6962 6964 6965 6966 0
-6964 6958 6959 6960 6961 6962 6963 6965 6966 0
-6965 6958 6959 6960 6961 6962 6963 6964 6966 0
-6966 6958 6959 6960 6961 6962 6963 6964 6965 0
6967 -7 -29 -48 -82 0
-6967 7 0
-6967 29 0
-6967 48 0
-6967 82 0
6968 -16 -29 -48 -64 0
-6968 16 0
-6968 29 0
-6968 48 0
-6968 64 0
6969 -19 -29 -48 -61 0
-6969 19 0
-6969 29 0
-6969 48 0
-6969 61 0
-6967 6968 6969 0
-6968 6967 6969 0
-6969 6967 6968 0
6970 -7 -29 -48 -83 0
-6970 7 0
-6970 29 0
-6970 48 0
-6970 83 0
6971 -7 -35 -48 -74 0
-6971 7 0
-6971 35 0
-6971 48 0
-6971 74 0
6972 -7 -38 -48 -71 0
-6972 7 0
-6972 38 0
-6972 48 0
-6972 71 0
-6970 6971 6972 0
-6971 6970 6972 0
-6972 6970 6971 0
6973 -7 -29 -48 -84 0
-6973 7 0
-6973 29 0
-6973 48 0
-6973 84 0
6974 -7 -29 -51 -81 0
-6974 7 0
-6974 29 0
-6974 51 0
-6974 81 0
6975 -7 -29 -54 -78 0
-6975 7 0
-6975 29 0
-6975 54 0
-6975 78 0
-6973 6974 6975 0
-6974 6973 6975 0
-6975 6973 6974 0
6976 -7 -30 -47 -82 0
-6976 7 0
-6976 30 0
-6976 47 0
-6976 82 0
6977 -16 -30 -47 -64 0
-6977 16 0
-6977 30 0
-6977 47 0
-6977 64 0
6978 -19 -30 -47 -61 0
-6978 19 0
-6978 30 0
-6978 47 0
-6978 61 0
-6976 6977 6978 0
-6977 6976 6978 0
-6978 6976 6977 0
6979 -7 -30 -47 -83 0
-6979 7 0
-6979 30 0
-6979 47 0
-6979 83 0
6980 -7 -30 -50 -80 0
-6980 7 0
-6980 30 0
-6980 50 0
-6980 80 0
6981 -7 -30 -53 -77 0
-6981 7 0
-6981 30 0
-6981 53 0
-6981 77 0
-6979 6980 6981 0
-6980 6979 6981 0
-6981 6979 6980 0
6982 -7 -30 -47 -84 0
-6982 7 0
-6982 30 0
-6982 47 0
-6982 84 0
6983 -7 -36 -47 -75 0
-6983 7 0
-6983 36 0
-6983 47 0
-6983 75 0
6984 -7 -39 -47 -72 0
-6984 7 0
-6984 39 0
-6984 47 0
-6984 72 0
-6982 6983 6984 0
-6983 6982 6984 0
-6984 6982 6983 0
6985 -8 -28 -48 -82 0
-6985 8 0
-6985 28 0
-6985 48 0
-6985 82 0
6986 -8 -34 -48 -73 0
-6986 8 0
-6986 34 0
-6986 48 0
-6986 73 0
6987 -8 -37 -48 -70 0
-6987 8 0
-6987 37 0
-6987 48 0
-6987 70 0
-6985 6986 6987 0
-6986 6985 6987 0
-6987 6985 6986 0
6988 -8 -28 -48 -83 0
-6988 8 0
-6988 28 0
-6988 48 0
-6988 83 0
6989 -17 -28 -48 -65 0
-6989 17 0
-6989 28 0
-6989 48 0
-6989 65 0
6990 -20 -28 -48 -62 0
-6990 20 0
-6990 28 0
-6990 48 0
-6990 62 0
-6988 6989 6990 0
-6989 6988 6990 0
-6990 6988 6989 0
6991 -8 -28 -48 -84 0
-6991 8 0
-6991 28 0
-6991 48 0
-6991 84 0
6992 -8 -28 -51 -81 0
-6992 8 0
-6992 28 0
-6992 51 0
-6992 81 0
6993 -8 -28 -54 -78 0
-6993 8 0
-6993 28 0
-6993 54 0
-6993 78 0
-6991 6992 6993 0
-6992 6991 6993 0
-6993 6991 6992 0
6994 -8 -30 -46 -82 0
-6994 8 0
-6994 30 0
-6994 46 0
-6994 82 0
6995 -8 -30 -49 -79 0
-6995 8 0
-6995 30 0
-6995 49 0
-6995 79 0
6996 -8 -30 -52 -76 0
-6996 8 0
-6996 30 0
-6996 52 0
-6996 76 0
-6994 6995 6996 0
-6995 6994 6996 0
-6996 6994 6995 0
6997 -8 -30 -46 -83 0
-6997 8 0
-6997 30 0
-6997 46 0
-6997 83 0
6998 -17 -30 -46 -65 0
-6998 17 0
-6998 30 0
-6998 46 0
-6998 65 0
6999 -20 -30 -46 -62 0
-6999 20 0
-6999 30 0
-6999 46 0
-6999 62 0
-6997 6998 6999 0
-6998 6997 6999 0
-6999 6997 6998 0
7000 -8 -30 -46 -84 0
-7000 8 0
-7000 30 0
-7000 46 0
-7000 84 0
7001 -8 -36 -46 -75 0
-7001 8 0
-7001 36 0
-7001 46 0
-7001 75 0
7002 -8 -39 -46 -72 0
-7002 8 0
-7002 39 0
-7002 46 0
-7002 72 0
-7000 7001 7002 0
-7001 7000 7002 0
-7002 7000 7001 0
7003 -9 -28 -47 -82 0
-7003 9 0
-7003 28 0
-7003 47 0
-7003 82 0
7004 -9 -34 -47 -73 0
-7004 9 0
-7004 34 0
-7004 47 0
-7004 73 0
7005 -9 -37 -47 -70 0
-7005 9 0
-7005 37 0
-7005 47 0
-7005 70 0
-7003 7004 7005 0
-7004 7003 7005 0
-7005 7003 7004 0
7006 -9 -28 -47 -83 0
-7006 9 0
-7006 28 0
-7006 47 0
-7006 83 0
7007 -9 -28 -50 -80 0
-7007 9 0
-7007 28 0
-7007 50 0
-7007 80 0
7008 -9 -28 -53 -77 0
-7008 9 0
-7008 28 0
-7008 53 0
-7008 77 0
-7006 7007 7008 0
-7007 7006 7008 0
-7008 7006 7007 0
7009 -9 -28 -47 -84 0
-7009 9 0
-7009 28 0
-7009 47 0
-7009 84 0
7010 -18 -28 -47 -66 0
-7010 18 0
-7010 28 0
-7010 47 0
-7010 66 0
7011 -21 -28 -47 -63 0
-7011 21 0
-7011 28 0
-7011 47 0
-7011 63 0
-7009 7010 7011 0
-7010 7009 7011 0
-7011 7009 7010 0
7012 -9 -29 -46 -82 0
-7012 9 0
-7012 29 0
-7012 46 0
-7012 82 0
7013 -9 -29 -49 -79 0
-7013 9 0
-7013 29 0
-7013 49 0
-7013 79 0
7014 -9 -29 -52 -76 0
-7014 9 0
-7014 29 0
-7014 52 0
-7014 76 0
-7012 7013 7014 0
-7013 7012 7014 0
-7014 7012 7013 0
7015 -9 -29 -46 -83 0
-7015 9 0
-7015 29 0
-7015 46 0
-7015 83 0
7016 -9 -35 -46 -74 0
-7016 9 0
-7016 35 0
-7016 46 0
-7016 74 0
7017 -9 -38 -46 -71 0
-7017 9 0
-7017 38 0
-7017 46 0
-7017 71 0
-7015 7016 7017 0
-7016 7015 7017 0
-7017 7015 7016 0
7018 -9 -29 -46 -84 0
-7018 9 0
-7018 29 0
-7018 46 0
-7018 84 0
7019 -18 -29 -46 -66 0
-7019 18 0
-7019 29 0
-7019 46 0
-7019 66 0
7020 -21 -29 -46 -63 0
-7020 21 0
-7020 29 0
-7020 46 0
-7020 63 0
-7018 7019 7020 0
-7019 7018 7020 0
-7020 7018 7019 0
7021 -7 -29 -51 -79 0
-7021 7 0
-7021 29 0
-7021 51 0
-7021 79 0
7022 -13 -29 -51 -64 0
-7022 13 0
-7022 29 0
-7022 51 0
-7022 64 0
7023 -19 -29 -51 -58 0
-7023 19 0
-7023 29 0
-7023 51 0
-7023 58 0
-7021 7022 7023 0
-7022 7021 7023 0
-7023 7021 7022 0
7024 -7 -29 -51 -80 0
-7024 7 0
-7024 29 0
-7024 51 0
-7024 80 0
7025 -7 -32 -51 -74 0
-7025 7 0
-7025 32 0
-7025 51 0
-7025 74 0
7026 -7 -38 -51 -68 0
-7026 7 0
-7026 38 0
-7026 51 0
-7026 68 0
-7024 7025 7026 0
-7025 7024 7026 0
-7026 7024 7025 0
7027 -7 -30 -50 -79 0
-7027 7 0
-7027 30 0
-7027 50 0
-7027 79 0
7028 -13 -30 -50 -64 0
-7028 13 0
-7028 30 0
-7028 50 0
-7028 64 0
7029 -19 -30 -50 -58 0
-7029 19 0
-7029 30 0
-7029 50 0
-7029 58 0
-7027 7028 7029 0
-7028 7027 7029 0
-7029 7027 7028 0
7030 -7 -30 -50 -81 0
-7030 7 0
-7030 30 0
-7030 50 0
-7030 81 0
7031 -7 -33 -50 -75 0
-7031 7 0
-7031 33 0
-7031 50 0
-7031 75 0
7032 -7 -39 -50 -69 0
-7032 7 0
-7032 39 0
-7032 50 0
-7032 69 0
-7030 7031 7032 0
-7031 7030 7032 0
-7032 7030 7031 0
7033 -8 -28 -51 -79 0
-7033 8 0
-7033 28 0
-7033 51 0
-7033 79 0
7034 -8 -31 -51 -73 0
-7034 8 0
-7034 31 0
-7034 51 0
-7034 73 0
7035 -8 -37 -51 -67 0
-7035 8 0
-7035 37 0
-7035 51 0
-7035 67 0
-7033 7034 7035 0
-7034 7033 7035 0
-7035 7033 7034 0
7036 -8 -28 -51 -80 0
-7036 8 0
-7036 28 0
-7036 51 0
-7036 80 0
7037 -14 -28 -51 -65 0
-7037 14 0
-7037 28 0
-7037 51 0
-7037 65 0
7038 -20 -28 -51 -59 0
-7038 20 0
-7038 28 0
-7038 51 0
-7038 59 0
-7036 7037 7038 0
-7037 7036 7038 0
-7038 7036 7037 0
7039 -8 -30 -49 -80 0
-7039 8 0
-7039 30 0
-7039 49 0
-7039 80 0
7040 -14 -30 -49 -65 0
-7040 14 0
-7040 30 0
-7040 49 0
-7040 65 0
7041 -20 -30 -49 -59 0
-7041 20 0
-7041 30 0
-7041 49 0
-7041 59 0
-7039 7040 7041 0
-7040 7039 7041 0
-7041 7039 7040 0
7042 -8 -30 -49 -81 0
-7042 8 0
-7042 30 0
-7042 49 0
-7042 81 0
7043 -8 -33 -49 -75 0
-7043 8 0
-7043 33 0
-7043 49 0
-7043 75 0
7044 -8 -39 -49 -69 0
-7044 8 0
-7044 39 0
-7044 49 0
-7044 69 0
-7042 7043 7044 0
-7043 7042 7044 0
-7044 7042 7043 0
7045 -9 -28 -50 -79 0
-7045 9 0
-7045 28 0
-7045 50 0
-7045 79 0
7046 -9 -31 -50 -73 0
-7046 9 0
-7046 31 0
-7046 50 0
-7046 73 0
7047 -9 -37 -50 -67 0
-7047 9 0
-7047 37 0
-7047 50 0
-7047 67 0
-7045 7046 7047 0
-7046 7045 7047 0
-7047 7045 7046 0
7048 -9 -28 -50 -81 0
-7048 9 0
-7048 28 0
-7048 50 0
-7048 81 0
7049 -15 -28 -50 -66 0
-7049 15 0
-7049 28 0
-7049 50 0
-7049 66 0
7050 -21 -28 -50 -60 0
-7050 21 0
-7050 28 0
-7050 50 0
-7050 60 0
-7048 7049 7050 0
-7049 7048 7050 0
-7050 7048 7049 0
7051 -9 -29 -49 -80 0
-7051 9 0
-7051 29 0
-7051 49 0
-7051 80 0
7052 -9 -32 -49 -74 0
-7052 9 0
-7052 32 0
-7052 49 0
-7052 74 0
7053 -9 -38 -49 -68 0
-7053 9 0
-7053 38 0
-7053 49 0
-7053 68 0
-7051 7052 7053 0
-7052 7051 7053 0
-7053 7051 7052 0
7054 -9 -29 -49 -81 0
-7054 9 0
-7054 29 0
-7054 49 0
-7054 81 0
7055 -15 -29 -49 -66 0
-7055 15 0
-7055 29 0
-7055 49 0
-7055 66 0
7056 -21 -29 -49 -60 0
-7056 21 0
-7056 29 0
-7056 49 0
-7056 60 0
-7054 7055 7056 0
-7055 7054 7056 0
-7056 7054 7055 0
7057 -7 -29 -54 -76 0
-7057 7 0
-7057 29 0
-7057 54 0
-7057 76 0
7058 -13 -29 -54 -61 0
-7058 13 0
-7058 29 0
-7058 54 0
-7058 61 0
7059 -16 -29 -54 -58 0
-7059 16 0
-7059 29 0
-7059 54 0
-7059 58 0
-7057 7058 7059 0
-7058 7057 7059 0
-7059 7057 7058 0
7060 -7 -29 -54 -77 0
-7060 7 0
-7060 29 0
-7060 54 0
-7060 77 0
7061 -7 -32 -54 -71 0
-7061 7 0
-7061 32 0
-7061 54 0
-7061 71 0
7062 -7 -35 -54 -68 0
-7062 7 0
-7062 35 0
-7062 54 0
-7062 68 0
-7060 7061 7062 0
-7061 7060 7062 0
-7062 7060 7061 0
7063 -7 -30 -53 -76 0
-7063 7 0
-7063 30 0
-7063 53 0
-7063 76 0
7064 -13 -30 -53 -61 0
-7064 13 0
-7064 30 0
-7064 53 0
-7064 61 0
7065 -16 -30 -53 -58 0
-7065 16 0
-7065 30 0
-7065 53 0
-7065 58 0
-7063 7064 7065 0
-7064 7063 7065 0
-7065 7063 7064 0
7066 -7 -30 -53 -78 0
-7066 7 0
-7066 30 0
-7066 53 0
-7066 78 0
7067 -7 -33 -53 -72 0
-7067 7 0
-7067 33 0
-7067 53 0
-7067 72 0
7068 -7 -36 -53 -69 0
-7068 7 0
-7068 36 0
-7068 53 0
-7068 69 0
-7066 7067 7068 0
-7067 7066 7068 0
-7068 7066 7067 0
7069 -8 -28 -54 -76 0
-7069 8 0
-7069 28 0
-7069 54 0
-7069 76 0
7070 -8 -31 -54 -70 0
-7070 8 0
-7070 31 0
-7070 54 0
-7070 70 0
7071 -8 -34 -54 -67 0
-7071 8 0
-7071 34 0
-7071 54 0
-7071 67 0
-7069 7070 7071 0
-7070 7069 7071 0
-7071 7069 7070 0
7072 -8 -28 -54 -77 0
-7072 8 0
-7072 28 0
-7072 54 0
-7072 77 0
7073 -14 -28 -54 -62 0
-7073 14 0
-7073 28 0
-7073 54 0
-7073 62 0
7074 -17 -28 -54 -59 0
-7074 17 0
-7074 28 0
-7074 54 0
-7074 59 0
-7072 7073 7074 0
-7073 7072 7074 0
-7074 7072 7073 0
7075 -8 -30 -52 -77 0
-7075 8 0
-7075 30 0
-7075 52 0
-7075 77 0
7076 -14 -30 -52 -62 0
-7076 14 0
-7076 30 0
-7076 52 0
-7076 62 0
7077 -17 -30 -52 -59 0
-7077 17 0
-7077 30 0
-7077 52 0
-7077 59 0
-7075 7076 7077 0
-7076 7075 7077 0
-7077 7075 7076 0
7078 -8 -30 -52 -78 0
-7078 8 0
-7078 30 0
-7078 52 0
-7078 78 0
7079 -8 -33 -52 -72 0
-7079 8 0
-7079 33 0
-7079 52 0
-7079 72 0
7080 -8 -36 -52 -69 0
-7080 8 0
-7080 36 0
-7080 52 0
-7080 69 0
-7078 7079 7080 0
-7079 7078 7080 0
-7080 7078 7079 0
7081 -9 -28 -53 -76 0
-7081 9 0
-7081 28 0
-7081 53 0
-7081 76 0
7082 -9 -31 -53 -70 0
-7082 9 0
-7082 31 0
-7082 53 0
-7082 70 0
7083 -9 -34 -53 -67 0
-7083 9 0
-7083 34 0
-7083 53 0
-7083 67 0
-7081 7082 7083 0
-7082 7081 7083 0
-7083 7081 7082 0
7084 -9 -28 -53 -78 0
-7084 9 0
-7084 28 0
-7084 53 0
-7084 78 0
7085 -15 -28 -53 -63 0
-7085 15 0
-7085 28 0
-7085 53 0
-7085 63 0
7086 -18 -28 -53 -60 0
-7086 18 0
-7086 28 0
-7086 53 0
-7086 60 0
-7084 7085 7086 0
-7085 7084 7086 0
-7086 7084 7085 0
7087 -9 -29 -52 -77 0
-7087 9 0
-7087 29 0
-7087 52 0
-7087 77 0
7088 -9 -32 -52 -71 0
-7088 9 0
-7088 32 0
-7088 52 0
-7088 71 0
7089 -9 -35 -52 -68 0
-7089 9 0
-7089 35 0
-7089 52 0
-7089 68 0
-7087 7088 7089 0
-7088 7087 7089 0
-7089 7087 7088 0
7090 -9 -29 -52 -78 0
-7090 9 0
-7090 29 0
-7090 52 0
-7090 78 0
7091 -15 -29 -52 -63 0
-7091 15 0
-7091 29 0
-7091 52 0
-7091 63 0
7092 -18 -29 -52 -60 0
-7092 18 0
-7092 29 0
-7092 52 0
-7092 60 0
-7090 7091 7092 0
-7091 7090 7092 0
-7092 7090 7091 0
7093 -7 -32 -45 -82 0
-7093 7 0
-7093 32 0
-7093 45 0
-7093 82 0
7094 -16 -32 -45 -64 0
-7094 16 0
-7094 32 0
-7094 45 0
-7094 64 0
7095 -19 -32 -45 -61 0
-7095 19 0
-7095 32 0
-7095 45 0
-7095 61 0
-7093 7094 7095 0
-7094 7093 7095 0
-7095 7093 7094 0
7096 -7 -32 -45 -83 0
-7096 7 0
-7096 32 0
-7096 45 0
-7096 83 0
7097 -7 -35 -45 -80 0
-7097 7 0
-7097 35 0
-7097 45 0
-7097 80 0
7098 -7 -38 -45 -77 0
-7098 7 0
-7098 38 0
-7098 45 0
-7098 77 0
-7096 7097 7098 0
-7097 7096 7098 0
-7098 7096 7097 0
7099 -7 -32 -45 -84 0
-7099 7 0
-7099 32 0
-7099 45 0
-7099 84 0
7100 -7 -32 -51 -75 0
-7100 7 0
-7100 32 0
-7100 51 0
-7100 75 0
7101 -7 -32 -54 -72 0
-7101 7 0
-7101 32 0
-7101 54 0
-7101 72 0
-7099 7100 7101 0
-7100 7099 7101 0
-7101 7099 7100 0
7102 -7 -33 -44 -82 0
-7102 7 0
-7102 33 0
-7102 44 0
-7102 82 0
7103 -16 -33 -44 -64 0
-7103 16 0
-7103 33 0
-7103 44 0
-7103 64 0
7104 -19 -33 -44 -61 0
-7104 19 0
-7104 33 0
-7104 44 0
-7104 61 0
-7102 7103 7104 0
-7103 7102 7104 0
-7104 7102 7103 0
7105 -7 -33 -44 -83 0
-7105 7 0
-7105 33 0
-7105 44 0
-7105 83 0
7106 -7 -33 -50 -74 0
-7106 7 0
-7106 33 0
-7106 50 0
-7106 74 0
7107 -7 -33 -53 -71 0
-7107 7 0
-7107 33 0
-7107 53 0
-7107 71 0
-7105 7106 7107 0
-7106 7105 7107 0
-7107 7105 7106 0
7108 -7 -33 -44 -84 0
-7108 7 0
-7108 33 0
-7108 44 0
-7108 84 0
7109 -7 -36 -44 -81 0
-7109 7 0
-7109 36 0
-7109 44 0
-7109 81 0
7110 -7 -39 -44 -78 0
-7110 7 0
-7110 39 0
-7110 44 0
-7110 78 0
-7108 7109 7110 0
-7109 7108 7110 0
-7110 7108 7109 0
7111 -8 -31 -45 -82 0
-7111 8 0
-7111 31 0
-7111 45 0
-7111 82 0
7112 -8 -34 -45 -79 0
-7112 8 0
-7112 34 0
-7112 45 0
-7112 79 0
7113 -8 -37 -45 -76 0
-7113 8 0
-7113 37 0
-7113 45 0
-7113 76 0
-7111 7112 7113 0
-7112 7111 7113 0
-7113 7111 7112 0
7114 -8 -31 -45 -83 0
-7114 8 0
-7114 31 0
-7114 45 0
-7114 83 0
7115 -17 -31 -45 -65 0
-7115 17 0
-7115 31 0
-7115 45 0
-7115 65 0
7116 -20 -31 -45 -62 0
-7116 20 0
-7116 31 0
-7116 45 0
-7116 62 0
-7114 7115 7116 0
-7115 7114 7116 0
-7116 7114 7115 0
7117 -8 -31 -45 -84 0
-7117 8 0
-7117 31 0
-7117 45 0
-7117 84 0
7118 -8 -31 -51 -75 0
-7118 8 0
-7118 31 0
-7118 51 0
-7118 75 0
7119 -8 -31 -54 -72 0
-7119 8 0
-7119 31 0
-7119 54 0
-7119 72 0
-7117 7118 7119 0
-7118 7117 7119 0
-7119 7117 7118 0
7120 -8 -33 -43 -82 0
-7120 8 0
-7120 33 0
-7120 43 0
-7120 82 0
7121 -8 -33 -49 -73 0
-7121 8 0
-7121 33 0
-7121 49 0
-7121 73 0
7122 -8 -33 -52 -70 0
-7122 8 0
-7122 33 0
-7122 52 0
-7122 70 0
-7120 7121 7122 0
-7121 7120 7122 0
-7122 7120 7121 0
7123 -8 -33 -43 -83 0
-7123 8 0
-7123 33 0
-7123 43 0
-7123 83 0
7124 -17 -33 -43 -65 0
-7124 17 0
-7124 33 0
-7124 43 0
-7124 65 0
7125 -20 -33 -43 -62 0
-7125 20 0
-7125 33 0
-7125 43 0
-7125 62 0
-7123 7124 7125 0
-7124 7123 7125 0
-7125 7123 7124 0
7126 -8 -33 -43 -84 0
-7126 8 0
-7126 33 0
-7126 43 0
-7126 84 0
7127 -8 -36 -43 -81 0
-7127 8 0
-7127 36 0
-7127 43 0
-7127 81 0
7128 -8 -39 -43 -78 0
-7128 8 0
-7128 39 0
-7128 43 0
-7128 78 0
-7126 7127 7128 0
-7127 7126 7128 0
-7128 7126 7127 0
7129 -9 -31 -44 -82 0
-7129 9 0
-7129 31 0
-7129 44 0
-7129 82 0
7130 -9 -34 -44 -79 0
-7130 9 0
-7130 34 0
-7130 44 0
-7130 79 0
7131 -9 -37 -44 -76 0
-7131 9 0
-7131 37 0
-7131 44 0
-7131 76 0
-7129 7130 7131 0
-7130 7129 7131 0
-7131 7129 7130 0
7132 -9 -31 -44 -83 0
-7132 9 0
-7132 31 0
-7132 44 0
-7132 83 0
7133 -9 -31 -50 -74 0
-7133 9 0
-7133 31 0
-7133 50 0
-7133 74 0
7134 -9 -31 -53 -71 0
-7134 9 0
-7134 31 0
-7134 53 0
-7134 71 0
-7132 7133 7134 0
-7133 7132 7134 0
-7134 7132 7133 0
7135 -9 -31 -44 -84 0
-7135 9 0
-7135 31 0
-7135 44 0
-7135 84 0
7136 -18 -31 -44 -66 0
-7136 18 0
-7136 31 0
-7136 44 0
-7136 66 0
7137 -21 -31 -44 -63 0
-7137 21 0
-7137 31 0
-7137 44 0
-7137 63 0
-7135 7136 7137 0
-7136 7135 7137 0
-7137 7135 7136 0
7138 -9 -32 -43 -82 0
-7138 9 0
-7138 32 0
-7138 43 0
-7138 82 0
7139 -9 -32 -49 -73 0
-7139 9 0
-7139 32 0
-7139 49 0
-7139 73 0
7140 -9 -32 -52 -70 0
-7140 9 0
-7140 32 0
-7140 52 0
-7140 70 0
-7138 7139 7140 0
-7139 7138 7140 0
-7140 7138 7139 0
7141 -9 -32 -43 -83 0
-7141 9 0
-7141 32 0
-7141 43 0
-7141 83 0
7142 -9 -35 -43 -80 0
-7142 9 0
-7142 35 0
-7142 43 0
-7142 80 0
7143 -9 -38 -43 -77 0
-7143 9 0
-7143 38 0
-7143 43 0
-7143 77 0
-7141 7142 7143 0
-7142 7141 7143 0
-7143 7141 7142 0
7144 -9 -32 -43 -84 0
-7144 9 0
-7144 32 0
-7144 43 0
-7144 84 0
7145 -18 -32 -43 -66 0
-7145 18 0
-7145 32 0
-7145 43 0
-7145 66 0
7146 -21 -32 -43 -63 0
-7146 21 0
-7146 32 0
-7146 43 0
-7146 63 0
-7144 7145 7146 0
-7145 7144 7146 0
-7146 7144 7145 0
7147 -7 -32 -51 -73 0
-7147 7 0
-7147 32 0
-7147 51 0
-7147 73 0
7148 -10 -32 -51 -64 0
-7148 10 0
-7148 32 0
-7148 51 0
-7148 64 0
7149 -19 -32 -51 -55 0
-7149 19 0
-7149 32 0
-7149 51 0
-7149 55 0
-7147 7148 7149 0
-7148 7147 7149 0
-7149 7147 7148 0
7150 -7 -33 -50 -73 0
-7150 7 0
-7150 33 0
-7150 50 0
-7150 73 0
7151 -10 -33 -50 -64 0
-7151 10 0
-7151 33 0
-7151 50 0
-7151 64 0
7152 -19 -33 -50 -55 0
-7152 19 0
-7152 33 0
-7152 50 0
-7152 55 0
-7150 7151 7152 0
-7151 7150 7152 0
-7152 7150 7151 0
7153 -8 -31 -51 -74 0
-7153 8 0
-7153 31 0
-7153 51 0
-7153 74 0
7154 -11 -31 -51 -65 0
-7154 11 0
-7154 31 0
-7154 51 0
-7154 65 0
7155 -20 -31 -51 -56 0
-7155 20 0
-7155 31 0
-7155 51 0
-7155 56 0
-7153 7154 7155 0
-7154 7153 7155 0
-7155 7153 7154 0
7156 -8 -33 -49 -74 0
-7156 8 0
-7156 33 0
-7156 49 0
-7156 74 0
7157 -11 -33 -49 -65 0
-7157 11 0
-7157 33 0
-7157 49 0
-7157 65 0
7158 -20 -33 -49 -56 0
-7158 20 0
-7158 33 0
-7158 49 0
-7158 56 0
-7156 7157 7158 0
-7157 7156 7158 0
-7158 7156 7157 0
7159 -9 -31 -50 -75 0
-7159 9 0
-7159 31 0
-7159 50 0
-7159 75 0
7160 -12 -31 -50 -66 0
-7160 12 0
-7160 31 0
-7160 50 0
-7160 66 0
7161 -21 -31 -50 -57 0
-7161 21 0
-7161 31 0
-7161 50 0
-7161 57 0
-7159 7160 7161 0
-7160 7159 7161 0
-7161 7159 7160 0
7162 -9 -32 -49 -75 0
-7162 9 0
-7162 32 0
-7162 49 0
-7162 75 0
7163 -12 -32 -49 -66 0
-7163 12 0
-7163 32 0
-7163 49 0
-7163 66 0
7164 -21 -32 -49 -57 0
-7164 21 0
-7164 32 0
-7164 49 0
-7164 57 0
-7162 7163 7164 0
-7163 7162 7164 0
-7164 7162 7163 0
7165 -7 -32 -54 -70 0
-7165 7 0
-7165 32 0
-7165 54 0
-7165 70 0
7166 -10 -32 -54 -61 0
-7166 10 0
-7166 32 0
-7166 54 0
-7166 61 0
7167 -16 -32 -54 -55 0
-7167 16 0
-7167 32 0
-7167 54 0
-7167 55 0
-7165 7166 7167 0
-7166 7165 7167 0
-7167 7165 7166 0
7168 -7 -33 -53 -70 0
-7168 7 0
-7168 33 0
-7168 53 0
-7168 70 0
7169 -10 -33 -53 -61 0
-7169 10 0
-7169 33 0
-7169 53 0
-7169 61 0
7170 -16 -33 -53 -55 0
-7170 16 0
-7170 33 0
-7170 53 0
-7170 55 0
-7168 7169 7170 0
-7169 7168 7170 0
-7170 7168 7169 0
7171 -8 -31 -54 -71 0
-7171 8 0
-7171 31 0
-7171 54 0
-7171 71 0
7172 -11 -31 -54 -62 0
-7172 11 0
-7172 31 0
-7172 54 0
-7172 62 0
7173 -17 -31 -54 -56 0
-7173 17 0
-7173 31 0
-7173 54 0
-7173 56 0
-7171 7172 7173 0
-7172 7171 7173 0
-7173 7171 7172 0
7174 -8 -33 -52 -71 0
-7174 8 0
-7174 33 0
-7174 52 0
-7174 71 0
7175 -11 -33 -52 -62 0
-7175 11 0
-7175 33 0
-7175 52 0
-7175 62 0
7176 -17 -33 -52 -56 0
-7176 17 0
-7176 33 0
-7176 52 0
-7176 56 0
-7174 7175 7176 0
-7175 7174 7176 0
-7176 7174 7175 0
7177 -9 -31 -53 -72 0
-7177 9 0
-7177 31 0
-7177 53 0
-7177 72 0
7178 -12 -31 -53 -63 0
-7178 12 0
-7178 31 0
-7178 53 0
-7178 63 0
7179 -18 -31 -53 -57 0
-7179 18 0
-7179 31 0
-7179 53 0
-7179 57 0
-7177 7178 7179 0
-7178 7177 7179 0
-7179 7177 7178 0
7180 -9 -32 -52 -72 0
-7180 9 0
-7180 32 0
-7180 52 0
-7180 72 0
7181 -12 -32 -52 -63 0
-7181 12 0
-7181 32 0
-7181 52 0
-7181 63 0
7182 -18 -32 -52 -57 0
-7182 18 0
-7182 32 0
-7182 52 0
-7182 57 0
-7180 7181 7182 0
-7181 7180 7182 0
-7182 7180 7181 0
7183 -7 -35 -45 -79 0
-7183 7 0
-7183 35 0
-7183 45 0
-7183 79 0
7184 -13 -35 -45 -64 0
-7184 13 0
-7184 35 0
-7184 45 0
-7184 64 0
7185 -19 -35 -45 -58 0
-7185 19 0
-7185 35 0
-7185 45 0
-7185 58 0
-7183 7184 7185 0
-7184 7183 7185 0
-7185 7183 7184 0
7186 -7 -35 -45 -81 0
-7186 7 0
-7186 35 0
-7186 45 0
-7186 81 0
7187 -7 -35 -48 -75 0
-7187 7 0
-7187 35 0
-7187 48 0
-7187 75 0
7188 -7 -35 -54 -69 0
-7188 7 0
-7188 35 0
-7188 54 0
-7188 69 0
-7186 7187 7188 0
-7187 7186 7188 0
-7188 7186 7187 0
7189 -7 -36 -44 -79 0
-7189 7 0
-7189 36 0
-7189 44 0
-7189 79 0
7190 -13 -36 -44 -64 0
-7190 13 0
-7190 36 0
-7190 44 0
-7190 64 0
7191 -19 -36 -44 -58 0
-7191 19 0
-7191 36 0
-7191 44 0
-7191 58 0
-7189 7190 7191 0
-7190 7189 7191 0
-7191 7189 7190 0
7192 -7 -36 -44 -80 0
-7192 7 0
-7192 36 0
-7192 44 0
-7192 80 0
7193 -7 -36 -47 -74 0
-7193 7 0
-7193 36 0
-7193 47 0
-7193 74 0
7194 -7 -36 -53 -68 0
-7194 7 0
-7194 36 0
-7194 53 0
-7194 68 0
-7192 7193 7194 0
-7193 7192 7194 0
-7194 7192 7193 0
7195 -8 -34 -45 -80 0
-7195 8 0
-7195 34 0
-7195 45 0
-7195 80 0
7196 -14 -34 -45 -65 0
-7196 14 0
-7196 34 0
-7196 45 0
-7196 65 0
7197 -20 -34 -45 -59 0
-7197 20 0
-7197 34 0
-7197 45 0
-7197 59 0
-7195 7196 7197 0
-7196 7195 7197 0
-7197 7195 7196 0
7198 -8 -34 -45 -81 0
-7198 8 0
-7198 34 0
-7198 45 0
-7198 81 0
7199 -8 -34 -48 -75 0
-7199 8 0
-7199 34 0
-7199 48 0
-7199 75 0
7200 -8 -34 -54 -69 0
-7200 8 0
-7200 34 0
-7200 54 0
-7200 69 0
-7198 7199 7200 0
-7199 7198 7200 0
-7200 7198 7199 0
7201 -8 -36 -43 -79 0
-7201 8 0
-7201 36 0
-7201 43 0
-7201 79 0
7202 -8 -36 -46 -73 0
-7202 8 0
-7202 36 0
-7202 46 0
-7202 73 0
7203 -8 -36 -52 -67 0
-7203 8 0
-7203 36 0
-7203 52 0
-7203 67 0
-7201 7202 7203 0
-7202 7201 7203 0
-7203 7201 7202 0
7204 -8 -36 -43 -80 0
-7204 8 0
-7204 36 0
-7204 43 0
-7204 80 0
7205 -14 -36 -43 -65 0
-7205 14 0
-7205 36 0
-7205 43 0
-7205 65 0
7206 -20 -36 -43 -59 0
-7206 20 0
-7206 36 0
-7206 43 0
-7206 59 0
-7204 7205 7206 0
-7205 7204 7206 0
-7206 7204 7205 0
7207 -9 -34 -44 -80 0
-7207 9 0
-7207 34 0
-7207 44 0
-7207 80 0
7208 -9 -34 -47 -74 0
-7208 9 0
-7208 34 0
-7208 47 0
-7208 74 0
7209 -9 -34 -53 -68 0
-7209 9 0
-7209 34 0
-7209 53 0
-7209 68 0
-7207 7208 7209 0
-7208 7207 7209 0
-7209 7207 7208 0
7210 -9 -34 -44 -81 0
-7210 9 0
-7210 34 0
-7210 44 0
-7210 81 0
7211 -15 -34 -44 -66 0
-7211 15 0
-7211 34 0
-7211 44 0
-7211 66 0
7212 -21 -34 -44 -60 0
-7212 21 0
-7212 34 0
-7212 44 0
-7212 60 0
-7210 7211 7212 0
-7211 7210 7212 0
-7212 7210 7211 0
7213 -9 -35 -43 -79 0
-7213 9 0
-7213 35 0
-7213 43 0
-7213 79 0
7214 -9 -35 -46 -73 0
-7214 9 0
-7214 35 0
-7214 46 0
-7214 73 0
7215 -9 -35 -52 -67 0
-7215 9 0
-7215 35 0
-7215 52 0
-7215 67 0
-7213 7214 7215 0
-7214 7213 7215 0
-7215 7213 7214 0
7216 -9 -35 -43 -81 0
-7216 9 0
-7216 35 0
-7216 43 0
-7216 81 0
7217 -15 -35 -43 -66 0
-7217 15 0
-7217 35 0
-7217 43 0
-7217 66 0
7218 -21 -35 -43 -60 0
-7218 21 0
-7218 35 0
-7218 43 0
-7218 60 0
-7216 7217 7218 0
-7217 7216 7218 0
-7218 7216 7217 0
7219 -7 -35 -48 -73 0
-7219 7 0
-7219 35 0
-7219 48 0
-7219 73 0
7220 -10 -35 -48 -64 0
-7220 10 0
-7220 35 0
-7220 48 0
-7220 64 0
7221 -19 -35 -48 -55 0
-7221 19 0
-7221 35 0
-7221 48 0
-7221 55 0
-7219 7220 7221 0
-7220 7219 7221 0
-7221 7219 7220 0
7222 -7 -36 -47 -73 0
-7222 7 0
-7222 36 0
-7222 47 0
-7222 73 0
7223 -10 -36 -47 -64 0
-7223 10 0
-7223 36 0
-7223 47 0
-7223 64 0
7224 -19 -36 -47 -55 0
-7224 19 0
-7224 36 0
-7224 47 0
-7224 55 0
-7222 7223 7224 0
-7223 7222 7224 0
-7224 7222 7223 0
7225 -8 -34 -48 -74 0
-7225 8 0
-7225 34 0
-7225 48 0
-7225 74 0
7226 -11 -34 -48 -65 0
-7226 11 0
-7226 34 0
-7226 48 0
-7226 65 0
7227 -20 -34 -48 -56 0
-7227 20 0
-7227 34 0
-7227 48 0
-7227 56 0
-7225 7226 7227 0
-7226 7225 7227 0
-7227 7225 7226 0
7228 -8 -36 -46 -74 0
-7228 8 0
-7228 36 0
-7228 46 0
-7228 74 0
7229 -11 -36 -46 -65 0
-7229 11 0
-7229 36 0
-7229 46 0
-7229 65 0
7230 -20 -36 -46 -56 0
-7230 20 0
-7230 36 0
-7230 46 0
-7230 56 0
-7228 7229 7230 0
-7229 7228 7230 0
-7230 7228 7229 0
7231 -9 -34 -47 -75 0
-7231 9 0
-7231 34 0
-7231 47 0
-7231 75 0
7232 -12 -34 -47 -66 0
-7232 12 0
-7232 34 0
-7232 47 0
-7232 66 0
7233 -21 -34 -47 -57 0
-7233 21 0
-7233 34 0
-7233 47 0
-7233 57 0
-7231 7232 7233 0
-7232 7231 7233 0
-7233 7231 7232 0
7234 -9 -35 -46 -75 0
-7234 9 0
-7234 35 0
-7234 46 0
-7234 75 0
7235 -12 -35 -46 -66 0
-7235 12 0
-7235 35 0
-7235 46 0
-7235 66 0
7236 -21 -35 -46 -57 0
-7236 21 0
-7236 35 0
-7236 46 0
-7236 57 0
-7234 7235 7236 0
-7235 7234 7236 0
-7236 7234 7235 0
7237 -7 -35 -54 -67 0
-7237 7 0
-7237 35 0
-7237 54 0
-7237 67 0
7238 -10 -35 -54 -58 0
-7238 10 0
-7238 35 0
-7238 54 0
-7238 58 0
7239 -13 -35 -54 -55 0
-7239 13 0
-7239 35 0
-7239 54 0
-7239 55 0
-7237 7238 7239 0
-7238 7237 7239 0
-7239 7237 7238 0
7240 -7 -36 -53 -67 0
-7240 7 0
-7240 36 0
-7240 53 0
-7240 67 0
7241 -10 -36 -53 -58 0
-7241 10 0
-7241 36 0
-7241 53 0
-7241 58 0
7242 -13 -36 -53 -55 0
-7242 13 0
-7242 36 0
-7242 53 0
-7242 55 0
-7240 7241 7242 0
-7241 7240 7242 0
-7242 7240 7241 0
7243 -8 -34 -54 -68 0
-7243 8 0
-7243 34 0
-7243 54 0
-7243 68 0
7244 -11 -34 -54 -59 0
-7244 11 0
-7244 34 0
-7244 54 0
-7244 59 0
7245 -14 -34 -54 -56 0
-7245 14 0
-7245 34 0
-7245 54 0
-7245 56 0
-7243 7244 7245 0
-7244 7243 7245 0
-7245 7243 7244 0
7246 -8 -36 -52 -68 0
-7246 8 0
-7246 36 0
-7246 52 0
-7246 68 0
7247 -11 -36 -52 -59 0
-7247 11 0
-7247 36 0
-7247 52 0
-7247 59 0
7248 -14 -36 -52 -56 0
-7248 14 0
-7248 36 0
-7248 52 0
-7248 56 0
-7246 7247 7248 0
-7247 7246 7248 0
-7248 7246 7247 0
7249 -9 -34 -53 -69 0
-7249 9 0
-7249 34 0
-7249 53 0
-7249 69 0
7250 -12 -34 -53 -60 0
-7250 12 0
-7250 34 0
-7250 53 0
-7250 60 0
7251 -15 -34 -53 -57 0
-7251 15 0
-7251 34 0
-7251 53 0
-7251 57 0
-7249 7250 7251 0
-7250 7249 7251 0
-7251 7249 7250 0
7252 -9 -35 -52 -69 0
-7252 9 0
-7252 35 0
-7252 52 0
-7252 69 0
7253 -12 -35 -52 -60 0
-7253 12 0
-7253 35 0
-7253 52 0
-7253 60 0
7254 -15 -35 -52 -57 0
-7254 15 0
-7254 35 0
-7254 52 0
-7254 57 0
-7252 7253 7254 0
-7253 7252 7254 0
-7254 7252 7253 0
7255 -7 -38 -45 -76 0
-7255 7 0
-7255 38 0
-7255 45 0
-7255 76 0
7256 -13 -38 -45 -61 0
-7256 13 0
-7256 38 0
-7256 45 0
-7256 61 0
7257 -16 -38 -45 -58 0
-7257 16 0
-7257 38 0
-7257 45 0
-7257 58 0
-7255 7256 7257 0
-7256 7255 7257 0
-7257 7255 7256 0
7258 -7 -38 -45 -78 0
-7258 7 0
-7258 38 0
-7258 45 0
-7258 78 0
7259 -7 -38 -48 -72 0
-7259 7 0
-7259 38 0
-7259 48 0
-7259 72 0
7260 -7 -38 -51 -69 0
-7260 7 0
-7260 38 0
-7260 51 0
-7260 69 0
-7258 7259 7260 0
-7259 7258 7260 0
-7260 7258 7259 0
7261 -7 -39 -44 -76 0
-7261 7 0
-7261 39 0
-7261 44 0
-7261 76 0
7262 -13 -39 -44 -61 0
-7262 13 0
-7262 39 0
-7262 44 0
-7262 61 0
7263 -16 -39 -44 -58 0
-7263 16 0
-7263 39 0
-7263 44 0
-7263 58 0
-7261 7262 7263 0
-7262 7261 7263 0
-7263 7261 7262 0
7264 -7 -39 -44 -77 0
-7264 7 0
-7264 39 0
-7264 44 0
-7264 77 0
7265 -7 -39 -47 -71 0
-7265 7 0
-7265 39 0
-7265 47 0
-7265 71 0
7266 -7 -39 -50 -68 0
-7266 7 0
-7266 39 0
-7266 50 0
-7266 68 0
-7264 7265 7266 0
-7265 7264 7266 0
-7266 7264 7265 0
7267 -8 -37 -45 -77 0
-7267 8 0
-7267 37 0
-7267 45 0
-7267 77 0
7268 -14 -37 -45 -62 0
-7268 14 0
-7268 37 0
-7268 45 0
-7268 62 0
7269 -17 -37 -45 -59 0
-7269 17 0
-7269 37 0
-7269 45 0
-7269 59 0
-7267 7268 7269 0
-7268 7267 7269 0
-7269 7267 7268 0
7270 -8 -37 -45 -78 0
-7270 8 0
-7270 37 0
-7270 45 0
-7270 78 0
7271 -8 -37 -48 -72 0
-7271 8 0
-7271 37 0
-7271 48 0
-7271 72 0
7272 -8 -37 -51 -69 0
-7272 8 0
-7272 37 0
-7272 51 0
-7272 69 0
-7270 7271 7272 0
-7271 7270 7272 0
-7272 7270 7271 0
7273 -8 -39 -43 -76 0
-7273 8 0
-7273 39 0
-7273 43 0
-7273 76 0
7274 -8 -39 -46 -70 0
-7274 8 0
-7274 39 0
-7274 46 0
-7274 70 0
7275 -8 -39 -49 -67 0
-7275 8 0
-7275 39 0
-7275 49 0
-7275 67 0
-7273 7274 7275 0
-7274 7273 7275 0
-7275 7273 7274 0
7276 -8 -39 -43 -77 0
-7276 8 0
-7276 39 0
-7276 43 0
-7276 77 0
7277 -14 -39 -43 -62 0
-7277 14 0
-7277 39 0
-7277 43 0
-7277 62 0
7278 -17 -39 -43 -59 0
-7278 17 0
-7278 39 0
-7278 43 0
-7278 59 0
-7276 7277 7278 0
-7277 7276 7278 0
-7278 7276 7277 0
7279 -9 -37 -44 -77 0
-7279 9 0
-7279 37 0
-7279 44 0
-7279 77 0
7280 -9 -37 -47 -71 0
-7280 9 0
-7280 37 0
-7280 47 0
-7280 71 0
7281 -9 -37 -50 -68 0
-7281 9 0
-7281 37 0
-7281 50 0
-7281 68 0
-7279 7280 7281 0
-7280 7279 7281 0
-7281 7279 7280 0
7282 -9 -37 -44 -78 0
-7282 9 0
-7282 37 0
-7282 44 0
-7282 78 0
7283 -15 -37 -44 -63 0
-7283 15 0
-7283 37 0
-7283 44 0
-7283 63 0
7284 -18 -37 -44 -60 0
-7284 18 0
-7284 37 0
-7284 44 0
-7284 60 0
-7282 7283 7284 0
-7283 7282 7284 0
-7284 7282 7283 0
7285 -9 -38 -43 -76 0
-7285 9 0
-7285 38 0
-7285 43 0
-7285 76 0
7286 -9 -38 -46 -70 0
-7286 9 0
-7286 38 0
-7286 46 0
-7286 70 0
7287 -9 -38 -49 -67 0
-7287 9 0
-7287 38 0
-7287 49 0
-7287 67 0
-7285 7286 7287 0
-7286 7285 7287 0
-7287 7285 7286 0
7288 -9 -38 -43 -78 0
-7288 9 0
-7288 38 0
-7288 43 0
-7288 78 0
7289 -15 -38 -43 -63 0
-7289 15 0
-7289 38 0
-7289 43 0
-7289 63 0
7290 -18 -38 -43 -60 0
-7290 18 0
-7290 38 0
-7290 43 0
-7290 60 0
-7288 7289 7290 0
-7289 7288 7290 0
-7290 7288 7289 0
7291 -7 -38 -48 -70 0
-7291 7 0
-7291 38 0
-7291 48 0
-7291 70 0
7292 -10 -38 -48 -61 0
-7292 10 0
-7292 38 0
-7292 48 0
-7292 61 0
7293 -16 -38 -48 -55 0
-7293 16 0
-7293 38 0
-7293 48 0
-7293 55 0
-7291 7292 7293 0
-7292 7291 7293 0
-7293 7291 7292 0
7294 -7 -39 -47 -70 0
-7294 7 0
-7294 39 0
-7294 47 0
-7294 70 0
7295 -10 -39 -47 -61 0
-7295 10 0
-7295 39 0
-7295 47 0
-7295 61 0
7296 -16 -39 -47 -55 0
-7296 16 0
-7296 39 0
-7296 47 0
-7296 55 0
-7294 7295 7296 0
-7295 7294 7296 0
-7296 7294 7295 0
7297 -8 -37 -48 -71 0
-7297 8 0
-7297 37 0
-7297 48 0
-7297 71 0
7298 -11 -37 -48 -62 0
-7298 11 0
-7298 37 0
-7298 48 0
-7298 62 0
7299 -17 -37 -48 -56 0
-7299 17 0
-7299 37 0
-7299 48 0
-7299 56 0
-7297 7298 7299 0
-7298 7297 7299 0
-7299 7297 7298 0
7300 -8 -39 -46 -71 0
-7300 8 0
-7300 39 0
-7300 46 0
-7300 71 0
7301 -11 -39 -46 -62 0
-7301 11 0
-7301 39 0
-7301 46 0
-7301 62 0
7302 -17 -39 -46 -56 0
-7302 17 0
-7302 39 0
-7302 46 0
-7302 56 0
-7300 7301 7302 0
-7301 7300 7302 0
-7302 7300 7301 0
7303 -9 -37 -47 -72 0
-7303 9 0
-7303 37 0
-7303 47 0
-7303 72 0
7304 -12 -37 -47 -63 0
-7304 12 0
-7304 37 0
-7304 47 0
-7304 63 0
7305 -18 -37 -47 -57 0
-7305 18 0
-7305 37 0
-7305 47 0
-7305 57 0
-7303 7304 7305 0
-7304 7303 7305 0
-7305 7303 7304 0
7306 -9 -38 -46 -72 0
-7306 9 0
-7306 38 0
-7306 46 0
-7306 72 0
7307 -12 -38 -46 -63 0
-7307 12 0
-7307 38 0
-7307 46 0
-7307 63 0
7308 -18 -38 -46 -57 0
-7308 18 0
-7308 38 0
-7308 46 0
-7308 57 0
-7306 7307 7308 0
-7307 7306 7308 0
-7308 7306 7307 0
7309 -7 -38 -51 -67 0
-7309 7 0
-7309 38 0
-7309 51 0
-7309 67 0
7310 -10 -38 -51 -58 0
-7310 10 0
-7310 38 0
-7310 51 0
-7310 58 0
7311 -13 -38 -51 -55 0
-7311 13 0
-7311 38 0
-7311 51 0
-7311 55 0
-7309 7310 7311 0
-7310 7309 7311 0
-7311 7309 7310 0
7312 -7 -39 -50 -67 0
-7312 7 0
-7312 39 0
-7312 50 0
-7312 67 0
7313 -10 -39 -50 -58 0
-7313 10 0
-7313 39 0
-7313 50 0
-7313 58 0
7314 -13 -39 -50 -55 0
-7314 13 0
-7314 39 0
-7314 50 0
-7314 55 0
-7312 7313 7314 0
-7313 7312 7314 0
-7314 7312 7313 0
7315 -8 -37 -51 -68 0
-7315 8 0
-7315 37 0
-7315 51 0
-7315 68 0
7316 -11 -37 -51 -59 0
-7316 11 0
-7316 37 0
-7316 51 0
-7316 59 0
7317 -14 -37 -51 -56 0
-7317 14 0
-7317 37 0
-7317 51 0
-7317 56 0
-7315 7316 7317 0
-7316 7315 7317 0
-7317 7315 7316 0
7318 -8 -39 -49 -68 0
-7318 8 0
-7318 39 0
-7318 49 0
-7318 68 0
7319 -11 -39 -49 -59 0
-7319 11 0
-7319 39 0
-7319 49 0
-7319 59 0
7320 -14 -39 -49 -56 0
-7320 14 0
-7320 39 0
-7320 49 0
-7320 56 0
-7318 7319 7320 0
-7319 7318 7320 0
-7320 7318 7319 0
7321 -9 -37 -50 -69 0
-7321 9 0
-7321 37 0
-7321 50 0
-7321 69 0
7322 -12 -37 -50 -60 0
-7322 12 0
-7322 37 0
-7322 50 0
-7322 60 0
7323 -15 -37 -50 -57 0
-7323 15 0
-7323 37 0
-7323 50 0
-7323 57 0
-7321 7322 7323 0
-7322 7321 7323 0
-7323 7321 7322 0
7324 -9 -38 -49 -69 0
-7324 9 0
-7324 38 0
-7324 49 0
-7324 69 0
7325 -12 -38 -49 -60 0
-7325 12 0
-7325 38 0
-7325 49 0
-7325 60 0
7326 -15 -38 -49 -57 0
-7326 15 0
-7326 38 0
-7326 49 0
-7326 57 0
-7324 7325 7326 0
-7325 7324 7326 0
-7326 7324 7325 0
7327 -10 -23 -59 -82 0
-7327 10 0
-7327 23 0
-7327 59 0
-7327 82 0
7328 -10 -26 -47 -82 0
-7328 10 0
-7328 26 0
-7328 47 0
-7328 82 0
7329 -10 -32 -41 -82 0
-7329 10 0
-7329 32 0
-7329 41 0
-7329 82 0
7330 -16 -23 -59 -73 0
-7330 16 0
-7330 23 0
-7330 59 0
-7330 73 0
7331 -16 -26 -47 -73 0
-7331 16 0
-7331 26 0
-7331 47 0
-7331 73 0
7332 -16 -32 -41 -73 0
-7332 16 0
-7332 32 0
-7332 41 0
-7332 73 0
7333 -19 -23 -59 -70 0
-7333 19 0
-7333 23 0
-7333 59 0
-7333 70 0
7334 -19 -26 -47 -70 0
-7334 19 0
-7334 26 0
-7334 47 0
-7334 70 0
7335 -19 -32 -41 -70 0
-7335 19 0
-7335 32 0
-7335 41 0
-7335 70 0
-7327 7328 7329 7330 7331 7332 7333 7334 7335 0
-7328 7327 7329 7330 7331 7332 7333 7334 7335 0
-7329 7327 7328 7330 7331 7332 7333 7334 7335 0
-7330 7327 7328 7329 7331 7332 7333 7334 7335 0
-7331 7327 7328 7329 7330 7332 7333 7334 7335 0
-7332 7327 7328 7329 7330 7331 7333 7334 7335 0
-7333 7327 7328 7329 7330 7331 7332 7334 7335 0
-7334 7327 7328 7329 7330 7331 7332 7333 7335 0
-7335 7327 7328 7329 7330 7331 7332 7333 7334 0
7336 -10 -23 -59 -83 0
-7336 10 0
-7336 23 0
-7336 59 0
-7336 83 0
7337 -10 -23 -62 -80 0
-7337 10 0
-7337 23 0
-7337 62 0
-7337 80 0
7338 -10 -23 -65 -77 0
-7338 10 0
-7338 23 0
-7338 65 0
-7338 77 0
7339 -10 -26 -47 -83 0
-7339 10 0
-7339 26 0
-7339 47 0
-7339 83 0
7340 -10 -26 -50 -80 0
-7340 10 0
-7340 26 0
-7340 50 0
-7340 80 0
7341 -10 -26 -53 -77 0
-7341 10 0
-7341 26 0
-7341 53 0
-7341 77 0
7342 -10 -32 -41 -83 0
-7342 10 0
-7342 32 0
-7342 41 0
-7342 83 0
7343 -10 -32 -50 -65 0
-7343 10 0
-7343 32 0
-7343 50 0
-7343 65 0
7344 -10 -32 -53 -62 0
-7344 10 0
-7344 32 0
-7344 53 0
-7344 62 0
7345 -10 -35 -41 -80 0
-7345 10 0
-7345 35 0
-7345 41 0
-7345 80 0
7346 -10 -35 -47 -65 0
-7346 10 0
-7346 35 0
-7346 47 0
-7346 65 0
7347 -10 -35 -53 -59 0
-7347 10 0
-7347 35 0
-7347 53 0
-7347 59 0
7348 -10 -38 -41 -77 0
-7348 10 0
-7348 38 0
-7348 41 0
-7348 77 0
7349 -10 -38 -47 -62 0
-7349 10 0
-7349 38 0
-7349 47 0
-7349 62 0
7350 -10 -38 -50 -59 0
-7350 10 0
-7350 38 0
-7350 50 0
-7350 59 0
-7336 7337 7338 7339 7340 7341 7342 7343 7344 7345 7346 7347 7348 7349 7350 0
-7337 7336 7338 7339 7340 7341 7342 7343 7344 7345 7346 7347 7348 7349 7350 0
-7338 7336 7337 7339 7340 7341 7342 7343 7344 7345 7346 7347 7348 7349 7350 0
-7339 7336 7337 7338 7340 7341 7342 7343 7344 7345 7346 7347 7348 7349 7350 0
-7340 7336 7337 7338 7339 7341 7342 7343 7344 7345 7346 7347 7348 7349 7350 0
-7341 7336 7337 7338 7339 7340 7342 7343 7344 7345 7346 7347 7348 7349 7350 0
-7342 7336 7337 7338 7339 7340 7341 7343 7344 7345 7346 7347 7348 7349 7350 0
-7343 7336 7337 7338 7339 7340 7341 7342 7344 7345 7346 7347 7348 7349 7350 0
-7344 7336 7337 7338 7339 7340 7341 7342 7343 7345 7346 7347 7348 7349 7350 0
-7345 7336 7337 7338 7339 7340 7341 7342 7343 7344 7346 7347 7348 7349 7350 0
-7346 7336 7337 7338 7339 7340 7341 7342 7343 7344 7345 7347 7348 7349 7350 0
-7347 7336 7337 7338 7339 7340 7341 7342 7343 7344 7345 7346 7348 7349 7350 0
-7348 7336 7337 7338 7339 7340 7341 7342 7343 7344 7345 7346 7347 7349 7350 0
-7349 7336 7337 7338 7339 7340 7341 7342 7343 7344 7345 7346 7347 7348 7350 0
-7350 7336 7337 7338 7339 7340 7341 7342 7343 7344 7345 7346 7347 7348 7349 0
7351 -10 -23 -59 -84 0
-7351 10 0
-7351 23 0
-7351 59 0
-7351 84 0
7352 -10 -26 -47 -84 0
-7352 10 0
-7352 26 0
-7352 47 0
-7352 84 0
7353 -10 -32 -41 -84 0
-7353 10 0
-7353 32 0
-7353 41 0
-7353 84 0
-7351 7352 7353 0
-7352 7351 7353 0
-7353 7351 7352 0
7354 -10 -23 -60 -82 0
-7354 10 0
-7354 23 0
-7354 60 0
-7354 82 0
7355 -16 -23 -60 -73 0
-7355 16 0
-7355 23 0
-7355 60 0
-7355 73 0
7356 -19 -23 -60 -70 0
-7356 19 0
-7356 23 0
-7356 60 0
-7356 70 0
-7354 7355 7356 0
-7355 7354 7356 0
-7356 7354 7355 0
7357 -10 -23 -60 -83 0
-7357 10 0
-7357 23 0
-7357 60 0
-7357 83 0
7358 -10 -35 -53 -60 0
-7358 10 0
-7358 35 0
-7358 53 0
-7358 60 0
7359 -10 -38 -50 -60 0
-7359 10 0
-7359 38 0
-7359 50 0
-7359 60 0
-7357 7358 7359 0
-7358 7357 7359 0
-7359 7357 7358 0
7360 -10 -23 -60 -84 0
-7360 10 0
-7360 23 0
-7360 60 0
-7360 84 0
7361 -10 -23 -63 -81 0
-7361 10 0
-7361 23 0
-7361 63 0
-7361 81 0
7362 -10 -23 -66 -78 0
-7362 10 0
-7362 23 0
-7362 66 0
-7362 78 0
-7360 7361 7362 0
-7361 7360 7362 0
-7362 7360 7361 0
7363 -10 -24 -59 -82 0
-7363 10 0
-7363 24 0
-7363 59 0
-7363 82 0
7364 -16 -24 -59 -73 0
-7364 16 0
-7364 24 0
-7364 59 0
-7364 73 0
7365 -19 -24 -59 -70 0
-7365 19 0
-7365 24 0
-7365 59 0
-7365 70 0
-7363 7364 7365 0
-7364 7363 7365 0
-7365 7363 7364 0
7366 -10 -24 -59 -83 0
-7366 10 0
-7366 24 0
-7366 59 0
-7366 83 0
7367 -10 -24 -62 -80 0
-7367 10 0
-7367 24 0
-7367 62 0
-7367 80 0
7368 -10 -24 -65 -77 0
-7368 10 0
-7368 24 0
-7368 65 0
-7368 77 0
-7366 7367 7368 0
-7367 7366 7368 0
-7368 7366 7367 0
7369 -10 -24 -59 -84 0
-7369 10 0
-7369 24 0
-7369 59 0
-7369 84 0
7370 -10 -36 -54 -59 0
-7370 10 0
-7370 36 0
-7370 54 0
-7370 59 0
7371 -10 -39 -51 -59 0
-7371 10 0
-7371 39 0
-7371 51 0
-7371 59 0
-7369 7370 7371 0
-7370 7369 7371 0
-7371 7369 7370 0
7372 -10 -24 -60 -82 0
-7372 10 0
-7372 24 0
-7372 60 0
-7372 82 0
7373 -10 -27 -48 -82 0
-7373 10 0
-7373 27 0
-7373 48 0
-7373 82 0
7374 -10 -33 -42 -82 0
-7374 10 0
-7374 33 0
-7374 42 0
-7374 82 0
7375 -16 -24 -60 -73 0
-7375 16 0
-7375 24 0
-7375 60 0
-7375 73 0
7376 -16 -27 -48 -73 0
-7376 16 0
-7376 27 0
-7376 48 0
-7376 73 0
7377 -16 -33 -42 -73 0
-7377 16 0
-7377 33 0
-7377 42 0
-7377 73 0
7378 -19 -24 -60 -70 0
-7378 19 0
-7378 24 0
-7378 60 0
-7378 70 0
7379 -19 -27 -48 -70 0
-7379 19 0
-7379 27 0
-7379 48 0
-7379 70 0
7380 -19 -33 -42 -70 0
-7380 19 0
-7380 33 0
-7380 42 0
-7380 70 0
-7372 7373 7374 7375 7376 7377 7378 7379 7380 0
-7373 7372 7374 7375 7376 7377 7378 7379 7380 0
-7374 7372 7373 7375 7376 7377 7378 7379 7380 0
-7375 7372 7373 7374 7376 7377 7378 7379 7380 0
-7376 7372 7373 7374 7375 7377 7378 7379 7380 0
-7377 7372 7373 7374 7375 7376 7378 7379 7380 0
-7378 7372 7373 7374 7375 7376 7377 7379 7380 0
-7379 7372 7373 7374 7375 7376 7377 7378 7380 0
-7380 7372 7373 7374 7375 7376 7377 7378 7379 0
7381 -10 -24 -60 -83 0
-7381 10 0
-7381 24 0
-7381 60 0
-7381 83 0
7382 -10 -27 -48 -83 0
-7382 10 0
-7382 27 0
-7382 48 0
-7382 83 0
7383 -10 -33 -42 -83 0
-7383 10 0
-7383 33 0
-7383 42 0
-7383 83 0
-7381 7382 7383 0
-7382 7381 7383 0
-7383 7381 7382 0
7384 -10 -24 -60 -84 0
-7384 10 0
-7384 24 0
-7384 60 0
-7384 84 0
7385 -10 -24 -63 -81 0
-7385 10 0
-7385 24 0
-7385 63 0
-7385 81 0
7386 -10 -24 -66 -78 0
-7386 10 0
-7386 24 0
-7386 66 0
-7386 78 0
7387 -10 -27 -48 -84 0
-7387 10 0
-7387 27 0
-7387 48 0
-7387 84 0
7388 -10 -27 -51 -81 0
-7388 10 0
-7388 27 0
-7388 51 0
-7388 81 0
7389 -10 -27 -54 -78 0
-7389 10 0
-7389 27 0
-7389 54 0
-7389 78 0
7390 -10 -33 -42 -84 0
-7390 10 0
-7390 33 0
-7390 42 0
-7390 84 0
7391 -10 -33 -51 -66 0
-7391 10 0
-7391 33 0
-7391 51 0
-7391 66 0
7392 -10 -33 -54 -63 0
-7392 10 0
-7392 33 0
-7392 54 0
-7392 63 0
7393 -10 -36 -42 -81 0
-7393 10 0
-7393 36 0
-7393 42 0
-7393 81 0
7394 -10 -36 -48 -66 0
-7394 10 0
-7394 36 0
-7394 48 0
-7394 66 0
7395 -10 -36 -54 -60 0
-7395 10 0
-7395 36 0
-7395 54 0
-7395 60 0
7396 -10 -39 -42 -78 0
-7396 10 0
-7396 39 0
-7396 42 0
-7396 78 0
7397 -10 -39 -48 -63 0
-7397 10 0
-7397 39 0
-7397 48 0
-7397 63 0
7398 -10 -39 -51 -60 0
-7398 10 0
-7398 39 0
-7398 51 0
-7398 60 0
-7384 7385 7386 7387 7388 7389 7390 7391 7392 7393 7394 7395 7396 7397 7398 0
-7385 7384 7386 7387 7388 7389 7390 7391 7392 7393 7394 7395 7396 7397 7398 0
-7386 7384 7385 7387 7388 7389 7390 7391 7392 7393 7394 7395 7396 7397 7398 0
-7387 7384 7385 7386 7388 7389 7390 7391 7392 7393 7394 7395 7396 7397 7398 0
-7388 7384 7385 7386 7387 7389 7390 7391 7392 7393 7394 7395 7396 7397 7398 0
-7389 7384 7385 7386 7387 7388 7390 7391 7392 7393 7394 7395 7396 7397 7398 0
-7390 7384 7385 7386 7387 7388 7389 7391 7392 7393 7394 7395 7396 7397 7398 0
-7391 7384 7385 7386 7387 7388 7389 7390 7392 7393 7394 7395 7396 7397 7398 0
-7392 7384 7385 7386 7387 7388 7389 7390 7391 7393 7394 7395 7396 7397 7398 0
-7393 7384 7385 7386 7387 7388 7389 7390 7391 7392 7394 7395 7396 7397 7398 0
-7394 7384 7385 7386 7387 7388 7389 7390 7391 7392 7393 7395 7396 7397 7398 0
-7395 7384 7385 7386 7387 7388 7389 7390 7391 7392 7393 7394 7396 7397 7398 0
-7396 7384 7385 7386 7387 7388 7389 7390 7391 7392 7393 7394 7395 7397 7398 0
-7397 7384 7385 7386 7387 7388 7389 7390 7391 7392 7393 7394 7395 7396 7398 0
-7398 7384 7385 7386 7387 7388 7389 7390 7391 7392 7393 7394 7395 7396 7397 0
7399 -11 -22 -58 -82 0
-7399 11 0
-7399 22 0
-7399 58 0
-7399 82 0
7400 -11 -22 -61 -79 0
-7400 11 0
-7400 22 0
-7400 61 0
-7400 79 0
7401 -11 -22 -64 -76 0
-7401 11 0
-7401 22 0
-7401 64 0
-7401 76 0
7402 -11 -25 -46 -82 0
-7402 11 0
-7402 25 0
-7402 46 0
-7402 82 0
7403 -11 -25 -49 -79 0
-7403 11 0
-7403 25 0
-7403 49 0
-7403 79 0
7404 -11 -25 -52 -76 0
-7404 11 0
-7404 25 0
-7404 52 0
-7404 76 0
7405 -11 -31 -40 -82 0
-7405 11 0
-7405 31 0
-7405 40 0
-7405 82 0
7406 -11 -31 -49 -64 0
-7406 11 0
-7406 31 0
-7406 49 0
-7406 64 0
7407 -11 -31 -52 -61 0
-7407 11 0
-7407 31 0
-7407 52 0
-7407 61 0
7408 -11 -34 -40 -79 0
-7408 11 0
-7408 34 0
-7408 40 0
-7408 79 0
7409 -11 -34 -46 -64 0
-7409 11 0
-7409 34 0
-7409 46 0
-7409 64 0
7410 -11 -34 -52 -58 0
-7410 11 0
-7410 34 0
-7410 52 0
-7410 58 0
7411 -11 -37 -40 -76 0
-7411 11 0
-7411 37 0
-7411 40 0
-7411 76 0
7412 -11 -37 -46 -61 0
-7412 11 0
-7412 37 0
-7412 46 0
-7412 61 0
7413 -11 -37 -49 -58 0
-7413 11 0
-7413 37 0
-7413 49 0
-7413 58 0
-7399 7400 7401 7402 7403 7404 7405 7406 7407 7408 7409 7410 7411 7412 7413 0
-7400 7399 7401 7402 7403 7404 7405 7406 7407 7408 7409 7410 7411 7412 7413 0
-7401 7399 7400 7402 7403 7404 7405 7406 7407 7408 7409 7410 7411 7412 7413 0
-7402 7399 7400 7401 7403 7404 7405 7406 7407 7408 7409 7410 7411 7412 7413 0
-7403 7399 7400 7401 7402 7404 7405 7406 7407 7408 7409 7410 7411 7412 7413 0
-7404 7399 7400 7401 7402 7403 7405 7406 7407 7408 7409 7410 7411 7412 7413 0
-7405 7399 7400 7401 7402 7403 7404 7406 7407 7408 7409 7410 7411 7412 7413 0
-7406 7399 7400 7401 7402 7403 7404 7405 7407 7408 7409 7410 7411 7412 7413 0
-7407 7399 7400 7401 7402 7403 7404 7405 7406 7408 7409 7410 7411 7412 7413 0
-7408 7399 7400 7401 7402 7403 7404 7405 7406 7407 7409 7410 7411 7412 7413 0
-7409 7399 7400 7401 7402 7403 7404 7405 7406 7407 7408 7410 7411 7412 7413 0
-7410 7399 7400 7401 7402 7403 7404 7405 7406 7407 7408 7409 7411 7412 7413 0
-7411 7399 7400 7401 7402 7403 7404 7405 7406 7407 7408 7409 7410 7412 7413 0
-7412 7399 7400 7401 7402 7403 7404 7405 7406 7407 7408 7409 7410 7411 7413 0
-7413 7399 7400 7401 7402 7403 7404 7405 7406 7407 7408 7409 7410 7411 7412 0
7414 -11 -22 -58 -83 0
-7414 11 0
-7414 22 0
-7414 58 0
-7414 83 0
7415 -11 -25 -46 -83 0
-7415 11 0
-7415 25 0
-7415 46 0
-7415 83 0
7416 -11 -31 -40 -83 0
-7416 11 0
-7416 31 0
-7416 40 0
-7416 83 0
7417 -17 -22 -58 -74 0
-7417 17 0
-7417 22 0
-7417 58 0
-7417 74 0
7418 -17 -25 -46 -74 0
-7418 17 0
-7418 25 0
-7418 46 0
-7418 74 0
7419 -17 -31 -40 -74 0
-7419 17 0
-7419 31 0
-7419 40 0
-7419 74 0
7420 -20 -22 -58 -71 0
-7420 20 0
-7420 22 0
-7420 58 0
-7420 71 0
7421 -20 -25 -46 -71 0
-7421 20 0
-7421 25 0
-7421 46 0
-7421 71 0
7422 -20 -31 -40 -71 0
-7422 20 0
-7422 31 0
-7422 40 0
-7422 71 0
-7414 7415 7416 7417 7418 7419 7420 7421 7422 0
-7415 7414 7416 7417 7418 7419 7420 7421 7422 0
-7416 7414 7415 7417 7418 7419 7420 7421 7422 0
-7417 7414 7415 7416 7418 7419 7420 7421 7422 0
-7418 7414 7415 7416 7417 7419 7420 7421 7422 0
-7419 7414 7415 7416 7417 7418 7420 7421 7422 0
-7420 7414 7415 7416 7417 7418 7419 7421 7422 0
-7421 7414 7415 7416 7417 7418 7419 7420 7422 0
-7422 7414 7415 7416 7417 7418 7419 7420 7421 0
7423 -11 -22 -58 -84 0
-7423 11 0
-7423 22 0
-7423 58 0
-7423 84 0
7424 -11 -25 -46 -84 0
-7424 11 0
-7424 25 0
-7424 46 0
-7424 84 0
7425 -11 -31 -40 -84 0
-7425 11 0
-7425 31 0
-7425 40 0
-7425 84 0
-7423 7424 7425 0
-7424 7423 7425 0
-7425 7423 7424 0
7426 -11 -22 -60 -82 0
-7426 11 0
-7426 22 0
-7426 60 0
-7426 82 0
7427 -11 -34 -52 -60 0
-7427 11 0
-7427 34 0
-7427 52 0
-7427 60 0
7428 -11 -37 -49 -60 0
-7428 11 0
-7428 37 0
-7428 49 0
-7428 60 0
-7426 7427 7428 0
-7427 7426 7428 0
-7428 7426 7427 0
7429 -11 -22 -60 -83 0
-7429 11 0
-7429 22 0
-7429 60 0
-7429 83 0
7430 -17 -22 -60 -74 0
-7430 17 0
-7430 22 0
-7430 60 0
-7430 74 0
7431 -20 -22 -60 -71 0
-7431 20 0
-7431 22 0
-7431 60 0
-7431 71 0
-7429 7430 7431 0
-7430 7429 7431 0
-7431 7429 7430 0
7432 -11 -22 -60 -84 0
-7432 11 0
-7432 22 0
-7432 60 0
-7432 84 0
7433 -11 -22 -63 -81 0
-7433 11 0
-7433 22 0
-7433 63 0
-7433 81 0
7434 -11 -22 -66 -78 0
-7434 11 0
-7434 22 0
-7434 66 0
-7434 78 0
-7432 7433 7434 0
-7433 7432 7434 0
-7434 7432 7433 0
7435 -11 -24 -58 -82 0
-7435 11 0
-7435 24 0
-7435 58 0
-7435 82 0
7436 -11 -24 -61 -79 0
-7436 11 0
-7436 24 0
-7436 61 0
-7436 79 0
7437 -11 -24 -64 -76 0
-7437 11 0
-7437 24 0
-7437 64 0
-7437 76 0
-7435 7436 7437 0
-7436 7435 7437 0
-7437 7435 7436 0
7438 -11 -24 -58 -83 0
-7438 11 0
-7438 24 0
-7438 58 0
-7438 83 0
7439 -17 -24 -58 -74 0
-7439 17 0
-7439 24 0
-7439 58 0
-7439 74 0
7440 -20 -24 -58 -71 0
-7440 20 0
-7440 24 0
-7440 58 0
-7440 71 0
-7438 7439 7440 0
-7439 7438 7440 0
-7440 7438 7439 0
7441 -11 -24 -58 -84 0
-7441 11 0
-7441 24 0
-7441 58 0
-7441 84 0
7442 -11 -36 -54 -58 0
-7442 11 0
-7442 36 0
-7442 54 0
-7442 58 0
7443 -11 -39 -51 -58 0
-7443 11 0
-7443 39 0
-7443 51 0
-7443 58 0
-7441 7442 7443 0
-7442 7441 7443 0
-7443 7441 7442 0
7444 -11 -24 -60 -82 0
-7444 11 0
-7444 24 0
-7444 60 0
-7444 82 0
7445 -11 -27 -48 -82 0
-7445 11 0
-7445 27 0
-7445 48 0
-7445 82 0
7446 -11 -33 -42 -82 0
-7446 11 0
-7446 33 0
-7446 42 0
-7446 82 0
-7444 7445 7446 0
-7445 7444 7446 0
-7446 7444 7445 0
7447 -11 -24 -60 -83 0
-7447 11 0
-7447 24 0
-7447 60 0
-7447 83 0
7448 -11 -27 -48 -83 0
-7448 11 0
-7448 27 0
-7448 48 0
-7448 83 0
7449 -11 -33 -42 -83 0
-7449 11 0
-7449 33 0
-7449 42 0
-7449 83 0
7450 -17 -24 -60 -74 0
-7450 17 0
-7450 24 0
-7450 60 0
-7450 74 0
7451 -17 -27 -48 -74 0
-7451 17 0
-7451 27 0
-7451 48 0
-7451 74 0
7452 -17 -33 -42 -74 0
-7452 17 0
-7452 33 0
-7452 42 0
-7452 74 0
7453 -20 -24 -60 -71 0
-7453 20 0
-7453 24 0
-7453 60 0
-7453 71 0
7454 -20 -27 -48 -71 0
-7454 20 0
-7454 27 0
-7454 48 0
-7454 71 0
7455 -20 -33 -42 -71 0
-7455 20 0
-7455 33 0
-7455 42 0
-7455 71 0
-7447 7448 7449 7450 7451 7452 7453 7454 7455 0
-7448 7447 7449 7450 7451 7452 7453 7454 7455 0
-7449 7447 7448 7450 7451 7452 7453 7454 7455 0
-7450 7447 7448 7449 7451 7452 7453 7454 7455 0
-7451 7447 7448 7449 7450 7452 7453 7454 7455 0
-7452 7447 7448 7449 7450 7451 7453 7454 7455 0
-7453 7447 7448 7449 7450 7451 7452 7454 7455 0
-7454 7447 7448 7449 7450 7451 7452 7453 7455 0
-7455 7447 7448 7449 7450 7451 7452 7453 7454 0
7456 -11 -24 -60 -84 0
-7456 11 0
-7456 24 0
-7456 60 0
-7456 84 0
7457 -11 -24 -63 -81 0
-7457 11 0
-7457 24 0
-7457 63 0
-7457 81 0
7458 -11 -24 -66 -78 0
-7458 11 0
-7458 24 0
-7458 66 0
-7458 78 0
7459 -11 -27 -48 -84 0
-7459 11 0
-7459 27 0
-7459 48 0
-7459 84 0
7460 -11 -27 -51 -81 0
-7460 11 0
-7460 27 0
-7460 51 0
-7460 81 0
7461 -11 -27 -54 -78 0
-7461 11 0
-7461 27 0
-7461 54 0
-7461 78 0
7462 -11 -33 -42 -84 0
-7462 11 0
-7462 33 0
-7462 42 0
-7462 84 0
7463 -11 -33 -51 -66 0
-7463 11 0
-7463 33 0
-7463 51 0
-7463 66 0
7464 -11 -33 -54 -63 0
-7464 11 0
-7464 33 0
-7464 54 0
-7464 63 0
7465 -11 -36 -42 -81 0
-7465 11 0
-7465 36 0
-7465 42 0
-7465 81 0
7466 -11 -36 -48 -66 0
-7466 11 0
-7466 36 0
-7466 48 0
-7466 66 0
7467 -11 -36 -54 -60 0
-7467 11 0
-7467 36 0
-7467 54 0
-7467 60 0
7468 -11 -39 -42 -78 0
-7468 11 0
-7468 39 0
-7468 42 0
-7468 78 0
7469 -11 -39 -48 -63 0
-7469 11 0
-7469 39 0
-7469 48 0
-7469 63 0
7470 -11 -39 -51 -60 0
-7470 11 0
-7470 39 0
-7470 51 0
-7470 60 0
-7456 7457 7458 7459 7460 7461 7462 7463 7464 7465 7466 7467 7468 7469 7470 0
-7457 7456 7458 7459 7460 7461 7462 7463 7464 7465 7466 7467 7468 7469 7470 0
-7458 7456 7457 7459 7460 7461 7462 7463 7464 7465 7466 7467 7468 7469 7470 0
-7459 7456 7457 7458 7460 7461 7462 7463 7464 7465 7466 7467 7468 7469 7470 0
-7460 7456 7457 7458 7459 7461 7462 7463 7464 7465 7466 7467 7468 7469 7470 0
-7461 7456 7457 7458 7459 7460 7462 7463 7464 7465 7466 7467 7468 7469 7470 0
-7462 7456 7457 7458 7459 7460 7461 7463 7464 7465 7466 7467 7468 7469 7470 0
-7463 7456 7457 7458 7459 7460 7461 7462 7464 7465 7466 7467 7468 7469 7470 0
-7464 7456 7457 7458 7459 7460 7461 7462 7463 7465 7466 7467 7468 7469 7470 0
-7465 7456 7457 7458 7459 7460 7461 7462 7463 7464 7466 7467 7468 7469 7470 0
-7466 7456 7457 7458 7459 7460 7461 7462 7463 7464 7465 7467 7468 7469 7470 0
-7467 7456 7457 7458 7459 7460 7461 7462 7463 7464 7465 7466 7468 7469 7470 0
-7468 7456 7457 7458 7459 7460 7461 7462 7463 7464 7465 7466 7467 7469 7470 0
-7469 7456 7457 7458 7459 7460 7461 7462 7463 7464 7465 7466 7467 7468 7470 0
-7470 7456 7457 7458 7459 7460 7461 7462 7463 7464 7465 7466 7467 7468 7469 0
7471 -12 -22 -58 -82 0
-7471 12 0
-7471 22 0
-7471 58 0
-7471 82 0
7472 -12 -22 -61 -79 0
-7472 12 0
-7472 22 0
-7472 61 0
-7472 79 0
7473 -12 -22 -64 -76 0
-7473 12 0
-7473 22 0
-7473 64 0
-7473 76 0
7474 -12 -25 -46 -82 0
-7474 12 0
-7474 25 0
-7474 46 0
-7474 82 0
7475 -12 -25 -49 -79 0
-7475 12 0
-7475 25 0
-7475 49 0
-7475 79 0
7476 -12 -25 -52 -76 0
-7476 12 0
-7476 25 0
-7476 52 0
-7476 76 0
7477 -12 -31 -40 -82 0
-7477 12 0
-7477 31 0
-7477 40 0
-7477 82 0
7478 -12 -31 -49 -64 0
-7478 12 0
-7478 31 0
-7478 49 0
-7478 64 0
7479 -12 -31 -52 -61 0
-7479 12 0
-7479 31 0
-7479 52 0
-7479 61 0
7480 -12 -34 -40 -79 0
-7480 12 0
-7480 34 0
-7480 40 0
-7480 79 0
7481 -12 -34 -46 -64 0
-7481 12 0
-7481 34 0
-7481 46 0
-7481 64 0
7482 -12 -34 -52 -58 0
-7482 12 0
-7482 34 0
-7482 52 0
-7482 58 0
7483 -12 -37 -40 -76 0
-7483 12 0
-7483 37 0
-7483 40 0
-7483 76 0
7484 -12 -37 -46 -61 0
-7484 12 0
-7484 37 0
-7484 46 0
-7484 61 0
7485 -12 -37 -49 -58 0
-7485 12 0
-7485 37 0
-7485 49 0
-7485 58 0
-7471 7472 7473 7474 7475 7476 7477 7478 7479 7480 7481 7482 7483 7484 7485 0
-7472 7471 7473 7474 7475 7476 7477 7478 7479 7480 7481 7482 7483 7484 7485 0
-7473 7471 7472 7474 7475 7476 7477 7478 7479 7480 7481 7482 7483 7484 7485 0
-7474 7471 7472 7473 7475 7476 7477 7478 7479 7480 7481 7482 7483 7484 7485 0
-7475 7471 7472 7473 7474 7476 7477 7478 7479 7480 7481 7482 7483 7484 7485 0
-7476 7471 7472 7473 7474 7475 7477 7478 7479 7480 7481 7482 7483 7484 7485 0
-7477 7471 7472 7473 7474 7475 7476 7478 7479 7480 7481 7482 7483 7484 7485 0
-7478 7471 7472 7473 7474 7475 7476 7477 7479 7480 7481 7482 7483 7484 7485 0
-7479 7471 7472 7473 7474 7475 7476 7477 7478 7480 7481 7482 7483 7484 7485 0
-7480 7471 7472 7473 7474 7475 7476 7477 7478 7479 7481 7482 7483 7484 7485 0
-7481 7471 7472 7473 7474 7475 7476 7477 7478 7479 7480 7482 7483 7484 7485 0
-7482 7471 7472 7473 7474 7475 7476 7477 7478 7479 7480 7481 7483 7484 7485 0
-7483 7471 7472 7473 7474 7475 7476 7477 7478 7479 7480 7481 7482 7484 7485 0
-7484 7471 7472 7473 7474 7475 7476 7477 7478 7479 7480 7481 7482 7483 7485 0
-7485 7471 7472 7473 7474 7475 7476 7477 7478 7479 7480 7481 7482 7483 7484 0
7486 -12 -22 -58 -83 0
-7486 12 0
-7486 22 0
-7486 58 0
-7486 83 0
7487 -12 -25 -46 -83 0
-7487 12 0
-7487 25 0
-7487 46 0
-7487 83 0
7488 -12 -31 -40 -83 0
-7488 12 0
-7488 31 0
-7488 40 0
-7488 83 0
-7486 7487 7488 0
-7487 7486 7488 0
-7488 7486 7487 0
7489 -12 -22 -58 -84 0
-7489 12 0
-7489 22 0
-7489 58 0
-7489 84 0
7490 -12 -25 -46 -84 0
-7490 12 0
-7490 25 0
-7490 46 0
-7490 84 0
7491 -12 -31 -40 -84 0
-7491 12 0
-7491 31 0
-7491 40 0
-7491 84 0
7492 -18 -22 -58 -75 0
-7492 18 0
-7492 22 0
-7492 58 0
-7492 75 0
7493 -18 -25 -46 -75 0
-7493 18 0
-7493 25 0
-7493 46 0
-7493 75 0
7494 -18 -31 -40 -75 0
-7494 18 0
-7494 31 0
-7494 40 0
-7494 75 0
7495 -21 -22 -58 -72 0
-7495 21 0
-7495 22 0
-7495 58 0
-7495 72 0
7496 -21 -25 -46 -72 0
-7496 21 0
-7496 25 0
-7496 46 0
-7496 72 0
7497 -21 -31 -40 -72 0
-7497 21 0
-7497 31 0
-7497 40 0
-7497 72 0
-7489 7490 7491 7492 7493 7494 7495 7496 7497 0
-7490 7489 7491 7492 7493 7494 7495 7496 7497 0
-7491 7489 7490 7492 7493 7494 7495 7496 7497 0
-7492 7489 7490 7491 7493 7494 7495 7496 7497 0
-7493 7489 7490 7491 7492 7494 7495 7496 7497 0
-7494 7489 7490 7491 7492 7493 7495 7496 7497 0
-7495 7489 7490 7491 7492 7493 7494 7496 7497 0
-7496 7489 7490 7491 7492 7493 7494 7495 7497 0
-7497 7489 7490 7491 7492 7493 7494 7495 7496 0
7498 -12 -22 -59 -82 0
-7498 12 0
-7498 22 0
-7498 59 0
-7498 82 0
7499 -12 -34 -52 -59 0
-7499 12 0
-7499 34 0
-7499 52 0
-7499 59 0
7500 -12 -37 -49 -59 0
-7500 12 0
-7500 37 0
-7500 49 0
-7500 59 0
-7498 7499 7500 0
-7499 7498 7500 0
-7500 7498 7499 0
7501 -12 -22 -59 -83 0
-7501 12 0
-7501 22 0
-7501 59 0
-7501 83 0
7502 -12 -22 -62 -80 0
-7502 12 0
-7502 22 0
-7502 62 0
-7502 80 0
7503 -12 -22 -65 -77 0
-7503 12 0
-7503 22 0
-7503 65 0
-7503 77 0
-7501 7502 7503 0
-7502 7501 7503 0
-7503 7501 7502 0
7504 -12 -22 -59 -84 0
-7504 12 0
-7504 22 0
-7504 59 0
-7504 84 0
7505 -18 -22 -59 -75 0
-7505 18 0
-7505 22 0
-7505 59 0
-7505 75 0
7506 -21 -22 -59 -72 0
-7506 21 0
-7506 22 0
-7506 59 0
-7506 72 0
-7504 7505 7506 0
-7505 7504 7506 0
-7506 7504 7505 0
7507 -12 -23 -58 -82 0
-7507 12 0
-7507 23 0
-7507 58 0
-7507 82 0
7508 -12 -23 -61 -79 0
-7508 12 0
-7508 23 0
-7508 61 0
-7508 79 0
7509 -12 -23 -64 -76 0
-7509 12 0
-7509 23 0
-7509 64 0
-7509 76 0
-7507 7508 7509 0
-7508 7507 7509 0
-7509 7507 7508 0
7510 -12 -23 -58 -83 0
-7510 12 0
-7510 23 0
-7510 58 0
-7510 83 0
7511 -12 -35 -53 -58 0
-7511 12 0
-7511 35 0
-7511 53 0
-7511 58 0
7512 -12 -38 -50 -58 0
-7512 12 0
-7512 38 0
-7512 50 0
-7512 58 0
-7510 7511 7512 0
-7511 7510 7512 0
-7512 7510 7511 0
7513 -12 -23 -58 -84 0
-7513 12 0
-7513 23 0
-7513 58 0
-7513 84 0
7514 -18 -23 -58 -75 0
-7514 18 0
-7514 23 0
-7514 58 0
-7514 75 0
7515 -21 -23 -58 -72 0
-7515 21 0
-7515 23 0
-7515 58 0
-7515 72 0
-7513 7514 7515 0
-7514 7513 7515 0
-7515 7513 7514 0
7516 -12 -23 -59 -82 0
-7516 12 0
-7516 23 0
-7516 59 0
-7516 82 0
7517 -12 -26 -47 -82 0
-7517 12 0
-7517 26 0
-7517 47 0
-7517 82 0
7518 -12 -32 -41 -82 0
-7518 12 0
-7518 32 0
-7518 41 0
-7518 82 0
-7516 7517 7518 0
-7517 7516 7518 0
-7518 7516 7517 0
7519 -12 -23 -59 -83 0
-7519 12 0
-7519 23 0
-7519 59 0
-7519 83 0
7520 -12 -23 -62 -80 0
-7520 12 0
-7520 23 0
-7520 62 0
-7520 80 0
7521 -12 -23 -65 -77 0
-7521 12 0
-7521 23 0
-7521 65 0
-7521 77 0
7522 -12 -26 -47 -83 0
-7522 12 0
-7522 26 0
-7522 47 0
-7522 83 0
7523 -12 -26 -50 -80 0
-7523 12 0
-7523 26 0
-7523 50 0
-7523 80 0
7524 -12 -26 -53 -77 0
-7524 12 0
-7524 26 0
-7524 53 0
-7524 77 0
7525 -12 -32 -41 -83 0
-7525 12 0
-7525 32 0
-7525 41 0
-7525 83 0
7526 -12 -32 -50 -65 0
-7526 12 0
-7526 32 0
-7526 50 0
-7526 65 0
7527 -12 -32 -53 -62 0
-7527 12 0
-7527 32 0
-7527 53 0
-7527 62 0
7528 -12 -35 -41 -80 0
-7528 12 0
-7528 35 0
-7528 41 0
-7528 80 0
7529 -12 -35 -47 -65 0
-7529 12 0
-7529 35 0
-7529 47 0
-7529 65 0
7530 -12 -35 -53 -59 0
-7530 12 0
-7530 35 0
-7530 53 0
-7530 59 0
7531 -12 -38 -41 -77 0
-7531 12 0
-7531 38 0
-7531 41 0
-7531 77 0
7532 -12 -38 -47 -62 0
-7532 12 0
-7532 38 0
-7532 47 0
-7532 62 0
7533 -12 -38 -50 -59 0
-7533 12 0
-7533 38 0
-7533 50 0
-7533 59 0
-7519 7520 7521 7522 7523 7524 7525 7526 7527 7528 7529 7530 7531 7532 7533 0
-7520 7519 7521 7522 7523 7524 7525 7526 7527 7528 7529 7530 7531 7532 7533 0
-7521 7519 7520 7522 7523 7524 7525 7526 7527 7528 7529 7530 7531 7532 7533 0
-7522 7519 7520 7521 7523 7524 7525 7526 7527 7528 7529 7530 7531 7532 7533 0
-7523 7519 7520 7521 7522 7524 7525 7526 7527 7528 7529 7530 7531 7532 7533 0
-7524 7519 7520 7521 7522 7523 7525 7526 7527 7528 7529 7530 7531 7532 7533 0
-7525 7519 7520 7521 7522 7523 7524 7526 7527 7528 7529 7530 7531 7532 7533 0
-7526 7519 7520 7521 7522 7523 7524 7525 7527 7528 7529 7530 7531 7532 7533 0
-7527 7519 7520 7521 7522 7523 7524 7525 7526 7528 7529 7530 7531 7532 7533 0
-7528 7519 7520 7521 7522 7523 7524 7525 7526 7527 7529 7530 7531 7532 7533 0
-7529 7519 7520 7521 7522 7523 7524 7525 7526 7527 7528 7530 7531 7532 7533 0
-7530 7519 7520 7521 7522 7523 7524 7525 7526 7527 7528 7529 7531 7532 7533 0
-7531 7519 7520 7521 7522 7523 7524 7525 7526 7527 7528 7529 7530 7532 7533 0
-7532 7519 7520 7521 7522 7523 7524 7525 7526 7527 7528 7529 7530 7531 7533 0
-7533 7519 7520 7521 7522 7523 7524 7525 7526 7527 7528 7529 7530 7531 7532 0
7534 -12 -23 -59 -84 0
-7534 12 0
-7534 23 0
-7534 59 0
-7534 84 0
7535 -12 -26 -47 -84 0
-7535 12 0
-7535 26 0
-7535 47 0
-7535 84 0
7536 -12 -32 -41 -84 0
-7536 12 0
-7536 32 0
-7536 41 0
-7536 84 0
7537 -18 -23 -59 -75 0
-7537 18 0
-7537 23 0
-7537 59 0
-7537 75 0
7538 -18 -26 -47 -75 0
-7538 18 0
-7538 26 0
-7538 47 0
-7538 75 0
7539 -18 -32 -41 -75 0
-7539 18 0
-7539 32 0
-7539 41 0
-7539 75 0
7540 -21 -23 -59 -72 0
-7540 21 0
-7540 23 0
-7540 59 0
-7540 72 0
7541 -21 -26 -47 -72 0
-7541 21 0
-7541 26 0
-7541 47 0
-7541 72 0
7542 -21 -32 -41 -72 0
-7542 21 0
-7542 32 0
-7542 41 0
-7542 72 0
-7534 7535 7536 7537 7538 7539 7540 7541 7542 0
-7535 7534 7536 7537 7538 7539 7540 7541 7542 0
-7536 7534 7535 7537 7538 7539 7540 7541 7542 0
-7537 7534 7535 7536 7538 7539 7540 7541 7542 0
-7538 7534 7535 7536 7537 7539 7540 7541 7542 0
-7539 7534 7535 7536 7537 7538 7540 7541 7542 0
-7540 7534 7535 7536 7537 7538 7539 7541 7542 0
-7541 7534 7535 7536 7537 7538 7539 7540 7542 0
-7542 7534 7535 7536 7537 7538 7539 7540 7541 0
7543 -10 -23 -62 -79 0
-7543 10 0
-7543 23 0
-7543 62 0
-7543 79 0
7544 -10 -26 -50 -79 0
-7544 10 0
-7544 26 0
-7544 50 0
-7544 79 0
7545 -10 -35 -41 -79 0
-7545 10 0
-7545 35 0
-7545 41 0
-7545 79 0
7546 -13 -23 -62 -73 0
-7546 13 0
-7546 23 0
-7546 62 0
-7546 73 0
7547 -13 -26 -50 -73 0
-7547 13 0
-7547 26 0
-7547 50 0
-7547 73 0
7548 -13 -35 -41 -73 0
-7548 13 0
-7548 35 0
-7548 41 0
-7548 73 0
7549 -19 -23 -62 -67 0
-7549 19 0
-7549 23 0
-7549 62 0
-7549 67 0
7550 -19 -26 -50 -67 0
-7550 19 0
-7550 26 0
-7550 50 0
-7550 67 0
7551 -19 -35 -41 -67 0
-7551 19 0
-7551 35 0
-7551 41 0
-7551 67 0
-7543 7544 7545 7546 7547 7548 7549 7550 7551 0
-7544 7543 7545 7546 7547 7548 7549 7550 7551 0
-7545 7543 7544 7546 7547 7548 7549 7550 7551 0
-7546 7543 7544 7545 7547 7548 7549 7550 7551 0
-7547 7543 7544 7545 7546 7548 7549 7550 7551 0
-7548 7543 7544 7545 7546 7547 7549 7550 7551 0
-7549 7543 7544 7545 7546 7547 7548 7550 7551 0
-7550 7543 7544 7545 7546 7547 7548 7549 7551 0
-7551 7543 7544 7545 7546 7547 7548 7549 7550 0
7552 -10 -23 -62 -81 0
-7552 10 0
-7552 23 0
-7552 62 0
-7552 81 0
7553 -10 -26 -50 -81 0
-7553 10 0
-7553 26 0
-7553 50 0
-7553 81 0
7554 -10 -35 -41 -81 0
-7554 10 0
-7554 35 0
-7554 41 0
-7554 81 0
-7552 7553 7554 0
-7553 7552 7554 0
-7554 7552 7553 0
7555 -10 -23 -63 -79 0
-7555 10 0
-7555 23 0
-7555 63 0
-7555 79 0
7556 -13 -23 -63 -73 0
-7556 13 0
-7556 23 0
-7556 63 0
-7556 73 0
7557 -19 -23 -63 -67 0
-7557 19 0
-7557 23 0
-7557 63 0
-7557 67 0
-7555 7556 7557 0
-7556 7555 7557 0
-7557 7555 7556 0
7558 -10 -23 -63 -80 0
-7558 10 0
-7558 23 0
-7558 63 0
-7558 80 0
7559 -10 -32 -53 -63 0
-7559 10 0
-7559 32 0
-7559 53 0
-7559 63 0
7560 -10 -38 -47 -63 0
-7560 10 0
-7560 38 0
-7560 47 0
-7560 63 0
-7558 7559 7560 0
-7559 7558 7560 0
-7560 7558 7559 0
7561 -10 -24 -62 -79 0
-7561 10 0
-7561 24 0
-7561 62 0
-7561 79 0
7562 -13 -24 -62 -73 0
-7562 13 0
-7562 24 0
-7562 62 0
-7562 73 0
7563 -19 -24 -62 -67 0
-7563 19 0
-7563 24 0
-7563 62 0
-7563 67 0
-7561 7562 7563 0
-7562 7561 7563 0
-7563 7561 7562 0
7564 -10 -24 -62 -81 0
-7564 10 0
-7564 24 0
-7564 62 0
-7564 81 0
7565 -10 -33 -54 -62 0
-7565 10 0
-7565 33 0
-7565 54 0
-7565 62 0
7566 -10 -39 -48 -62 0
-7566 10 0
-7566 39 0
-7566 48 0
-7566 62 0
-7564 7565 7566 0
-7565 7564 7566 0
-7566 7564 7565 0
7567 -10 -24 -63 -79 0
-7567 10 0
-7567 24 0
-7567 63 0
-7567 79 0
7568 -10 -27 -51 -79 0
-7568 10 0
-7568 27 0
-7568 51 0
-7568 79 0
7569 -10 -36 -42 -79 0
-7569 10 0
-7569 36 0
-7569 42 0
-7569 79 0
7570 -13 -24 -63 -73 0
-7570 13 0
-7570 24 0
-7570 63 0
-7570 73 0
7571 -13 -27 -51 -73 0
-7571 13 0
-7571 27 0
-7571 51 0
-7571 73 0
7572 -13 -36 -42 -73 0
-7572 13 0
-7572 36 0
-7572 42 0
-7572 73 0
7573 -19 -24 -63 -67 0
-7573 19 0
-7573 24 0
-7573 63 0
-7573 67 0
7574 -19 -27 -51 -67 0
-7574 19 0
-7574 27 0
-7574 51 0
-7574 67 0
7575 -19 -36 -42 -67 0
-7575 19 0
-7575 36 0
-7575 42 0
-7575 67 0
-7567 7568 7569 7570 7571 7572 7573 7574 7575 0
-7568 7567 7569 7570 7571 7572 7573 7574 7575 0
-7569 7567 7568 7570 7571 7572 7573 7574 7575 0
-7570 7567 7568 7569 7571 7572 7573 7574 7575 0
-7571 7567 7568 7569 7570 7572 7573 7574 7575 0
-7572 7567 7568 7569 7570 7571 7573 7574 7575 0
-7573 7567 7568 7569 7570 7571 7572 7574 7575 0
-7574 7567 7568 7569 7570 7571 7572 7573 7575 0
-7575 7567 7568 7569 7570 7571 7572 7573 7574 0
7576 -10 -24 -63 -80 0
-7576 10 0
-7576 24 0
-7576 63 0
-7576 80 0
7577 -10 -27 -51 -80 0
-7577 10 0
-7577 27 0
-7577 51 0
-7577 80 0
7578 -10 -36 -42 -80 0
-7578 10 0
-7578 36 0
-7578 42 0
-7578 80 0
-7576 7577 7578 0
-7577 7576 7578 0
-7578 7576 7577 0
7579 -11 -22 -61 -80 0
-7579 11 0
-7579 22 0
-7579 61 0
-7579 80 0
7580 -11 -25 -49 -80 0
-7580 11 0
-7580 25 0
-7580 49 0
-7580 80 0
7581 -11 -34 -40 -80 0
-7581 11 0
-7581 34 0
-7581 40 0
-7581 80 0
7582 -14 -22 -61 -74 0
-7582 14 0
-7582 22 0
-7582 61 0
-7582 74 0
7583 -14 -25 -49 -74 0
-7583 14 0
-7583 25 0
-7583 49 0
-7583 74 0
7584 -14 -34 -40 -74 0
-7584 14 0
-7584 34 0
-7584 40 0
-7584 74 0
7585 -20 -22 -61 -68 0
-7585 20 0
-7585 22 0
-7585 61 0
-7585 68 0
7586 -20 -25 -49 -68 0
-7586 20 0
-7586 25 0
-7586 49 0
-7586 68 0
7587 -20 -34 -40 -68 0
-7587 20 0
-7587 34 0
-7587 40 0
-7587 68 0
-7579 7580 7581 7582 7583 7584 7585 7586 7587 0
-7580 7579 7581 7582 7583 7584 7585 7586 7587 0
-7581 7579 7580 7582 7583 7584 7585 7586 7587 0
-7582 7579 7580 7581 7583 7584 7585 7586 7587 0
-7583 7579 7580 7581 7582 7584 7585 7586 7587 0
-7584 7579 7580 7581 7582 7583 7585 7586 7587 0
-7585 7579 7580 7581 7582 7583 7584 7586 7587 0
-7586 7579 7580 7581 7582 7583 7584 7585 7587 0
-7587 7579 7580 7581 7582 7583 7584 7585 7586 0
7588 -11 -22 -61 -81 0
-7588 11 0
-7588 22 0
-7588 61 0
-7588 81 0
7589 -11 -25 -49 -81 0
-7589 11 0
-7589 25 0
-7589 49 0
-7589 81 0
7590 -11 -34 -40 -81 0
-7590 11 0
-7590 34 0
-7590 40 0
-7590 81 0
-7588 7589 7590 0
-7589 7588 7590 0
-7590 7588 7589 0
7591 -11 -22 -63 -79 0
-7591 11 0
-7591 22 0
-7591 63 0
-7591 79 0
7592 -11 -31 -52 -63 0
-7592 11 0
-7592 31 0
-7592 52 0
-7592 63 0
7593 -11 -37 -46 -63 0
-7593 11 0
-7593 37 0
-7593 46 0
-7593 63 0
-7591 7592 7593 0
-7592 7591 7593 0
-7593 7591 7592 0
7594 -11 -22 -63 -80 0
-7594 11 0
-7594 22 0
-7594 63 0
-7594 80 0
7595 -14 -22 -63 -74 0
-7595 14 0
-7595 22 0
-7595 63 0
-7595 74 0
7596 -20 -22 -63 -68 0
-7596 20 0
-7596 22 0
-7596 63 0
-7596 68 0
-7594 7595 7596 0
-7595 7594 7596 0
-7596 7594 7595 0
7597 -11 -24 -61 -80 0
-7597 11 0
-7597 24 0
-7597 61 0
-7597 80 0
7598 -14 -24 -61 -74 0
-7598 14 0
-7598 24 0
-7598 61 0
-7598 74 0
7599 -20 -24 -61 -68 0
-7599 20 0
-7599 24 0
-7599 61 0
-7599 68 0
-7597 7598 7599 0
-7598 7597 7599 0
-7599 7597 7598 0
7600 -11 -24 -61 -81 0
-7600 11 0
-7600 24 0
-7600 61 0
-7600 81 0
7601 -11 -33 -54 -61 0
-7601 11 0
-7601 33 0
-7601 54 0
-7601 61 0
7602 -11 -39 -48 -61 0
-7602 11 0
-7602 39 0
-7602 48 0
-7602 61 0
-7600 7601 7602 0
-7601 7600 7602 0
-7602 7600 7601 0
7603 -11 -24 -63 -79 0
-7603 11 0
-7603 24 0
-7603 63 0
-7603 79 0
7604 -11 -27 -51 -79 0
-7604 11 0
-7604 27 0
-7604 51 0
-7604 79 0
7605 -11 -36 -42 -79 0
-7605 11 0
-7605 36 0
-7605 42 0
-7605 79 0
-7603 7604 7605 0
-7604 7603 7605 0
-7605 7603 7604 0
7606 -11 -24 -63 -80 0
-7606 11 0
-7606 24 0
-7606 63 0
-7606 80 0
7607 -11 -27 -51 -80 0
-7607 11 0
-7607 27 0
-7607 51 0
-7607 80 0
7608 -11 -36 -42 -80 0
-7608 11 0
-7608 36 0
-7608 42 0
-7608 80 0
7609 -14 -24 -63 -74 0
-7609 14 0
-7609 24 0
-7609 63 0
-7609 74 0
7610 -14 -27 -51 -74 0
-7610 14 0
-7610 27 0
-7610 51 0
-7610 74 0
7611 -14 -36 -42 -74 0
-7611 14 0
-7611 36 0
-7611 42 0
-7611 74 0
7612 -20 -24 -63 -68 0
-7612 20 0
-7612 24 0
-7612 63 0
-7612 68 0
7613 -20 -27 -51 -68 0
-7613 20 0
-7613 27 0
-7613 51 0
-7613 68 0
7614 -20 -36 -42 -68 0
-7614 20 0
-7614 36 0
-7614 42 0
-7614 68 0
-7606 7607 7608 7609 7610 7611 7612 7613 7614 0
-7607 7606 7608 7609 7610 7611 7612 7613 7614 0
-7608 7606 7607 7609 7610 7611 7612 7613 7614 0
-7609 7606 7607 7608 7610 7611 7612 7613 7614 0
-7610 7606 7607 7608 7609 7611 7612 7613 7614 0
-7611 7606 7607 7608 7609 7610 7612 7613 7614 0
-7612 7606 7607 7608 7609 7610 7611 7613 7614 0
-7613 7606 7607 7608 7609 7610 7611 7612 7614 0
-7614 7606 7607 7608 7609 7610 7611 7612 7613 0
7615 -12 -22 -61 -80 0
-7615 12 0
-7615 22 0
-7615 61 0
-7615 80 0
7616 -12 -25 -49 -80 0
-7616 12 0
-7616 25 0
-7616 49 0
-7616 80 0
7617 -12 -34 -40 -80 0
-7617 12 0
-7617 34 0
-7617 40 0
-7617 80 0
-7615 7616 7617 0
-7616 7615 7617 0
-7617 7615 7616 0
7618 -12 -22 -61 -81 0
-7618 12 0
-7618 22 0
-7618 61 0
-7618 81 0
7619 -12 -25 -49 -81 0
-7619 12 0
-7619 25 0
-7619 49 0
-7619 81 0
7620 -12 -34 -40 -81 0
-7620 12 0
-7620 34 0
-7620 40 0
-7620 81 0
7621 -15 -22 -61 -75 0
-7621 15 0
-7621 22 0
-7621 61 0
-7621 75 0
7622 -15 -25 -49 -75 0
-7622 15 0
-7622 25 0
-7622 49 0
-7622 75 0
7623 -15 -34 -40 -75 0
-7623 15 0
-7623 34 0
-7623 40 0
-7623 75 0
7624 -21 -22 -61 -69 0
-7624 21 0
-7624 22 0
-7624 61 0
-7624 69 0
7625 -21 -25 -49 -69 0
-7625 21 0
-7625 25 0
-7625 49 0
-7625 69 0
7626 -21 -34 -40 -69 0
-7626 21 0
-7626 34 0
-7626 40 0
-7626 69 0
-7618 7619 7620 7621 7622 7623 7624 7625 7626 0
-7619 7618 7620 7621 7622 7623 7624 7625 7626 0
-7620 7618 7619 7621 7622 7623 7624 7625 7626 0
-7621 7618 7619 7620 7622 7623 7624 7625 7626 0
-7622 7618 7619 7620 7621 7623 7624 7625 7626 0
-7623 7618 7619 7620 7621 7622 7624 7625 7626 0
-7624 7618 7619 7620 7621 7622 7623 7625 7626 0
-7625 7618 7619 7620 7621 7622 7623 7624 7626 0
-7626 7618 7619 7620 7621 7622 7623 7624 7625 0
7627 -12 -22 -62 -79 0
-7627 12 0
-7627 22 0
-7627 62 0
-7627 79 0
7628 -12 -31 -52 -62 0
-7628 12 0
-7628 31 0
-7628 52 0
-7628 62 0
7629 -12 -37 -46 -62 0
-7629 12 0
-7629 37 0
-7629 46 0
-7629 62 0
-7627 7628 7629 0
-7628 7627 7629 0
-7629 7627 7628 0
7630 -12 -22 -62 -81 0
-7630 12 0
-7630 22 0
-7630 62 0
-7630 81 0
7631 -15 -22 -62 -75 0
-7631 15 0
-7631 22 0
-7631 62 0
-7631 75 0
7632 -21 -22 -62 -69 0
-7632 21 0
-7632 22 0
-7632 62 0
-7632 69 0
-7630 7631 7632 0
-7631 7630 7632 0
-7632 7630 7631 0
7633 -12 -23 -61 -80 0
-7633 12 0
-7633 23 0
-7633 61 0
-7633 80 0
7634 -12 -32 -53 -61 0
-7634 12 0
-7634 32 0
-7634 53 0
-7634 61 0
7635 -12 -38 -47 -61 0
-7635 12 0
-7635 38 0
-7635 47 0
-7635 61 0
-7633 7634 7635 0
-7634 7633 7635 0
-7635 7633 7634 0
7636 -12 -23 -61 -81 0
-7636 12 0
-7636 23 0
-7636 61 0
-7636 81 0
7637 -15 -23 -61 -75 0
-7637 15 0
-7637 23 0
-7637 61 0
-7637 75 0
7638 -21 -23 -61 -69 0
-7638 21 0
-7638 23 0
-7638 61 0
-7638 69 0
-7636 7637 7638 0
-7637 7636 7638 0
-7638 7636 7637 0
7639 -12 -23 -62 -79 0
-7639 12 0
-7639 23 0
-7639 62 0
-7639 79 0
7640 -12 -26 -50 -79 0
-7640 12 0
-7640 26 0
-7640 50 0
-7640 79 0
7641 -12 -35 -41 -79 0
-7641 12 0
-7641 35 0
-7641 41 0
-7641 79 0
-7639 7640 7641 0
-7640 7639 7641 0
-7641 7639 7640 0
7642 -12 -23 -62 -81 0
-7642 12 0
-7642 23 0
-7642 62 0
-7642 81 0
7643 -12 -26 -50 -81 0
-7643 12 0
-7643 26 0
-7643 50 0
-7643 81 0
7644 -12 -35 -41 -81 0
-7644 12 0
-7644 35 0
-7644 41 0
-7644 81 0
7645 -15 -23 -62 -75 0
-7645 15 0
-7645 23 0
-7645 62 0
-7645 75 0
7646 -15 -26 -50 -75 0
-7646 15 0
-7646 26 0
-7646 50 0
-7646 75 0
7647 -15 -35 -41 -75 0
-7647 15 0
-7647 35 0
-7647 41 0
-7647 75 0
7648 -21 -23 -62 -69 0
-7648 21 0
-7648 23 0
-7648 62 0
-7648 69 0
7649 -21 -26 -50 -69 0
-7649 21 0
-7649 26 0
-7649 50 0
-7649 69 0
7650 -21 -35 -41 -69 0
-7650 21 0
-7650 35 0
-7650 41 0
-7650 69 0
-7642 7643 7644 7645 7646 7647 7648 7649 7650 0
-7643 7642 7644 7645 7646 7647 7648 7649 7650 0
-7644 7642 7643 7645 7646 7647 7648 7649 7650 0
-7645 7642 7643 7644 7646 7647 7648 7649 7650 0
-7646 7642 7643 7644 7645 7647 7648 7649 7650 0
-7647 7642 7643 7644 7645 7646 7648 7649 7650 0
-7648 7642 7643 7644 7645 7646 7647 7649 7650 0
-7649 7642 7643 7644 7645 7646 7647 7648 7650 0
-7650 7642 7643 7644 7645 7646 7647 7648 7649 0
7651 -10 -23 -65 -76 0
-7651 10 0
-7651 23 0
-7651 65 0
-7651 76 0
7652 -10 -26 -53 -76 0
-7652 10 0
-7652 26 0
-7652 53 0
-7652 76 0
7653 -10 -38 -41 -76 0
-7653 10 0
-7653 38 0
-7653 41 0
-7653 76 0
7654 -13 -23 -65 -70 0
-7654 13 0
-7654 23 0
-7654 65 0
-7654 70 0
7655 -13 -26 -53 -70 0
-7655 13 0
-7655 26 0
-7655 53 0
-7655 70 0
7656 -13 -38 -41 -70 0
-7656 13 0
-7656 38 0
-7656 41 0
-7656 70 0
7657 -16 -23 -65 -67 0
-7657 16 0
-7657 23 0
-7657 65 0
-7657 67 0
7658 -16 -26 -53 -67 0
-7658 16 0
-7658 26 0
-7658 53 0
-7658 67 0
7659 -16 -38 -41 -67 0
-7659 16 0
-7659 38 0
-7659 41 0
-7659 67 0
-7651 7652 7653 7654 7655 7656 7657 7658 7659 0
-7652 7651 7653 7654 7655 7656 7657 7658 7659 0
-7653 7651 7652 7654 7655 7656 7657 7658 7659 0
-7654 7651 7652 7653 7655 7656 7657 7658 7659 0
-7655 7651 7652 7653 7654 7656 7657 7658 7659 0
-7656 7651 7652 7653 7654 7655 7657 7658 7659 0
-7657 7651 7652 7653 7654 7655 7656 7658 7659 0
-7658 7651 7652 7653 7654 7655 7656 7657 7659 0
-7659 7651 7652 7653 7654 7655 7656 7657 7658 0
7660 -10 -23 -65 -78 0
-7660 10 0
-7660 23 0
-7660 65 0
-7660 78 0
7661 -10 -26 -53 -78 0
-7661 10 0
-7661 26 0
-7661 53 0
-7661 78 0
7662 -10 -38 -41 -78 0
-7662 10 0
-7662 38 0
-7662 41 0
-7662 78 0
-7660 7661 7662 0
-7661 7660 7662 0
-7662 7660 7661 0
7663 -10 -23 -66 -76 0
-7663 10 0
-7663 23 0
-7663 66 0
-7663 76 0
7664 -13 -23 -66 -70 0
-7664 13 0
-7664 23 0
-7664 66 0
-7664 70 0
7665 -16 -23 -66 -67 0
-7665 16 0
-7665 23 0
-7665 66 0
-7665 67 0
-7663 7664 7665 0
-7664 7663 7665 0
-7665 7663 7664 0
7666 -10 -23 -66 -77 0
-7666 10 0
-7666 23 0
-7666 66 0
-7666 77 0
7667 -10 -32 -50 -66 0
-7667 10 0
-7667 32 0
-7667 50 0
-7667 66 0
7668 -10 -35 -47 -66 0
-7668 10 0
-7668 35 0
-7668 47 0
-7668 66 0
-7666 7667 7668 0
-7667 7666 7668 0
-7668 7666 7667 0
7669 -10 -24 -65 -76 0
-7669 10 0
-7669 24 0
-7669 65 0
-7669 76 0
7670 -13 -24 -65 -70 0
-7670 13 0
-7670 24 0
-7670 65 0
-7670 70 0
7671 -16 -24 -65 -67 0
-7671 16 0
-7671 24 0
-7671 65 0
-7671 67 0
-7669 7670 7671 0
-7670 7669 7671 0
-7671 7669 7670 0
7672 -10 -24 -65 -78 0
-7672 10 0
-7672 24 0
-7672 65 0
-7672 78 0
7673 -10 -33 -51 -65 0
-7673 10 0
-7673 33 0
-7673 51 0
-7673 65 0
7674 -10 -36 -48 -65 0
-7674 10 0
-7674 36 0
-7674 48 0
-7674 65 0
-7672 7673 7674 0
-7673 7672 7674 0
-7674 7672 7673 0
7675 -10 -24 -66 -76 0
-7675 10 0
-7675 24 0
-7675 66 0
-7675 76 0
7676 -10 -27 -54 -76 0
-7676 10 0
-7676 27 0
-7676 54 0
-7676 76 0
7677 -10 -39 -42 -76 0
-7677 10 0
-7677 39 0
-7677 42 0
-7677 76 0
7678 -13 -24 -66 -70 0
-7678 13 0
-7678 24 0
-7678 66 0
-7678 70 0
7679 -13 -27 -54 -70 0
-7679 13 0
-7679 27 0
-7679 54 0
-7679 70 0
7680 -13 -39 -42 -70 0
-7680 13 0
-7680 39 0
-7680 42 0
-7680 70 0
7681 -16 -24 -66 -67 0
-7681 16 0
-7681 24 0
-7681 66 0
-7681 67 0
7682 -16 -27 -54 -67 0
-7682 16 0
-7682 27 0
-7682 54 0
-7682 67 0
7683 -16 -39 -42 -67 0
-7683 16 0
-7683 39 0
-7683 42 0
-7683 67 0
-7675 7676 7677 7678 7679 7680 7681 7682 7683 0
-7676 7675 7677 7678 7679 7680 7681 7682 7683 0
-7677 7675 7676 7678 7679 7680 7681 7682 7683 0
-7678 7675 7676 7677 7679 7680 7681 7682 7683 0
-7679 7675 7676 7677 7678 7680 7681 7682 7683 0
-7680 7675 7676 7677 7678 7679 7681 7682 7683 0
-7681 7675 7676 7677 7678 7679 7680 7682 7683 0
-7682 7675 7676 7677 7678 7679 7680 7681 7683 0
-7683 7675 7676 7677 7678 7679 7680 7681 7682 0
7684 -10 -24 -66 -77 0
-7684 10 0
-7684 24 0
-7684 66 0
-7684 77 0
7685 -10 -27 -54 -77 0
-7685 10 0
-7685 27 0
-7685 54 0
-7685 77 0
7686 -10 -39 -42 -77 0
-7686 10 0
-7686 39 0
-7686 42 0
-7686 77 0
-7684 7685 7686 0
-7685 7684 7686 0
-7686 7684 7685 0
7687 -11 -22 -64 -77 0
-7687 11 0
-7687 22 0
-7687 64 0
-7687 77 0
7688 -11 -25 -52 -77 0
-7688 11 0
-7688 25 0
-7688 52 0
-7688 77 0
7689 -11 -37 -40 -77 0
-7689 11 0
-7689 37 0
-7689 40 0
-7689 77 0
7690 -14 -22 -64 -71 0
-7690 14 0
-7690 22 0
-7690 64 0
-7690 71 0
7691 -14 -25 -52 -71 0
-7691 14 0
-7691 25 0
-7691 52 0
-7691 71 0
7692 -14 -37 -40 -71 0
-7692 14 0
-7692 37 0
-7692 40 0
-7692 71 0
7693 -17 -22 -64 -68 0
-7693 17 0
-7693 22 0
-7693 64 0
-7693 68 0
7694 -17 -25 -52 -68 0
-7694 17 0
-7694 25 0
-7694 52 0
-7694 68 0
7695 -17 -37 -40 -68 0
-7695 17 0
-7695 37 0
-7695 40 0
-7695 68 0
-7687 7688 7689 7690 7691 7692 7693 7694 7695 0
-7688 7687 7689 7690 7691 7692 7693 7694 7695 0
-7689 7687 7688 7690 7691 7692 7693 7694 7695 0
-7690 7687 7688 7689 7691 7692 7693 7694 7695 0
-7691 7687 7688 7689 7690 7692 7693 7694 7695 0
-7692 7687 7688 7689 7690 7691 7693 7694 7695 0
-7693 7687 7688 7689 7690 7691 7692 7694 7695 0
-7694 7687 7688 7689 7690 7691 7692 7693 7695 0
-7695 7687 7688 7689 7690 7691 7692 7693 7694 0
7696 -11 -22 -64 -78 0
-7696 11 0
-7696 22 0
-7696 64 0
-7696 78 0
7697 -11 -25 -52 -78 0
-7697 11 0
-7697 25 0
-7697 52 0
-7697 78 0
7698 -11 -37 -40 -78 0
-7698 11 0
-7698 37 0
-7698 40 0
-7698 78 0
-7696 7697 7698 0
-7697 7696 7698 0
-7698 7696 7697 0
7699 -11 -22 -66 -76 0
-7699 11 0
-7699 22 0
-7699 66 0
-7699 76 0
7700 -11 -31 -49 -66 0
-7700 11 0
-7700 31 0
-7700 49 0
-7700 66 0
7701 -11 -34 -46 -66 0
-7701 11 0
-7701 34 0
-7701 46 0
-7701 66 0
-7699 7700 7701 0
-7700 7699 7701 0
-7701 7699 7700 0
7702 -11 -22 -66 -77 0
-7702 11 0
-7702 22 0
-7702 66 0
-7702 77 0
7703 -14 -22 -66 -71 0
-7703 14 0
-7703 22 0
-7703 66 0
-7703 71 0
7704 -17 -22 -66 -68 0
-7704 17 0
-7704 22 0
-7704 66 0
-7704 68 0
-7702 7703 7704 0
-7703 7702 7704 0
-7704 7702 7703 0
7705 -11 -24 -64 -77 0
-7705 11 0
-7705 24 0
-7705 64 0
-7705 77 0
7706 -14 -24 -64 -71 0
-7706 14 0
-7706 24 0
-7706 64 0
-7706 71 0
7707 -17 -24 -64 -68 0
-7707 17 0
-7707 24 0
-7707 64 0
-7707 68 0
-7705 7706 7707 0
-7706 7705 7707 0
-7707 7705 7706 0
7708 -11 -24 -64 -78 0
-7708 11 0
-7708 24 0
-7708 64 0
-7708 78 0
7709 -11 -33 -51 -64 0
-7709 11 0
-7709 33 0
-7709 51 0
-7709 64 0
7710 -11 -36 -48 -64 0
-7710 11 0
-7710 36 0
-7710 48 0
-7710 64 0
-7708 7709 7710 0
-7709 7708 7710 0
-7710 7708 7709 0
7711 -11 -24 -66 -76 0
-7711 11 0
-7711 24 0
-7711 66 0
-7711 76 0
7712 -11 -27 -54 -76 0
-7712 11 0
-7712 27 0
-7712 54 0
-7712 76 0
7713 -11 -39 -42 -76 0
-7713 11 0
-7713 39 0
-7713 42 0
-7713 76 0
-7711 7712 7713 0
-7712 7711 7713 0
-7713 7711 7712 0
7714 -11 -24 -66 -77 0
-7714 11 0
-7714 24 0
-7714 66 0
-7714 77 0
7715 -11 -27 -54 -77 0
-7715 11 0
-7715 27 0
-7715 54 0
-7715 77 0
7716 -11 -39 -42 -77 0
-7716 11 0
-7716 39 0
-7716 42 0
-7716 77 0
7717 -14 -24 -66 -71 0
-7717 14 0
-7717 24 0
-7717 66 0
-7717 71 0
7718 -14 -27 -54 -71 0
-7718 14 0
-7718 27 0
-7718 54 0
-7718 71 0
7719 -14 -39 -42 -71 0
-7719 14 0
-7719 39 0
-7719 42 0
-7719 71 0
7720 -17 -24 -66 -68 0
-7720 17 0
-7720 24 0
-7720 66 0
-7720 68 0
7721 -17 -27 -54 -68 0
-7721 17 0
-7721 27 0
-7721 54 0
-7721 68 0
7722 -17 -39 -42 -68 0
-7722 17 0
-7722 39 0
-7722 42 0
-7722 68 0
-7714 7715 7716 7717 7718 7719 7720 7721 7722 0
-7715 7714 7716 7717 7718 7719 7720 7721 7722 0
-7716 7714 7715 7717 7718 7719 7720 7721 7722 0
-7717 7714 7715 7716 7718 7719 7720 7721 7722 0
-7718 7714 7715 7716 7717 7719 7720 7721 7722 0
-7719 7714 7715 7716 7717 7718 7720 7721 7722 0
-7720 7714 7715 7716 7717 7718 7719 7721 7722 0
-7721 7714 7715 7716 7717 7718 7719 7720 7722 0
-7722 7714 7715 7716 7717 7718 7719 7720 7721 0
7723 -12 -22 -64 -77 0
-7723 12 0
-7723 22 0
-7723 64 0
-7723 77 0
7724 -12 -25 -52 -77 0
-7724 12 0
-7724 25 0
-7724 52 0
-7724 77 0
7725 -12 -37 -40 -77 0
-7725 12 0
-7725 37 0
-7725 40 0
-7725 77 0
-7723 7724 7725 0
-7724 7723 7725 0
-7725 7723 7724 0
7726 -12 -22 -64 -78 0
-7726 12 0
-7726 22 0
-7726 64 0
-7726 78 0
7727 -12 -25 -52 -78 0
-7727 12 0
-7727 25 0
-7727 52 0
-7727 78 0
7728 -12 -37 -40 -78 0
-7728 12 0
-7728 37 0
-7728 40 0
-7728 78 0
7729 -15 -22 -64 -72 0
-7729 15 0
-7729 22 0
-7729 64 0
-7729 72 0
7730 -15 -25 -52 -72 0
-7730 15 0
-7730 25 0
-7730 52 0
-7730 72 0
7731 -15 -37 -40 -72 0
-7731 15 0
-7731 37 0
-7731 40 0
-7731 72 0
7732 -18 -22 -64 -69 0
-7732 18 0
-7732 22 0
-7732 64 0
-7732 69 0
7733 -18 -25 -52 -69 0
-7733 18 0
-7733 25 0
-7733 52 0
-7733 69 0
7734 -18 -37 -40 -69 0
-7734 18 0
-7734 37 0
-7734 40 0
-7734 69 0
-7726 7727 7728 7729 7730 7731 7732 7733 7734 0
-7727 7726 7728 7729 7730 7731 7732 7733 7734 0
-7728 7726 7727 7729 7730 7731 7732 7733 7734 0
-7729 7726 7727 7728 7730 7731 7732 7733 7734 0
-7730 7726 7727 7728 7729 7731 7732 7733 7734 0
-7731 7726 7727 7728 7729 7730 7732 7733 7734 0
-7732 7726 7727 7728 7729 7730 7731 7733 7734 0
-7733 7726 7727 7728 7729 7730 7731 7732 7734 0
-7734 7726 7727 7728 7729 7730 7731 7732 7733 0
7735 -12 -22 -65 -76 0
-7735 12 0
-7735 22 0
-7735 65 0
-7735 76 0
7736 -12 -31 -49 -65 0
-7736 12 0
-7736 31 0
-7736 49 0
-7736 65 0
7737 -12 -34 -46 -65 0
-7737 12 0
-7737 34 0
-7737 46 0
-7737 65 0
-7735 7736 7737 0
-7736 7735 7737 0
-7737 7735 7736 0
7738 -12 -22 -65 -78 0
-7738 12 0
-7738 22 0
-7738 65 0
-7738 78 0
7739 -15 -22 -65 -72 0
-7739 15 0
-7739 22 0
-7739 65 0
-7739 72 0
7740 -18 -22 -65 -69 0
-7740 18 0
-7740 22 0
-7740 65 0
-7740 69 0
-7738 7739 7740 0
-7739 7738 7740 0
-7740 7738 7739 0
7741 -12 -23 -64 -77 0
-7741 12 0
-7741 23 0
-7741 64 0
-7741 77 0
7742 -12 -32 -50 -64 0
-7742 12 0
-7742 32 0
-7742 50 0
-7742 64 0
7743 -12 -35 -47 -64 0
-7743 12 0
-7743 35 0
-7743 47 0
-7743 64 0
-7741 7742 7743 0
-7742 7741 7743 0
-7743 7741 7742 0
7744 -12 -23 -64 -78 0
-7744 12 0
-7744 23 0
-7744 64 0
-7744 78 0
7745 -15 -23 -64 -72 0
-7745 15 0
-7745 23 0
-7745 64 0
-7745 72 0
7746 -18 -23 -64 -69 0
-7746 18 0
-7746 23 0
-7746 64 0
-7746 69 0
-7744 7745 7746 0
-7745 7744 7746 0
-7746 7744 7745 0
7747 -12 -23 -65 -76 0
-7747 12 0
-7747 23 0
-7747 65 0
-7747 76 0
7748 -12 -26 -53 -76 0
-7748 12 0
-7748 26 0
-7748 53 0
-7748 76 0
7749 -12 -38 -41 -76 0
-7749 12 0
-7749 38 0
-7749 41 0
-7749 76 0
-7747 7748 7749 0
-7748 7747 7749 0
-7749 7747 7748 0
7750 -12 -23 -65 -78 0
-7750 12 0
-7750 23 0
-7750 65 0
-7750 78 0
7751 -12 -26 -53 -78 0
-7751 12 0
-7751 26 0
-7751 53 0
-7751 78 0
7752 -12 -38 -41 -78 0
-7752 12 0
-7752 38 0
-7752 41 0
-7752 78 0
7753 -15 -23 -65 -72 0
-7753 15 0
-7753 23 0
-7753 65 0
-7753 72 0
7754 -15 -26 -53 -72 0
-7754 15 0
-7754 26 0
-7754 53 0
-7754 72 0
7755 -15 -38 -41 -72 0
-7755 15 0
-7755 38 0
-7755 41 0
-7755 72 0
7756 -18 -23 -65 -69 0
-7756 18 0
-7756 23 0
-7756 65 0
-7756 69 0
7757 -18 -26 -53 -69 0
-7757 18 0
-7757 26 0
-7757 53 0
-7757 69 0
7758 -18 -38 -41 -69 0
-7758 18 0
-7758 38 0
-7758 41 0
-7758 69 0
-7750 7751 7752 7753 7754 7755 7756 7757 7758 0
-7751 7750 7752 7753 7754 7755 7756 7757 7758 0
-7752 7750 7751 7753 7754 7755 7756 7757 7758 0
-7753 7750 7751 7752 7754 7755 7756 7757 7758 0
-7754 7750 7751 7752 7753 7755 7756 7757 7758 0
-7755 7750 7751 7752 7753 7754 7756 7757 7758 0
-7756 7750 7751 7752 7753 7754 7755 7757 7758 0
-7757 7750 7751 7752 7753 7754 7755 7756 7758 0
-7758 7750 7751 7752 7753 7754 7755 7756 7757 0
7759 -10 -26 -48 -82 0
-7759 10 0
-7759 26 0
-7759 48 0
-7759 82 0
7760 -16 -26 -48 -73 0
-7760 16 0
-7760 26 0
-7760 48 0
-7760 73 0
7761 -19 -26 -48 -70 0
-7761 19 0
-7761 26 0
-7761 48 0
-7761 70 0
-7759 7760 7761 0
-7760 7759 7761 0
-7761 7759 7760 0
7762 -10 -26 -48 -83 0
-7762 10 0
-7762 26 0
-7762 48 0
-7762 83 0
7763 -10 -35 -48 -65 0
-7763 10 0
-7763 35 0
-7763 48 0
-7763 65 0
7764 -10 -38 -48 -62 0
-7764 10 0
-7764 38 0
-7764 48 0
-7764 62 0
-7762 7763 7764 0
-7763 7762 7764 0
-7764 7762 7763 0
7765 -10 -26 -48 -84 0
-7765 10 0
-7765 26 0
-7765 48 0
-7765 84 0
7766 -10 -26 -51 -81 0
-7766 10 0
-7766 26 0
-7766 51 0
-7766 81 0
7767 -10 -26 -54 -78 0
-7767 10 0
-7767 26 0
-7767 54 0
-7767 78 0
-7765 7766 7767 0
-7766 7765 7767 0
-7767 7765 7766 0
7768 -10 -27 -47 -82 0
-7768 10 0
-7768 27 0
-7768 47 0
-7768 82 0
7769 -16 -27 -47 -73 0
-7769 16 0
-7769 27 0
-7769 47 0
-7769 73 0
7770 -19 -27 -47 -70 0
-7770 19 0
-7770 27 0
-7770 47 0
-7770 70 0
-7768 7769 7770 0
-7769 7768 7770 0
-7770 7768 7769 0
7771 -10 -27 -47 -83 0
-7771 10 0
-7771 27 0
-7771 47 0
-7771 83 0
7772 -10 -27 -50 -80 0
-7772 10 0
-7772 27 0
-7772 50 0
-7772 80 0
7773 -10 -27 -53 -77 0
-7773 10 0
-7773 27 0
-7773 53 0
-7773 77 0
-7771 7772 7773 0
-7772 7771 7773 0
-7773 7771 7772 0
7774 -10 -27 -47 -84 0
-7774 10 0
-7774 27 0
-7774 47 0
-7774 84 0
7775 -10 -36 -47 -66 0
-7775 10 0
-7775 36 0
-7775 47 0
-7775 66 0
7776 -10 -39 -47 -63 0
-7776 10 0
-7776 39 0
-7776 47 0
-7776 63 0
-7774 7775 7776 0
-7775 7774 7776 0
-7776 7774 7775 0
7777 -11 -25 -48 -82 0
-7777 11 0
-7777 25 0
-7777 48 0
-7777 82 0
7778 -11 -34 -48 -64 0
-7778 11 0
-7778 34 0
-7778 48 0
-7778 64 0
7779 -11 -37 -48 -61 0
-7779 11 0
-7779 37 0
-7779 48 0
-7779 61 0
-7777 7778 7779 0
-7778 7777 7779 0
-7779 7777 7778 0
7780 -11 -25 -48 -83 0
-7780 11 0
-7780 25 0
-7780 48 0
-7780 83 0
7781 -17 -25 -48 -74 0
-7781 17 0
-7781 25 0
-7781 48 0
-7781 74 0
7782 -20 -25 -48 -71 0
-7782 20 0
-7782 25 0
-7782 48 0
-7782 71 0
-7780 7781 7782 0
-7781 7780 7782 0
-7782 7780 7781 0
7783 -11 -25 -48 -84 0
-7783 11 0
-7783 25 0
-7783 48 0
-7783 84 0
7784 -11 -25 -51 -81 0
-7784 11 0
-7784 25 0
-7784 51 0
-7784 81 0
7785 -11 -25 -54 -78 0
-7785 11 0
-7785 25 0
-7785 54 0
-7785 78 0
-7783 7784 7785 0
-7784 7783 7785 0
-7785 7783 7784 0
7786 -11 -27 -46 -82 0
-7786 11 0
-7786 27 0
-7786 46 0
-7786 82 0
7787 -11 -27 -49 -79 0
-7787 11 0
-7787 27 0
-7787 49 0
-7787 79 0
7788 -11 -27 -52 -76 0
-7788 11 0
-7788 27 0
-7788 52 0
-7788 76 0
-7786 7787 7788 0
-7787 7786 7788 0
-7788 7786 7787 0
7789 -11 -27 -46 -83 0
-7789 11 0
-7789 27 0
-7789 46 0
-7789 83 0
7790 -17 -27 -46 -74 0
-7790 17 0
-7790 27 0
-7790 46 0
-7790 74 0
7791 -20 -27 -46 -71 0
-7791 20 0
-7791 27 0
-7791 46 0
-7791 71 0
-7789 7790 7791 0
-7790 7789 7791 0
-7791 7789 7790 0
7792 -11 -27 -46 -84 0
-7792 11 0
-7792 27 0
-7792 46 0
-7792 84 0
7793 -11 -36 -46 -66 0
-7793 11 0
-7793 36 0
-7793 46 0
-7793 66 0
7794 -11 -39 -46 -63 0
-7794 11 0
-7794 39 0
-7794 46 0
-7794 63 0
-7792 7793 7794 0
-7793 7792 7794 0
-7794 7792 7793 0
7795 -12 -25 -47 -82 0
-7795 12 0
-7795 25 0
-7795 47 0
-7795 82 0
7796 -12 -34 -47 -64 0
-7796 12 0
-7796 34 0
-7796 47 0
-7796 64 0
7797 -12 -37 -47 -61 0
-7797 12 0
-7797 37 0
-7797 47 0
-7797 61 0
-7795 7796 7797 0
-7796 7795 7797 0
-7797 7795 7796 0
7798 -12 -25 -47 -83 0
-7798 12 0
-7798 25 0
-7798 47 0
-7798 83 0
7799 -12 -25 -50 -80 0
-7799 12 0
-7799 25 0
-7799 50 0
-7799 80 0
7800 -12 -25 -53 -77 0
-7800 12 0
-7800 25 0
-7800 53 0
-7800 77 0
-7798 7799 7800 0
-7799 7798 7800 0
-7800 7798 7799 0
7801 -12 -25 -47 -84 0
-7801 12 0
-7801 25 0
-7801 47 0
-7801 84 0
7802 -18 -25 -47 -75 0
-7802 18 0
-7802 25 0
-7802 47 0
-7802 75 0
7803 -21 -25 -47 -72 0
-7803 21 0
-7803 25 0
-7803 47 0
-7803 72 0
-7801 7802 7803 0
-7802 7801 7803 0
-7803 7801 7802 0
7804 -12 -26 -46 -82 0
-7804 12 0
-7804 26 0
-7804 46 0
-7804 82 0
7805 -12 -26 -49 -79 0
-7805 12 0
-7805 26 0
-7805 49 0
-7805 79 0
7806 -12 -26 -52 -76 0
-7806 12 0
-7806 26 0
-7806 52 0
-7806 76 0
-7804 7805 7806 0
-7805 7804 7806 0
-7806 7804 7805 0
7807 -12 -26 -46 -83 0
-7807 12 0
-7807 26 0
-7807 46 0
-7807 83 0
7808 -12 -35 -46 -65 0
-7808 12 0
-7808 35 0
-7808 46 0
-7808 65 0
7809 -12 -38 -46 -62 0
-7809 12 0
-7809 38 0
-7809 46 0
-7809 62 0
-7807 7808 7809 0
-7808 7807 7809 0
-7809 7807 7808 0
7810 -12 -26 -46 -84 0
-7810 12 0
-7810 26 0
-7810 46 0
-7810 84 0
7811 -18 -26 -46 -75 0
-7811 18 0
-7811 26 0
-7811 46 0
-7811 75 0
7812 -21 -26 -46 -72 0
-7812 21 0
-7812 26 0
-7812 46 0
-7812 72 0
-7810 7811 7812 0
-7811 7810 7812 0
-7812 7810 7811 0
7813 -10 -26 -51 -79 0
-7813 10 0
-7813 26 0
-7813 51 0
-7813 79 0
7814 -13 -26 -51 -73 0
-7814 13 0
-7814 26 0
-7814 51 0
-7814 73 0
7815 -19 -26 -51 -67 0
-7815 19 0
-7815 26 0
-7815 51 0
-7815 67 0
-7813 7814 7815 0
-7814 7813 7815 0
-7815 7813 7814 0
7816 -10 -26 -51 -80 0
-7816 10 0
-7816 26 0
-7816 51 0
-7816 80 0
7817 -10 -32 -51 -65 0
-7817 10 0
-7817 32 0
-7817 51 0
-7817 65 0
7818 -10 -38 -51 -59 0
-7818 10 0
-7818 38 0
-7818 51 0
-7818 59 0
-7816 7817 7818 0
-7817 7816 7818 0
-7818 7816 7817 0
7819 -10 -27 -50 -79 0
-7819 10 0
-7819 27 0
-7819 50 0
-7819 79 0
7820 -13 -27 -50 -73 0
-7820 13 0
-7820 27 0
-7820 50 0
-7820 73 0
7821 -19 -27 -50 -67 0
-7821 19 0
-7821 27 0
-7821 50 0
-7821 67 0
-7819 7820 7821 0
-7820 7819 7821 0
-7821 7819 7820 0
7822 -10 -27 -50 -81 0
-7822 10 0
-7822 27 0
-7822 50 0
-7822 81 0
7823 -10 -33 -50 -66 0
-7823 10 0
-7823 33 0
-7823 50 0
-7823 66 0
7824 -10 -39 -50 -60 0
-7824 10 0
-7824 39 0
-7824 50 0
-7824 60 0
-7822 7823 7824 0
-7823 7822 7824 0
-7824 7822 7823 0
7825 -11 -25 -51 -79 0
-7825 11 0
-7825 25 0
-7825 51 0
-7825 79 0
7826 -11 -31 -51 -64 0
-7826 11 0
-7826 31 0
-7826 51 0
-7826 64 0
7827 -11 -37 -51 -58 0
-7827 11 0
-7827 37 0
-7827 51 0
-7827 58 0
-7825 7826 7827 0
-7826 7825 7827 0
-7827 7825 7826 0
7828 -11 -25 -51 -80 0
-7828 11 0
-7828 25 0
-7828 51 0
-7828 80 0
7829 -14 -25 -51 -74 0
-7829 14 0
-7829 25 0
-7829 51 0
-7829 74 0
7830 -20 -25 -51 -68 0
-7830 20 0
-7830 25 0
-7830 51 0
-7830 68 0
-7828 7829 7830 0
-7829 7828 7830 0
-7830 7828 7829 0
7831 -11 -27 -49 -80 0
-7831 11 0
-7831 27 0
-7831 49 0
-7831 80 0
7832 -14 -27 -49 -74 0
-7832 14 0
-7832 27 0
-7832 49 0
-7832 74 0
7833 -20 -27 -49 -68 0
-7833 20 0
-7833 27 0
-7833 49 0
-7833 68 0
-7831 7832 7833 0
-7832 7831 7833 0
-7833 7831 7832 0
7834 -11 -27 -49 -81 0
-7834 11 0
-7834 27 0
-7834 49 0
-7834 81 0
7835 -11 -33 -49 -66 0
-7835 11 0
-7835 33 0
-7835 49 0
-7835 66 0
7836 -11 -39 -49 -60 0
-7836 11 0
-7836 39 0
-7836 49 0
-7836 60 0
-7834 7835 7836 0
-7835 7834 7836 0
-7836 7834 7835 0
7837 -12 -25 -50 -79 0
-7837 12 0
-7837 25 0
-7837 50 0
-7837 79 0
7838 -12 -31 -50 -64 0
-7838 12 0
-7838 31 0
-7838 50 0
-7838 64 0
7839 -12 -37 -50 -58 0
-7839 12 0
-7839 37 0
-7839 50 0
-7839 58 0
-7837 7838 7839 0
-7838 7837 7839 0
-7839 7837 7838 0
7840 -12 -25 -50 -81 0
-7840 12 0
-7840 25 0
-7840 50 0
-7840 81 0
7841 -15 -25 -50 -75 0
-7841 15 0
-7841 25 0
-7841 50 0
-7841 75 0
7842 -21 -25 -50 -69 0
-7842 21 0
-7842 25 0
-7842 50 0
-7842 69 0
-7840 7841 7842 0
-7841 7840 7842 0
-7842 7840 7841 0
7843 -12 -26 -49 -80 0
-7843 12 0
-7843 26 0
-7843 49 0
-7843 80 0
7844 -12 -32 -49 -65 0
-7844 12 0
-7844 32 0
-7844 49 0
-7844 65 0
7845 -12 -38 -49 -59 0
-7845 12 0
-7845 38 0
-7845 49 0
-7845 59 0
-7843 7844 7845 0
-7844 7843 7845 0
-7845 7843 7844 0
7846 -12 -26 -49 -81 0
-7846 12 0
-7846 26 0
-7846 49 0
-7846 81 0
7847 -15 -26 -49 -75 0
-7847 15 0
-7847 26 0
-7847 49 0
-7847 75 0
7848 -21 -26 -49 -69 0
-7848 21 0
-7848 26 0
-7848 49 0
-7848 69 0
-7846 7847 7848 0
-7847 7846 7848 0
-7848 7846 7847 0
7849 -10 -26 -54 -76 0
-7849 10 0
-7849 26 0
-7849 54 0
-7849 76 0
7850 -13 -26 -54 -70 0
-7850 13 0
-7850 26 0
-7850 54 0
-7850 70 0
7851 -16 -26 -54 -67 0
-7851 16 0
-7851 26 0
-7851 54 0
-7851 67 0
-7849 7850 7851 0
-7850 7849 7851 0
-7851 7849 7850 0
7852 -10 -26 -54 -77 0
-7852 10 0
-7852 26 0
-7852 54 0
-7852 77 0
7853 -10 -32 -54 -62 0
-7853 10 0
-7853 32 0
-7853 54 0
-7853 62 0
7854 -10 -35 -54 -59 0
-7854 10 0
-7854 35 0
-7854 54 0
-7854 59 0
-7852 7853 7854 0
-7853 7852 7854 0
-7854 7852 7853 0
7855 -10 -27 -53 -76 0
-7855 10 0
-7855 27 0
-7855 53 0
-7855 76 0
7856 -13 -27 -53 -70 0
-7856 13 0
-7856 27 0
-7856 53 0
-7856 70 0
7857 -16 -27 -53 -67 0
-7857 16 0
-7857 27 0
-7857 53 0
-7857 67 0
-7855 7856 7857 0
-7856 7855 7857 0
-7857 7855 7856 0
7858 -10 -27 -53 -78 0
-7858 10 0
-7858 27 0
-7858 53 0
-7858 78 0
7859 -10 -33 -53 -63 0
-7859 10 0
-7859 33 0
-7859 53 0
-7859 63 0
7860 -10 -36 -53 -60 0
-7860 10 0
-7860 36 0
-7860 53 0
-7860 60 0
-7858 7859 7860 0
-7859 7858 7860 0
-7860 7858 7859 0
7861 -11 -25 -54 -76 0
-7861 11 0
-7861 25 0
-7861 54 0
-7861 76 0
7862 -11 -31 -54 -61 0
-7862 11 0
-7862 31 0
-7862 54 0
-7862 61 0
7863 -11 -34 -54 -58 0
-7863 11 0
-7863 34 0
-7863 54 0
-7863 58 0
-7861 7862 7863 0
-7862 7861 7863 0
-7863 7861 7862 0
7864 -11 -25 -54 -77 0
-7864 11 0
-7864 25 0
-7864 54 0
-7864 77 0
7865 -14 -25 -54 -71 0
-7865 14 0
-7865 25 0
-7865 54 0
-7865 71 0
7866 -17 -25 -54 -68 0
-7866 17 0
-7866 25 0
-7866 54 0
-7866 68 0
-7864 7865 7866 0
-7865 7864 7866 0
-7866 7864 7865 0
7867 -11 -27 -52 -77 0
-7867 11 0
-7867 27 0
-7867 52 0
-7867 77 0
7868 -14 -27 -52 -71 0
-7868 14 0
-7868 27 0
-7868 52 0
-7868 71 0
7869 -17 -27 -52 -68 0
-7869 17 0
-7869 27 0
-7869 52 0
-7869 68 0
-7867 7868 7869 0
-7868 7867 7869 0
-7869 7867 7868 0
7870 -11 -27 -52 -78 0
-7870 11 0
-7870 27 0
-7870 52 0
-7870 78 0
7871 -11 -33 -52 -63 0
-7871 11 0
-7871 33 0
-7871 52 0
-7871 63 0
7872 -11 -36 -52 -60 0
-7872 11 0
-7872 36 0
-7872 52 0
-7872 60 0
-7870 7871 7872 0
-7871 7870 7872 0
-7872 7870 7871 0
7873 -12 -25 -53 -76 0
-7873 12 0
-7873 25 0
-7873 53 0
-7873 76 0
7874 -12 -31 -53 -61 0
-7874 12 0
-7874 31 0
-7874 53 0
-7874 61 0
7875 -12 -34 -53 -58 0
-7875 12 0
-7875 34 0
-7875 53 0
-7875 58 0
-7873 7874 7875 0
-7874 7873 7875 0
-7875 7873 7874 0
7876 -12 -25 -53 -78 0
-7876 12 0
-7876 25 0
-7876 53 0
-7876 78 0
7877 -15 -25 -53 -72 0
-7877 15 0
-7877 25 0
-7877 53 0
-7877 72 0
7878 -18 -25 -53 -69 0
-7878 18 0
-7878 25 0
-7878 53 0
-7878 69 0
-7876 7877 7878 0
-7877 7876 7878 0
-7878 7876 7877 0
7879 -12 -26 -52 -77 0
-7879 12 0
-7879 26 0
-7879 52 0
-7879 77 0
7880 -12 -32 -52 -62 0
-7880 12 0
-7880 32 0
-7880 52 0
-7880 62 0
7881 -12 -35 -52 -59 0
-7881 12 0
-7881 35 0
-7881 52 0
-7881 59 0
-7879 7880 7881 0
-7880 7879 7881 0
-7881 7879 7880 0
7882 -12 -26 -52 -78 0
-7882 12 0
-7882 26 0
-7882 52 0
-7882 78 0
7883 -15 -26 -52 -72 0
-7883 15 0
-7883 26 0
-7883 52 0
-7883 72 0
7884 -18 -26 -52 -69 0
-7884 18 0
-7884 26 0
-7884 52 0
-7884 69 0
-7882 7883 7884 0
-7883 7882 7884 0
-7884 7882 7883 0
7885 -10 -32 -42 -82 0
-7885 10 0
-7885 32 0
-7885 42 0
-7885 82 0
7886 -16 -32 -42 -73 0
-7886 16 0
-7886 32 0
-7886 42 0
-7886 73 0
7887 -19 -32 -42 -70 0
-7887 19 0
-7887 32 0
-7887 42 0
-7887 70 0
-7885 7886 7887 0
-7886 7885 7887 0
-7887 7885 7886 0
7888 -10 -32 -42 -83 0
-7888 10 0
-7888 32 0
-7888 42 0
-7888 83 0
7889 -10 -35 -42 -80 0
-7889 10 0
-7889 35 0
-7889 42 0
-7889 80 0
7890 -10 -38 -42 -77 0
-7890 10 0
-7890 38 0
-7890 42 0
-7890 77 0
-7888 7889 7890 0
-7889 7888 7890 0
-7890 7888 7889 0
7891 -10 -32 -42 -84 0
-7891 10 0
-7891 32 0
-7891 42 0
-7891 84 0
7892 -10 -32 -51 -66 0
-7892 10 0
-7892 32 0
-7892 51 0
-7892 66 0
7893 -10 -32 -54 -63 0
-7893 10 0
-7893 32 0
-7893 54 0
-7893 63 0
-7891 7892 7893 0
-7892 7891 7893 0
-7893 7891 7892 0
7894 -10 -33 -41 -82 0
-7894 10 0
-7894 33 0
-7894 41 0
-7894 82 0
7895 -16 -33 -41 -73 0
-7895 16 0
-7895 33 0
-7895 41 0
-7895 73 0
7896 -19 -33 -41 -70 0
-7896 19 0
-7896 33 0
-7896 41 0
-7896 70 0
-7894 7895 7896 0
-7895 7894 7896 0
-7896 7894 7895 0
7897 -10 -33 -41 -83 0
-7897 10 0
-7897 33 0
-7897 41 0
-7897 83 0
7898 -10 -33 -50 -65 0
-7898 10 0
-7898 33 0
-7898 50 0
-7898 65 0
7899 -10 -33 -53 -62 0
-7899 10 0
-7899 33 0
-7899 53 0
-7899 62 0
-7897 7898 7899 0
-7898 7897 7899 0
-7899 7897 7898 0
7900 -10 -33 -41 -84 0
-7900 10 0
-7900 33 0
-7900 41 0
-7900 84 0
7901 -10 -36 -41 -81 0
-7901 10 0
-7901 36 0
-7901 41 0
-7901 81 0
7902 -10 -39 -41 -78 0
-7902 10 0
-7902 39 0
-7902 41 0
-7902 78 0
-7900 7901 7902 0
-7901 7900 7902 0
-7902 7900 7901 0
7903 -11 -31 -42 -82 0
-7903 11 0
-7903 31 0
-7903 42 0
-7903 82 0
7904 -11 -34 -42 -79 0
-7904 11 0
-7904 34 0
-7904 42 0
-7904 79 0
7905 -11 -37 -42 -76 0
-7905 11 0
-7905 37 0
-7905 42 0
-7905 76 0
-7903 7904 7905 0
-7904 7903 7905 0
-7905 7903 7904 0
7906 -11 -31 -42 -83 0
-7906 11 0
-7906 31 0
-7906 42 0
-7906 83 0
7907 -17 -31 -42 -74 0
-7907 17 0
-7907 31 0
-7907 42 0
-7907 74 0
7908 -20 -31 -42 -71 0
-7908 20 0
-7908 31 0
-7908 42 0
-7908 71 0
-7906 7907 7908 0
-7907 7906 7908 0
-7908 7906 7907 0
7909 -11 -31 -42 -84 0
-7909 11 0
-7909 31 0
-7909 42 0
-7909 84 0
7910 -11 -31 -51 -66 0
-7910 11 0
-7910 31 0
-7910 51 0
-7910 66 0
7911 -11 -31 -54 -63 0
-7911 11 0
-7911 31 0
-7911 54 0
-7911 63 0
-7909 7910 7911 0
-7910 7909 7911 0
-7911 7909 7910 0
7912 -11 -33 -40 -82 0
-7912 11 0
-7912 33 0
-7912 40 0
-7912 82 0
7913 -11 -33 -49 -64 0
-7913 11 0
-7913 33 0
-7913 49 0
-7913 64 0
7914 -11 -33 -52 -61 0
-7914 11 0
-7914 33 0
-7914 52 0
-7914 61 0
-7912 7913 7914 0
-7913 7912 7914 0
-7914 7912 7913 0
7915 -11 -33 -40 -83 0
-7915 11 0
-7915 33 0
-7915 40 0
-7915 83 0
7916 -17 -33 -40 -74 0
-7916 17 0
-7916 33 0
-7916 40 0
-7916 74 0
7917 -20 -33 -40 -71 0
-7917 20 0
-7917 33 0
-7917 40 0
-7917 71 0
-7915 7916 7917 0
-7916 7915 7917 0
-7917 7915 7916 0
7918 -11 -33 -40 -84 0
-7918 11 0
-7918 33 0
-7918 40 0
-7918 84 0
7919 -11 -36 -40 -81 0
-7919 11 0
-7919 36 0
-7919 40 0
-7919 81 0
7920 -11 -39 -40 -78 0
-7920 11 0
-7920 39 0
-7920 40 0
-7920 78 0
-7918 7919 7920 0
-7919 7918 7920 0
-7920 7918 7919 0
7921 -12 -31 -41 -82 0
-7921 12 0
-7921 31 0
-7921 41 0
-7921 82 0
7922 -12 -34 -41 -79 0
-7922 12 0
-7922 34 0
-7922 41 0
-7922 79 0
7923 -12 -37 -41 -76 0
-7923 12 0
-7923 37 0
-7923 41 0
-7923 76 0
-7921 7922 7923 0
-7922 7921 7923 0
-7923 7921 7922 0
7924 -12 -31 -41 -83 0
-7924 12 0
-7924 31 0
-7924 41 0
-7924 83 0
7925 -12 -31 -50 -65 0
-7925 12 0
-7925 31 0
-7925 50 0
-7925 65 0
7926 -12 -31 -53 -62 0
-7926 12 0
-7926 31 0
-7926 53 0
-7926 62 0
-7924 7925 7926 0
-7925 7924 7926 0
-7926 7924 7925 0
7927 -12 -31 -41 -84 0
-7927 12 0
-7927 31 0
-7927 41 0
-7927 84 0
7928 -18 -31 -41 -75 0
-7928 18 0
-7928 31 0
-7928 41 0
-7928 75 0
7929 -21 -31 -41 -72 0
-7929 21 0
-7929 31 0
-7929 41 0
-7929 72 0
-7927 7928 7929 0
-7928 7927 7929 0
-7929 7927 7928 0
7930 -12 -32 -40 -82 0
-7930 12 0
-7930 32 0
-7930 40 0
-7930 82 0
7931 -12 -32 -49 -64 0
-7931 12 0
-7931 32 0
-7931 49 0
-7931 64 0
7932 -12 -32 -52 -61 0
-7932 12 0
-7932 32 0
-7932 52 0
-7932 61 0
-7930 7931 7932 0
-7931 7930 7932 0
-7932 7930 7931 0
7933 -12 -32 -40 -83 0
-7933 12 0
-7933 32 0
-7933 40 0
-7933 83 0
7934 -12 -35 -40 -80 0
-7934 12 0
-7934 35 0
-7934 40 0
-7934 80 0
7935 -12 -38 -40 -77 0
-7935 12 0
-7935 38 0
-7935 40 0
-7935 77 0
-7933 7934 7935 0
-7934 7933 7935 0
-7935 7933 7934 0
7936 -12 -32 -40 -84 0
-7936 12 0
-7936 32 0
-7936 40 0
-7936 84 0
7937 -18 -32 -40 -75 0
-7937 18 0
-7937 32 0
-7937 40 0
-7937 75 0
7938 -21 -32 -40 -72 0
-7938 21 0
-7938 32 0
-7938 40 0
-7938 72 0
-7936 7937 7938 0
-7937 7936 7938 0
-7938 7936 7937 0
7939 -10 -35 -42 -79 0
-7939 10 0
-7939 35 0
-7939 42 0
-7939 79 0
7940 -13 -35 -42 -73 0
-7940 13 0
-7940 35 0
-7940 42 0
-7940 73 0
7941 -19 -35 -42 -67 0
-7941 19 0
-7941 35 0
-7941 42 0
-7941 67 0
-7939 7940 7941 0
-7940 7939 7941 0
-7941 7939 7940 0
7942 -10 -35 -42 -81 0
-7942 10 0
-7942 35 0
-7942 42 0
-7942 81 0
7943 -10 -35 -48 -66 0
-7943 10 0
-7943 35 0
-7943 48 0
-7943 66 0
7944 -10 -35 -54 -60 0
-7944 10 0
-7944 35 0
-7944 54 0
-7944 60 0
-7942 7943 7944 0
-7943 7942 7944 0
-7944 7942 7943 0
7945 -10 -36 -41 -79 0
-7945 10 0
-7945 36 0
-7945 41 0
-7945 79 0
7946 -13 -36 -41 -73 0
-7946 13 0
-7946 36 0
-7946 41 0
-7946 73 0
7947 -19 -36 -41 -67 0
-7947 19 0
-7947 36 0
-7947 41 0
-7947 67 0
-7945 7946 7947 0
-7946 7945 7947 0
-7947 7945 7946 0
7948 -10 -36 -41 -80 0
-7948 10 0
-7948 36 0
-7948 41 0
-7948 80 0
7949 -10 -36 -47 -65 0
-7949 10 0
-7949 36 0
-7949 47 0
-7949 65 0
7950 -10 -36 -53 -59 0
-7950 10 0
-7950 36 0
-7950 53 0
-7950 59 0
-7948 7949 7950 0
-7949 7948 7950 0
-7950 7948 7949 0
7951 -11 -34 -42 -80 0
-7951 11 0
-7951 34 0
-7951 42 0
-7951 80 0
7952 -14 -34 -42 -74 0
-7952 14 0
-7952 34 0
-7952 42 0
-7952 74 0
7953 -20 -34 -42 -68 0
-7953 20 0
-7953 34 0
-7953 42 0
-7953 68 0
-7951 7952 7953 0
-7952 7951 7953 0
-7953 7951 7952 0
7954 -11 -34 -42 -81 0
-7954 11 0
-7954 34 0
-7954 42 0
-7954 81 0
7955 -11 -34 -48 -66 0
-7955 11 0
-7955 34 0
-7955 48 0
-7955 66 0
7956 -11 -34 -54 -60 0
-7956 11 0
-7956 34 0
-7956 54 0
-7956 60 0
-7954 7955 7956 0
-7955 7954 7956 0
-7956 7954 7955 0
7957 -11 -36 -40 -79 0
-7957 11 0
-7957 36 0
-7957 40 0
-7957 79 0
7958 -11 -36 -46 -64 0
-7958 11 0
-7958 36 0
-7958 46 0
-7958 64 0
7959 -11 -36 -52 -58 0
-7959 11 0
-7959 36 0
-7959 52 0
-7959 58 0
-7957 7958 7959 0
-7958 7957 7959 0
-7959 7957 7958 0
7960 -11 -36 -40 -80 0
-7960 11 0
-7960 36 0
-7960 40 0
-7960 80 0
7961 -14 -36 -40 -74 0
-7961 14 0
-7961 36 0
-7961 40 0
-7961 74 0
7962 -20 -36 -40 -68 0
-7962 20 0
-7962 36 0
-7962 40 0
-7962 68 0
-7960 7961 7962 0
-7961 7960 7962 0
-7962 7960 7961 0
7963 -12 -34 -41 -80 0
-7963 12 0
-7963 34 0
-7963 41 0
-7963 80 0
7964 -12 -34 -47 -65 0
-7964 12 0
-7964 34 0
-7964 47 0
-7964 65 0
7965 -12 -34 -53 -59 0
-7965 12 0
-7965 34 0
-7965 53 0
-7965 59 0
-7963 7964 7965 0
-7964 7963 7965 0
-7965 7963 7964 0
7966 -12 -34 -41 -81 0
-7966 12 0
-7966 34 0
-7966 41 0
-7966 81 0
7967 -15 -34 -41 -75 0
-7967 15 0
-7967 34 0
-7967 41 0
-7967 75 0
7968 -21 -34 -41 -69 0
-7968 21 0
-7968 34 0
-7968 41 0
-7968 69 0
-7966 7967 7968 0
-7967 7966 7968 0
-7968 7966 7967 0
7969 -12 -35 -40 -79 0
-7969 12 0
-7969 35 0
-7969 40 0
-7969 79 0
7970 -12 -35 -46 -64 0
-7970 12 0
-7970 35 0
-7970 46 0
-7970 64 0
7971 -12 -35 -52 -58 0
-7971 12 0
-7971 35 0
-7971 52 0
-7971 58 0
-7969 7970 7971 0
-7970 7969 7971 0
-7971 7969 7970 0
7972 -12 -35 -40 -81 0
-7972 12 0
-7972 35 0
-7972 40 0
-7972 81 0
7973 -15 -35 -40 -75 0
-7973 15 0
-7973 35 0
-7973 40 0
-7973 75 0
7974 -21 -35 -40 -69 0
-7974 21 0
-7974 35 0
-7974 40 0
-7974 69 0
-7972 7973 7974 0
-7973 7972 7974 0
-7974 7972 7973 0
7975 -10 -38 -42 -76 0
-7975 10 0
-7975 38 0
-7975 42 0
-7975 76 0
7976 -13 -38 -42 -70 0
-7976 13 0
-7976 38 0
-7976 42 0
-7976 70 0
7977 -16 -38 -42 -67 0
-7977 16 0
-7977 38 0
-7977 42 0
-7977 67 0
-7975 7976 7977 0
-7976 7975 7977 0
-7977 7975 7976 0
7978 -10 -38 -42 -78 0
-7978 10 0
-7978 38 0
-7978 42 0
-7978 78 0
7979 -10 -38 -48 -63 0
-7979 10 0
-7979 38 0
-7979 48 0
-7979 63 0
7980 -10 -38 -51 -60 0
-7980 10 0
-7980 38 0
-7980 51 0
-7980 60 0
-7978 7979 7980 0
-7979 7978 7980 0
-7980 7978 7979 0
7981 -10 -39 -41 -76 0
-7981 10 0
-7981 39 0
-7981 41 0
-7981 76 0
7982 -13 -39 -41 -70 0
-7982 13 0
-7982 39 0
-7982 41 0
-7982 70 0
7983 -16 -39 -41 -67 0
-7983 16 0
-7983 39 0
-7983 41 0
-7983 67 0
-7981 7982 7983 0
-7982 7981 7983 0
-7983 7981 7982 0
7984 -10 -39 -41 -77 0
-7984 10 0
-7984 39 0
-7984 41 0
-7984 77 0
7985 -10 -39 -47 -62 0
-7985 10 0
-7985 39 0
-7985 47 0
-7985 62 0
7986 -10 -39 -50 -59 0
-7986 10 0
-7986 39 0
-7986 50 0
-7986 59 0
-7984 7985 7986 0
-7985 7984 7986 0
-7986 7984 7985 0
7987 -11 -37 -42 -77 0
-7987 11 0
-7987 37 0
-7987 42 0
-7987 77 0
7988 -14 -37 -42 -71 0
-7988 14 0
-7988 37 0
-7988 42 0
-7988 71 0
7989 -17 -37 -42 -68 0
-7989 17 0
-7989 37 0
-7989 42 0
-7989 68 0
-7987 7988 7989 0
-7988 7987 7989 0
-7989 7987 7988 0
7990 -11 -37 -42 -78 0
-7990 11 0
-7990 37 0
-7990 42 0
-7990 78 0
7991 -11 -37 -48 -63 0
-7991 11 0
-7991 37 0
-7991 48 0
-7991 63 0
7992 -11 -37 -51 -60 0
-7992 11 0
-7992 37 0
-7992 51 0
-7992 60 0
-7990 7991 7992 0
-7991 7990 7992 0
-7992 7990 7991 0
7993 -11 -39 -40 -76 0
-7993 11 0
-7993 39 0
-7993 40 0
-7993 76 0
7994 -11 -39 -46 -61 0
-7994 11 0
-7994 39 0
-7994 46 0
-7994 61 0
7995 -11 -39 -49 -58 0
-7995 11 0
-7995 39 0
-7995 49 0
-7995 58 0
-7993 7994 7995 0
-7994 7993 7995 0
-7995 7993 7994 0
7996 -11 -39 -40 -77 0
-7996 11 0
-7996 39 0
-7996 40 0
-7996 77 0
7997 -14 -39 -40 -71 0
-7997 14 0
-7997 39 0
-7997 40 0
-7997 71 0
7998 -17 -39 -40 -68 0
-7998 17 0
-7998 39 0
-7998 40 0
-7998 68 0
-7996 7997 7998 0
-7997 7996 7998 0
-7998 7996 7997 0
7999 -12 -37 -41 -77 0
-7999 12 0
-7999 37 0
-7999 41 0
-7999 77 0
8000 -12 -37 -47 -62 0
-8000 12 0
-8000 37 0
-8000 47 0
-8000 62 0
8001 -12 -37 -50 -59 0
-8001 12 0
-8001 37 0
-8001 50 0
-8001 59 0
-7999 8000 8001 0
-8000 7999 8001 0
-8001 7999 8000 0
8002 -12 -37 -41 -78 0
-8002 12 0
-8002 37 0
-8002 41 0
-8002 78 0
8003 -15 -37 -41 -72 0
-8003 15 0
-8003 37 0
-8003 41 0
-8003 72 0
8004 -18 -37 -41 -69 0
-8004 18 0
-8004 37 0
-8004 41 0
-8004 69 0
-8002 8003 8004 0
-8003 8002 8004 0
-8004 8002 8003 0
8005 -12 -38 -40 -76 0
-8005 12 0
-8005 38 0
-8005 40 0
-8005 76 0
8006 -12 -38 -46 -61 0
-8006 12 0
-8006 38 0
-8006 46 0
-8006 61 0
8007 -12 -38 -49 -58 0
-8007 12 0
-8007 38 0
-8007 49 0
-8007 58 0
-8005 8006 8007 0
-8006 8005 8007 0
-8007 8005 8006 0
8008 -12 -38 -40 -78 0
-8008 12 0
-8008 38 0
-8008 40 0
-8008 78 0
8009 -15 -38 -40 -72 0
-8009 15 0
-8009 38 0
-8009 40 0
-8009 72 0
8010 -18 -38 -40 -69 0
-8010 18 0
-8010 38 0
-8010 40 0
-8010 69 0
-8008 8009 8010 0
-8009 8008 8010 0
-8010 8008 8009 0
8011 -13 -23 -56 -82 0
-8011 13 0
-8011 23 0
-8011 56 0
-8011 82 0
8012 -13 -26 -44 -82 0
-8012 13 0
-8012 26 0
-8012 44 0
-8012 82 0
8013 -13 -29 -41 -82 0
-8013 13 0
-8013 29 0
-8013 41 0
-8013 82 0
8014 -16 -23 -56 -79 0
-8014 16 0
-8014 23 0
-8014 56 0
-8014 79 0
8015 -16 -26 -44 -79 0
-8015 16 0
-8015 26 0
-8015 44 0
-8015 79 0
8016 -16 -29 -41 -79 0
-8016 16 0
-8016 29 0
-8016 41 0
-8016 79 0
8017 -19 -23 -56 -76 0
-8017 19 0
-8017 23 0
-8017 56 0
-8017 76 0
8018 -19 -26 -44 -76 0
-8018 19 0
-8018 26 0
-8018 44 0
-8018 76 0
8019 -19 -29 -41 -76 0
-8019 19 0
-8019 29 0
-8019 41 0
-8019 76 0
-8011 8012 8013 8014 8015 8016 8017 8018 8019 0
-8012 8011 8013 8014 8015 8016 8017 8018 8019 0
-8013 8011 8012 8014 8015 8016 8017 8018 8019 0
-8014 8011 8012 8013 8015 8016 8017 8018 8019 0
-8015 8011 8012 8013 8014 8016 8017 8018 8019 0
-8016 8011 8012 8013 8014 8015 8017 8018 8019 0
-8017 8011 8012 8013 8014 8015 8016 8018 8019 0
-8018 8011 8012 8013 8014 8015 8016 8017 8019 0
-8019 8011 8012 8013 8014 8015 8016 8017 8018 0
8020 -13 -23 -56 -83 0
-8020 13 0
-8020 23 0
-8020 56 0
-8020 83 0
8021 -13 -23 -62 -74 0
-8021 13 0
-8021 23 0
-8021 62 0
-8021 74 0
8022 -13 -23 -65 -71 0
-8022 13 0
-8022 23 0
-8022 65 0
-8022 71 0
8023 -13 -26 -44 -83 0
-8023 13 0
-8023 26 0
-8023 44 0
-8023 83 0
8024 -13 -26 -50 -74 0
-8024 13 0
-8024 26 0
-8024 50 0
-8024 74 0
8025 -13 -26 -53 -71 0
-8025 13 0
-8025 26 0
-8025 53 0
-8025 71 0
8026 -13 -29 -41 -83 0
-8026 13 0
-8026 29 0
-8026 41 0
-8026 83 0
8027 -13 -29 -50 -65 0
-8027 13 0
-8027 29 0
-8027 50 0
-8027 65 0
8028 -13 -29 -53 -62 0
-8028 13 0
-8028 29 0
-8028 53 0
-8028 62 0
8029 -13 -35 -41 -74 0
-8029 13 0
-8029 35 0
-8029 41 0
-8029 74 0
8030 -13 -35 -44 -65 0
-8030 13 0
-8030 35 0
-8030 44 0
-8030 65 0
8031 -13 -35 -53 -56 0
-8031 13 0
-8031 35 0
-8031 53 0
-8031 56 0
8032 -13 -38 -41 -71 0
-8032 13 0
-8032 38 0
-8032 41 0
-8032 71 0
8033 -13 -38 -44 -62 0
-8033 13 0
-8033 38 0
-8033 44 0
-8033 62 0
8034 -13 -38 -50 -56 0
-8034 13 0
-8034 38 0
-8034 50 0
-8034 56 0
-8020 8021 8022 8023 8024 8025 8026 8027 8028 8029 8030 8031 8032 8033 8034 0
-8021 8020 8022 8023 8024 8025 8026 8027 8028 8029 8030 8031 8032 8033 8034 0
-8022 8020 8021 8023 8024 8025 8026 8027 8028 8029 8030 8031 8032 8033 8034 0
-8023 8020 8021 8022 8024 8025 8026 8027 8028 8029 8030 8031 8032 8033 8034 0
-8024 8020 8021 8022 8023 8025 8026 8027 8028 8029 8030 8031 8032 8033 8034 0
-8025 8020 8021 8022 8023 8024 8026 8027 8028 8029 8030 8031 8032 8033 8034 0
-8026 8020 8021 8022 8023 8024 8025 8027 8028 8029 8030 8031 8032 8033 8034 0
-8027 8020 8021 8022 8023 8024 8025 8026 8028 8029 8030 8031 8032 8033 8034 0
-8028 8020 8021 8022 8023 8024 8025 8026 8027 8029 8030 8031 8032 8033 8034 0
-8029 8020 8021 8022 8023 8024 8025 8026 8027 8028 8030 8031 8032 8033 8034 0
-8030 8020 8021 8022 8023 8024 8025 8026 8027 8028 8029 8031 8032 8033 8034 0
-8031 8020 8021 8022 8023 8024 8025 8026 8027 8028 8029 8030 8032 8033 8034 0
-8032 8020 8021 8022 8023 8024 8025 8026 8027 8028 8029 8030 8031 8033 8034 0
-8033 8020 8021 8022 8023 8024 8025 8026 8027 8028 8029 8030 8031 8032 8034 0
-8034 8020 8021 8022 8023 8024 8025 8026 8027 8028 8029 8030 8031 8032 8033 0
8035 -13 -23 -56 -84 0
-8035 13 0
-8035 23 0
-8035 56 0
-8035 84 0
8036 -13 -26 -44 -84 0
-8036 13 0
-8036 26 0
-8036 44 0
-8036 84 0
8037 -13 -29 -41 -84 0
-8037 13 0
-8037 29 0
-8037 41 0
-8037 84 0
-8035 8036 8037 0
-8036 8035 8037 0
-8037 8035 8036 0
8038 -13 -23 -57 -82 0
-8038 13 0
-8038 23 0
-8038 57 0
-8038 82 0
8039 -16 -23 -57 -79 0
-8039 16 0
-8039 23 0
-8039 57 0
-8039 79 0
8040 -19 -23 -57 -76 0
-8040 19 0
-8040 23 0
-8040 57 0
-8040 76 0
-8038 8039 8040 0
-8039 8038 8040 0
-8040 8038 8039 0
8041 -13 -23 -57 -83 0
-8041 13 0
-8041 23 0
-8041 57 0
-8041 83 0
8042 -13 -35 -53 -57 0
-8042 13 0
-8042 35 0
-8042 53 0
-8042 57 0
8043 -13 -38 -50 -57 0
-8043 13 0
-8043 38 0
-8043 50 0
-8043 57 0
-8041 8042 8043 0
-8042 8041 8043 0
-8043 8041 8042 0
8044 -13 -23 -57 -84 0
-8044 13 0
-8044 23 0
-8044 57 0
-8044 84 0
8045 -13 -23 -63 -75 0
-8045 13 0
-8045 23 0
-8045 63 0
-8045 75 0
8046 -13 -23 -66 -72 0
-8046 13 0
-8046 23 0
-8046 66 0
-8046 72 0
-8044 8045 8046 0
-8045 8044 8046 0
-8046 8044 8045 0
8047 -13 -24 -56 -82 0
-8047 13 0
-8047 24 0
-8047 56 0
-8047 82 0
8048 -16 -24 -56 -79 0
-8048 16 0
-8048 24 0
-8048 56 0
-8048 79 0
8049 -19 -24 -56 -76 0
-8049 19 0
-8049 24 0
-8049 56 0
-8049 76 0
-8047 8048 8049 0
-8048 8047 8049 0
-8049 8047 8048 0
8050 -13 -24 -56 -83 0
-8050 13 0
-8050 24 0
-8050 56 0
-8050 83 0
8051 -13 -24 -62 -74 0
-8051 13 0
-8051 24 0
-8051 62 0
-8051 74 0
8052 -13 -24 -65 -71 0
-8052 13 0
-8052 24 0
-8052 65 0
-8052 71 0
-8050 8051 8052 0
-8051 8050 8052 0
-8052 8050 8051 0
8053 -13 -24 -56 -84 0
-8053 13 0
-8053 24 0
-8053 56 0
-8053 84 0
8054 -13 -36 -54 -56 0
-8054 13 0
-8054 36 0
-8054 54 0
-8054 56 0
8055 -13 -39 -51 -56 0
-8055 13 0
-8055 39 0
-8055 51 0
-8055 56 0
-8053 8054 8055 0
-8054 8053 8055 0
-8055 8053 8054 0
8056 -13 -24 -57 -82 0
-8056 13 0
-8056 24 0
-8056 57 0
-8056 82 0
8057 -13 -27 -45 -82 0
-8057 13 0
-8057 27 0
-8057 45 0
-8057 82 0
8058 -13 -30 -42 -82 0
-8058 13 0
-8058 30 0
-8058 42 0
-8058 82 0
8059 -16 -24 -57 -79 0
-8059 16 0
-8059 24 0
-8059 57 0
-8059 79 0
8060 -16 -27 -45 -79 0
-8060 16 0
-8060 27 0
-8060 45 0
-8060 79 0
8061 -16 -30 -42 -79 0
-8061 16 0
-8061 30 0
-8061 42 0
-8061 79 0
8062 -19 -24 -57 -76 0
-8062 19 0
-8062 24 0
-8062 57 0
-8062 76 0
8063 -19 -27 -45 -76 0
-8063 19 0
-8063 27 0
-8063 45 0
-8063 76 0
8064 -19 -30 -42 -76 0
-8064 19 0
-8064 30 0
-8064 42 0
-8064 76 0
-8056 8057 8058 8059 8060 8061 8062 8063 8064 0
-8057 8056 8058 8059 8060 8061 8062 8063 8064 0
-8058 8056 8057 8059 8060 8061 8062 8063 8064 0
-8059 8056 8057 8058 8060 8061 8062 8063 8064 0
-8060 8056 8057 8058 8059 8061 8062 8063 8064 0
-8061 8056 8057 8058 8059 8060 8062 8063 8064 0
-8062 8056 8057 8058 8059 8060 8061 8063 8064 0
-8063 8056 8057 8058 8059 8060 8061 8062 8064 0
-8064 8056 8057 8058 8059 8060 8061 8062 8063 0
8065 -13 -24 -57 -83 0
-8065 13 0
-8065 24 0
-8065 57 0
-8065 83 0
8066 -13 -27 -45 -83 0
-8066 13 0
-8066 27 0
-8066 45 0
-8066 83 0
8067 -13 -30 -42 -83 0
-8067 13 0
-8067 30 0
-8067 42 0
-8067 83 0
-8065 8066 8067 0
-8066 8065 8067 0
-8067 8065 8066 0
8068 -13 -24 -57 -84 0
-8068 13 0
-8068 24 0
-8068 57 0
-8068 84 0
8069 -13 -24 -63 -75 0
-8069 13 0
-8069 24 0
-8069 63 0
-8069 75 0
8070 -13 -24 -66 -72 0
-8070 13 0
-8070 24 0
-8070 66 0
-8070 72 0
8071 -13 -27 -45 -84 0
-8071 13 0
-8071 27 0
-8071 45 0
-8071 84 0
8072 -13 -27 -51 -75 0
-8072 13 0
-8072 27 0
-8072 51 0
-8072 75 0
8073 -13 -27 -54 -72 0
-8073 13 0
-8073 27 0
-8073 54 0
-8073 72 0
8074 -13 -30 -42 -84 0
-8074 13 0
-8074 30 0
-8074 42 0
-8074 84 0
8075 -13 -30 -51 -66 0
-8075 13 0
-8075 30 0
-8075 51 0
-8075 66 0
8076 -13 -30 -54 -63 0
-8076 13 0
-8076 30 0
-8076 54 0
-8076 63 0
8077 -13 -36 -42 -75 0
-8077 13 0
-8077 36 0
-8077 42 0
-8077 75 0
8078 -13 -36 -45 -66 0
-8078 13 0
-8078 36 0
-8078 45 0
-8078 66 0
8079 -13 -36 -54 -57 0
-8079 13 0
-8079 36 0
-8079 54 0
-8079 57 0
8080 -13 -39 -42 -72 0
-8080 13 0
-8080 39 0
-8080 42 0
-8080 72 0
8081 -13 -39 -45 -63 0
-8081 13 0
-8081 39 0
-8081 45 0
-8081 63 0
8082 -13 -39 -51 -57 0
-8082 13 0
-8082 39 0
-8082 51 0
-8082 57 0
-8068 8069 8070 8071 8072 8073 8074 8075 8076 8077 8078 8079 8080 8081 8082 0
-8069 8068 8070 8071 8072 8073 8074 8075 8076 8077 8078 8079 8080 8081 8082 0
-8070 8068 8069 8071 8072 8073 8074 8075 8076 8077 8078 8079 8080 8081 8082 0
-8071 8068 8069 8070 8072 8073 8074 8075 8076 8077 8078 8079 8080 8081 8082 0
-8072 8068 8069 8070 8071 8073 8074 8075 8076 8077 8078 8079 8080 8081 8082 0
-8073 8068 8069 8070 8071 8072 8074 8075 8076 8077 8078 8079 8080 8081 8082 0
-8074 8068 8069 8070 8071 8072 8073 8075 8076 8077 8078 8079 8080 8081 8082 0
-8075 8068 8069 8070 8071 8072 8073 8074 8076 8077 8078 8079 8080 8081 8082 0
-8076 8068 8069 8070 8071 8072 8073 8074 8075 8077 8078 8079 8080 8081 8082 0
-8077 8068 8069 8070 8071 8072 8073 8074 8075 8076 8078 8079 8080 8081 8082 0
-8078 8068 8069 8070 8071 8072 8073 8074 8075 8076 8077 8079 8080 8081 8082 0
-8079 8068 8069 8070 8071 8072 8073 8074 8075 8076 8077 8078 8080 8081 8082 0
-8080 8068 8069 8070 8071 8072 8073 8074 8075 8076 8077 8078 8079 8081 8082 0
-8081 8068 8069 8070 8071 8072 8073 8074 8075 8076 8077 8078 8079 8080 8082 0
-8082 8068 8069 8070 8071 8072 8073 8074 8075 8076 8077 8078 8079 8080 8081 0
8083 -14 -22 -55 -82 0
-8083 14 0
-8083 22 0
-8083 55 0
-8083 82 0
8084 -14 -22 -61 -73 0
-8084 14 0
-8084 22 0
-8084 61 0
-8084 73 0
8085 -14 -22 -64 -70 0
-8085 14 0
-8085 22 0
-8085 64 0
-8085 70 0
8086 -14 -25 -43 -82 0
-8086 14 0
-8086 25 0
-8086 43 0
-8086 82 0
8087 -14 -25 -49 -73 0
-8087 14 0
-8087 25 0
-8087 49 0
-8087 73 0
8088 -14 -25 -52 -70 0
-8088 14 0
-8088 25 0
-8088 52 0
-8088 70 0
8089 -14 -28 -40 -82 0
-8089 14 0
-8089 28 0
-8089 40 0
-8089 82 0
8090 -14 -28 -49 -64 0
-8090 14 0
-8090 28 0
-8090 49 0
-8090 64 0
8091 -14 -28 -52 -61 0
-8091 14 0
-8091 28 0
-8091 52 0
-8091 61 0
8092 -14 -34 -40 -73 0
-8092 14 0
-8092 34 0
-8092 40 0
-8092 73 0
8093 -14 -34 -43 -64 0
-8093 14 0
-8093 34 0
-8093 43 0
-8093 64 0
8094 -14 -34 -52 -55 0
-8094 14 0
-8094 34 0
-8094 52 0
-8094 55 0
8095 -14 -37 -40 -70 0
-8095 14 0
-8095 37 0
-8095 40 0
-8095 70 0
8096 -14 -37 -43 -61 0
-8096 14 0
-8096 37 0
-8096 43 0
-8096 61 0
8097 -14 -37 -49 -55 0
-8097 14 0
-8097 37 0
-8097 49 0
-8097 55 0
-8083 8084 8085 8086 8087 8088 8089 8090 8091 8092 8093 8094 8095 8096 8097 0
-8084 8083 8085 8086 8087 8088 8089 8090 8091 8092 8093 8094 8095 8096 8097 0
-8085 8083 8084 8086 8087 8088 8089 8090 8091 8092 8093 8094 8095 8096 8097 0
-8086 8083 8084 8085 8087 8088 8089 8090 8091 8092 8093 8094 8095 8096 8097 0
-8087 8083 8084 8085 8086 8088 8089 8090 8091 8092 8093 8094 8095 8096 8097 0
-8088 8083 8084 8085 8086 8087 8089 8090 8091 8092 8093 8094 8095 8096 8097 0
-8089 8083 8084 8085 8086 8087 8088 8090 8091 8092 8093 8094 8095 8096 8097 0
-8090 8083 8084 8085 8086 8087 8088 8089 8091 8092 8093 8094 8095 8096 8097 0
-8091 8083 8084 8085 8086 8087 8088 8089 8090 8092 8093 8094 8095 8096 8097 0
-8092 8083 8084 8085 8086 8087 8088 8089 8090 8091 8093 8094 8095 8096 8097 0
-8093 8083 8084 8085 8086 8087 8088 8089 8090 8091 8092 8094 8095 8096 8097 0
-8094 8083 8084 8085 8086 8087 8088 8089 8090 8091 8092 8093 8095 8096 8097 0
-8095 8083 8084 8085 8086 8087 8088 8089 8090 8091 8092 8093 8094 8096 8097 0
-8096 8083 8084 8085 8086 8087 8088 8089 8090 8091 8092 8093 8094 8095 8097 0
-8097 8083 8084 8085 8086 8087 8088 8089 8090 8091 8092 8093 8094 8095 8096 0
8098 -14 -22 -55 -83 0
-8098 14 0
-8098 22 0
-8098 55 0
-8098 83 0
8099 -14 -25 -43 -83 0
-8099 14 0
-8099 25 0
-8099 43 0
-8099 83 0
8100 -14 -28 -40 -83 0
-8100 14 0
-8100 28 0
-8100 40 0
-8100 83 0
8101 -17 -22 -55 -80 0
-8101 17 0
-8101 22 0
-8101 55 0
-8101 80 0
8102 -17 -25 -43 -80 0
-8102 17 0
-8102 25 0
-8102 43 0
-8102 80 0
8103 -17 -28 -40 -80 0
-8103 17 0
-8103 28 0
-8103 40 0
-8103 80 0
8104 -20 -22 -55 -77 0
-8104 20 0
-8104 22 0
-8104 55 0
-8104 77 0
8105 -20 -25 -43 -77 0
-8105 20 0
-8105 25 0
-8105 43 0
-8105 77 0
8106 -20 -28 -40 -77 0
-8106 20 0
-8106 28 0
-8106 40 0
-8106 77 0
-8098 8099 8100 8101 8102 8103 8104 8105 8106 0
-8099 8098 8100 8101 8102 8103 8104 8105 8106 0
-8100 8098 8099 8101 8102 8103 8104 8105 8106 0
-8101 8098 8099 8100 8102 8103 8104 8105 8106 0
-8102 8098 8099 8100 8101 8103 8104 8105 8106 0
-8103 8098 8099 8100 8101 8102 8104 8105 8106 0
-8104 8098 8099 8100 8101 8102 8103 8105 8106 0
-8105 8098 8099 8100 8101 8102 8103 8104 8106 0
-8106 8098 8099 8100 8101 8102 8103 8104 8105 0
8107 -14 -22 -55 -84 0
-8107 14 0
-8107 22 0
-8107 55 0
-8107 84 0
8108 -14 -25 -43 -84 0
-8108 14 0
-8108 25 0
-8108 43 0
-8108 84 0
8109 -14 -28 -40 -84 0
-8109 14 0
-8109 28 0
-8109 40 0
-8109 84 0
-8107 8108 8109 0
-8108 8107 8109 0
-8109 8107 8108 0
8110 -14 -22 -57 -82 0
-8110 14 0
-8110 22 0
-8110 57 0
-8110 82 0
8111 -14 -34 -52 -57 0
-8111 14 0
-8111 34 0
-8111 52 0
-8111 57 0
8112 -14 -37 -49 -57 0
-8112 14 0
-8112 37 0
-8112 49 0
-8112 57 0
-8110 8111 8112 0
-8111 8110 8112 0
-8112 8110 8111 0
8113 -14 -22 -57 -83 0
-8113 14 0
-8113 22 0
-8113 57 0
-8113 83 0
8114 -17 -22 -57 -80 0
-8114 17 0
-8114 22 0
-8114 57 0
-8114 80 0
8115 -20 -22 -57 -77 0
-8115 20 0
-8115 22 0
-8115 57 0
-8115 77 0
-8113 8114 8115 0
-8114 8113 8115 0
-8115 8113 8114 0
8116 -14 -22 -57 -84 0
-8116 14 0
-8116 22 0
-8116 57 0
-8116 84 0
8117 -14 -22 -63 -75 0
-8117 14 0
-8117 22 0
-8117 63 0
-8117 75 0
8118 -14 -22 -66 -72 0
-8118 14 0
-8118 22 0
-8118 66 0
-8118 72 0
-8116 8117 8118 0
-8117 8116 8118 0
-8118 8116 8117 0
8119 -14 -24 -55 -82 0
-8119 14 0
-8119 24 0
-8119 55 0
-8119 82 0
8120 -14 -24 -61 -73 0
-8120 14 0
-8120 24 0
-8120 61 0
-8120 73 0
8121 -14 -24 -64 -70 0
-8121 14 0
-8121 24 0
-8121 64 0
-8121 70 0
-8119 8120 8121 0
-8120 8119 8121 0
-8121 8119 8120 0
8122 -14 -24 -55 -83 0
-8122 14 0
-8122 24 0
-8122 55 0
-8122 83 0
8123 -17 -24 -55 -80 0
-8123 17 0
-8123 24 0
-8123 55 0
-8123 80 0
8124 -20 -24 -55 -77 0
-8124 20 0
-8124 24 0
-8124 55 0
-8124 77 0
-8122 8123 8124 0
-8123 8122 8124 0
-8124 8122 8123 0
8125 -14 -24 -55 -84 0
-8125 14 0
-8125 24 0
-8125 55 0
-8125 84 0
8126 -14 -36 -54 -55 0
-8126 14 0
-8126 36 0
-8126 54 0
-8126 55 0
8127 -14 -39 -51 -55 0
-8127 14 0
-8127 39 0
-8127 51 0
-8127 55 0
-8125 8126 8127 0
-8126 8125 8127 0
-8127 8125 8126 0
8128 -14 -24 -57 -82 0
-8128 14 0
-8128 24 0
-8128 57 0
-8128 82 0
8129 -14 -27 -45 -82 0
-8129 14 0
-8129 27 0
-8129 45 0
-8129 82 0
8130 -14 -30 -42 -82 0
-8130 14 0
-8130 30 0
-8130 42 0
-8130 82 0
-8128 8129 8130 0
-8129 8128 8130 0
-8130 8128 8129 0
8131 -14 -24 -57 -83 0
-8131 14 0
-8131 24 0
-8131 57 0
-8131 83 0
8132 -14 -27 -45 -83 0
-8132 14 0
-8132 27 0
-8132 45 0
-8132 83 0
8133 -14 -30 -42 -83 0
-8133 14 0
-8133 30 0
-8133 42 0
-8133 83 0
8134 -17 -24 -57 -80 0
-8134 17 0
-8134 24 0
-8134 57 0
-8134 80 0
8135 -17 -27 -45 -80 0
-8135 17 0
-8135 27 0
-8135 45 0
-8135 80 0
8136 -17 -30 -42 -80 0
-8136 17 0
-8136 30 0
-8136 42 0
-8136 80 0
8137 -20 -24 -57 -77 0
-8137 20 0
-8137 24 0
-8137 57 0
-8137 77 0
8138 -20 -27 -45 -77 0
-8138 20 0
-8138 27 0
-8138 45 0
-8138 77 0
8139 -20 -30 -42 -77 0
-8139 20 0
-8139 30 0
-8139 42 0
-8139 77 0
-8131 8132 8133 8134 8135 8136 8137 8138 8139 0
-8132 8131 8133 8134 8135 8136 8137 8138 8139 0
-8133 8131 8132 8134 8135 8136 8137 8138 8139 0
-8134 8131 8132 8133 8135 8136 8137 8138 8139 0
-8135 8131 8132 8133 8134 8136 8137 8138 8139 0
-8136 8131 8132 8133 8134 8135 8137 8138 8139 0
-8137 8131 8132 8133 8134 8135 8136 8138 8139 0
-8138 8131 8132 8133 8134 8135 8136 8137 8139 0
-8139 8131 8132 8133 8134 8135 8136 8137 8138 0
8140 -14 -24 -57 -84 0
-8140 14 0
-8140 24 0
-8140 57 0
-8140 84 0
8141 -14 -24 -63 -75 0
-8141 14 0
-8141 24 0
-8141 63 0
-8141 75 0
8142 -14 -24 -66 -72 0
-8142 14 0
-8142 24 0
-8142 66 0
-8142 72 0
8143 -14 -27 -45 -84 0
-8143 14 0
-8143 27 0
-8143 45 0
-8143 84 0
8144 -14 -27 -51 -75 0
-8144 14 0
-8144 27 0
-8144 51 0
-8144 75 0
8145 -14 -27 -54 -72 0
-8145 14 0
-8145 27 0
-8145 54 0
-8145 72 0
8146 -14 -30 -42 -84 0
-8146 14 0
-8146 30 0
-8146 42 0
-8146 84 0
8147 -14 -30 -51 -66 0
-8147 14 0
-8147 30 0
-8147 51 0
-8147 66 0
8148 -14 -30 -54 -63 0
-8148 14 0
-8148 30 0
-8148 54 0
-8148 63 0
8149 -14 -36 -42 -75 0
-8149 14 0
-8149 36 0
-8149 42 0
-8149 75 0
8150 -14 -36 -45 -66 0
-8150 14 0
-8150 36 0
-8150 45 0
-8150 66 0
8151 -14 -36 -54 -57 0
-8151 14 0
-8151 36 0
-8151 54 0
-8151 57 0
8152 -14 -39 -42 -72 0
-8152 14 0
-8152 39 0
-8152 42 0
-8152 72 0
8153 -14 -39 -45 -63 0
-8153 14 0
-8153 39 0
-8153 45 0
-8153 63 0
8154 -14 -39 -51 -57 0
-8154 14 0
-8154 39 0
-8154 51 0
-8154 57 0
-8140 8141 8142 8143 8144 8145 8146 8147 8148 8149 8150 8151 8152 8153 8154 0
-8141 8140 8142 8143 8144 8145 8146 8147 8148 8149 8150 8151 8152 8153 8154 0
-8142 8140 8141 8143 8144 8145 8146 8147 8148 8149 8150 8151 8152 8153 8154 0
-8143 8140 8141 8142 8144 8145 8146 8147 8148 8149 8150 8151 8152 8153 8154 0
-8144 8140 8141 8142 8143 8145 8146 8147 8148 8149 8150 8151 8152 8153 8154 0
-8145 8140 8141 8142 8143 8144 8146 8147 8148 8149 8150 8151 8152 8153 8154 0
-8146 8140 8141 8142 8143 8144 8145 8147 8148 8149 8150 8151 8152 8153 8154 0
-8147 8140 8141 8142 8143 8144 8145 8146 8148 8149 8150 8151 8152 8153 8154 0
-8148 8140 8141 8142 8143 8144 8145 8146 8147 8149 8150 8151 8152 8153 8154 0
-8149 8140 8141 8142 8143 8144 8145 8146 8147 8148 8150 8151 8152 8153 8154 0
-8150 8140 8141 8142 8143 8144 8145 8146 8147 8148 8149 8151 8152 8153 8154 0
-8151 8140 8141 8142 8143 8144 8145 8146 8147 8148 8149 8150 8152 8153 8154 0
-8152 8140 8141 8142 8143 8144 8145 8146 8147 8148 8149 8150 8151 8153 8154 0
-8153 8140 8141 8142 8143 8144 8145 8146 8147 8148 8149 8150 8151 8152 8154 0
-8154 8140 8141 8142 8143 8144 8145 8146 8147 8148 8149 8150 8151 8152 8153 0
8155 -15 -22 -55 -82 0
-8155 15 0
-8155 22 0
-8155 55 0
-8155 82 0
8156 -15 -22 -61 -73 0
-8156 15 0
-8156 22 0
-8156 61 0
-8156 73 0
8157 -15 -22 -64 -70 0
-8157 15 0
-8157 22 0
-8157 64 0
-8157 70 0
8158 -15 -25 -43 -82 0
-8158 15 0
-8158 25 0
-8158 43 0
-8158 82 0
8159 -15 -25 -49 -73 0
-8159 15 0
-8159 25 0
-8159 49 0
-8159 73 0
8160 -15 -25 -52 -70 0
-8160 15 0
-8160 25 0
-8160 52 0
-8160 70 0
8161 -15 -28 -40 -82 0
-8161 15 0
-8161 28 0
-8161 40 0
-8161 82 0
8162 -15 -28 -49 -64 0
-8162 15 0
-8162 28 0
-8162 49 0
-8162 64 0
8163 -15 -28 -52 -61 0
-8163 15 0
-8163 28 0
-8163 52 0
-8163 61 0
8164 -15 -34 -40 -73 0
-8164 15 0
-8164 34 0
-8164 40 0
-8164 73 0
8165 -15 -34 -43 -64 0
-8165 15 0
-8165 34 0
-8165 43 0
-8165 64 0
8166 -15 -34 -52 -55 0
-8166 15 0
-8166 34 0
-8166 52 0
-8166 55 0
8167 -15 -37 -40 -70 0
-8167 15 0
-8167 37 0
-8167 40 0
-8167 70 0
8168 -15 -37 -43 -61 0
-8168 15 0
-8168 37 0
-8168 43 0
-8168 61 0
8169 -15 -37 -49 -55 0
-8169 15 0
-8169 37 0
-8169 49 0
-8169 55 0
-8155 8156 8157 8158 8159 8160 8161 8162 8163 8164 8165 8166 8167 8168 8169 0
-8156 8155 8157 8158 8159 8160 8161 8162 8163 8164 8165 8166 8167 8168 8169 0
-8157 8155 8156 8158 8159 8160 8161 8162 8163 8164 8165 8166 8167 8168 8169 0
-8158 8155 8156 8157 8159 8160 8161 8162 8163 8164 8165 8166 8167 8168 8169 0
-8159 8155 8156 8157 8158 8160 8161 8162 8163 8164 8165 8166 8167 8168 8169 0
-8160 8155 8156 8157 8158 8159 8161 8162 8163 8164 8165 8166 8167 8168 8169 0
-8161 8155 8156 8157 8158 8159 8160 8162 8163 8164 8165 8166 8167 8168 8169 0
-8162 8155 8156 8157 8158 8159 8160 8161 8163 8164 8165 8166 8167 8168 8169 0
-8163 8155 8156 8157 8158 8159 8160 8161 8162 8164 8165 8166 8167 8168 8169 0
-8164 8155 8156 8157 8158 8159 8160 8161 8162 8163 8165 8166 8167 8168 8169 0
-8165 8155 8156 8157 8158 8159 8160 8161 8162 8163 8164 8166 8167 8168 8169 0
-8166 8155 8156 8157 8158 8159 8160 8161 8162 8163 8164 8165 8167 8168 8169 0
-8167 8155 8156 8157 8158 8159 8160 8161 8162 8163 8164 8165 8166 8168 8169 0
-8168 8155 8156 8157 8158 8159 8160 8161 8162 8163 8164 8165 8166 8167 8169 0
-8169 8155 8156 8157 8158 8159 8160 8161 8162 8163 8164 8165 8166 8167 8168 0
8170 -15 -22 -55 -83 0
-8170 15 0
-8170 22 0
-8170 55 0
-8170 83 0
8171 -15 -25 -43 -83 0
-8171 15 0
-8171 25 0
-8171 43 0
-8171 83 0
8172 -15 -28 -40 -83 0
-8172 15 0
-8172 28 0
-8172 40 0
-8172 83 0
-8170 8171 8172 0
-8171 8170 8172 0
-8172 8170 8171 0
8173 -15 -22 -55 -84 0
-8173 15 0
-8173 22 0
-8173 55 0
-8173 84 0
8174 -15 -25 -43 -84 0
-8174 15 0
-8174 25 0
-8174 43 0
-8174 84 0
8175 -15 -28 -40 -84 0
-8175 15 0
-8175 28 0
-8175 40 0
-8175 84 0
8176 -18 -22 -55 -81 0
-8176 18 0
-8176 22 0
-8176 55 0
-8176 81 0
8177 -18 -25 -43 -81 0
-8177 18 0
-8177 25 0
-8177 43 0
-8177 81 0
8178 -18 -28 -40 -81 0
-8178 18 0
-8178 28 0
-8178 40 0
-8178 81 0
8179 -21 -22 -55 -78 0
-8179 21 0
-8179 22 0
-8179 55 0
-8179 78 0
8180 -21 -25 -43 -78 0
-8180 21 0
-8180 25 0
-8180 43 0
-8180 78 0
8181 -21 -28 -40 -78 0
-8181 21 0
-8181 28 0
-8181 40 0
-8181 78 0
-8173 8174 8175 8176 8177 8178 8179 8180 8181 0
-8174 8173 8175 8176 8177 8178 8179 8180 8181 0
-8175 8173 8174 8176 8177 8178 8179 8180 8181 0
-8176 8173 8174 8175 8177 8178 8179 8180 8181 0
-8177 8173 8174 8175 8176 8178 8179 8180 8181 0
-8178 8173 8174 8175 8176 8177 8179 8180 8181 0
-8179 8173 8174 8175 8176 8177 8178 8180 8181 0
-8180 8173 8174 8175 8176 8177 8178 8179 8181 0
-8181 8173 8174 8175 8176 8177 8178 8179 8180 0
8182 -15 -22 -56 -82 0
-8182 15 0
-8182 22 0
-8182 56 0
-8182 82 0
8183 -15 -34 -52 -56 0
-8183 15 0
-8183 34 0
-8183 52 0
-8183 56 0
8184 -15 -37 -49 -56 0
-8184 15 0
-8184 37 0
-8184 49 0
-8184 56 0
-8182 8183 8184 0
-8183 8182 8184 0
-8184 8182 8183 0
8185 -15 -22 -56 -83 0
-8185 15 0
-8185 22 0
-8185 56 0
-8185 83 0
8186 -15 -22 -62 -74 0
-8186 15 0
-8186 22 0
-8186 62 0
-8186 74 0
8187 -15 -22 -65 -71 0
-8187 15 0
-8187 22 0
-8187 65 0
-8187 71 0
-8185 8186 8187 0
-8186 8185 8187 0
-8187 8185 8186 0
8188 -15 -22 -56 -84 0
-8188 15 0
-8188 22 0
-8188 56 0
-8188 84 0
8189 -18 -22 -56 -81 0
-8189 18 0
-8189 22 0
-8189 56 0
-8189 81 0
8190 -21 -22 -56 -78 0
-8190 21 0
-8190 22 0
-8190 56 0
-8190 78 0
-8188 8189 8190 0
-8189 8188 8190 0
-8190 8188 8189 0
8191 -15 -23 -55 -82 0
-8191 15 0
-8191 23 0
-8191 55 0
-8191 82 0
8192 -15 -23 -61 -73 0
-8192 15 0
-8192 23 0
-8192 61 0
-8192 73 0
8193 -15 -23 -64 -70 0
-8193 15 0
-8193 23 0
-8193 64 0
-8193 70 0
-8191 8192 8193 0
-8192 8191 8193 0
-8193 8191 8192 0
8194 -15 -23 -55 -83 0
-8194 15 0
-8194 23 0
-8194 55 0
-8194 83 0
8195 -15 -35 -53 -55 0
-8195 15 0
-8195 35 0
-8195 53 0
-8195 55 0
8196 -15 -38 -50 -55 0
-8196 15 0
-8196 38 0
-8196 50 0
-8196 55 0
-8194 8195 8196 0
-8195 8194 8196 0
-8196 8194 8195 0
8197 -15 -23 -55 -84 0
-8197 15 0
-8197 23 0
-8197 55 0
-8197 84 0
8198 -18 -23 -55 -81 0
-8198 18 0
-8198 23 0
-8198 55 0
-8198 81 0
8199 -21 -23 -55 -78 0
-8199 21 0
-8199 23 0
-8199 55 0
-8199 78 0
-8197 8198 8199 0
-8198 8197 8199 0
-8199 8197 8198 0
8200 -15 -23 -56 -82 0
-8200 15 0
-8200 23 0
-8200 56 0
-8200 82 0
8201 -15 -26 -44 -82 0
-8201 15 0
-8201 26 0
-8201 44 0
-8201 82 0
8202 -15 -29 -41 -82 0
-8202 15 0
-8202 29 0
-8202 41 0
-8202 82 0
-8200 8201 8202 0
-8201 8200 8202 0
-8202 8200 8201 0
8203 -15 -23 -56 -83 0
-8203 15 0
-8203 23 0
-8203 56 0
-8203 83 0
8204 -15 -23 -62 -74 0
-8204 15 0
-8204 23 0
-8204 62 0
-8204 74 0
8205 -15 -23 -65 -71 0
-8205 15 0
-8205 23 0
-8205 65 0
-8205 71 0
8206 -15 -26 -44 -83 0
-8206 15 0
-8206 26 0
-8206 44 0
-8206 83 0
8207 -15 -26 -50 -74 0
-8207 15 0
-8207 26 0
-8207 50 0
-8207 74 0
8208 -15 -26 -53 -71 0
-8208 15 0
-8208 26 0
-8208 53 0
-8208 71 0
8209 -15 -29 -41 -83 0
-8209 15 0
-8209 29 0
-8209 41 0
-8209 83 0
8210 -15 -29 -50 -65 0
-8210 15 0
-8210 29 0
-8210 50 0
-8210 65 0
8211 -15 -29 -53 -62 0
-8211 15 0
-8211 29 0
-8211 53 0
-8211 62 0
8212 -15 -35 -41 -74 0
-8212 15 0
-8212 35 0
-8212 41 0
-8212 74 0
8213 -15 -35 -44 -65 0
-8213 15 0
-8213 35 0
-8213 44 0
-8213 65 0
8214 -15 -35 -53 -56 0
-8214 15 0
-8214 35 0
-8214 53 0
-8214 56 0
8215 -15 -38 -41 -71 0
-8215 15 0
-8215 38 0
-8215 41 0
-8215 71 0
8216 -15 -38 -44 -62 0
-8216 15 0
-8216 38 0
-8216 44 0
-8216 62 0
8217 -15 -38 -50 -56 0
-8217 15 0
-8217 38 0
-8217 50 0
-8217 56 0
-8203 8204 8205 8206 8207 8208 8209 8210 8211 8212 8213 8214 8215 8216 8217 0
-8204 8203 8205 8206 8207 8208 8209 8210 8211 8212 8213 8214 8215 8216 8217 0
-8205 8203 8204 8206 8207 8208 8209 8210 8211 8212 8213 8214 8215 8216 8217 0
-8206 8203 8204 8205 8207 8208 8209 8210 8211 8212 8213 8214 8215 8216 8217 0
-8207 8203 8204 8205 8206 8208 8209 8210 8211 8212 8213 8214 8215 8216 8217 0
-8208 8203 8204 8205 8206 8207 8209 8210 8211 8212 8213 8214 8215 8216 8217 0
-8209 8203 8204 8205 8206 8207 8208 8210 8211 8212 8213 8214 8215 8216 8217 0
-8210 8203 8204 8205 8206 8207 8208 8209 8211 8212 8213 8214 8215 8216 8217 0
-8211 8203 8204 8205 8206 8207 8208 8209 8210 8212 8213 8214 8215 8216 8217 0
-8212 8203 8204 8205 8206 8207 8208 8209 8210 8211 8213 8214 8215 8216 8217 0
-8213 8203 8204 8205 8206 8207 8208 8209 8210 8211 8212 8214 8215 8216 8217 0
-8214 8203 8204 8205 8206 8207 8208 8209 8210 8211 8212 8213 8215 8216 8217 0
-8215 8203 8204 8205 8206 8207 8208 8209 8210 8211 8212 8213 8214 8216 8217 0
-8216 8203 8204 8205 8206 8207 8208 8209 8210 8211 8212 8213 8214 8215 8217 0
-8217 8203 8204 8205 8206 8207 8208 8209 8210 8211 8212 8213 8214 8215 8216 0
8218 -15 -23 -56 -84 0
-8218 15 0
-8218 23 0
-8218 56 0
-8218 84 0
8219 -15 -26 -44 -84 0
-8219 15 0
-8219 26 0
-8219 44 0
-8219 84 0
8220 -15 -29 -41 -84 0
-8220 15 0
-8220 29 0
-8220 41 0
-8220 84 0
8221 -18 -23 -56 -81 0
-8221 18 0
-8221 23 0
-8221 56 0
-8221 81 0
8222 -18 -26 -44 -81 0
-8222 18 0
-8222 26 0
-8222 44 0
-8222 81 0
8223 -18 -29 -41 -81 0
-8223 18 0
-8223 29 0
-8223 41 0
-8223 81 0
8224 -21 -23 -56 -78 0
-8224 21 0
-8224 23 0
-8224 56 0
-8224 78 0
8225 -21 -26 -44 -78 0
-8225 21 0
-8225 26 0
-8225 44 0
-8225 78 0
8226 -21 -29 -41 -78 0
-8226 21 0
-8226 29 0
-8226 41 0
-8226 78 0
-8218 8219 8220 8221 8222 8223 8224 8225 8226 0
-8219 8218 8220 8221 8222 8223 8224 8225 8226 0
-8220 8218 8219 8221 8222 8223 8224 8225 8226 0
-8221 8218 8219 8220 8222 8223 8224 8225 8226 0
-8222 8218 8219 8220 8221 8223 8224 8225 8226 0
-8223 8218 8219 8220 8221 8222 8224 8225 8226 0
-8224 8218 8219 8220 8221 8222 8223 8225 8226 0
-8225 8218 8219 8220 8221 8222 8223 8224 8226 0
-8226 8218 8219 8220 8221 8222 8223 8224 8225 0
8227 -13 -23 -62 -75 0
-8227 13 0
-8227 23 0
-8227 62 0
-8227 75 0
8228 -13 -26 -50 -75 0
-8228 13 0
-8228 26 0
-8228 50 0
-8228 75 0
8229 -13 -35 -41 -75 0
-8229 13 0
-8229 35 0
-8229 41 0
-8229 75 0
-8227 8228 8229 0
-8228 8227 8229 0
-8229 8227 8228 0
8230 -13 -23 -63 -74 0
-8230 13 0
-8230 23 0
-8230 63 0
-8230 74 0
8231 -13 -29 -53 -63 0
-8231 13 0
-8231 29 0
-8231 53 0
-8231 63 0
8232 -13 -38 -44 -63 0
-8232 13 0
-8232 38 0
-8232 44 0
-8232 63 0
-8230 8231 8232 0
-8231 8230 8232 0
-8232 8230 8231 0
8233 -13 -24 -62 -75 0
-8233 13 0
-8233 24 0
-8233 62 0
-8233 75 0
8234 -13 -30 -54 -62 0
-8234 13 0
-8234 30 0
-8234 54 0
-8234 62 0
8235 -13 -39 -45 -62 0
-8235 13 0
-8235 39 0
-8235 45 0
-8235 62 0
-8233 8234 8235 0
-8234 8233 8235 0
-8235 8233 8234 0
8236 -13 -24 -63 -74 0
-8236 13 0
-8236 24 0
-8236 63 0
-8236 74 0
8237 -13 -27 -51 -74 0
-8237 13 0
-8237 27 0
-8237 51 0
-8237 74 0
8238 -13 -36 -42 -74 0
-8238 13 0
-8238 36 0
-8238 42 0
-8238 74 0
-8236 8237 8238 0
-8237 8236 8238 0
-8238 8236 8237 0
8239 -14 -22 -61 -75 0
-8239 14 0
-8239 22 0
-8239 61 0
-8239 75 0
8240 -14 -25 -49 -75 0
-8240 14 0
-8240 25 0
-8240 49 0
-8240 75 0
8241 -14 -34 -40 -75 0
-8241 14 0
-8241 34 0
-8241 40 0
-8241 75 0
-8239 8240 8241 0
-8240 8239 8241 0
-8241 8239 8240 0
8242 -14 -22 -63 -73 0
-8242 14 0
-8242 22 0
-8242 63 0
-8242 73 0
8243 -14 -28 -52 -63 0
-8243 14 0
-8243 28 0
-8243 52 0
-8243 63 0
8244 -14 -37 -43 -63 0
-8244 14 0
-8244 37 0
-8244 43 0
-8244 63 0
-8242 8243 8244 0
-8243 8242 8244 0
-8244 8242 8243 0
8245 -14 -24 -61 -75 0
-8245 14 0
-8245 24 0
-8245 61 0
-8245 75 0
8246 -14 -30 -54 -61 0
-8246 14 0
-8246 30 0
-8246 54 0
-8246 61 0
8247 -14 -39 -45 -61 0
-8247 14 0
-8247 39 0
-8247 45 0
-8247 61 0
-8245 8246 8247 0
-8246 8245 8247 0
-8247 8245 8246 0
8248 -14 -24 -63 -73 0
-8248 14 0
-8248 24 0
-8248 63 0
-8248 73 0
8249 -14 -27 -51 -73 0
-8249 14 0
-8249 27 0
-8249 51 0
-8249 73 0
8250 -14 -36 -42 -73 0
-8250 14 0
-8250 36 0
-8250 42 0
-8250 73 0
-8248 8249 8250 0
-8249 8248 8250 0
-8250 8248 8249 0
8251 -15 -22 -61 -74 0
-8251 15 0
-8251 22 0
-8251 61 0
-8251 74 0
8252 -15 -25 -49 -74 0
-8252 15 0
-8252 25 0
-8252 49 0
-8252 74 0
8253 -15 -34 -40 -74 0
-8253 15 0
-8253 34 0
-8253 40 0
-8253 74 0
-8251 8252 8253 0
-8252 8251 8253 0
-8253 8251 8252 0
8254 -15 -22 -62 -73 0
-8254 15 0
-8254 22 0
-8254 62 0
-8254 73 0
8255 -15 -28 -52 -62 0
-8255 15 0
-8255 28 0
-8255 52 0
-8255 62 0
8256 -15 -37 -43 -62 0
-8256 15 0
-8256 37 0
-8256 43 0
-8256 62 0
-8254 8255 8256 0
-8255 8254 8256 0
-8256 8254 8255 0
8257 -15 -23 -61 -74 0
-8257 15 0
-8257 23 0
-8257 61 0
-8257 74 0
8258 -15 -29 -53 -61 0
-8258 15 0
-8258 29 0
-8258 53 0
-8258 61 0
8259 -15 -38 -44 -61 0
-8259 15 0
-8259 38 0
-8259 44 0
-8259 61 0
-8257 8258 8259 0
-8258 8257 8259 0
-8259 8257 8258 0
8260 -15 -23 -62 -73 0
-8260 15 0
-8260 23 0
-8260 62 0
-8260 73 0
8261 -15 -26 -50 -73 0
-8261 15 0
-8261 26 0
-8261 50 0
-8261 73 0
8262 -15 -35 -41 -73 0
-8262 15 0
-8262 35 0
-8262 41 0
-8262 73 0
-8260 8261 8262 0
-8261 8260 8262 0
-8262 8260 8261 0
8263 -13 -23 -65 -72 0
-8263 13 0
-8263 23 0
-8263 65 0
-8263 72 0
8264 -13 -26 -53 -72 0
-8264 13 0
-8264 26 0
-8264 53 0
-8264 72 0
8265 -13 -38 -41 -72 0
-8265 13 0
-8265 38 0
-8265 41 0
-8265 72 0
-8263 8264 8265 0
-8264 8263 8265 0
-8265 8263 8264 0
8266 -13 -23 -66 -71 0
-8266 13 0
-8266 23 0
-8266 66 0
-8266 71 0
8267 -13 -29 -50 -66 0
-8267 13 0
-8267 29 0
-8267 50 0
-8267 66 0
8268 -13 -35 -44 -66 0
-8268 13 0
-8268 35 0
-8268 44 0
-8268 66 0
-8266 8267 8268 0
-8267 8266 8268 0
-8268 8266 8267 0
8269 -13 -24 -65 -72 0
-8269 13 0
-8269 24 0
-8269 65 0
-8269 72 0
8270 -13 -30 -51 -65 0
-8270 13 0
-8270 30 0
-8270 51 0
-8270 65 0
8271 -13 -36 -45 -65 0
-8271 13 0
-8271 36 0
-8271 45 0
-8271 65 0
-8269 8270 8271 0
-8270 8269 8271 0
-8271 8269 8270 0
8272 -13 -24 -66 -71 0
-8272 13 0
-8272 24 0
-8272 66 0
-8272 71 0
8273 -13 -27 -54 -71 0
-8273 13 0
-8273 27 0
-8273 54 0
-8273 71 0
8274 -13 -39 -42 -71 0
-8274 13 0
-8274 39 0
-8274 42 0
-8274 71 0
-8272 8273 8274 0
-8273 8272 8274 0
-8274 8272 8273 0
8275 -14 -22 -64 -72 0
-8275 14 0
-8275 22 0
-8275 64 0
-8275 72 0
8276 -14 -25 -52 -72 0
-8276 14 0
-8276 25 0
-8276 52 0
-8276 72 0
8277 -14 -37 -40 -72 0
-8277 14 0
-8277 37 0
-8277 40 0
-8277 72 0
-8275 8276 8277 0
-8276 8275 8277 0
-8277 8275 8276 0
8278 -14 -22 -66 -70 0
-8278 14 0
-8278 22 0
-8278 66 0
-8278 70 0
8279 -14 -28 -49 -66 0
-8279 14 0
-8279 28 0
-8279 49 0
-8279 66 0
8280 -14 -34 -43 -66 0
-8280 14 0
-8280 34 0
-8280 43 0
-8280 66 0
-8278 8279 8280 0
-8279 8278 8280 0
-8280 8278 8279 0
8281 -14 -24 -64 -72 0
-8281 14 0
-8281 24 0
-8281 64 0
-8281 72 0
8282 -14 -30 -51 -64 0
-8282 14 0
-8282 30 0
-8282 51 0
-8282 64 0
8283 -14 -36 -45 -64 0
-8283 14 0
-8283 36 0
-8283 45 0
-8283 64 0
-8281 8282 8283 0
-8282 8281 8283 0
-8283 8281 8282 0
8284 -14 -24 -66 -70 0
-8284 14 0
-8284 24 0
-8284 66 0
-8284 70 0
8285 -14 -27 -54 -70 0
-8285 14 0
-8285 27 0
-8285 54 0
-8285 70 0
8286 -14 -39 -42 -70 0
-8286 14 0
-8286 39 0
-8286 42 0
-8286 70 0
-8284 8285 8286 0
-8285 8284 8286 0
-8286 8284 8285 0
8287 -15 -22 -64 -71 0
-8287 15 0
-8287 22 0
-8287 64 0
-8287 71 0
8288 -15 -25 -52 -71 0
-8288 15 0
-8288 25 0
-8288 52 0
-8288 71 0
8289 -15 -37 -40 -71 0
-8289 15 0
-8289 37 0
-8289 40 0
-8289 71 0
-8287 8288 8289 0
-8288 8287 8289 0
-8289 8287 8288 0
8290 -15 -22 -65 -70 0
-8290 15 0
-8290 22 0
-8290 65 0
-8290 70 0
8291 -15 -28 -49 -65 0
-8291 15 0
-8291 28 0
-8291 49 0
-8291 65 0
8292 -15 -34 -43 -65 0
-8292 15 0
-8292 34 0
-8292 43 0
-8292 65 0
-8290 8291 8292 0
-8291 8290 8292 0
-8292 8290 8291 0
8293 -15 -23 -64 -71 0
-8293 15 0
-8293 23 0
-8293 64 0
-8293 71 0
8294 -15 -29 -50 -64 0
-8294 15 0
-8294 29 0
-8294 50 0
-8294 64 0
8295 -15 -35 -44 -64 0
-8295 15 0
-8295 35 0
-8295 44 0
-8295 64 0
-8293 8294 8295 0
-8294 8293 8295 0
-8295 8293 8294 0
8296 -15 -23 -65 -70 0
-8296 15 0
-8296 23 0
-8296 65 0
-8296 70 0
8297 -15 -26 -53 -70 0
-8297 15 0
-8297 26 0
-8297 53 0
-8297 70 0
8298 -15 -38 -41 -70 0
-8298 15 0
-8298 38 0
-8298 41 0
-8298 70 0
-8296 8297 8298 0
-8297 8296 8298 0
-8298 8296 8297 0
8299 -13 -26 -45 -82 0
-8299 13 0
-8299 26 0
-8299 45 0
-8299 82 0
8300 -16 -26 -45 -79 0
-8300 16 0
-8300 26 0
-8300 45 0
-8300 79 0
8301 -19 -26 -45 -76 0
-8301 19 0
-8301 26 0
-8301 45 0
-8301 76 0
-8299 8300 8301 0
-8300 8299 8301 0
-8301 8299 8300 0
8302 -13 -26 -45 -83 0
-8302 13 0
-8302 26 0
-8302 45 0
-8302 83 0
8303 -13 -35 -45 -65 0
-8303 13 0
-8303 35 0
-8303 45 0
-8303 65 0
8304 -13 -38 -45 -62 0
-8304 13 0
-8304 38 0
-8304 45 0
-8304 62 0
-8302 8303 8304 0
-8303 8302 8304 0
-8304 8302 8303 0
8305 -13 -26 -45 -84 0
-8305 13 0
-8305 26 0
-8305 45 0
-8305 84 0
8306 -13 -26 -51 -75 0
-8306 13 0
-8306 26 0
-8306 51 0
-8306 75 0
8307 -13 -26 -54 -72 0
-8307 13 0
-8307 26 0
-8307 54 0
-8307 72 0
-8305 8306 8307 0
-8306 8305 8307 0
-8307 8305 8306 0
8308 -13 -27 -44 -82 0
-8308 13 0
-8308 27 0
-8308 44 0
-8308 82 0
8309 -16 -27 -44 -79 0
-8309 16 0
-8309 27 0
-8309 44 0
-8309 79 0
8310 -19 -27 -44 -76 0
-8310 19 0
-8310 27 0
-8310 44 0
-8310 76 0
-8308 8309 8310 0
-8309 8308 8310 0
-8310 8308 8309 0
8311 -13 -27 -44 -83 0
-8311 13 0
-8311 27 0
-8311 44 0
-8311 83 0
8312 -13 -27 -50 -74 0
-8312 13 0
-8312 27 0
-8312 50 0
-8312 74 0
8313 -13 -27 -53 -71 0
-8313 13 0
-8313 27 0
-8313 53 0
-8313 71 0
-8311 8312 8313 0
-8312 8311 8313 0
-8313 8311 8312 0
8314 -13 -27 -44 -84 0
-8314 13 0
-8314 27 0
-8314 44 0
-8314 84 0
8315 -13 -36 -44 -66 0
-8315 13 0
-8315 36 0
-8315 44 0
-8315 66 0
8316 -13 -39 -44 -63 0
-8316 13 0
-8316 39 0
-8316 44 0
-8316 63 0
-8314 8315 8316 0
-8315 8314 8316 0
-8316 8314 8315 0
8317 -14 -25 -45 -82 0
-8317 14 0
-8317 25 0
-8317 45 0
-8317 82 0
8318 -14 -34 -45 -64 0
-8318 14 0
-8318 34 0
-8318 45 0
-8318 64 0
8319 -14 -37 -45 -61 0
-8319 14 0
-8319 37 0
-8319 45 0
-8319 61 0
-8317 8318 8319 0
-8318 8317 8319 0
-8319 8317 8318 0
8320 -14 -25 -45 -83 0
-8320 14 0
-8320 25 0
-8320 45 0
-8320 83 0
8321 -17 -25 -45 -80 0
-8321 17 0
-8321 25 0
-8321 45 0
-8321 80 0
8322 -20 -25 -45 -77 0
-8322 20 0
-8322 25 0
-8322 45 0
-8322 77 0
-8320 8321 8322 0
-8321 8320 8322 0
-8322 8320 8321 0
8323 -14 -25 -45 -84 0
-8323 14 0
-8323 25 0
-8323 45 0
-8323 84 0
8324 -14 -25 -51 -75 0
-8324 14 0
-8324 25 0
-8324 51 0
-8324 75 0
8325 -14 -25 -54 -72 0
-8325 14 0
-8325 25 0
-8325 54 0
-8325 72 0
-8323 8324 8325 0
-8324 8323 8325 0
-8325 8323 8324 0
8326 -14 -27 -43 -82 0
-8326 14 0
-8326 27 0
-8326 43 0
-8326 82 0
8327 -14 -27 -49 -73 0
-8327 14 0
-8327 27 0
-8327 49 0
-8327 73 0
8328 -14 -27 -52 -70 0
-8328 14 0
-8328 27 0
-8328 52 0
-8328 70 0
-8326 8327 8328 0
-8327 8326 8328 0
-8328 8326 8327 0
8329 -14 -27 -43 -83 0
-8329 14 0
-8329 27 0
-8329 43 0
-8329 83 0
8330 -17 -27 -43 -80 0
-8330 17 0
-8330 27 0
-8330 43 0
-8330 80 0
8331 -20 -27 -43 -77 0
-8331 20 0
-8331 27 0
-8331 43 0
-8331 77 0
-8329 8330 8331 0
-8330 8329 8331 0
-8331 8329 8330 0
8332 -14 -27 -43 -84 0
-8332 14 0
-8332 27 0
-8332 43 0
-8332 84 0
8333 -14 -36 -43 -66 0
-8333 14 0
-8333 36 0
-8333 43 0
-8333 66 0
8334 -14 -39 -43 -63 0
-8334 14 0
-8334 39 0
-8334 43 0
-8334 63 0
-8332 8333 8334 0
-8333 8332 8334 0
-8334 8332 8333 0
8335 -15 -25 -44 -82 0
-8335 15 0
-8335 25 0
-8335 44 0
-8335 82 0
8336 -15 -34 -44 -64 0
-8336 15 0
-8336 34 0
-8336 44 0
-8336 64 0
8337 -15 -37 -44 -61 0
-8337 15 0
-8337 37 0
-8337 44 0
-8337 61 0
-8335 8336 8337 0
-8336 8335 8337 0
-8337 8335 8336 0
8338 -15 -25 -44 -83 0
-8338 15 0
-8338 25 0
-8338 44 0
-8338 83 0
8339 -15 -25 -50 -74 0
-8339 15 0
-8339 25 0
-8339 50 0
-8339 74 0
8340 -15 -25 -53 -71 0
-8340 15 0
-8340 25 0
-8340 53 0
-8340 71 0
-8338 8339 8340 0
-8339 8338 8340 0
-8340 8338 8339 0
8341 -15 -25 -44 -84 0
-8341 15 0
-8341 25 0
-8341 44 0
-8341 84 0
8342 -18 -25 -44 -81 0
-8342 18 0
-8342 25 0
-8342 44 0
-8342 81 0
8343 -21 -25 -44 -78 0
-8343 21 0
-8343 25 0
-8343 44 0
-8343 78 0
-8341 8342 8343 0
-8342 8341 8343 0
-8343 8341 8342 0
8344 -15 -26 -43 -82 0
-8344 15 0
-8344 26 0
-8344 43 0
-8344 82 0
8345 -15 -26 -49 -73 0
-8345 15 0
-8345 26 0
-8345 49 0
-8345 73 0
8346 -15 -26 -52 -70 0
-8346 15 0
-8346 26 0
-8346 52 0
-8346 70 0
-8344 8345 8346 0
-8345 8344 8346 0
-8346 8344 8345 0
8347 -15 -26 -43 -83 0
-8347 15 0
-8347 26 0
-8347 43 0
-8347 83 0
8348 -15 -35 -43 -65 0
-8348 15 0
-8348 35 0
-8348 43 0
-8348 65 0
8349 -15 -38 -43 -62 0
-8349 15 0
-8349 38 0
-8349 43 0
-8349 62 0
-8347 8348 8349 0
-8348 8347 8349 0
-8349 8347 8348 0
8350 -15 -26 -43 -84 0
-8350 15 0
-8350 26 0
-8350 43 0
-8350 84 0
8351 -18 -26 -43 -81 0
-8351 18 0
-8351 26 0
-8351 43 0
-8351 81 0
8352 -21 -26 -43 -78 0
-8352 21 0
-8352 26 0
-8352 43 0
-8352 78 0
-8350 8351 8352 0
-8351 8350 8352 0
-8352 8350 8351 0
8353 -13 -26 -51 -74 0
-8353 13 0
-8353 26 0
-8353 51 0
-8353 74 0
8354 -13 -29 -51 -65 0
-8354 13 0
-8354 29 0
-8354 51 0
-8354 65 0
8355 -13 -38 -51 -56 0
-8355 13 0
-8355 38 0
-8355 51 0
-8355 56 0
-8353 8354 8355 0
-8354 8353 8355 0
-8355 8353 8354 0
8356 -13 -27 -50 -75 0
-8356 13 0
-8356 27 0
-8356 50 0
-8356 75 0
8357 -13 -30 -50 -66 0
-8357 13 0
-8357 30 0
-8357 50 0
-8357 66 0
8358 -13 -39 -50 -57 0
-8358 13 0
-8358 39 0
-8358 50 0
-8358 57 0
-8356 8357 8358 0
-8357 8356 8358 0
-8358 8356 8357 0
8359 -14 -25 -51 -73 0
-8359 14 0
-8359 25 0
-8359 51 0
-8359 73 0
8360 -14 -28 -51 -64 0
-8360 14 0
-8360 28 0
-8360 51 0
-8360 64 0
8361 -14 -37 -51 -55 0
-8361 14 0
-8361 37 0
-8361 51 0
-8361 55 0
-8359 8360 8361 0
-8360 8359 8361 0
-8361 8359 8360 0
8362 -14 -27 -49 -75 0
-8362 14 0
-8362 27 0
-8362 49 0
-8362 75 0
8363 -14 -30 -49 -66 0
-8363 14 0
-8363 30 0
-8363 49 0
-8363 66 0
8364 -14 -39 -49 -57 0
-8364 14 0
-8364 39 0
-8364 49 0
-8364 57 0
-8362 8363 8364 0
-8363 8362 8364 0
-8364 8362 8363 0
8365 -15 -25 -50 -73 0
-8365 15 0
-8365 25 0
-8365 50 0
-8365 73 0
8366 -15 -28 -50 -64 0
-8366 15 0
-8366 28 0
-8366 50 0
-8366 64 0
8367 -15 -37 -50 -55 0
-8367 15 0
-8367 37 0
-8367 50 0
-8367 55 0
-8365 8366 8367 0
-8366 8365 8367 0
-8367 8365 8366 0
8368 -15 -26 -49 -74 0
-8368 15 0
-8368 26 0
-8368 49 0
-8368 74 0
8369 -15 -29 -49 -65 0
-8369 15 0
-8369 29 0
-8369 49 0
-8369 65 0
8370 -15 -38 -49 -56 0
-8370 15 0
-8370 38 0
-8370 49 0
-8370 56 0
-8368 8369 8370 0
-8369 8368 8370 0
-8370 8368 8369 0
8371 -13 -26 -54 -71 0
-8371 13 0
-8371 26 0
-8371 54 0
-8371 71 0
8372 -13 -29 -54 -62 0
-8372 13 0
-8372 29 0
-8372 54 0
-8372 62 0
8373 -13 -35 -54 -56 0
-8373 13 0
-8373 35 0
-8373 54 0
-8373 56 0
-8371 8372 8373 0
-8372 8371 8373 0
-8373 8371 8372 0
8374 -13 -27 -53 -72 0
-8374 13 0
-8374 27 0
-8374 53 0
-8374 72 0
8375 -13 -30 -53 -63 0
-8375 13 0
-8375 30 0
-8375 53 0
-8375 63 0
8376 -13 -36 -53 -57 0
-8376 13 0
-8376 36 0
-8376 53 0
-8376 57 0
-8374 8375 8376 0
-8375 8374 8376 0
-8376 8374 8375 0
8377 -14 -25 -54 -70 0
-8377 14 0
-8377 25 0
-8377 54 0
-8377 70 0
8378 -14 -28 -54 -61 0
-8378 14 0
-8378 28 0
-8378 54 0
-8378 61 0
8379 -14 -34 -54 -55 0
-8379 14 0
-8379 34 0
-8379 54 0
-8379 55 0
-8377 8378 8379 0
-8378 8377 8379 0
-8379 8377 8378 0
8380 -14 -27 -52 -72 0
-8380 14 0
-8380 27 0
-8380 52 0
-8380 72 0
8381 -14 -30 -52 -63 0
-8381 14 0
-8381 30 0
-8381 52 0
-8381 63 0
8382 -14 -36 -52 -57 0
-8382 14 0
-8382 36 0
-8382 52 0
-8382 57 0
-8380 8381 8382 0
-8381 8380 8382 0
-8382 8380 8381 0
8383 -15 -25 -53 -70 0
-8383 15 0
-8383 25 0
-8383 53 0
-8383 70 0
8384 -15 -28 -53 -61 0
-8384 15 0
-8384 28 0
-8384 53 0
-8384 61 0
8385 -15 -34 -53 -55 0
-8385 15 0
-8385 34 0
-8385 53 0
-8385 55 0
-8383 8384 8385 0
-8384 8383 8385 0
-8385 8383 8384 0
8386 -15 -26 -52 -71 0
-8386 15 0
-8386 26 0
-8386 52 0
-8386 71 0
8387 -15 -29 -52 -62 0
-8387 15 0
-8387 29 0
-8387 52 0
-8387 62 0
8388 -15 -35 -52 -56 0
-8388 15 0
-8388 35 0
-8388 52 0
-8388 56 0
-8386 8387 8388 0
-8387 8386 8388 0
-8388 8386 8387 0
8389 -13 -29 -42 -82 0
-8389 13 0
-8389 29 0
-8389 42 0
-8389 82 0
8390 -16 -29 -42 -79 0
-8390 16 0
-8390 29 0
-8390 42 0
-8390 79 0
8391 -19 -29 -42 -76 0
-8391 19 0
-8391 29 0
-8391 42 0
-8391 76 0
-8389 8390 8391 0
-8390 8389 8391 0
-8391 8389 8390 0
8392 -13 -29 -42 -83 0
-8392 13 0
-8392 29 0
-8392 42 0
-8392 83 0
8393 -13 -35 -42 -74 0
-8393 13 0
-8393 35 0
-8393 42 0
-8393 74 0
8394 -13 -38 -42 -71 0
-8394 13 0
-8394 38 0
-8394 42 0
-8394 71 0
-8392 8393 8394 0
-8393 8392 8394 0
-8394 8392 8393 0
8395 -13 -29 -42 -84 0
-8395 13 0
-8395 29 0
-8395 42 0
-8395 84 0
8396 -13 -29 -51 -66 0
-8396 13 0
-8396 29 0
-8396 51 0
-8396 66 0
8397 -13 -29 -54 -63 0
-8397 13 0
-8397 29 0
-8397 54 0
-8397 63 0
-8395 8396 8397 0
-8396 8395 8397 0
-8397 8395 8396 0
8398 -13 -30 -41 -82 0
-8398 13 0
-8398 30 0
-8398 41 0
-8398 82 0
8399 -16 -30 -41 -79 0
-8399 16 0
-8399 30 0
-8399 41 0
-8399 79 0
8400 -19 -30 -41 -76 0
-8400 19 0
-8400 30 0
-8400 41 0
-8400 76 0
-8398 8399 8400 0
-8399 8398 8400 0
-8400 8398 8399 0
8401 -13 -30 -41 -83 0
-8401 13 0
-8401 30 0
-8401 41 0
-8401 83 0
8402 -13 -30 -50 -65 0
-8402 13 0
-8402 30 0
-8402 50 0
-8402 65 0
8403 -13 -30 -53 -62 0
-8403 13 0
-8403 30 0
-8403 53 0
-8403 62 0
-8401 8402 8403 0
-8402 8401 8403 0
-8403 8401 8402 0
8404 -13 -30 -41 -84 0
-8404 13 0
-8404 30 0
-8404 41 0
-8404 84 0
8405 -13 -36 -41 -75 0
-8405 13 0
-8405 36 0
-8405 41 0
-8405 75 0
8406 -13 -39 -41 -72 0
-8406 13 0
-8406 39 0
-8406 41 0
-8406 72 0
-8404 8405 8406 0
-8405 8404 8406 0
-8406 8404 8405 0
8407 -14 -28 -42 -82 0
-8407 14 0
-8407 28 0
-8407 42 0
-8407 82 0
8408 -14 -34 -42 -73 0
-8408 14 0
-8408 34 0
-8408 42 0
-8408 73 0
8409 -14 -37 -42 -70 0
-8409 14 0
-8409 37 0
-8409 42 0
-8409 70 0
-8407 8408 8409 0
-8408 8407 8409 0
-8409 8407 8408 0
8410 -14 -28 -42 -83 0
-8410 14 0
-8410 28 0
-8410 42 0
-8410 83 0
8411 -17 -28 -42 -80 0
-8411 17 0
-8411 28 0
-8411 42 0
-8411 80 0
8412 -20 -28 -42 -77 0
-8412 20 0
-8412 28 0
-8412 42 0
-8412 77 0
-8410 8411 8412 0
-8411 8410 8412 0
-8412 8410 8411 0
8413 -14 -28 -42 -84 0
-8413 14 0
-8413 28 0
-8413 42 0
-8413 84 0
8414 -14 -28 -51 -66 0
-8414 14 0
-8414 28 0
-8414 51 0
-8414 66 0
8415 -14 -28 -54 -63 0
-8415 14 0
-8415 28 0
-8415 54 0
-8415 63 0
-8413 8414 8415 0
-8414 8413 8415 0
-8415 8413 8414 0
8416 -14 -30 -40 -82 0
-8416 14 0
-8416 30 0
-8416 40 0
-8416 82 0
8417 -14 -30 -49 -64 0
-8417 14 0
-8417 30 0
-8417 49 0
-8417 64 0
8418 -14 -30 -52 -61 0
-8418 14 0
-8418 30 0
-8418 52 0
-8418 61 0
-8416 8417 8418 0
-8417 8416 8418 0
-8418 8416 8417 0
8419 -14 -30 -40 -83 0
-8419 14 0
-8419 30 0
-8419 40 0
-8419 83 0
8420 -17 -30 -40 -80 0
-8420 17 0
-8420 30 0
-8420 40 0
-8420 80 0
8421 -20 -30 -40 -77 0
-8421 20 0
-8421 30 0
-8421 40 0
-8421 77 0
-8419 8420 8421 0
-8420 8419 8421 0
-8421 8419 8420 0
8422 -14 -30 -40 -84 0
-8422 14 0
-8422 30 0
-8422 40 0
-8422 84 0
8423 -14 -36 -40 -75 0
-8423 14 0
-8423 36 0
-8423 40 0
-8423 75 0
8424 -14 -39 -40 -72 0
-8424 14 0
-8424 39 0
-8424 40 0
-8424 72 0
-8422 8423 8424 0
-8423 8422 8424 0
-8424 8422 8423 0
8425 -15 -28 -41 -82 0
-8425 15 0
-8425 28 0
-8425 41 0
-8425 82 0
8426 -15 -34 -41 -73 0
-8426 15 0
-8426 34 0
-8426 41 0
-8426 73 0
8427 -15 -37 -41 -70 0
-8427 15 0
-8427 37 0
-8427 41 0
-8427 70 0
-8425 8426 8427 0
-8426 8425 8427 0
-8427 8425 8426 0
8428 -15 -28 -41 -83 0
-8428 15 0
-8428 28 0
-8428 41 0
-8428 83 0
8429 -15 -28 -50 -65 0
-8429 15 0
-8429 28 0
-8429 50 0
-8429 65 0
8430 -15 -28 -53 -62 0
-8430 15 0
-8430 28 0
-8430 53 0
-8430 62 0
-8428 8429 8430 0
-8429 8428 8430 0
-8430 8428 8429 0
8431 -15 -28 -41 -84 0
-8431 15 0
-8431 28 0
-8431 41 0
-8431 84 0
8432 -18 -28 -41 -81 0
-8432 18 0
-8432 28 0
-8432 41 0
-8432 81 0
8433 -21 -28 -41 -78 0
-8433 21 0
-8433 28 0
-8433 41 0
-8433 78 0
-8431 8432 8433 0
-8432 8431 8433 0
-8433 8431 8432 0
8434 -15 -29 -40 -82 0
-8434 15 0
-8434 29 0
-8434 40 0
-8434 82 0
8435 -15 -29 -49 -64 0
-8435 15 0
-8435 29 0
-8435 49 0
-8435 64 0
8436 -15 -29 -52 -61 0
-8436 15 0
-8436 29 0
-8436 52 0
-8436 61 0
-8434 8435 8436 0
-8435 8434 8436 0
-8436 8434 8435 0
8437 -15 -29 -40 -83 0
-8437 15 0
-8437 29 0
-8437 40 0
-8437 83 0
8438 -15 -35 -40 -74 0
-8438 15 0
-8438 35 0
-8438 40 0
-8438 74 0
8439 -15 -38 -40 -71 0
-8439 15 0
-8439 38 0
-8439 40 0
-8439 71 0
-8437 8438 8439 0
-8438 8437 8439 0
-8439 8437 8438 0
8440 -15 -29 -40 -84 0
-8440 15 0
-8440 29 0
-8440 40 0
-8440 84 0
8441 -18 -29 -40 -81 0
-8441 18 0
-8441 29 0
-8441 40 0
-8441 81 0
8442 -21 -29 -40 -78 0
-8442 21 0
-8442 29 0
-8442 40 0
-8442 78 0
-8440 8441 8442 0
-8441 8440 8442 0
-8442 8440 8441 0
8443 -13 -35 -42 -75 0
-8443 13 0
-8443 35 0
-8443 42 0
-8443 75 0
8444 -13 -35 -45 -66 0
-8444 13 0
-8444 35 0
-8444 45 0
-8444 66 0
8445 -13 -35 -54 -57 0
-8445 13 0
-8445 35 0
-8445 54 0
-8445 57 0
-8443 8444 8445 0
-8444 8443 8445 0
-8445 8443 8444 0
8446 -13 -36 -41 -74 0
-8446 13 0
-8446 36 0
-8446 41 0
-8446 74 0
8447 -13 -36 -44 -65 0
-8447 13 0
-8447 36 0
-8447 44 0
-8447 65 0
8448 -13 -36 -53 -56 0
-8448 13 0
-8448 36 0
-8448 53 0
-8448 56 0
-8446 8447 8448 0
-8447 8446 8448 0
-8448 8446 8447 0
8449 -14 -34 -42 -75 0
-8449 14 0
-8449 34 0
-8449 42 0
-8449 75 0
8450 -14 -34 -45 -66 0
-8450 14 0
-8450 34 0
-8450 45 0
-8450 66 0
8451 -14 -34 -54 -57 0
-8451 14 0
-8451 34 0
-8451 54 0
-8451 57 0
-8449 8450 8451 0
-8450 8449 8451 0
-8451 8449 8450 0
8452 -14 -36 -40 -73 0
-8452 14 0
-8452 36 0
-8452 40 0
-8452 73 0
8453 -14 -36 -43 -64 0
-8453 14 0
-8453 36 0
-8453 43 0
-8453 64 0
8454 -14 -36 -52 -55 0
-8454 14 0
-8454 36 0
-8454 52 0
-8454 55 0
-8452 8453 8454 0
-8453 8452 8454 0
-8454 8452 8453 0
8455 -15 -34 -41 -74 0
-8455 15 0
-8455 34 0
-8455 41 0
-8455 74 0
8456 -15 -34 -44 -65 0
-8456 15 0
-8456 34 0
-8456 44 0
-8456 65 0
8457 -15 -34 -53 -56 0
-8457 15 0
-8457 34 0
-8457 53 0
-8457 56 0
-8455 8456 8457 0
-8456 8455 8457 0
-8457 8455 8456 0
8458 -15 -35 -40 -73 0
-8458 15 0
-8458 35 0
-8458 40 0
-8458 73 0
8459 -15 -35 -43 -64 0
-8459 15 0
-8459 35 0
-8459 43 0
-8459 64 0
8460 -15 -35 -52 -55 0
-8460 15 0
-8460 35 0
-8460 52 0
-8460 55 0
-8458 8459 8460 0
-8459 8458 8460 0
-8460 8458 8459 0
8461 -13 -38 -42 -72 0
-8461 13 0
-8461 38 0
-8461 42 0
-8461 72 0
8462 -13 -38 -45 -63 0
-8462 13 0
-8462 38 0
-8462 45 0
-8462 63 0
8463 -13 -38 -51 -57 0
-8463 13 0
-8463 38 0
-8463 51 0
-8463 57 0
-8461 8462 8463 0
-8462 8461 8463 0
-8463 8461 8462 0
8464 -13 -39 -41 -71 0
-8464 13 0
-8464 39 0
-8464 41 0
-8464 71 0
8465 -13 -39 -44 -62 0
-8465 13 0
-8465 39 0
-8465 44 0
-8465 62 0
8466 -13 -39 -50 -56 0
-8466 13 0
-8466 39 0
-8466 50 0
-8466 56 0
-8464 8465 8466 0
-8465 8464 8466 0
-8466 8464 8465 0
8467 -14 -37 -42 -72 0
-8467 14 0
-8467 37 0
-8467 42 0
-8467 72 0
8468 -14 -37 -45 -63 0
-8468 14 0
-8468 37 0
-8468 45 0
-8468 63 0
8469 -14 -37 -51 -57 0
-8469 14 0
-8469 37 0
-8469 51 0
-8469 57 0
-8467 8468 8469 0
-8468 8467 8469 0
-8469 8467 8468 0
8470 -14 -39 -40 -70 0
-8470 14 0
-8470 39 0
-8470 40 0
-8470 70 0
8471 -14 -39 -43 -61 0
-8471 14 0
-8471 39 0
-8471 43 0
-8471 61 0
8472 -14 -39 -49 -55 0
-8472 14 0
-8472 39 0
-8472 49 0
-8472 55 0
-8470 8471 8472 0
-8471 8470 8472 0
-8472 8470 8471 0
8473 -15 -37 -41 -71 0
-8473 15 0
-8473 37 0
-8473 41 0
-8473 71 0
8474 -15 -37 -44 -62 0
-8474 15 0
-8474 37 0
-8474 44 0
-8474 62 0
8475 -15 -37 -50 -56 0
-8475 15 0
-8475 37 0
-8475 50 0
-8475 56 0
-8473 8474 8475 0
-8474 8473 8475 0
-8475 8473 8474 0
8476 -15 -38 -40 -70 0
-8476 15 0
-8476 38 0
-8476 40 0
-8476 70 0
8477 -15 -38 -43 -61 0
-8477 15 0
-8477 38 0
-8477 43 0
-8477 61 0
8478 -15 -38 -49 -55 0
-8478 15 0
-8478 38 0
-8478 49 0
-8478 55 0
-8476 8477 8478 0
-8477 8476 8478 0
-8478 8476 8477 0
8479 -16 -23 -56 -80 0
-8479 16 0
-8479 23 0
-8479 56 0
-8479 80 0
8480 -16 -23 -59 -74 0
-8480 16 0
-8480 23 0
-8480 59 0
-8480 74 0
8481 -16 -23 -65 -68 0
-8481 16 0
-8481 23 0
-8481 65 0
-8481 68 0
8482 -16 -26 -44 -80 0
-8482 16 0
-8482 26 0
-8482 44 0
-8482 80 0
8483 -16 -26 -47 -74 0
-8483 16 0
-8483 26 0
-8483 47 0
-8483 74 0
8484 -16 -26 -53 -68 0
-8484 16 0
-8484 26 0
-8484 53 0
-8484 68 0
8485 -16 -29 -41 -80 0
-8485 16 0
-8485 29 0
-8485 41 0
-8485 80 0
8486 -16 -29 -47 -65 0
-8486 16 0
-8486 29 0
-8486 47 0
-8486 65 0
8487 -16 -29 -53 -59 0
-8487 16 0
-8487 29 0
-8487 53 0
-8487 59 0
8488 -16 -32 -41 -74 0
-8488 16 0
-8488 32 0
-8488 41 0
-8488 74 0
8489 -16 -32 -44 -65 0
-8489 16 0
-8489 32 0
-8489 44 0
-8489 65 0
8490 -16 -32 -53 -56 0
-8490 16 0
-8490 32 0
-8490 53 0
-8490 56 0
8491 -16 -38 -41 -68 0
-8491 16 0
-8491 38 0
-8491 41 0
-8491 68 0
8492 -16 -38 -44 -59 0
-8492 16 0
-8492 38 0
-8492 44 0
-8492 59 0
8493 -16 -38 -47 -56 0
-8493 16 0
-8493 38 0
-8493 47 0
-8493 56 0
-8479 8480 8481 8482 8483 8484 8485 8486 8487 8488 8489 8490 8491 8492 8493 0
-8480 8479 8481 8482 8483 8484 8485 8486 8487 8488 8489 8490 8491 8492 8493 0
-8481 8479 8480 8482 8483 8484 8485 8486 8487 8488 8489 8490 8491 8492 8493 0
-8482 8479 8480 8481 8483 8484 8485 8486 8487 8488 8489 8490 8491 8492 8493 0
-8483 8479 8480 8481 8482 8484 8485 8486 8487 8488 8489 8490 8491 8492 8493 0
-8484 8479 8480 8481 8482 8483 8485 8486 8487 8488 8489 8490 8491 8492 8493 0
-8485 8479 8480 8481 8482 8483 8484 8486 8487 8488 8489 8490 8491 8492 8493 0
-8486 8479 8480 8481 8482 8483 8484 8485 8487 8488 8489 8490 8491 8492 8493 0
-8487 8479 8480 8481 8482 8483 8484 8485 8486 8488 8489 8490 8491 8492 8493 0
-8488 8479 8480 8481 8482 8483 8484 8485 8486 8487 8489 8490 8491 8492 8493 0
-8489 8479 8480 8481 8482 8483 8484 8485 8486 8487 8488 8490 8491 8492 8493 0
-8490 8479 8480 8481 8482 8483 8484 8485 8486 8487 8488 8489 8491 8492 8493 0
-8491 8479 8480 8481 8482 8483 8484 8485 8486 8487 8488 8489 8490 8492 8493 0
-8492 8479 8480 8481 8482 8483 8484 8485 8486 8487 8488 8489 8490 8491 8493 0
-8493 8479 8480 8481 8482 8483 8484 8485 8486 8487 8488 8489 8490 8491 8492 0
8494 -16 -23 -56 -81 0
-8494 16 0
-8494 23 0
-8494 56 0
-8494 81 0
8495 -16 -26 -44 -81 0
-8495 16 0
-8495 26 0
-8495 44 0
-8495 81 0
8496 -16 -29 -41 -81 0
-8496 16 0
-8496 29 0
-8496 41 0
-8496 81 0
-8494 8495 8496 0
-8495 8494 8496 0
-8496 8494 8495 0
8497 -16 -23 -57 -80 0
-8497 16 0
-8497 23 0
-8497 57 0
-8497 80 0
8498 -16 -32 -53 -57 0
-8498 16 0
-8498 32 0
-8498 53 0
-8498 57 0
8499 -16 -38 -47 -57 0
-8499 16 0
-8499 38 0
-8499 47 0
-8499 57 0
-8497 8498 8499 0
-8498 8497 8499 0
-8499 8497 8498 0
8500 -16 -23 -57 -81 0
-8500 16 0
-8500 23 0
-8500 57 0
-8500 81 0
8501 -16 -23 -60 -75 0
-8501 16 0
-8501 23 0
-8501 60 0
-8501 75 0
8502 -16 -23 -66 -69 0
-8502 16 0
-8502 23 0
-8502 66 0
-8502 69 0
-8500 8501 8502 0
-8501 8500 8502 0
-8502 8500 8501 0
8503 -16 -24 -56 -80 0
-8503 16 0
-8503 24 0
-8503 56 0
-8503 80 0
8504 -16 -24 -59 -74 0
-8504 16 0
-8504 24 0
-8504 59 0
-8504 74 0
8505 -16 -24 -65 -68 0
-8505 16 0
-8505 24 0
-8505 65 0
-8505 68 0
-8503 8504 8505 0
-8504 8503 8505 0
-8505 8503 8504 0
8506 -16 -24 -56 -81 0
-8506 16 0
-8506 24 0
-8506 56 0
-8506 81 0
8507 -16 -33 -54 -56 0
-8507 16 0
-8507 33 0
-8507 54 0
-8507 56 0
8508 -16 -39 -48 -56 0
-8508 16 0
-8508 39 0
-8508 48 0
-8508 56 0
-8506 8507 8508 0
-8507 8506 8508 0
-8508 8506 8507 0
8509 -16 -24 -57 -80 0
-8509 16 0
-8509 24 0
-8509 57 0
-8509 80 0
8510 -16 -27 -45 -80 0
-8510 16 0
-8510 27 0
-8510 45 0
-8510 80 0
8511 -16 -30 -42 -80 0
-8511 16 0
-8511 30 0
-8511 42 0
-8511 80 0
-8509 8510 8511 0
-8510 8509 8511 0
-8511 8509 8510 0
8512 -16 -24 -57 -81 0
-8512 16 0
-8512 24 0
-8512 57 0
-8512 81 0
8513 -16 -24 -60 -75 0
-8513 16 0
-8513 24 0
-8513 60 0
-8513 75 0
8514 -16 -24 -66 -69 0
-8514 16 0
-8514 24 0
-8514 66 0
-8514 69 0
8515 -16 -27 -45 -81 0
-8515 16 0
-8515 27 0
-8515 45 0
-8515 81 0
8516 -16 -27 -48 -75 0
-8516 16 0
-8516 27 0
-8516 48 0
-8516 75 0
8517 -16 -27 -54 -69 0
-8517 16 0
-8517 27 0
-8517 54 0
-8517 69 0
8518 -16 -30 -42 -81 0
-8518 16 0
-8518 30 0
-8518 42 0
-8518 81 0
8519 -16 -30 -48 -66 0
-8519 16 0
-8519 30 0
-8519 48 0
-8519 66 0
8520 -16 -30 -54 -60 0
-8520 16 0
-8520 30 0
-8520 54 0
-8520 60 0
8521 -16 -33 -42 -75 0
-8521 16 0
-8521 33 0
-8521 42 0
-8521 75 0
8522 -16 -33 -45 -66 0
-8522 16 0
-8522 33 0
-8522 45 0
-8522 66 0
8523 -16 -33 -54 -57 0
-8523 16 0
-8523 33 0
-8523 54 0
-8523 57 0
8524 -16 -39 -42 -69 0
-8524 16 0
-8524 39 0
-8524 42 0
-8524 69 0
8525 -16 -39 -45 -60 0
-8525 16 0
-8525 39 0
-8525 45 0
-8525 60 0
8526 -16 -39 -48 -57 0
-8526 16 0
-8526 39 0
-8526 48 0
-8526 57 0
-8512 8513 8514 8515 8516 8517 8518 8519 8520 8521 8522 8523 8524 8525 8526 0
-8513 8512 8514 8515 8516 8517 8518 8519 8520 8521 8522 8523 8524 8525 8526 0
-8514 8512 8513 8515 8516 8517 8518 8519 8520 8521 8522 8523 8524 8525 8526 0
-8515 8512 8513 8514 8516 8517 8518 8519 8520 8521 8522 8523 8524 8525 8526 0
-8516 8512 8513 8514 8515 8517 8518 8519 8520 8521 8522 8523 8524 8525 8526 0
-8517 8512 8513 8514 8515 8516 8518 8519 8520 8521 8522 8523 8524 8525 8526 0
-8518 8512 8513 8514 8515 8516 8517 8519 8520 8521 8522 8523 8524 8525 8526 0
-8519 8512 8513 8514 8515 8516 8517 8518 8520 8521 8522 8523 8524 8525 8526 0
-8520 8512 8513 8514 8515 8516 8517 8518 8519 8521 8522 8523 8524 8525 8526 0
-8521 8512 8513 8514 8515 8516 8517 8518 8519 8520 8522 8523 8524 8525 8526 0
-8522 8512 8513 8514 8515 8516 8517 8518 8519 8520 8521 8523 8524 8525 8526 0
-8523 8512 8513 8514 8515 8516 8517 8518 8519 8520 8521 8522 8524 8525 8526 0
-8524 8512 8513 8514 8515 8516 8517 8518 8519 8520 8521 8522 8523 8525 8526 0
-8525 8512 8513 8514 8515 8516 8517 8518 8519 8520 8521 8522 8523 8524 8526 0
-8526 8512 8513 8514 8515 8516 8517 8518 8519 8520 8521 8522 8523 8524 8525 0
8527 -17 -22 -55 -79 0
-8527 17 0
-8527 22 0
-8527 55 0
-8527 79 0
8528 -17 -22 -58 -73 0
-8528 17 0
-8528 22 0
-8528 58 0
-8528 73 0
8529 -17 -22 -64 -67 0
-8529 17 0
-8529 22 0
-8529 64 0
-8529 67 0
8530 -17 -25 -43 -79 0
-8530 17 0
-8530 25 0
-8530 43 0
-8530 79 0
8531 -17 -25 -46 -73 0
-8531 17 0
-8531 25 0
-8531 46 0
-8531 73 0
8532 -17 -25 -52 -67 0
-8532 17 0
-8532 25 0
-8532 52 0
-8532 67 0
8533 -17 -28 -40 -79 0
-8533 17 0
-8533 28 0
-8533 40 0
-8533 79 0
8534 -17 -28 -46 -64 0
-8534 17 0
-8534 28 0
-8534 46 0
-8534 64 0
8535 -17 -28 -52 -58 0
-8535 17 0
-8535 28 0
-8535 52 0
-8535 58 0
8536 -17 -31 -40 -73 0
-8536 17 0
-8536 31 0
-8536 40 0
-8536 73 0
8537 -17 -31 -43 -64 0
-8537 17 0
-8537 31 0
-8537 43 0
-8537 64 0
8538 -17 -31 -52 -55 0
-8538 17 0
-8538 31 0
-8538 52 0
-8538 55 0
8539 -17 -37 -40 -67 0
-8539 17 0
-8539 37 0
-8539 40 0
-8539 67 0
8540 -17 -37 -43 -58 0
-8540 17 0
-8540 37 0
-8540 43 0
-8540 58 0
8541 -17 -37 -46 -55 0
-8541 17 0
-8541 37 0
-8541 46 0
-8541 55 0
-8527 8528 8529 8530 8531 8532 8533 8534 8535 8536 8537 8538 8539 8540 8541 0
-8528 8527 8529 8530 8531 8532 8533 8534 8535 8536 8537 8538 8539 8540 8541 0
-8529 8527 8528 8530 8531 8532 8533 8534 8535 8536 8537 8538 8539 8540 8541 0
-8530 8527 8528 8529 8531 8532 8533 8534 8535 8536 8537 8538 8539 8540 8541 0
-8531 8527 8528 8529 8530 8532 8533 8534 8535 8536 8537 8538 8539 8540 8541 0
-8532 8527 8528 8529 8530 8531 8533 8534 8535 8536 8537 8538 8539 8540 8541 0
-8533 8527 8528 8529 8530 8531 8532 8534 8535 8536 8537 8538 8539 8540 8541 0
-8534 8527 8528 8529 8530 8531 8532 8533 8535 8536 8537 8538 8539 8540 8541 0
-8535 8527 8528 8529 8530 8531 8532 8533 8534 8536 8537 8538 8539 8540 8541 0
-8536 8527 8528 8529 8530 8531 8532 8533 8534 8535 8537 8538 8539 8540 8541 0
-8537 8527 8528 8529 8530 8531 8532 8533 8534 8535 8536 8538 8539 8540 8541 0
-8538 8527 8528 8529 8530 8531 8532 8533 8534 8535 8536 8537 8539 8540 8541 0
-8539 8527 8528 8529 8530 8531 8532 8533 8534 8535 8536 8537 8538 8540 8541 0
-8540 8527 8528 8529 8530 8531 8532 8533 8534 8535 8536 8537 8538 8539 8541 0
-8541 8527 8528 8529 8530 8531 8532 8533 8534 8535 8536 8537 8538 8539 8540 0
8542 -17 -22 -55 -81 0
-8542 17 0
-8542 22 0
-8542 55 0
-8542 81 0
8543 -17 -25 -43 -81 0
-8543 17 0
-8543 25 0
-8543 43 0
-8543 81 0
8544 -17 -28 -40 -81 0
-8544 17 0
-8544 28 0
-8544 40 0
-8544 81 0
-8542 8543 8544 0
-8543 8542 8544 0
-8544 8542 8543 0
8545 -17 -22 -57 -79 0
-8545 17 0
-8545 22 0
-8545 57 0
-8545 79 0
8546 -17 -31 -52 -57 0
-8546 17 0
-8546 31 0
-8546 52 0
-8546 57 0
8547 -17 -37 -46 -57 0
-8547 17 0
-8547 37 0
-8547 46 0
-8547 57 0
-8545 8546 8547 0
-8546 8545 8547 0
-8547 8545 8546 0
8548 -17 -22 -57 -81 0
-8548 17 0
-8548 22 0
-8548 57 0
-8548 81 0
8549 -17 -22 -60 -75 0
-8549 17 0
-8549 22 0
-8549 60 0
-8549 75 0
8550 -17 -22 -66 -69 0
-8550 17 0
-8550 22 0
-8550 66 0
-8550 69 0
-8548 8549 8550 0
-8549 8548 8550 0
-8550 8548 8549 0
8551 -17 -24 -55 -79 0
-8551 17 0
-8551 24 0
-8551 55 0
-8551 79 0
8552 -17 -24 -58 -73 0
-8552 17 0
-8552 24 0
-8552 58 0
-8552 73 0
8553 -17 -24 -64 -67 0
-8553 17 0
-8553 24 0
-8553 64 0
-8553 67 0
-8551 8552 8553 0
-8552 8551 8553 0
-8553 8551 8552 0
8554 -17 -24 -55 -81 0
-8554 17 0
-8554 24 0
-8554 55 0
-8554 81 0
8555 -17 -33 -54 -55 0
-8555 17 0
-8555 33 0
-8555 54 0
-8555 55 0
8556 -17 -39 -48 -55 0
-8556 17 0
-8556 39 0
-8556 48 0
-8556 55 0
-8554 8555 8556 0
-8555 8554 8556 0
-8556 8554 8555 0
8557 -17 -24 -57 -79 0
-8557 17 0
-8557 24 0
-8557 57 0
-8557 79 0
8558 -17 -27 -45 -79 0
-8558 17 0
-8558 27 0
-8558 45 0
-8558 79 0
8559 -17 -30 -42 -79 0
-8559 17 0
-8559 30 0
-8559 42 0
-8559 79 0
-8557 8558 8559 0
-8558 8557 8559 0
-8559 8557 8558 0
8560 -17 -24 -57 -81 0
-8560 17 0
-8560 24 0
-8560 57 0
-8560 81 0
8561 -17 -24 -60 -75 0
-8561 17 0
-8561 24 0
-8561 60 0
-8561 75 0
8562 -17 -24 -66 -69 0
-8562 17 0
-8562 24 0
-8562 66 0
-8562 69 0
8563 -17 -27 -45 -81 0
-8563 17 0
-8563 27 0
-8563 45 0
-8563 81 0
8564 -17 -27 -48 -75 0
-8564 17 0
-8564 27 0
-8564 48 0
-8564 75 0
8565 -17 -27 -54 -69 0
-8565 17 0
-8565 27 0
-8565 54 0
-8565 69 0
8566 -17 -30 -42 -81 0
-8566 17 0
-8566 30 0
-8566 42 0
-8566 81 0
8567 -17 -30 -48 -66 0
-8567 17 0
-8567 30 0
-8567 48 0
-8567 66 0
8568 -17 -30 -54 -60 0
-8568 17 0
-8568 30 0
-8568 54 0
-8568 60 0
8569 -17 -33 -42 -75 0
-8569 17 0
-8569 33 0
-8569 42 0
-8569 75 0
8570 -17 -33 -45 -66 0
-8570 17 0
-8570 33 0
-8570 45 0
-8570 66 0
8571 -17 -33 -54 -57 0
-8571 17 0
-8571 33 0
-8571 54 0
-8571 57 0
8572 -17 -39 -42 -69 0
-8572 17 0
-8572 39 0
-8572 42 0
-8572 69 0
8573 -17 -39 -45 -60 0
-8573 17 0
-8573 39 0
-8573 45 0
-8573 60 0
8574 -17 -39 -48 -57 0
-8574 17 0
-8574 39 0
-8574 48 0
-8574 57 0
-8560 8561 8562 8563 8564 8565 8566 8567 8568 8569 8570 8571 8572 8573 8574 0
-8561 8560 8562 8563 8564 8565 8566 8567 8568 8569 8570 8571 8572 8573 8574 0
-8562 8560 8561 8563 8564 8565 8566 8567 8568 8569 8570 8571 8572 8573 8574 0
-8563 8560 8561 8562 8564 8565 8566 8567 8568 8569 8570 8571 8572 8573 8574 0
-8564 8560 8561 8562 8563 8565 8566 8567 8568 8569 8570 8571 8572 8573 8574 0
-8565 8560 8561 8562 8563 8564 8566 8567 8568 8569 8570 8571 8572 8573 8574 0
-8566 8560 8561 8562 8563 8564 8565 8567 8568 8569 8570 8571 8572 8573 8574 0
-8567 8560 8561 8562 8563 8564 8565 8566 8568 8569 8570 8571 8572 8573 8574 0
-8568 8560 8561 8562 8563 8564 8565 8566 8567 8569 8570 8571 8572 8573 8574 0
-8569 8560 8561 8562 8563 8564 8565 8566 8567 8568 8570 8571 8572 8573 8574 0
-8570 8560 8561 8562 8563 8564 8565 8566 8567 8568 8569 8571 8572 8573 8574 0
-8571 8560 8561 8562 8563 8564 8565 8566 8567 8568 8569 8570 8572 8573 8574 0
-8572 8560 8561 8562 8563 8564 8565 8566 8567 8568 8569 8570 8571 8573 8574 0
-8573 8560 8561 8562 8563 8564 8565 8566 8567 8568 8569 8570 8571 8572 8574 0
-8574 8560 8561 8562 8563 8564 8565 8566 8567 8568 8569 8570 8571 8572 8573 0
8575 -18 -22 -55 -79 0
-8575 18 0
-8575 22 0
-8575 55 0
-8575 79 0
8576 -18 -22 -58 -73 0
-8576 18 0
-8576 22 0
-8576 58 0
-8576 73 0
8577 -18 -22 -64 -67 0
-8577 18 0
-8577 22 0
-8577 64 0
-8577 67 0
8578 -18 -25 -43 -79 0
-8578 18 0
-8578 25 0
-8578 43 0
-8578 79 0
8579 -18 -25 -46 -73 0
-8579 18 0
-8579 25 0
-8579 46 0
-8579 73 0
8580 -18 -25 -52 -67 0
-8580 18 0
-8580 25 0
-8580 52 0
-8580 67 0
8581 -18 -28 -40 -79 0
-8581 18 0
-8581 28 0
-8581 40 0
-8581 79 0
8582 -18 -28 -46 -64 0
-8582 18 0
-8582 28 0
-8582 46 0
-8582 64 0
8583 -18 -28 -52 -58 0
-8583 18 0
-8583 28 0
-8583 52 0
-8583 58 0
8584 -18 -31 -40 -73 0
-8584 18 0
-8584 31 0
-8584 40 0
-8584 73 0
8585 -18 -31 -43 -64 0
-8585 18 0
-8585 31 0
-8585 43 0
-8585 64 0
8586 -18 -31 -52 -55 0
-8586 18 0
-8586 31 0
-8586 52 0
-8586 55 0
8587 -18 -37 -40 -67 0
-8587 18 0
-8587 37 0
-8587 40 0
-8587 67 0
8588 -18 -37 -43 -58 0
-8588 18 0
-8588 37 0
-8588 43 0
-8588 58 0
8589 -18 -37 -46 -55 0
-8589 18 0
-8589 37 0
-8589 46 0
-8589 55 0
-8575 8576 8577 8578 8579 8580 8581 8582 8583 8584 8585 8586 8587 8588 8589 0
-8576 8575 8577 8578 8579 8580 8581 8582 8583 8584 8585 8586 8587 8588 8589 0
-8577 8575 8576 8578 8579 8580 8581 8582 8583 8584 8585 8586 8587 8588 8589 0
-8578 8575 8576 8577 8579 8580 8581 8582 8583 8584 8585 8586 8587 8588 8589 0
-8579 8575 8576 8577 8578 8580 8581 8582 8583 8584 8585 8586 8587 8588 8589 0
-8580 8575 8576 8577 8578 8579 8581 8582 8583 8584 8585 8586 8587 8588 8589 0
-8581 8575 8576 8577 8578 8579 8580 8582 8583 8584 8585 8586 8587 8588 8589 0
-8582 8575 8576 8577 8578 8579 8580 8581 8583 8584 8585 8586 8587 8588 8589 0
-8583 8575 8576 8577 8578 8579 8580 8581 8582 8584 8585 8586 8587 8588 8589 0
-8584 8575 8576 8577 8578 8579 8580 8581 8582 8583 8585 8586 8587 8588 8589 0
-8585 8575 8576 8577 8578 8579 8580 8581 8582 8583 8584 8586 8587 8588 8589 0
-8586 8575 8576 8577 8578 8579 8580 8581 8582 8583 8584 8585 8587 8588 8589 0
-8587 8575 8576 8577 8578 8579 8580 8581 8582 8583 8584 8585 8586 8588 8589 0
-8588 8575 8576 8577 8578 8579 8580 8581 8582 8583 8584 8585 8586 8587 8589 0
-8589 8575 8576 8577 8578 8579 8580 8581 8582 8583 8584 8585 8586 8587 8588 0
8590 -18 -22 -55 -80 0
-8590 18 0
-8590 22 0
-8590 55 0
-8590 80 0
8591 -18 -25 -43 -80 0
-8591 18 0
-8591 25 0
-8591 43 0
-8591 80 0
8592 -18 -28 -40 -80 0
-8592 18 0
-8592 28 0
-8592 40 0
-8592 80 0
-8590 8591 8592 0
-8591 8590 8592 0
-8592 8590 8591 0
8593 -18 -22 -56 -79 0
-8593 18 0
-8593 22 0
-8593 56 0
-8593 79 0
8594 -18 -31 -52 -56 0
-8594 18 0
-8594 31 0
-8594 52 0
-8594 56 0
8595 -18 -37 -46 -56 0
-8595 18 0
-8595 37 0
-8595 46 0
-8595 56 0
-8593 8594 8595 0
-8594 8593 8595 0
-8595 8593 8594 0
8596 -18 -22 -56 -80 0
-8596 18 0
-8596 22 0
-8596 56 0
-8596 80 0
8597 -18 -22 -59 -74 0
-8597 18 0
-8597 22 0
-8597 59 0
-8597 74 0
8598 -18 -22 -65 -68 0
-8598 18 0
-8598 22 0
-8598 65 0
-8598 68 0
-8596 8597 8598 0
-8597 8596 8598 0
-8598 8596 8597 0
8599 -18 -23 -55 -79 0
-8599 18 0
-8599 23 0
-8599 55 0
-8599 79 0
8600 -18 -23 -58 -73 0
-8600 18 0
-8600 23 0
-8600 58 0
-8600 73 0
8601 -18 -23 -64 -67 0
-8601 18 0
-8601 23 0
-8601 64 0
-8601 67 0
-8599 8600 8601 0
-8600 8599 8601 0
-8601 8599 8600 0
8602 -18 -23 -55 -80 0
-8602 18 0
-8602 23 0
-8602 55 0
-8602 80 0
8603 -18 -32 -53 -55 0
-8603 18 0
-8603 32 0
-8603 53 0
-8603 55 0
8604 -18 -38 -47 -55 0
-8604 18 0
-8604 38 0
-8604 47 0
-8604 55 0
-8602 8603 8604 0
-8603 8602 8604 0
-8604 8602 8603 0
8605 -18 -23 -56 -79 0
-8605 18 0
-8605 23 0
-8605 56 0
-8605 79 0
8606 -18 -26 -44 -79 0
-8606 18 0
-8606 26 0
-8606 44 0
-8606 79 0
8607 -18 -29 -41 -79 0
-8607 18 0
-8607 29 0
-8607 41 0
-8607 79 0
-8605 8606 8607 0
-8606 8605 8607 0
-8607 8605 8606 0
8608 -18 -23 -56 -80 0
-8608 18 0
-8608 23 0
-8608 56 0
-8608 80 0
8609 -18 -23 -59 -74 0
-8609 18 0
-8609 23 0
-8609 59 0
-8609 74 0
8610 -18 -23 -65 -68 0
-8610 18 0
-8610 23 0
-8610 65 0
-8610 68 0
8611 -18 -26 -44 -80 0
-8611 18 0
-8611 26 0
-8611 44 0
-8611 80 0
8612 -18 -26 -47 -74 0
-8612 18 0
-8612 26 0
-8612 47 0
-8612 74 0
8613 -18 -26 -53 -68 0
-8613 18 0
-8613 26 0
-8613 53 0
-8613 68 0
8614 -18 -29 -41 -80 0
-8614 18 0
-8614 29 0
-8614 41 0
-8614 80 0
8615 -18 -29 -47 -65 0
-8615 18 0
-8615 29 0
-8615 47 0
-8615 65 0
8616 -18 -29 -53 -59 0
-8616 18 0
-8616 29 0
-8616 53 0
-8616 59 0
8617 -18 -32 -41 -74 0
-8617 18 0
-8617 32 0
-8617 41 0
-8617 74 0
8618 -18 -32 -44 -65 0
-8618 18 0
-8618 32 0
-8618 44 0
-8618 65 0
8619 -18 -32 -53 -56 0
-8619 18 0
-8619 32 0
-8619 53 0
-8619 56 0
8620 -18 -38 -41 -68 0
-8620 18 0
-8620 38 0
-8620 41 0
-8620 68 0
8621 -18 -38 -44 -59 0
-8621 18 0
-8621 38 0
-8621 44 0
-8621 59 0
8622 -18 -38 -47 -56 0
-8622 18 0
-8622 38 0
-8622 47 0
-8622 56 0
-8608 8609 8610 8611 8612 8613 8614 8615 8616 8617 8618 8619 8620 8621 8622 0
-8609 8608 8610 8611 8612 8613 8614 8615 8616 8617 8618 8619 8620 8621 8622 0
-8610 8608 8609 8611 8612 8613 8614 8615 8616 8617 8618 8619 8620 8621 8622 0
-8611 8608 8609 8610 8612 8613 8614 8615 8616 8617 8618 8619 8620 8621 8622 0
-8612 8608 8609 8610 8611 8613 8614 8615 8616 8617 8618 8619 8620 8621 8622 0
-8613 8608 8609 8610 8611 8612 8614 8615 8616 8617 8618 8619 8620 8621 8622 0
-8614 8608 8609 8610 8611 8612 8613 8615 8616 8617 8618 8619 8620 8621 8622 0
-8615 8608 8609 8610 8611 8612 8613 8614 8616 8617 8618 8619 8620 8621 8622 0
-8616 8608 8609 8610 8611 8612 8613 8614 8615 8617 8618 8619 8620 8621 8622 0
-8617 8608 8609 8610 8611 8612 8613 8614 8615 8616 8618 8619 8620 8621 8622 0
-8618 8608 8609 8610 8611 8612 8613 8614 8615 8616 8617 8619 8620 8621 8622 0
-8619 8608 8609 8610 8611 8612 8613 8614 8615 8616 8617 8618 8620 8621 8622 0
-8620 8608 8609 8610 8611 8612 8613 8614 8615 8616 8617 8618 8619 8621 8622 0
-8621 8608 8609 8610 8611 8612 8613 8614 8615 8616 8617 8618 8619 8620 8622 0
-8622 8608 8609 8610 8611 8612 8613 8614 8615 8616 8617 8618 8619 8620 8621 0
8623 -16 -23 -59 -75 0
-8623 16 0
-8623 23 0
-8623 59 0
-8623 75 0
8624 -16 -26 -47 -75 0
-8624 16 0
-8624 26 0
-8624 47 0
-8624 75 0
8625 -16 -32 -41 -75 0
-8625 16 0
-8625 32 0
-8625 41 0
-8625 75 0
-8623 8624 8625 0
-8624 8623 8625 0
-8625 8623 8624 0
8626 -16 -23 -60 -74 0
-8626 16 0
-8626 23 0
-8626 60 0
-8626 74 0
8627 -16 -29 -53 -60 0
-8627 16 0
-8627 29 0
-8627 53 0
-8627 60 0
8628 -16 -38 -44 -60 0
-8628 16 0
-8628 38 0
-8628 44 0
-8628 60 0
-8626 8627 8628 0
-8627 8626 8628 0
-8628 8626 8627 0
8629 -16 -24 -59 -75 0
-8629 16 0
-8629 24 0
-8629 59 0
-8629 75 0
8630 -16 -30 -54 -59 0
-8630 16 0
-8630 30 0
-8630 54 0
-8630 59 0
8631 -16 -39 -45 -59 0
-8631 16 0
-8631 39 0
-8631 45 0
-8631 59 0
-8629 8630 8631 0
-8630 8629 8631 0
-8631 8629 8630 0
8632 -16 -24 -60 -74 0
-8632 16 0
-8632 24 0
-8632 60 0
-8632 74 0
8633 -16 -27 -48 -74 0
-8633 16 0
-8633 27 0
-8633 48 0
-8633 74 0
8634 -16 -33 -42 -74 0
-8634 16 0
-8634 33 0
-8634 42 0
-8634 74 0
-8632 8633 8634 0
-8633 8632 8634 0
-8634 8632 8633 0
8635 -17 -22 -58 -75 0
-8635 17 0
-8635 22 0
-8635 58 0
-8635 75 0
8636 -17 -25 -46 -75 0
-8636 17 0
-8636 25 0
-8636 46 0
-8636 75 0
8637 -17 -31 -40 -75 0
-8637 17 0
-8637 31 0
-8637 40 0
-8637 75 0
-8635 8636 8637 0
-8636 8635 8637 0
-8637 8635 8636 0
8638 -17 -22 -60 -73 0
-8638 17 0
-8638 22 0
-8638 60 0
-8638 73 0
8639 -17 -28 -52 -60 0
-8639 17 0
-8639 28 0
-8639 52 0
-8639 60 0
8640 -17 -37 -43 -60 0
-8640 17 0
-8640 37 0
-8640 43 0
-8640 60 0
-8638 8639 8640 0
-8639 8638 8640 0
-8640 8638 8639 0
8641 -17 -24 -58 -75 0
-8641 17 0
-8641 24 0
-8641 58 0
-8641 75 0
8642 -17 -30 -54 -58 0
-8642 17 0
-8642 30 0
-8642 54 0
-8642 58 0
8643 -17 -39 -45 -58 0
-8643 17 0
-8643 39 0
-8643 45 0
-8643 58 0
-8641 8642 8643 0
-8642 8641 8643 0
-8643 8641 8642 0
8644 -17 -24 -60 -73 0
-8644 17 0
-8644 24 0
-8644 60 0
-8644 73 0
8645 -17 -27 -48 -73 0
-8645 17 0
-8645 27 0
-8645 48 0
-8645 73 0
8646 -17 -33 -42 -73 0
-8646 17 0
-8646 33 0
-8646 42 0
-8646 73 0
-8644 8645 8646 0
-8645 8644 8646 0
-8646 8644 8645 0
8647 -18 -22 -58 -74 0
-8647 18 0
-8647 22 0
-8647 58 0
-8647 74 0
8648 -18 -25 -46 -74 0
-8648 18 0
-8648 25 0
-8648 46 0
-8648 74 0
8649 -18 -31 -40 -74 0
-8649 18 0
-8649 31 0
-8649 40 0
-8649 74 0
-8647 8648 8649 0
-8648 8647 8649 0
-8649 8647 8648 0
8650 -18 -22 -59 -73 0
-8650 18 0
-8650 22 0
-8650 59 0
-8650 73 0
8651 -18 -28 -52 -59 0
-8651 18 0
-8651 28 0
-8651 52 0
-8651 59 0
8652 -18 -37 -43 -59 0
-8652 18 0
-8652 37 0
-8652 43 0
-8652 59 0
-8650 8651 8652 0
-8651 8650 8652 0
-8652 8650 8651 0
8653 -18 -23 -58 -74 0
-8653 18 0
-8653 23 0
-8653 58 0
-8653 74 0
8654 -18 -29 -53 -58 0
-8654 18 0
-8654 29 0
-8654 53 0
-8654 58 0
8655 -18 -38 -44 -58 0
-8655 18 0
-8655 38 0
-8655 44 0
-8655 58 0
-8653 8654 8655 0
-8654 8653 8655 0
-8655 8653 8654 0
8656 -18 -23 -59 -73 0
-8656 18 0
-8656 23 0
-8656 59 0
-8656 73 0
8657 -18 -26 -47 -73 0
-8657 18 0
-8657 26 0
-8657 47 0
-8657 73 0
8658 -18 -32 -41 -73 0
-8658 18 0
-8658 32 0
-8658 41 0
-8658 73 0
-8656 8657 8658 0
-8657 8656 8658 0
-8658 8656 8657 0
8659 -16 -23 -65 -69 0
-8659 16 0
-8659 23 0
-8659 65 0
-8659 69 0
8660 -16 -26 -53 -69 0
-8660 16 0
-8660 26 0
-8660 53 0
-8660 69 0
8661 -16 -38 -41 -69 0
-8661 16 0
-8661 38 0
-8661 41 0
-8661 69 0
-8659 8660 8661 0
-8660 8659 8661 0
-8661 8659 8660 0
8662 -16 -23 -66 -68 0
-8662 16 0
-8662 23 0
-8662 66 0
-8662 68 0
8663 -16 -29 -47 -66 0
-8663 16 0
-8663 29 0
-8663 47 0
-8663 66 0
8664 -16 -32 -44 -66 0
-8664 16 0
-8664 32 0
-8664 44 0
-8664 66 0
-8662 8663 8664 0
-8663 8662 8664 0
-8664 8662 8663 0
8665 -16 -24 -65 -69 0
-8665 16 0
-8665 24 0
-8665 65 0
-8665 69 0
8666 -16 -30 -48 -65 0
-8666 16 0
-8666 30 0
-8666 48 0
-8666 65 0
8667 -16 -33 -45 -65 0
-8667 16 0
-8667 33 0
-8667 45 0
-8667 65 0
-8665 8666 8667 0
-8666 8665 8667 0
-8667 8665 8666 0
8668 -16 -24 -66 -68 0
-8668 16 0
-8668 24 0
-8668 66 0
-8668 68 0
8669 -16 -27 -54 -68 0
-8669 16 0
-8669 27 0
-8669 54 0
-8669 68 0
8670 -16 -39 -42 -68 0
-8670 16 0
-8670 39 0
-8670 42 0
-8670 68 0
-8668 8669 8670 0
-8669 8668 8670 0
-8670 8668 8669 0
8671 -17 -22 -64 -69 0
-8671 17 0
-8671 22 0
-8671 64 0
-8671 69 0
8672 -17 -25 -52 -69 0
-8672 17 0
-8672 25 0
-8672 52 0
-8672 69 0
8673 -17 -37 -40 -69 0
-8673 17 0
-8673 37 0
-8673 40 0
-8673 69 0
-8671 8672 8673 0
-8672 8671 8673 0
-8673 8671 8672 0
8674 -17 -22 -66 -67 0
-8674 17 0
-8674 22 0
-8674 66 0
-8674 67 0
8675 -17 -28 -46 -66 0
-8675 17 0
-8675 28 0
-8675 46 0
-8675 66 0
8676 -17 -31 -43 -66 0
-8676 17 0
-8676 31 0
-8676 43 0
-8676 66 0
-8674 8675 8676 0
-8675 8674 8676 0
-8676 8674 8675 0
8677 -17 -24 -64 -69 0
-8677 17 0
-8677 24 0
-8677 64 0
-8677 69 0
8678 -17 -30 -48 -64 0
-8678 17 0
-8678 30 0
-8678 48 0
-8678 64 0
8679 -17 -33 -45 -64 0
-8679 17 0
-8679 33 0
-8679 45 0
-8679 64 0
-8677 8678 8679 0
-8678 8677 8679 0
-8679 8677 8678 0
8680 -17 -24 -66 -67 0
-8680 17 0
-8680 24 0
-8680 66 0
-8680 67 0
8681 -17 -27 -54 -67 0
-8681 17 0
-8681 27 0
-8681 54 0
-8681 67 0
8682 -17 -39 -42 -67 0
-8682 17 0
-8682 39 0
-8682 42 0
-8682 67 0
-8680 8681 8682 0
-8681 8680 8682 0
-8682 8680 8681 0
8683 -18 -22 -64 -68 0
-8683 18 0
-8683 22 0
-8683 64 0
-8683 68 0
8684 -18 -25 -52 -68 0
-8684 18 0
-8684 25 0
-8684 52 0
-8684 68 0
8685 -18 -37 -40 -68 0
-8685 18 0
-8685 37 0
-8685 40 0
-8685 68 0
-8683 8684 8685 0
-8684 8683 8685 0
-8685 8683 8684 0
8686 -18 -22 -65 -67 0
-8686 18 0
-8686 22 0
-8686 65 0
-8686 67 0
8687 -18 -28 -46 -65 0
-8687 18 0
-8687 28 0
-8687 46 0
-8687 65 0
8688 -18 -31 -43 -65 0
-8688 18 0
-8688 31 0
-8688 43 0
-8688 65 0
-8686 8687 8688 0
-8687 8686 8688 0
-8688 8686 8687 0
8689 -18 -23 -64 -68 0
-8689 18 0
-8689 23 0
-8689 64 0
-8689 68 0
8690 -18 -29 -47 -64 0
-8690 18 0
-8690 29 0
-8690 47 0
-8690 64 0
8691 -18 -32 -44 -64 0
-8691 18 0
-8691 32 0
-8691 44 0
-8691 64 0
-8689 8690 8691 0
-8690 8689 8691 0
-8691 8689 8690 0
8692 -18 -23 -65 -67 0
-8692 18 0
-8692 23 0
-8692 65 0
-8692 67 0
8693 -18 -26 -53 -67 0
-8693 18 0
-8693 26 0
-8693 53 0
-8693 67 0
8694 -18 -38 -41 -67 0
-8694 18 0
-8694 38 0
-8694 41 0
-8694 67 0
-8692 8693 8694 0
-8693 8692 8694 0
-8694 8692 8693 0
8695 -16 -26 -45 -80 0
-8695 16 0
-8695 26 0
-8695 45 0
-8695 80 0
8696 -16 -32 -45 -65 0
-8696 16 0
-8696 32 0
-8696 45 0
-8696 65 0
8697 -16 -38 -45 -59 0
-8697 16 0
-8697 38 0
-8697 45 0
-8697 59 0
-8695 8696 8697 0
-8696 8695 8697 0
-8697 8695 8696 0
8698 -16 -26 -45 -81 0
-8698 16 0
-8698 26 0
-8698 45 0
-8698 81 0
8699 -16 -26 -48 -75 0
-8699 16 0
-8699 26 0
-8699 48 0
-8699 75 0
8700 -16 -26 -54 -69 0
-8700 16 0
-8700 26 0
-8700 54 0
-8700 69 0
-8698 8699 8700 0
-8699 8698 8700 0
-8700 8698 8699 0
8701 -16 -27 -44 -80 0
-8701 16 0
-8701 27 0
-8701 44 0
-8701 80 0
8702 -16 -27 -47 -74 0
-8702 16 0
-8702 27 0
-8702 47 0
-8702 74 0
8703 -16 -27 -53 -68 0
-8703 16 0
-8703 27 0
-8703 53 0
-8703 68 0
-8701 8702 8703 0
-8702 8701 8703 0
-8703 8701 8702 0
8704 -16 -27 -44 -81 0
-8704 16 0
-8704 27 0
-8704 44 0
-8704 81 0
8705 -16 -33 -44 -66 0
-8705 16 0
-8705 33 0
-8705 44 0
-8705 66 0
8706 -16 -39 -44 -60 0
-8706 16 0
-8706 39 0
-8706 44 0
-8706 60 0
-8704 8705 8706 0
-8705 8704 8706 0
-8706 8704 8705 0
8707 -17 -25 -45 -79 0
-8707 17 0
-8707 25 0
-8707 45 0
-8707 79 0
8708 -17 -31 -45 -64 0
-8708 17 0
-8708 31 0
-8708 45 0
-8708 64 0
8709 -17 -37 -45 -58 0
-8709 17 0
-8709 37 0
-8709 45 0
-8709 58 0
-8707 8708 8709 0
-8708 8707 8709 0
-8709 8707 8708 0
8710 -17 -25 -45 -81 0
-8710 17 0
-8710 25 0
-8710 45 0
-8710 81 0
8711 -17 -25 -48 -75 0
-8711 17 0
-8711 25 0
-8711 48 0
-8711 75 0
8712 -17 -25 -54 -69 0
-8712 17 0
-8712 25 0
-8712 54 0
-8712 69 0
-8710 8711 8712 0
-8711 8710 8712 0
-8712 8710 8711 0
8713 -17 -27 -43 -79 0
-8713 17 0
-8713 27 0
-8713 43 0
-8713 79 0
8714 -17 -27 -46 -73 0
-8714 17 0
-8714 27 0
-8714 46 0
-8714 73 0
8715 -17 -27 -52 -67 0
-8715 17 0
-8715 27 0
-8715 52 0
-8715 67 0
-8713 8714 8715 0
-8714 8713 8715 0
-8715 8713 8714 0
8716 -17 -27 -43 -81 0
-8716 17 0
-8716 27 0
-8716 43 0
-8716 81 0
8717 -17 -33 -43 -66 0
-8717 17 0
-8717 33 0
-8717 43 0
-8717 66 0
8718 -17 -39 -43 -60 0
-8718 17 0
-8718 39 0
-8718 43 0
-8718 60 0
-8716 8717 8718 0
-8717 8716 8718 0
-8718 8716 8717 0
8719 -18 -25 -44 -79 0
-8719 18 0
-8719 25 0
-8719 44 0
-8719 79 0
8720 -18 -31 -44 -64 0
-8720 18 0
-8720 31 0
-8720 44 0
-8720 64 0
8721 -18 -37 -44 -58 0
-8721 18 0
-8721 37 0
-8721 44 0
-8721 58 0
-8719 8720 8721 0
-8720 8719 8721 0
-8721 8719 8720 0
8722 -18 -25 -44 -80 0
-8722 18 0
-8722 25 0
-8722 44 0
-8722 80 0
8723 -18 -25 -47 -74 0
-8723 18 0
-8723 25 0
-8723 47 0
-8723 74 0
8724 -18 -25 -53 -68 0
-8724 18 0
-8724 25 0
-8724 53 0
-8724 68 0
-8722 8723 8724 0
-8723 8722 8724 0
-8724 8722 8723 0
8725 -18 -26 -43 -79 0
-8725 18 0
-8725 26 0
-8725 43 0
-8725 79 0
8726 -18 -26 -46 -73 0
-8726 18 0
-8726 26 0
-8726 46 0
-8726 73 0
8727 -18 -26 -52 -67 0
-8727 18 0
-8727 26 0
-8727 52 0
-8727 67 0
-8725 8726 8727 0
-8726 8725 8727 0
-8727 8725 8726 0
8728 -18 -26 -43 -80 0
-8728 18 0
-8728 26 0
-8728 43 0
-8728 80 0
8729 -18 -32 -43 -65 0
-8729 18 0
-8729 32 0
-8729 43 0
-8729 65 0
8730 -18 -38 -43 -59 0
-8730 18 0
-8730 38 0
-8730 43 0
-8730 59 0
-8728 8729 8730 0
-8729 8728 8730 0
-8730 8728 8729 0
8731 -16 -26 -48 -74 0
-8731 16 0
-8731 26 0
-8731 48 0
-8731 74 0
8732 -16 -29 -48 -65 0
-8732 16 0
-8732 29 0
-8732 48 0
-8732 65 0
8733 -16 -38 -48 -56 0
-8733 16 0
-8733 38 0
-8733 48 0
-8733 56 0
-8731 8732 8733 0
-8732 8731 8733 0
-8733 8731 8732 0
8734 -16 -27 -47 -75 0
-8734 16 0
-8734 27 0
-8734 47 0
-8734 75 0
8735 -16 -30 -47 -66 0
-8735 16 0
-8735 30 0
-8735 47 0
-8735 66 0
8736 -16 -39 -47 -57 0
-8736 16 0
-8736 39 0
-8736 47 0
-8736 57 0
-8734 8735 8736 0
-8735 8734 8736 0
-8736 8734 8735 0
8737 -17 -25 -48 -73 0
-8737 17 0
-8737 25 0
-8737 48 0
-8737 73 0
8738 -17 -28 -48 -64 0
-8738 17 0
-8738 28 0
-8738 48 0
-8738 64 0
8739 -17 -37 -48 -55 0
-8739 17 0
-8739 37 0
-8739 48 0
-8739 55 0
-8737 8738 8739 0
-8738 8737 8739 0
-8739 8737 8738 0
8740 -17 -27 -46 -75 0
-8740 17 0
-8740 27 0
-8740 46 0
-8740 75 0
8741 -17 -30 -46 -66 0
-8741 17 0
-8741 30 0
-8741 46 0
-8741 66 0
8742 -17 -39 -46 -57 0
-8742 17 0
-8742 39 0
-8742 46 0
-8742 57 0
-8740 8741 8742 0
-8741 8740 8742 0
-8742 8740 8741 0
8743 -18 -25 -47 -73 0
-8743 18 0
-8743 25 0
-8743 47 0
-8743 73 0
8744 -18 -28 -47 -64 0
-8744 18 0
-8744 28 0
-8744 47 0
-8744 64 0
8745 -18 -37 -47 -55 0
-8745 18 0
-8745 37 0
-8745 47 0
-8745 55 0
-8743 8744 8745 0
-8744 8743 8745 0
-8745 8743 8744 0
8746 -18 -26 -46 -74 0
-8746 18 0
-8746 26 0
-8746 46 0
-8746 74 0
8747 -18 -29 -46 -65 0
-8747 18 0
-8747 29 0
-8747 46 0
-8747 65 0
8748 -18 -38 -46 -56 0
-8748 18 0
-8748 38 0
-8748 46 0
-8748 56 0
-8746 8747 8748 0
-8747 8746 8748 0
-8748 8746 8747 0
8749 -16 -26 -54 -68 0
-8749 16 0
-8749 26 0
-8749 54 0
-8749 68 0
8750 -16 -29 -54 -59 0
-8750 16 0
-8750 29 0
-8750 54 0
-8750 59 0
8751 -16 -32 -54 -56 0
-8751 16 0
-8751 32 0
-8751 54 0
-8751 56 0
-8749 8750 8751 0
-8750 8749 8751 0
-8751 8749 8750 0
8752 -16 -27 -53 -69 0
-8752 16 0
-8752 27 0
-8752 53 0
-8752 69 0
8753 -16 -30 -53 -60 0
-8753 16 0
-8753 30 0
-8753 53 0
-8753 60 0
8754 -16 -33 -53 -57 0
-8754 16 0
-8754 33 0
-8754 53 0
-8754 57 0
-8752 8753 8754 0
-8753 8752 8754 0
-8754 8752 8753 0
8755 -17 -25 -54 -67 0
-8755 17 0
-8755 25 0
-8755 54 0
-8755 67 0
8756 -17 -28 -54 -58 0
-8756 17 0
-8756 28 0
-8756 54 0
-8756 58 0
8757 -17 -31 -54 -55 0
-8757 17 0
-8757 31 0
-8757 54 0
-8757 55 0
-8755 8756 8757 0
-8756 8755 8757 0
-8757 8755 8756 0
8758 -17 -27 -52 -69 0
-8758 17 0
-8758 27 0
-8758 52 0
-8758 69 0
8759 -17 -30 -52 -60 0
-8759 17 0
-8759 30 0
-8759 52 0
-8759 60 0
8760 -17 -33 -52 -57 0
-8760 17 0
-8760 33 0
-8760 52 0
-8760 57 0
-8758 8759 8760 0
-8759 8758 8760 0
-8760 8758 8759 0
8761 -18 -25 -53 -67 0
-8761 18 0
-8761 25 0
-8761 53 0
-8761 67 0
8762 -18 -28 -53 -58 0
-8762 18 0
-8762 28 0
-8762 53 0
-8762 58 0
8763 -18 -31 -53 -55 0
-8763 18 0
-8763 31 0
-8763 53 0
-8763 55 0
-8761 8762 8763 0
-8762 8761 8763 0
-8763 8761 8762 0
8764 -18 -26 -52 -68 0
-8764 18 0
-8764 26 0
-8764 52 0
-8764 68 0
8765 -18 -29 -52 -59 0
-8765 18 0
-8765 29 0
-8765 52 0
-8765 59 0
8766 -18 -32 -52 -56 0
-8766 18 0
-8766 32 0
-8766 52 0
-8766 56 0
-8764 8765 8766 0
-8765 8764 8766 0
-8766 8764 8765 0
8767 -16 -29 -42 -80 0
-8767 16 0
-8767 29 0
-8767 42 0
-8767 80 0
8768 -16 -32 -42 -74 0
-8768 16 0
-8768 32 0
-8768 42 0
-8768 74 0
8769 -16 -38 -42 -68 0
-8769 16 0
-8769 38 0
-8769 42 0
-8769 68 0
-8767 8768 8769 0
-8768 8767 8769 0
-8769 8767 8768 0
8770 -16 -29 -42 -81 0
-8770 16 0
-8770 29 0
-8770 42 0
-8770 81 0
8771 -16 -29 -48 -66 0
-8771 16 0
-8771 29 0
-8771 48 0
-8771 66 0
8772 -16 -29 -54 -60 0
-8772 16 0
-8772 29 0
-8772 54 0
-8772 60 0
-8770 8771 8772 0
-8771 8770 8772 0
-8772 8770 8771 0
8773 -16 -30 -41 -80 0
-8773 16 0
-8773 30 0
-8773 41 0
-8773 80 0
8774 -16 -30 -47 -65 0
-8774 16 0
-8774 30 0
-8774 47 0
-8774 65 0
8775 -16 -30 -53 -59 0
-8775 16 0
-8775 30 0
-8775 53 0
-8775 59 0
-8773 8774 8775 0
-8774 8773 8775 0
-8775 8773 8774 0
8776 -16 -30 -41 -81 0
-8776 16 0
-8776 30 0
-8776 41 0
-8776 81 0
8777 -16 -33 -41 -75 0
-8777 16 0
-8777 33 0
-8777 41 0
-8777 75 0
8778 -16 -39 -41 -69 0
-8778 16 0
-8778 39 0
-8778 41 0
-8778 69 0
-8776 8777 8778 0
-8777 8776 8778 0
-8778 8776 8777 0
8779 -17 -28 -42 -79 0
-8779 17 0
-8779 28 0
-8779 42 0
-8779 79 0
8780 -17 -31 -42 -73 0
-8780 17 0
-8780 31 0
-8780 42 0
-8780 73 0
8781 -17 -37 -42 -67 0
-8781 17 0
-8781 37 0
-8781 42 0
-8781 67 0
-8779 8780 8781 0
-8780 8779 8781 0
-8781 8779 8780 0
8782 -17 -28 -42 -81 0
-8782 17 0
-8782 28 0
-8782 42 0
-8782 81 0
8783 -17 -28 -48 -66 0
-8783 17 0
-8783 28 0
-8783 48 0
-8783 66 0
8784 -17 -28 -54 -60 0
-8784 17 0
-8784 28 0
-8784 54 0
-8784 60 0
-8782 8783 8784 0
-8783 8782 8784 0
-8784 8782 8783 0
8785 -17 -30 -40 -79 0
-8785 17 0
-8785 30 0
-8785 40 0
-8785 79 0
8786 -17 -30 -46 -64 0
-8786 17 0
-8786 30 0
-8786 46 0
-8786 64 0
8787 -17 -30 -52 -58 0
-8787 17 0
-8787 30 0
-8787 52 0
-8787 58 0
-8785 8786 8787 0
-8786 8785 8787 0
-8787 8785 8786 0
8788 -17 -30 -40 -81 0
-8788 17 0
-8788 30 0
-8788 40 0
-8788 81 0
8789 -17 -33 -40 -75 0
-8789 17 0
-8789 33 0
-8789 40 0
-8789 75 0
8790 -17 -39 -40 -69 0
-8790 17 0
-8790 39 0
-8790 40 0
-8790 69 0
-8788 8789 8790 0
-8789 8788 8790 0
-8790 8788 8789 0
8791 -18 -28 -41 -79 0
-8791 18 0
-8791 28 0
-8791 41 0
-8791 79 0
8792 -18 -31 -41 -73 0
-8792 18 0
-8792 31 0
-8792 41 0
-8792 73 0
8793 -18 -37 -41 -67 0
-8793 18 0
-8793 37 0
-8793 41 0
-8793 67 0
-8791 8792 8793 0
-8792 8791 8793 0
-8793 8791 8792 0
8794 -18 -28 -41 -80 0
-8794 18 0
-8794 28 0
-8794 41 0
-8794 80 0
8795 -18 -28 -47 -65 0
-8795 18 0
-8795 28 0
-8795 47 0
-8795 65 0
8796 -18 -28 -53 -59 0
-8796 18 0
-8796 28 0
-8796 53 0
-8796 59 0
-8794 8795 8796 0
-8795 8794 8796 0
-8796 8794 8795 0
8797 -18 -29 -40 -79 0
-8797 18 0
-8797 29 0
-8797 40 0
-8797 79 0
8798 -18 -29 -46 -64 0
-8798 18 0
-8798 29 0
-8798 46 0
-8798 64 0
8799 -18 -29 -52 -58 0
-8799 18 0
-8799 29 0
-8799 52 0
-8799 58 0
-8797 8798 8799 0
-8798 8797 8799 0
-8799 8797 8798 0
8800 -18 -29 -40 -80 0
-8800 18 0
-8800 29 0
-8800 40 0
-8800 80 0
8801 -18 -32 -40 -74 0
-8801 18 0
-8801 32 0
-8801 40 0
-8801 74 0
8802 -18 -38 -40 -68 0
-8802 18 0
-8802 38 0
-8802 40 0
-8802 68 0
-8800 8801 8802 0
-8801 8800 8802 0
-8802 8800 8801 0
8803 -16 -32 -42 -75 0
-8803 16 0
-8803 32 0
-8803 42 0
-8803 75 0
8804 -16 -32 -45 -66 0
-8804 16 0
-8804 32 0
-8804 45 0
-8804 66 0
8805 -16 -32 -54 -57 0
-8805 16 0
-8805 32 0
-8805 54 0
-8805 57 0
-8803 8804 8805 0
-8804 8803 8805 0
-8805 8803 8804 0
8806 -16 -33 -41 -74 0
-8806 16 0
-8806 33 0
-8806 41 0
-8806 74 0
8807 -16 -33 -44 -65 0
-8807 16 0
-8807 33 0
-8807 44 0
-8807 65 0
8808 -16 -33 -53 -56 0
-8808 16 0
-8808 33 0
-8808 53 0
-8808 56 0
-8806 8807 8808 0
-8807 8806 8808 0
-8808 8806 8807 0
8809 -17 -31 -42 -75 0
-8809 17 0
-8809 31 0
-8809 42 0
-8809 75 0
8810 -17 -31 -45 -66 0
-8810 17 0
-8810 31 0
-8810 45 0
-8810 66 0
8811 -17 -31 -54 -57 0
-8811 17 0
-8811 31 0
-8811 54 0
-8811 57 0
-8809 8810 8811 0
-8810 8809 8811 0
-8811 8809 8810 0
8812 -17 -33 -40 -73 0
-8812 17 0
-8812 33 0
-8812 40 0
-8812 73 0
8813 -17 -33 -43 -64 0
-8813 17 0
-8813 33 0
-8813 43 0
-8813 64 0
8814 -17 -33 -52 -55 0
-8814 17 0
-8814 33 0
-8814 52 0
-8814 55 0
-8812 8813 8814 0
-8813 8812 8814 0
-8814 8812 8813 0
8815 -18 -31 -41 -74 0
-8815 18 0
-8815 31 0
-8815 41 0
-8815 74 0
8816 -18 -31 -44 -65 0
-8816 18 0
-8816 31 0
-8816 44 0
-8816 65 0
8817 -18 -31 -53 -56 0
-8817 18 0
-8817 31 0
-8817 53 0
-8817 56 0
-8815 8816 8817 0
-8816 8815 8817 0
-8817 8815 8816 0
8818 -18 -32 -40 -73 0
-8818 18 0
-8818 32 0
-8818 40 0
-8818 73 0
8819 -18 -32 -43 -64 0
-8819 18 0
-8819 32 0
-8819 43 0
-8819 64 0
8820 -18 -32 -52 -55 0
-8820 18 0
-8820 32 0
-8820 52 0
-8820 55 0
-8818 8819 8820 0
-8819 8818 8820 0
-8820 8818 8819 0
8821 -16 -38 -42 -69 0
-8821 16 0
-8821 38 0
-8821 42 0
-8821 69 0
8822 -16 -38 -45 -60 0
-8822 16 0
-8822 38 0
-8822 45 0
-8822 60 0
8823 -16 -38 -48 -57 0
-8823 16 0
-8823 38 0
-8823 48 0
-8823 57 0
-8821 8822 8823 0
-8822 8821 8823 0
-8823 8821 8822 0
8824 -16 -39 -41 -68 0
-8824 16 0
-8824 39 0
-8824 41 0
-8824 68 0
8825 -16 -39 -44 -59 0
-8825 16 0
-8825 39 0
-8825 44 0
-8825 59 0
8826 -16 -39 -47 -56 0
-8826 16 0
-8826 39 0
-8826 47 0
-8826 56 0
-8824 8825 8826 0
-8825 8824 8826 0
-8826 8824 8825 0
8827 -17 -37 -42 -69 0
-8827 17 0
-8827 37 0
-8827 42 0
-8827 69 0
8828 -17 -37 -45 -60 0
-8828 17 0
-8828 37 0
-8828 45 0
-8828 60 0
8829 -17 -37 -48 -57 0
-8829 17 0
-8829 37 0
-8829 48 0
-8829 57 0
-8827 8828 8829 0
-8828 8827 8829 0
-8829 8827 8828 0
8830 -17 -39 -40 -67 0
-8830 17 0
-8830 39 0
-8830 40 0
-8830 67 0
8831 -17 -39 -43 -58 0
-8831 17 0
-8831 39 0
-8831 43 0
-8831 58 0
8832 -17 -39 -46 -55 0
-8832 17 0
-8832 39 0
-8832 46 0
-8832 55 0
-8830 8831 8832 0
-8831 8830 8832 0
-8832 8830 8831 0
8833 -18 -37 -41 -68 0
-8833 18 0
-8833 37 0
-8833 41 0
-8833 68 0
8834 -18 -37 -44 -59 0
-8834 18 0
-8834 37 0
-8834 44 0
-8834 59 0
8835 -18 -37 -47 -56 0
-8835 18 0
-8835 37 0
-8835 47 0
-8835 56 0
-8833 8834 8835 0
-8834 8833 8835 0
-8835 8833 8834 0
8836 -18 -38 -40 -67 0
-8836 18 0
-8836 38 0
-8836 40 0
-8836 67 0
8837 -18 -38 -43 -58 0
-8837 18 0
-8837 38 0
-8837 43 0
-8837 58 0
8838 -18 -38 -46 -55 0
-8838 18 0
-8838 38 0
-8838 46 0
-8838 55 0
-8836 8837 8838 0
-8837 8836 8838 0
-8838 8836 8837 0
8839 -19 -23 -56 -77 0
-8839 19 0
-8839 23 0
-8839 56 0
-8839 77 0
8840 -19 -23 -59 -71 0
-8840 19 0
-8840 23 0
-8840 59 0
-8840 71 0
8841 -19 -23 -62 -68 0
-8841 19 0
-8841 23 0
-8841 62 0
-8841 68 0
8842 -19 -26 -44 -77 0
-8842 19 0
-8842 26 0
-8842 44 0
-8842 77 0
8843 -19 -26 -47 -71 0
-8843 19 0
-8843 26 0
-8843 47 0
-8843 71 0
8844 -19 -26 -50 -68 0
-8844 19 0
-8844 26 0
-8844 50 0
-8844 68 0
8845 -19 -29 -41 -77 0
-8845 19 0
-8845 29 0
-8845 41 0
-8845 77 0
8846 -19 -29 -47 -62 0
-8846 19 0
-8846 29 0
-8846 47 0
-8846 62 0
8847 -19 -29 -50 -59 0
-8847 19 0
-8847 29 0
-8847 50 0
-8847 59 0
8848 -19 -32 -41 -71 0
-8848 19 0
-8848 32 0
-8848 41 0
-8848 71 0
8849 -19 -32 -44 -62 0
-8849 19 0
-8849 32 0
-8849 44 0
-8849 62 0
8850 -19 -32 -50 -56 0
-8850 19 0
-8850 32 0
-8850 50 0
-8850 56 0
8851 -19 -35 -41 -68 0
-8851 19 0
-8851 35 0
-8851 41 0
-8851 68 0
8852 -19 -35 -44 -59 0
-8852 19 0
-8852 35 0
-8852 44 0
-8852 59 0
8853 -19 -35 -47 -56 0
-8853 19 0
-8853 35 0
-8853 47 0
-8853 56 0
-8839 8840 8841 8842 8843 8844 8845 8846 8847 8848 8849 8850 8851 8852 8853 0
-8840 8839 8841 8842 8843 8844 8845 8846 8847 8848 8849 8850 8851 8852 8853 0
-8841 8839 8840 8842 8843 8844 8845 8846 8847 8848 8849 8850 8851 8852 8853 0
-8842 8839 8840 8841 8843 8844 8845 8846 8847 8848 8849 8850 8851 8852 8853 0
-8843 8839 8840 8841 8842 8844 8845 8846 8847 8848 8849 8850 8851 8852 8853 0
-8844 8839 8840 8841 8842 8843 8845 8846 8847 8848 8849 8850 8851 8852 8853 0
-8845 8839 8840 8841 8842 8843 8844 8846 8847 8848 8849 8850 8851 8852 8853 0
-8846 8839 8840 8841 8842 8843 8844 8845 8847 8848 8849 8850 8851 8852 8853 0
-8847 8839 8840 8841 8842 8843 8844 8845 8846 8848 8849 8850 8851 8852 8853 0
-8848 8839 8840 8841 8842 8843 8844 8845 8846 8847 8849 8850 8851 8852 8853 0
-8849 8839 8840 8841 8842 8843 8844 8845 8846 8847 8848 8850 8851 8852 8853 0
-8850 8839 8840 8841 8842 8843 8844 8845 8846 8847 8848 8849 8851 8852 8853 0
-8851 8839 8840 8841 8842 8843 8844 8845 8846 8847 8848 8849 8850 8852 8853 0
-8852 8839 8840 8841 8842 8843 8844 8845 8846 8847 8848 8849 8850 8851 8853 0
-8853 8839 8840 8841 8842 8843 8844 8845 8846 8847 8848 8849 8850 8851 8852 0
8854 -19 -23 -56 -78 0
-8854 19 0
-8854 23 0
-8854 56 0
-8854 78 0
8855 -19 -26 -44 -78 0
-8855 19 0
-8855 26 0
-8855 44 0
-8855 78 0
8856 -19 -29 -41 -78 0
-8856 19 0
-8856 29 0
-8856 41 0
-8856 78 0
-8854 8855 8856 0
-8855 8854 8856 0
-8856 8854 8855 0
8857 -19 -23 -57 -77 0
-8857 19 0
-8857 23 0
-8857 57 0
-8857 77 0
8858 -19 -32 -50 -57 0
-8858 19 0
-8858 32 0
-8858 50 0
-8858 57 0
8859 -19 -35 -47 -57 0
-8859 19 0
-8859 35 0
-8859 47 0
-8859 57 0
-8857 8858 8859 0
-8858 8857 8859 0
-8859 8857 8858 0
8860 -19 -23 -57 -78 0
-8860 19 0
-8860 23 0
-8860 57 0
-8860 78 0
8861 -19 -23 -60 -72 0
-8861 19 0
-8861 23 0
-8861 60 0
-8861 72 0
8862 -19 -23 -63 -69 0
-8862 19 0
-8862 23 0
-8862 63 0
-8862 69 0
-8860 8861 8862 0
-8861 8860 8862 0
-8862 8860 8861 0
8863 -19 -24 -56 -77 0
-8863 19 0
-8863 24 0
-8863 56 0
-8863 77 0
8864 -19 -24 -59 -71 0
-8864 19 0
-8864 24 0
-8864 59 0
-8864 71 0
8865 -19 -24 -62 -68 0
-8865 19 0
-8865 24 0
-8865 62 0
-8865 68 0
-8863 8864 8865 0
-8864 8863 8865 0
-8865 8863 8864 0
8866 -19 -24 -56 -78 0
-8866 19 0
-8866 24 0
-8866 56 0
-8866 78 0
8867 -19 -33 -51 -56 0
-8867 19 0
-8867 33 0
-8867 51 0
-8867 56 0
8868 -19 -36 -48 -56 0
-8868 19 0
-8868 36 0
-8868 48 0
-8868 56 0
-8866 8867 8868 0
-8867 8866 8868 0
-8868 8866 8867 0
8869 -19 -24 -57 -77 0
-8869 19 0
-8869 24 0
-8869 57 0
-8869 77 0
8870 -19 -27 -45 -77 0
-8870 19 0
-8870 27 0
-8870 45 0
-8870 77 0
8871 -19 -30 -42 -77 0
-8871 19 0
-8871 30 0
-8871 42 0
-8871 77 0
-8869 8870 8871 0
-8870 8869 8871 0
-8871 8869 8870 0
8872 -19 -24 -57 -78 0
-8872 19 0
-8872 24 0
-8872 57 0
-8872 78 0
8873 -19 -24 -60 -72 0
-8873 19 0
-8873 24 0
-8873 60 0
-8873 72 0
8874 -19 -24 -63 -69 0
-8874 19 0
-8874 24 0
-8874 63 0
-8874 69 0
8875 -19 -27 -45 -78 0
-8875 19 0
-8875 27 0
-8875 45 0
-8875 78 0
8876 -19 -27 -48 -72 0
-8876 19 0
-8876 27 0
-8876 48 0
-8876 72 0
8877 -19 -27 -51 -69 0
-8877 19 0
-8877 27 0
-8877 51 0
-8877 69 0
8878 -19 -30 -42 -78 0
-8878 19 0
-8878 30 0
-8878 42 0
-8878 78 0
8879 -19 -30 -48 -63 0
-8879 19 0
-8879 30 0
-8879 48 0
-8879 63 0
8880 -19 -30 -51 -60 0
-8880 19 0
-8880 30 0
-8880 51 0
-8880 60 0
8881 -19 -33 -42 -72 0
-8881 19 0
-8881 33 0
-8881 42 0
-8881 72 0
8882 -19 -33 -45 -63 0
-8882 19 0
-8882 33 0
-8882 45 0
-8882 63 0
8883 -19 -33 -51 -57 0
-8883 19 0
-8883 33 0
-8883 51 0
-8883 57 0
8884 -19 -36 -42 -69 0
-8884 19 0
-8884 36 0
-8884 42 0
-8884 69 0
8885 -19 -36 -45 -60 0
-8885 19 0
-8885 36 0
-8885 45 0
-8885 60 0
8886 -19 -36 -48 -57 0
-8886 19 0
-8886 36 0
-8886 48 0
-8886 57 0
-8872 8873 8874 8875 8876 8877 8878 8879 8880 8881 8882 8883 8884 8885 8886 0
-8873 8872 8874 8875 8876 8877 8878 8879 8880 8881 8882 8883 8884 8885 8886 0
-8874 8872 8873 8875 8876 8877 8878 8879 8880 8881 8882 8883 8884 8885 8886 0
-8875 8872 8873 8874 8876 8877 8878 8879 8880 8881 8882 8883 8884 8885 8886 0
-8876 8872 8873 8874 8875 8877 8878 8879 8880 8881 8882 8883 8884 8885 8886 0
-8877 8872 8873 8874 8875 8876 8878 8879 8880 8881 8882 8883 8884 8885 8886 0
-8878 8872 8873 8874 8875 8876 8877 8879 8880 8881 8882 8883 8884 8885 8886 0
-8879 8872 8873 8874 8875 8876 8877 8878 8880 8881 8882 8883 8884 8885 8886 0
-8880 8872 8873 8874 8875 8876 8877 8878 8879 8881 8882 8883 8884 8885 8886 0
-8881 8872 8873 8874 8875 8876 8877 8878 8879 8880 8882 8883 8884 8885 8886 0
-8882 8872 8873 8874 8875 8876 8877 8878 8879 8880 8881 8883 8884 8885 8886 0
-8883 8872 8873 8874 8875 8876 8877 8878 8879 8880 8881 8882 8884 8885 8886 0
-8884 8872 8873 8874 8875 8876 8877 8878 8879 8880 8881 8882 8883 8885 8886 0
-8885 8872 8873 8874 8875 8876 8877 8878 8879 8880 8881 8882 8883 8884 8886 0
-8886 8872 8873 8874 8875 8876 8877 8878 8879 8880 8881 8882 8883 8884 8885 0
8887 -20 -22 -55 -76 0
-8887 20 0
-8887 22 0
-8887 55 0
-8887 76 0
8888 -20 -22 -58 -70 0
-8888 20 0
-8888 22 0
-8888 58 0
-8888 70 0
8889 -20 -22 -61 -67 0
-8889 20 0
-8889 22 0
-8889 61 0
-8889 67 0
8890 -20 -25 -43 -76 0
-8890 20 0
-8890 25 0
-8890 43 0
-8890 76 0
8891 -20 -25 -46 -70 0
-8891 20 0
-8891 25 0
-8891 46 0
-8891 70 0
8892 -20 -25 -49 -67 0
-8892 20 0
-8892 25 0
-8892 49 0
-8892 67 0
8893 -20 -28 -40 -76 0
-8893 20 0
-8893 28 0
-8893 40 0
-8893 76 0
8894 -20 -28 -46 -61 0
-8894 20 0
-8894 28 0
-8894 46 0
-8894 61 0
8895 -20 -28 -49 -58 0
-8895 20 0
-8895 28 0
-8895 49 0
-8895 58 0
8896 -20 -31 -40 -70 0
-8896 20 0
-8896 31 0
-8896 40 0
-8896 70 0
8897 -20 -31 -43 -61 0
-8897 20 0
-8897 31 0
-8897 43 0
-8897 61 0
8898 -20 -31 -49 -55 0
-8898 20 0
-8898 31 0
-8898 49 0
-8898 55 0
8899 -20 -34 -40 -67 0
-8899 20 0
-8899 34 0
-8899 40 0
-8899 67 0
8900 -20 -34 -43 -58 0
-8900 20 0
-8900 34 0
-8900 43 0
-8900 58 0
8901 -20 -34 -46 -55 0
-8901 20 0
-8901 34 0
-8901 46 0
-8901 55 0
-8887 8888 8889 8890 8891 8892 8893 8894 8895 8896 8897 8898 8899 8900 8901 0
-8888 8887 8889 8890 8891 8892 8893 8894 8895 8896 8897 8898 8899 8900 8901 0
-8889 8887 8888 8890 8891 8892 8893 8894 8895 8896 8897 8898 8899 8900 8901 0
-8890 8887 8888 8889 8891 8892 8893 8894 8895 8896 8897 8898 8899 8900 8901 0
-8891 8887 8888 8889 8890 8892 8893 8894 8895 8896 8897 8898 8899 8900 8901 0
-8892 8887 8888 8889 8890 8891 8893 8894 8895 8896 8897 8898 8899 8900 8901 0
-8893 8887 8888 8889 8890 8891 8892 8894 8895 8896 8897 8898 8899 8900 8901 0
-8894 8887 8888 8889 8890 8891 8892 8893 8895 8896 8897 8898 8899 8900 8901 0
-8895 8887 8888 8889 8890 8891 8892 8893 8894 8896 8897 8898 8899 8900 8901 0
-8896 8887 8888 8889 8890 8891 8892 8893 8894 8895 8897 8898 8899 8900 8901 0
-8897 8887 8888 8889 8890 8891 8892 8893 8894 8895 8896 8898 8899 8900 8901 0
-8898 8887 8888 8889 8890 8891 8892 8893 8894 8895 8896 8897 8899 8900 8901 0
-8899 8887 8888 8889 8890 8891 8892 8893 8894 8895 8896 8897 8898 8900 8901 0
-8900 8887 8888 8889 8890 8891 8892 8893 8894 8895 8896 8897 8898 8899 8901 0
-8901 8887 8888 8889 8890 8891 8892 8893 8894 8895 8896 8897 8898 8899 8900 0
8902 -20 -22 -55 -78 0
-8902 20 0
-8902 22 0
-8902 55 0
-8902 78 0
8903 -20 -25 -43 -78 0
-8903 20 0
-8903 25 0
-8903 43 0
-8903 78 0
8904 -20 -28 -40 -78 0
-8904 20 0
-8904 28 0
-8904 40 0
-8904 78 0
-8902 8903 8904 0
-8903 8902 8904 0
-8904 8902 8903 0
8905 -20 -22 -57 -76 0
-8905 20 0
-8905 22 0
-8905 57 0
-8905 76 0
8906 -20 -31 -49 -57 0
-8906 20 0
-8906 31 0
-8906 49 0
-8906 57 0
8907 -20 -34 -46 -57 0
-8907 20 0
-8907 34 0
-8907 46 0
-8907 57 0
-8905 8906 8907 0
-8906 8905 8907 0
-8907 8905 8906 0
8908 -20 -22 -57 -78 0
-8908 20 0
-8908 22 0
-8908 57 0
-8908 78 0
8909 -20 -22 -60 -72 0
-8909 20 0
-8909 22 0
-8909 60 0
-8909 72 0
8910 -20 -22 -63 -69 0
-8910 20 0
-8910 22 0
-8910 63 0
-8910 69 0
-8908 8909 8910 0
-8909 8908 8910 0
-8910 8908 8909 0
8911 -20 -24 -55 -76 0
-8911 20 0
-8911 24 0
-8911 55 0
-8911 76 0
8912 -20 -24 -58 -70 0
-8912 20 0
-8912 24 0
-8912 58 0
-8912 70 0
8913 -20 -24 -61 -67 0
-8913 20 0
-8913 24 0
-8913 61 0
-8913 67 0
-8911 8912 8913 0
-8912 8911 8913 0
-8913 8911 8912 0
8914 -20 -24 -55 -78 0
-8914 20 0
-8914 24 0
-8914 55 0
-8914 78 0
8915 -20 -33 -51 -55 0
-8915 20 0
-8915 33 0
-8915 51 0
-8915 55 0
8916 -20 -36 -48 -55 0
-8916 20 0
-8916 36 0
-8916 48 0
-8916 55 0
-8914 8915 8916 0
-8915 8914 8916 0
-8916 8914 8915 0
8917 -20 -24 -57 -76 0
-8917 20 0
-8917 24 0
-8917 57 0
-8917 76 0
8918 -20 -27 -45 -76 0
-8918 20 0
-8918 27 0
-8918 45 0
-8918 76 0
8919 -20 -30 -42 -76 0
-8919 20 0
-8919 30 0
-8919 42 0
-8919 76 0
-8917 8918 8919 0
-8918 8917 8919 0
-8919 8917 8918 0
8920 -20 -24 -57 -78 0
-8920 20 0
-8920 24 0
-8920 57 0
-8920 78 0
8921 -20 -24 -60 -72 0
-8921 20 0
-8921 24 0
-8921 60 0
-8921 72 0
8922 -20 -24 -63 -69 0
-8922 20 0
-8922 24 0
-8922 63 0
-8922 69 0
8923 -20 -27 -45 -78 0
-8923 20 0
-8923 27 0
-8923 45 0
-8923 78 0
8924 -20 -27 -48 -72 0
-8924 20 0
-8924 27 0
-8924 48 0
-8924 72 0
8925 -20 -27 -51 -69 0
-8925 20 0
-8925 27 0
-8925 51 0
-8925 69 0
8926 -20 -30 -42 -78 0
-8926 20 0
-8926 30 0
-8926 42 0
-8926 78 0
8927 -20 -30 -48 -63 0
-8927 20 0
-8927 30 0
-8927 48 0
-8927 63 0
8928 -20 -30 -51 -60 0
-8928 20 0
-8928 30 0
-8928 51 0
-8928 60 0
8929 -20 -33 -42 -72 0
-8929 20 0
-8929 33 0
-8929 42 0
-8929 72 0
8930 -20 -33 -45 -63 0
-8930 20 0
-8930 33 0
-8930 45 0
-8930 63 0
8931 -20 -33 -51 -57 0
-8931 20 0
-8931 33 0
-8931 51 0
-8931 57 0
8932 -20 -36 -42 -69 0
-8932 20 0
-8932 36 0
-8932 42 0
-8932 69 0
8933 -20 -36 -45 -60 0
-8933 20 0
-8933 36 0
-8933 45 0
-8933 60 0
8934 -20 -36 -48 -57 0
-8934 20 0
-8934 36 0
-8934 48 0
-8934 57 0
-8920 8921 8922 8923 8924 8925 8926 8927 8928 8929 8930 8931 8932 8933 8934 0
-8921 8920 8922 8923 8924 8925 8926 8927 8928 8929 8930 8931 8932 8933 8934 0
-8922 8920 8921 8923 8924 8925 8926 8927 8928 8929 8930 8931 8932 8933 8934 0
-8923 8920 8921 8922 8924 8925 8926 8927 8928 8929 8930 8931 8932 8933 8934 0
-8924 8920 8921 8922 8923 8925 8926 8927 8928 8929 8930 8931 8932 8933 8934 0
-8925 8920 8921 8922 8923 8924 8926 8927 8928 8929 8930 8931 8932 8933 8934 0
-8926 8920 8921 8922 8923 8924 8925 8927 8928 8929 8930 8931 8932 8933 8934 0
-8927 8920 8921 8922 8923 8924 8925 8926 8928 8929 8930 8931 8932 8933 8934 0
-8928 8920 8921 8922 8923 8924 8925 8926 8927 8929 8930 8931 8932 8933 8934 0
-8929 8920 8921 8922 8923 8924 8925 8926 8927 8928 8930 8931 8932 8933 8934 0
-8930 8920 8921 8922 8923 8924 8925 8926 8927 8928 8929 8931 8932 8933 8934 0
-8931 8920 8921 8922 8923 8924 8925 8926 8927 8928 8929 8930 8932 8933 8934 0
-8932 8920 8921 8922 8923 8924 8925 8926 8927 8928 8929 8930 8931 8933 8934 0
-8933 8920 8921 8922 8923 8924 8925 8926 8927 8928 8929 8930 8931 8932 8934 0
-8934 8920 8921 8922 8923 8924 8925 8926 8927 8928 8929 8930 8931 8932 8933 0
8935 -21 -22 -55 -76 0
-8935 21 0
-8935 22 0
-8935 55 0
-8935 76 0
8936 -21 -22 -58 -70 0
-8936 21 0
-8936 22 0
-8936 58 0
-8936 70 0
8937 -21 -22 -61 -67 0
-8937 21 0
-8937 22 0
-8937 61 0
-8937 67 0
8938 -21 -25 -43 -76 0
-8938 21 0
-8938 25 0
-8938 43 0
-8938 76 0
8939 -21 -25 -46 -70 0
-8939 21 0
-8939 25 0
-8939 46 0
-8939 70 0
8940 -21 -25 -49 -67 0
-8940 21 0
-8940 25 0
-8940 49 0
-8940 67 0
8941 -21 -28 -40 -76 0
-8941 21 0
-8941 28 0
-8941 40 0
-8941 76 0
8942 -21 -28 -46 -61 0
-8942 21 0
-8942 28 0
-8942 46 0
-8942 61 0
8943 -21 -28 -49 -58 0
-8943 21 0
-8943 28 0
-8943 49 0
-8943 58 0
8944 -21 -31 -40 -70 0
-8944 21 0
-8944 31 0
-8944 40 0
-8944 70 0
8945 -21 -31 -43 -61 0
-8945 21 0
-8945 31 0
-8945 43 0
-8945 61 0
8946 -21 -31 -49 -55 0
-8946 21 0
-8946 31 0
-8946 49 0
-8946 55 0
8947 -21 -34 -40 -67 0
-8947 21 0
-8947 34 0
-8947 40 0
-8947 67 0
8948 -21 -34 -43 -58 0
-8948 21 0
-8948 34 0
-8948 43 0
-8948 58 0
8949 -21 -34 -46 -55 0
-8949 21 0
-8949 34 0
-8949 46 0
-8949 55 0
-8935 8936 8937 8938 8939 8940 8941 8942 8943 8944 8945 8946 8947 8948 8949 0
-8936 8935 8937 8938 8939 8940 8941 8942 8943 8944 8945 8946 8947 8948 8949 0
-8937 8935 8936 8938 8939 8940 8941 8942 8943 8944 8945 8946 8947 8948 8949 0
-8938 8935 8936 8937 8939 8940 8941 8942 8943 8944 8945 8946 8947 8948 8949 0
-8939 8935 8936 8937 8938 8940 8941 8942 8943 8944 8945 8946 8947 8948 8949 0
-8940 8935 8936 8937 8938 8939 8941 8942 8943 8944 8945 8946 8947 8948 8949 0
-8941 8935 8936 8937 8938 8939 8940 8942 8943 8944 8945 8946 8947 8948 8949 0
-8942 8935 8936 8937 8938 8939 8940 8941 8943 8944 8945 8946 8947 8948 8949 0
-8943 8935 8936 8937 8938 8939 8940 8941 8942 8944 8945 8946 8947 8948 8949 0
-8944 8935 8936 8937 8938 8939 8940 8941 8942 8943 8945 8946 8947 8948 8949 0
-8945 8935 8936 8937 8938 8939 8940 8941 8942 8943 8944 8946 8947 8948 8949 0
-8946 8935 8936 8937 8938 8939 8940 8941 8942 8943 8944 8945 8947 8948 8949 0
-8947 8935 8936 8937 8938 8939 8940 8941 8942 8943 8944 8945 8946 8948 8949 0
-8948 8935 8936 8937 8938 8939 8940 8941 8942 8943 8944 8945 8946 8947 8949 0
-8949 8935 8936 8937 8938 8939 8940 8941 8942 8943 8944 8945 8946 8947 8948 0
8950 -21 -22 -55 -77 0
-8950 21 0
-8950 22 0
-8950 55 0
-8950 77 0
8951 -21 -25 -43 -77 0
-8951 21 0
-8951 25 0
-8951 43 0
-8951 77 0
8952 -21 -28 -40 -77 0
-8952 21 0
-8952 28 0
-8952 40 0
-8952 77 0
-8950 8951 8952 0
-8951 8950 8952 0
-8952 8950 8951 0
8953 -21 -22 -56 -76 0
-8953 21 0
-8953 22 0
-8953 56 0
-8953 76 0
8954 -21 -31 -49 -56 0
-8954 21 0
-8954 31 0
-8954 49 0
-8954 56 0
8955 -21 -34 -46 -56 0
-8955 21 0
-8955 34 0
-8955 46 0
-8955 56 0
-8953 8954 8955 0
-8954 8953 8955 0
-8955 8953 8954 0
8956 -21 -22 -56 -77 0
-8956 21 0
-8956 22 0
-8956 56 0
-8956 77 0
8957 -21 -22 -59 -71 0
-8957 21 0
-8957 22 0
-8957 59 0
-8957 71 0
8958 -21 -22 -62 -68 0
-8958 21 0
-8958 22 0
-8958 62 0
-8958 68 0
-8956 8957 8958 0
-8957 8956 8958 0
-8958 8956 8957 0
8959 -21 -23 -55 -76 0
-8959 21 0
-8959 23 0
-8959 55 0
-8959 76 0
8960 -21 -23 -58 -70 0
-8960 21 0
-8960 23 0
-8960 58 0
-8960 70 0
8961 -21 -23 -61 -67 0
-8961 21 0
-8961 23 0
-8961 61 0
-8961 67 0
-8959 8960 8961 0
-8960 8959 8961 0
-8961 8959 8960 0
8962 -21 -23 -55 -77 0
-8962 21 0
-8962 23 0
-8962 55 0
-8962 77 0
8963 -21 -32 -50 -55 0
-8963 21 0
-8963 32 0
-8963 50 0
-8963 55 0
8964 -21 -35 -47 -55 0
-8964 21 0
-8964 35 0
-8964 47 0
-8964 55 0
-8962 8963 8964 0
-8963 8962 8964 0
-8964 8962 8963 0
8965 -21 -23 -56 -76 0
-8965 21 0
-8965 23 0
-8965 56 0
-8965 76 0
8966 -21 -26 -44 -76 0
-8966 21 0
-8966 26 0
-8966 44 0
-8966 76 0
8967 -21 -29 -41 -76 0
-8967 21 0
-8967 29 0
-8967 41 0
-8967 76 0
-8965 8966 8967 0
-8966 8965 8967 0
-8967 8965 8966 0
8968 -21 -23 -56 -77 0
-8968 21 0
-8968 23 0
-8968 56 0
-8968 77 0
8969 -21 -23 -59 -71 0
-8969 21 0
-8969 23 0
-8969 59 0
-8969 71 0
8970 -21 -23 -62 -68 0
-8970 21 0
-8970 23 0
-8970 62 0
-8970 68 0
8971 -21 -26 -44 -77 0
-8971 21 0
-8971 26 0
-8971 44 0
-8971 77 0
8972 -21 -26 -47 -71 0
-8972 21 0
-8972 26 0
-8972 47 0
-8972 71 0
8973 -21 -26 -50 -68 0
-8973 21 0
-8973 26 0
-8973 50 0
-8973 68 0
8974 -21 -29 -41 -77 0
-8974 21 0
-8974 29 0
-8974 41 0
-8974 77 0
8975 -21 -29 -47 -62 0
-8975 21 0
-8975 29 0
-8975 47 0
-8975 62 0
8976 -21 -29 -50 -59 0
-8976 21 0
-8976 29 0
-8976 50 0
-8976 59 0
8977 -21 -32 -41 -71 0
-8977 21 0
-8977 32 0
-8977 41 0
-8977 71 0
8978 -21 -32 -44 -62 0
-8978 21 0
-8978 32 0
-8978 44 0
-8978 62 0
8979 -21 -32 -50 -56 0
-8979 21 0
-8979 32 0
-8979 50 0
-8979 56 0
8980 -21 -35 -41 -68 0
-8980 21 0
-8980 35 0
-8980 41 0
-8980 68 0
8981 -21 -35 -44 -59 0
-8981 21 0
-8981 35 0
-8981 44 0
-8981 59 0
8982 -21 -35 -47 -56 0
-8982 21 0
-8982 35 0
-8982 47 0
-8982 56 0
-8968 8969 8970 8971 8972 8973 8974 8975 8976 8977 8978 8979 8980 8981 8982 0
-8969 8968 8970 8971 8972 8973 8974 8975 8976 8977 8978 8979 8980 8981 8982 0
-8970 8968 8969 8971 8972 8973 8974 8975 8976 8977 8978 8979 8980 8981 8982 0
-8971 8968 8969 8970 8972 8973 8974 8975 8976 8977 8978 8979 8980 8981 8982 0
-8972 8968 8969 8970 8971 8973 8974 8975 8976 8977 8978 8979 8980 8981 8982 0
-8973 8968 8969 8970 8971 8972 8974 8975 8976 8977 8978 8979 8980 8981 8982 0
-8974 8968 8969 8970 8971 8972 8973 8975 8976 8977 8978 8979 8980 8981 8982 0
-8975 8968 8969 8970 8971 8972 8973 8974 8976 8977 8978 8979 8980 8981 8982 0
-8976 8968 8969 8970 8971 8972 8973 8974 8975 8977 8978 8979 8980 8981 8982 0
-8977 8968 8969 8970 8971 8972 8973 8974 8975 8976 8978 8979 8980 8981 8982 0
-8978 8968 8969 8970 8971 8972 8973 8974 8975 8976 8977 8979 8980 8981 8982 0
-8979 8968 8969 8970 8971 8972 8973 8974 8975 8976 8977 8978 8980 8981 8982 0
-8980 8968 8969 8970 8971 8972 8973 8974 8975 8976 8977 8978 8979 8981 8982 0
-8981 8968 8969 8970 8971 8972 8973 8974 8975 8976 8977 8978 8979 8980 8982 0
-8982 8968 8969 8970 8971 8972 8973 8974 8975 8976 8977 8978 8979 8980 8981 0
8983 -19 -23 -59 -72 0
-8983 19 0
-8983 23 0
-8983 59 0
-8983 72 0
8984 -19 -26 -47 -72 0
-8984 19 0
-8984 26 0
-8984 47 0
-8984 72 0
8985 -19 -32 -41 -72 0
-8985 19 0
-8985 32 0
-8985 41 0
-8985 72 0
-8983 8984 8985 0
-8984 8983 8985 0
-8985 8983 8984 0
8986 -19 -23 -60 -71 0
-8986 19 0
-8986 23 0
-8986 60 0
-8986 71 0
8987 -19 -29 -50 -60 0
-8987 19 0
-8987 29 0
-8987 50 0
-8987 60 0
8988 -19 -35 -44 -60 0
-8988 19 0
-8988 35 0
-8988 44 0
-8988 60 0
-8986 8987 8988 0
-8987 8986 8988 0
-8988 8986 8987 0
8989 -19 -24 -59 -72 0
-8989 19 0
-8989 24 0
-8989 59 0
-8989 72 0
8990 -19 -30 -51 -59 0
-8990 19 0
-8990 30 0
-8990 51 0
-8990 59 0
8991 -19 -36 -45 -59 0
-8991 19 0
-8991 36 0
-8991 45 0
-8991 59 0
-8989 8990 8991 0
-8990 8989 8991 0
-8991 8989 8990 0
8992 -19 -24 -60 -71 0
-8992 19 0
-8992 24 0
-8992 60 0
-8992 71 0
8993 -19 -27 -48 -71 0
-8993 19 0
-8993 27 0
-8993 48 0
-8993 71 0
8994 -19 -33 -42 -71 0
-8994 19 0
-8994 33 0
-8994 42 0
-8994 71 0
-8992 8993 8994 0
-8993 8992 8994 0
-8994 8992 8993 0
8995 -20 -22 -58 -72 0
-8995 20 0
-8995 22 0
-8995 58 0
-8995 72 0
8996 -20 -25 -46 -72 0
-8996 20 0
-8996 25 0
-8996 46 0
-8996 72 0
8997 -20 -31 -40 -72 0
-8997 20 0
-8997 31 0
-8997 40 0
-8997 72 0
-8995 8996 8997 0
-8996 8995 8997 0
-8997 8995 8996 0
8998 -20 -22 -60 -70 0
-8998 20 0
-8998 22 0
-8998 60 0
-8998 70 0
8999 -20 -28 -49 -60 0
-8999 20 0
-8999 28 0
-8999 49 0
-8999 60 0
9000 -20 -34 -43 -60 0
-9000 20 0
-9000 34 0
-9000 43 0
-9000 60 0
-8998 8999 9000 0
-8999 8998 9000 0
-9000 8998 8999 0
9001 -20 -24 -58 -72 0
-9001 20 0
-9001 24 0
-9001 58 0
-9001 72 0
9002 -20 -30 -51 -58 0
-9002 20 0
-9002 30 0
-9002 51 0
-9002 58 0
9003 -20 -36 -45 -58 0
-9003 20 0
-9003 36 0
-9003 45 0
-9003 58 0
-9001 9002 9003 0
-9002 9001 9003 0
-9003 9001 9002 0
9004 -20 -24 -60 -70 0
-9004 20 0
-9004 24 0
-9004 60 0
-9004 70 0
9005 -20 -27 -48 -70 0
-9005 20 0
-9005 27 0
-9005 48 0
-9005 70 0
9006 -20 -33 -42 -70 0
-9006 20 0
-9006 33 0
-9006 42 0
-9006 70 0
-9004 9005 9006 0
-9005 9004 9006 0
-9006 9004 9005 0
9007 -21 -22 -58 -71 0
-9007 21 0
-9007 22 0
-9007 58 0
-9007 71 0
9008 -21 -25 -46 -71 0
-9008 21 0
-9008 25 0
-9008 46 0
-9008 71 0
9009 -21 -31 -40 -71 0
-9009 21 0
-9009 31 0
-9009 40 0
-9009 71 0
-9007 9008 9009 0
-9008 9007 9009 0
-9009 9007 9008 0
9010 -21 -22 -59 -70 0
-9010 21 0
-9010 22 0
-9010 59 0
-9010 70 0
9011 -21 -28 -49 -59 0
-9011 21 0
-9011 28 0
-9011 49 0
-9011 59 0
9012 -21 -34 -43 -59 0
-9012 21 0
-9012 34 0
-9012 43 0
-9012 59 0
-9010 9011 9012 0
-9011 9010 9012 0
-9012 9010 9011 0
9013 -21 -23 -58 -71 0
-9013 21 0
-9013 23 0
-9013 58 0
-9013 71 0
9014 -21 -29 -50 -58 0
-9014 21 0
-9014 29 0
-9014 50 0
-9014 58 0
9015 -21 -35 -44 -58 0
-9015 21 0
-9015 35 0
-9015 44 0
-9015 58 0
-9013 9014 9015 0
-9014 9013 9015 0
-9015 9013 9014 0
9016 -21 -23 -59 -70 0
-9016 21 0
-9016 23 0
-9016 59 0
-9016 70 0
9017 -21 -26 -47 -70 0
-9017 21 0
-9017 26 0
-9017 47 0
-9017 70 0
9018 -21 -32 -41 -70 0
-9018 21 0
-9018 32 0
-9018 41 0
-9018 70 0
-9016 9017 9018 0
-9017 9016 9018 0
-9018 9016 9017 0
9019 -19 -23 -62 -69 0
-9019 19 0
-9019 23 0
-9019 62 0
-9019 69 0
9020 -19 -26 -50 -69 0
-9020 19 0
-9020 26 0
-9020 50 0
-9020 69 0
9021 -19 -35 -41 -69 0
-9021 19 0
-9021 35 0
-9021 41 0
-9021 69 0
-9019 9020 9021 0
-9020 9019 9021 0
-9021 9019 9020 0
9022 -19 -23 -63 -68 0
-9022 19 0
-9022 23 0
-9022 63 0
-9022 68 0
9023 -19 -29 -47 -63 0
-9023 19 0
-9023 29 0
-9023 47 0
-9023 63 0
9024 -19 -32 -44 -63 0
-9024 19 0
-9024 32 0
-9024 44 0
-9024 63 0
-9022 9023 9024 0
-9023 9022 9024 0
-9024 9022 9023 0
9025 -19 -24 -62 -69 0
-9025 19 0
-9025 24 0
-9025 62 0
-9025 69 0
9026 -19 -30 -48 -62 0
-9026 19 0
-9026 30 0
-9026 48 0
-9026 62 0
9027 -19 -33 -45 -62 0
-9027 19 0
-9027 33 0
-9027 45 0
-9027 62 0
-9025 9026 9027 0
-9026 9025 9027 0
-9027 9025 9026 0
9028 -19 -24 -63 -68 0
-9028 19 0
-9028 24 0
-9028 63 0
-9028 68 0
9029 -19 -27 -51 -68 0
-9029 19 0
-9029 27 0
-9029 51 0
-9029 68 0
9030 -19 -36 -42 -68 0
-9030 19 0
-9030 36 0
-9030 42 0
-9030 68 0
-9028 9029 9030 0
-9029 9028 9030 0
-9030 9028 9029 0
9031 -20 -22 -61 -69 0
-9031 20 0
-9031 22 0
-9031 61 0
-9031 69 0
9032 -20 -25 -49 -69 0
-9032 20 0
-9032 25 0
-9032 49 0
-9032 69 0
9033 -20 -34 -40 -69 0
-9033 20 0
-9033 34 0
-9033 40 0
-9033 69 0
-9031 9032 9033 0
-9032 9031 9033 0
-9033 9031 9032 0
9034 -20 -22 -63 -67 0
-9034 20 0
-9034 22 0
-9034 63 0
-9034 67 0
9035 -20 -28 -46 -63 0
-9035 20 0
-9035 28 0
-9035 46 0
-9035 63 0
9036 -20 -31 -43 -63 0
-9036 20 0
-9036 31 0
-9036 43 0
-9036 63 0
-9034 9035 9036 0
-9035 9034 9036 0
-9036 9034 9035 0
9037 -20 -24 -61 -69 0
-9037 20 0
-9037 24 0
-9037 61 0
-9037 69 0
9038 -20 -30 -48 -61 0
-9038 20 0
-9038 30 0
-9038 48 0
-9038 61 0
9039 -20 -33 -45 -61 0
-9039 20 0
-9039 33 0
-9039 45 0
-9039 61 0
-9037 9038 9039 0
-9038 9037 9039 0
-9039 9037 9038 0
9040 -20 -24 -63 -67 0
-9040 20 0
-9040 24 0
-9040 63 0
-9040 67 0
9041 -20 -27 -51 -67 0
-9041 20 0
-9041 27 0
-9041 51 0
-9041 67 0
9042 -20 -36 -42 -67 0
-9042 20 0
-9042 36 0
-9042 42 0
-9042 67 0
-9040 9041 9042 0
-9041 9040 9042 0
-9042 9040 9041 0
9043 -21 -22 -61 -68 0
-9043 21 0
-9043 22 0
-9043 61 0
-9043 68 0
9044 -21 -25 -49 -68 0
-9044 21 0
-9044 25 0
-9044 49 0
-9044 68 0
9045 -21 -34 -40 -68 0
-9045 21 0
-9045 34 0
-9045 40 0
-9045 68 0
-9043 9044 9045 0
-9044 9043 9045 0
-9045 9043 9044 0
9046 -21 -22 -62 -67 0
-9046 21 0
-9046 22 0
-9046 62 0
-9046 67 0
9047 -21 -28 -46 -62 0
-9047 21 0
-9047 28 0
-9047 46 0
-9047 62 0
9048 -21 -31 -43 -62 0
-9048 21 0
-9048 31 0
-9048 43 0
-9048 62 0
-9046 9047 9048 0
-9047 9046 9048 0
-9048 9046 9047 0
9049 -21 -23 -61 -68 0
-9049 21 0
-9049 23 0
-9049 61 0
-9049 68 0
9050 -21 -29 -47 -61 0
-9050 21 0
-9050 29 0
-9050 47 0
-9050 61 0
9051 -21 -32 -44 -61 0
-9051 21 0
-9051 32 0
-9051 44 0
-9051 61 0
-9049 9050 9051 0
-9050 9049 9051 0
-9051 9049 9050 0
9052 -21 -23 -62 -67 0
-9052 21 0
-9052 23 0
-9052 62 0
-9052 67 0
9053 -21 -26 -50 -67 0
-9053 21 0
-9053 26 0
-9053 50 0
-9053 67 0
9054 -21 -35 -41 -67 0
-9054 21 0
-9054 35 0
-9054 41 0
-9054 67 0
-9052 9053 9054 0
-9053 9052 9054 0
-9054 9052 9053 0
9055 -19 -26 -45 -77 0
-9055 19 0
-9055 26 0
-9055 45 0
-9055 77 0
9056 -19 -32 -45 -62 0
-9056 19 0
-9056 32 0
-9056 45 0
-9056 62 0
9057 -19 -35 -45 -59 0
-9057 19 0
-9057 35 0
-9057 45 0
-9057 59 0
-9055 9056 9057 0
-9056 9055 9057 0
-9057 9055 9056 0
9058 -19 -26 -45 -78 0
-9058 19 0
-9058 26 0
-9058 45 0
-9058 78 0
9059 -19 -26 -48 -72 0
-9059 19 0
-9059 26 0
-9059 48 0
-9059 72 0
9060 -19 -26 -51 -69 0
-9060 19 0
-9060 26 0
-9060 51 0
-9060 69 0
-9058 9059 9060 0
-9059 9058 9060 0
-9060 9058 9059 0
9061 -19 -27 -44 -77 0
-9061 19 0
-9061 27 0
-9061 44 0
-9061 77 0
9062 -19 -27 -47 -71 0
-9062 19 0
-9062 27 0
-9062 47 0
-9062 71 0
9063 -19 -27 -50 -68 0
-9063 19 0
-9063 27 0
-9063 50 0
-9063 68 0
-9061 9062 9063 0
-9062 9061 9063 0
-9063 9061 9062 0
9064 -19 -27 -44 -78 0
-9064 19 0
-9064 27 0
-9064 44 0
-9064 78 0
9065 -19 -33 -44 -63 0
-9065 19 0
-9065 33 0
-9065 44 0
-9065 63 0
9066 -19 -36 -44 -60 0
-9066 19 0
-9066 36 0
-9066 44 0
-9066 60 0
-9064 9065 9066 0
-9065 9064 9066 0
-9066 9064 9065 0
9067 -20 -25 -45 -76 0
-9067 20 0
-9067 25 0
-9067 45 0
-9067 76 0
9068 -20 -31 -45 -61 0
-9068 20 0
-9068 31 0
-9068 45 0
-9068 61 0
9069 -20 -34 -45 -58 0
-9069 20 0
-9069 34 0
-9069 45 0
-9069 58 0
-9067 9068 9069 0
-9068 9067 9069 0
-9069 9067 9068 0
9070 -20 -25 -45 -78 0
-9070 20 0
-9070 25 0
-9070 45 0
-9070 78 0
9071 -20 -25 -48 -72 0
-9071 20 0
-9071 25 0
-9071 48 0
-9071 72 0
9072 -20 -25 -51 -69 0
-9072 20 0
-9072 25 0
-9072 51 0
-9072 69 0
-9070 9071 9072 0
-9071 9070 9072 0
-9072 9070 9071 0
9073 -20 -27 -43 -76 0
-9073 20 0
-9073 27 0
-9073 43 0
-9073 76 0
9074 -20 -27 -46 -70 0
-9074 20 0
-9074 27 0
-9074 46 0
-9074 70 0
9075 -20 -27 -49 -67 0
-9075 20 0
-9075 27 0
-9075 49 0
-9075 67 0
-9073 9074 9075 0
-9074 9073 9075 0
-9075 9073 9074 0
9076 -20 -27 -43 -78 0
-9076 20 0
-9076 27 0
-9076 43 0
-9076 78 0
9077 -20 -33 -43 -63 0
-9077 20 0
-9077 33 0
-9077 43 0
-9077 63 0
9078 -20 -36 -43 -60 0
-9078 20 0
-9078 36 0
-9078 43 0
-9078 60 0
-9076 9077 9078 0
-9077 9076 9078 0
-9078 9076 9077 0
9079 -21 -25 -44 -76 0
-9079 21 0
-9079 25 0
-9079 44 0
-9079 76 0
9080 -21 -31 -44 -61 0
-9080 21 0
-9080 31 0
-9080 44 0
-9080 61 0
9081 -21 -34 -44 -58 0
-9081 21 0
-9081 34 0
-9081 44 0
-9081 58 0
-9079 9080 9081 0
-9080 9079 9081 0
-9081 9079 9080 0
9082 -21 -25 -44 -77 0
-9082 21 0
-9082 25 0
-9082 44 0
-9082 77 0
9083 -21 -25 -47 -71 0
-9083 21 0
-9083 25 0
-9083 47 0
-9083 71 0
9084 -21 -25 -50 -68 0
-9084 21 0
-9084 25 0
-9084 50 0
-9084 68 0
-9082 9083 9084 0
-9083 9082 9084 0
-9084 9082 9083 0
9085 -21 -26 -43 -76 0
-9085 21 0
-9085 26 0
-9085 43 0
-9085 76 0
9086 -21 -26 -46 -70 0
-9086 21 0
-9086 26 0
-9086 46 0
-9086 70 0
9087 -21 -26 -49 -67 0
-9087 21 0
-9087 26 0
-9087 49 0
-9087 67 0
-9085 9086 9087 0
-9086 9085 9087 0
-9087 9085 9086 0
9088 -21 -26 -43 -77 0
-9088 21 0
-9088 26 0
-9088 43 0
-9088 77 0
9089 -21 -32 -43 -62 0
-9089 21 0
-9089 32 0
-9089 43 0
-9089 62 0
9090 -21 -35 -43 -59 0
-9090 21 0
-9090 35 0
-9090 43 0
-9090 59 0
-9088 9089 9090 0
-9089 9088 9090 0
-9090 9088 9089 0
9091 -19 -26 -48 -71 0
-9091 19 0
-9091 26 0
-9091 48 0
-9091 71 0
9092 -19 -29 -48 -62 0
-9092 19 0
-9092 29 0
-9092 48 0
-9092 62 0
9093 -19 -35 -48 -56 0
-9093 19 0
-9093 35 0
-9093 48 0
-9093 56 0
-9091 9092 9093 0
-9092 9091 9093 0
-9093 9091 9092 0
9094 -19 -27 -47 -72 0
-9094 19 0
-9094 27 0
-9094 47 0
-9094 72 0
9095 -19 -30 -47 -63 0
-9095 19 0
-9095 30 0
-9095 47 0
-9095 63 0
9096 -19 -36 -47 -57 0
-9096 19 0
-9096 36 0
-9096 47 0
-9096 57 0
-9094 9095 9096 0
-9095 9094 9096 0
-9096 9094 9095 0
9097 -20 -25 -48 -70 0
-9097 20 0
-9097 25 0
-9097 48 0
-9097 70 0
9098 -20 -28 -48 -61 0
-9098 20 0
-9098 28 0
-9098 48 0
-9098 61 0
9099 -20 -34 -48 -55 0
-9099 20 0
-9099 34 0
-9099 48 0
-9099 55 0
-9097 9098 9099 0
-9098 9097 9099 0
-9099 9097 9098 0
9100 -20 -27 -46 -72 0
-9100 20 0
-9100 27 0
-9100 46 0
-9100 72 0
9101 -20 -30 -46 -63 0
-9101 20 0
-9101 30 0
-9101 46 0
-9101 63 0
9102 -20 -36 -46 -57 0
-9102 20 0
-9102 36 0
-9102 46 0
-9102 57 0
-9100 9101 9102 0
-9101 9100 9102 0
-9102 9100 9101 0
9103 -21 -25 -47 -70 0
-9103 21 0
-9103 25 0
-9103 47 0
-9103 70 0
9104 -21 -28 -47 -61 0
-9104 21 0
-9104 28 0
-9104 47 0
-9104 61 0
9105 -21 -34 -47 -55 0
-9105 21 0
-9105 34 0
-9105 47 0
-9105 55 0
-9103 9104 9105 0
-9104 9103 9105 0
-9105 9103 9104 0
9106 -21 -26 -46 -71 0
-9106 21 0
-9106 26 0
-9106 46 0
-9106 71 0
9107 -21 -29 -46 -62 0
-9107 21 0
-9107 29 0
-9107 46 0
-9107 62 0
9108 -21 -35 -46 -56 0
-9108 21 0
-9108 35 0
-9108 46 0
-9108 56 0
-9106 9107 9108 0
-9107 9106 9108 0
-9108 9106 9107 0
9109 -19 -26 -51 -68 0
-9109 19 0
-9109 26 0
-9109 51 0
-9109 68 0
9110 -19 -29 -51 -59 0
-9110 19 0
-9110 29 0
-9110 51 0
-9110 59 0
9111 -19 -32 -51 -56 0
-9111 19 0
-9111 32 0
-9111 51 0
-9111 56 0
-9109 9110 9111 0
-9110 9109 9111 0
-9111 9109 9110 0
9112 -19 -27 -50 -69 0
-9112 19 0
-9112 27 0
-9112 50 0
-9112 69 0
9113 -19 -30 -50 -60 0
-9113 19 0
-9113 30 0
-9113 50 0
-9113 60 0
9114 -19 -33 -50 -57 0
-9114 19 0
-9114 33 0
-9114 50 0
-9114 57 0
-9112 9113 9114 0
-9113 9112 9114 0
-9114 9112 9113 0
9115 -20 -25 -51 -67 0
-9115 20 0
-9115 25 0
-9115 51 0
-9115 67 0
9116 -20 -28 -51 -58 0
-9116 20 0
-9116 28 0
-9116 51 0
-9116 58 0
9117 -20 -31 -51 -55 0
-9117 20 0
-9117 31 0
-9117 51 0
-9117 55 0
-9115 9116 9117 0
-9116 9115 9117 0
-9117 9115 9116 0
9118 -20 -27 -49 -69 0
-9118 20 0
-9118 27 0
-9118 49 0
-9118 69 0
9119 -20 -30 -49 -60 0
-9119 20 0
-9119 30 0
-9119 49 0
-9119 60 0
9120 -20 -33 -49 -57 0
-9120 20 0
-9120 33 0
-9120 49 0
-9120 57 0
-9118 9119 9120 0
-9119 9118 9120 0
-9120 9118 9119 0
9121 -21 -25 -50 -67 0
-9121 21 0
-9121 25 0
-9121 50 0
-9121 67 0
9122 -21 -28 -50 -58 0
-9122 21 0
-9122 28 0
-9122 50 0
-9122 58 0
9123 -21 -31 -50 -55 0
-9123 21 0
-9123 31 0
-9123 50 0
-9123 55 0
-9121 9122 9123 0
-9122 9121 9123 0
-9123 9121 9122 0
9124 -21 -26 -49 -68 0
-9124 21 0
-9124 26 0
-9124 49 0
-9124 68 0
9125 -21 -29 -49 -59 0
-9125 21 0
-9125 29 0
-9125 49 0
-9125 59 0
9126 -21 -32 -49 -56 0
-9126 21 0
-9126 32 0
-9126 49 0
-9126 56 0
-9124 9125 9126 0
-9125 9124 9126 0
-9126 9124 9125 0
9127 -19 -29 -42 -77 0
-9127 19 0
-9127 29 0
-9127 42 0
-9127 77 0
9128 -19 -32 -42 -71 0
-9128 19 0
-9128 32 0
-9128 42 0
-9128 71 0
9129 -19 -35 -42 -68 0
-9129 19 0
-9129 35 0
-9129 42 0
-9129 68 0
-9127 9128 9129 0
-9128 9127 9129 0
-9129 9127 9128 0
9130 -19 -29 -42 -78 0
-9130 19 0
-9130 29 0
-9130 42 0
-9130 78 0
9131 -19 -29 -48 -63 0
-9131 19 0
-9131 29 0
-9131 48 0
-9131 63 0
9132 -19 -29 -51 -60 0
-9132 19 0
-9132 29 0
-9132 51 0
-9132 60 0
-9130 9131 9132 0
-9131 9130 9132 0
-9132 9130 9131 0
9133 -19 -30 -41 -77 0
-9133 19 0
-9133 30 0
-9133 41 0
-9133 77 0
9134 -19 -30 -47 -62 0
-9134 19 0
-9134 30 0
-9134 47 0
-9134 62 0
9135 -19 -30 -50 -59 0
-9135 19 0
-9135 30 0
-9135 50 0
-9135 59 0
-9133 9134 9135 0
-9134 9133 9135 0
-9135 9133 9134 0
9136 -19 -30 -41 -78 0
-9136 19 0
-9136 30 0
-9136 41 0
-9136 78 0
9137 -19 -33 -41 -72 0
-9137 19 0
-9137 33 0
-9137 41 0
-9137 72 0
9138 -19 -36 -41 -69 0
-9138 19 0
-9138 36 0
-9138 41 0
-9138 69 0
-9136 9137 9138 0
-9137 9136 9138 0
-9138 9136 9137 0
9139 -20 -28 -42 -76 0
-9139 20 0
-9139 28 0
-9139 42 0
-9139 76 0
9140 -20 -31 -42 -70 0
-9140 20 0
-9140 31 0
-9140 42 0
-9140 70 0
9141 -20 -34 -42 -67 0
-9141 20 0
-9141 34 0
-9141 42 0
-9141 67 0
-9139 9140 9141 0
-9140 9139 9141 0
-9141 9139 9140 0
9142 -20 -28 -42 -78 0
-9142 20 0
-9142 28 0
-9142 42 0
-9142 78 0
9143 -20 -28 -48 -63 0
-9143 20 0
-9143 28 0
-9143 48 0
-9143 63 0
9144 -20 -28 -51 -60 0
-9144 20 0
-9144 28 0
-9144 51 0
-9144 60 0
-9142 9143 9144 0
-9143 9142 9144 0
-9144 9142 9143 0
9145 -20 -30 -40 -76 0
-9145 20 0
-9145 30 0
-9145 40 0
-9145 76 0
9146 -20 -30 -46 -61 0
-9146 20 0
-9146 30 0
-9146 46 0
-9146 61 0
9147 -20 -30 -49 -58 0
-9147 20 0
-9147 30 0
-9147 49 0
-9147 58 0
-9145 9146 9147 0
-9146 9145 9147 0
-9147 9145 9146 0
9148 -20 -30 -40 -78 0
-9148 20 0
-9148 30 0
-9148 40 0
-9148 78 0
9149 -20 -33 -40 -72 0
-9149 20 0
-9149 33 0
-9149 40 0
-9149 72 0
9150 -20 -36 -40 -69 0
-9150 20 0
-9150 36 0
-9150 40 0
-9150 69 0
-9148 9149 9150 0
-9149 9148 9150 0
-9150 9148 9149 0
9151 -21 -28 -41 -76 0
-9151 21 0
-9151 28 0
-9151 41 0
-9151 76 0
9152 -21 -31 -41 -70 0
-9152 21 0
-9152 31 0
-9152 41 0
-9152 70 0
9153 -21 -34 -41 -67 0
-9153 21 0
-9153 34 0
-9153 41 0
-9153 67 0
-9151 9152 9153 0
-9152 9151 9153 0
-9153 9151 9152 0
9154 -21 -28 -41 -77 0
-9154 21 0
-9154 28 0
-9154 41 0
-9154 77 0
9155 -21 -28 -47 -62 0
-9155 21 0
-9155 28 0
-9155 47 0
-9155 62 0
9156 -21 -28 -50 -59 0
-9156 21 0
-9156 28 0
-9156 50 0
-9156 59 0
-9154 9155 9156 0
-9155 9154 9156 0
-9156 9154 9155 0
9157 -21 -29 -40 -76 0
-9157 21 0
-9157 29 0
-9157 40 0
-9157 76 0
9158 -21 -29 -46 -61 0
-9158 21 0
-9158 29 0
-9158 46 0
-9158 61 0
9159 -21 -29 -49 -58 0
-9159 21 0
-9159 29 0
-9159 49 0
-9159 58 0
-9157 9158 9159 0
-9158 9157 9159 0
-9159 9157 9158 0
9160 -21 -29 -40 -77 0
-9160 21 0
-9160 29 0
-9160 40 0
-9160 77 0
9161 -21 -32 -40 -71 0
-9161 21 0
-9161 32 0
-9161 40 0
-9161 71 0
9162 -21 -35 -40 -68 0
-9162 21 0
-9162 35 0
-9162 40 0
-9162 68 0
-9160 9161 9162 0
-9161 9160 9162 0
-9162 9160 9161 0
9163 -19 -32 -42 -72 0
-9163 19 0
-9163 32 0
-9163 42 0
-9163 72 0
9164 -19 -32 -45 -63 0
-9164 19 0
-9164 32 0
-9164 45 0
-9164 63 0
9165 -19 -32 -51 -57 0
-9165 19 0
-9165 32 0
-9165 51 0
-9165 57 0
-9163 9164 9165 0
-9164 9163 9165 0
-9165 9163 9164 0
9166 -19 -33 -41 -71 0
-9166 19 0
-9166 33 0
-9166 41 0
-9166 71 0
9167 -19 -33 -44 -62 0
-9167 19 0
-9167 33 0
-9167 44 0
-9167 62 0
9168 -19 -33 -50 -56 0
-9168 19 0
-9168 33 0
-9168 50 0
-9168 56 0
-9166 9167 9168 0
-9167 9166 9168 0
-9168 9166 9167 0
9169 -20 -31 -42 -72 0
-9169 20 0
-9169 31 0
-9169 42 0
-9169 72 0
9170 -20 -31 -45 -63 0
-9170 20 0
-9170 31 0
-9170 45 0
-9170 63 0
9171 -20 -31 -51 -57 0
-9171 20 0
-9171 31 0
-9171 51 0
-9171 57 0
-9169 9170 9171 0
-9170 9169 9171 0
-9171 9169 9170 0
9172 -20 -33 -40 -70 0
-9172 20 0
-9172 33 0
-9172 40 0
-9172 70 0
9173 -20 -33 -43 -61 0
-9173 20 0
-9173 33 0
-9173 43 0
-9173 61 0
9174 -20 -33 -49 -55 0
-9174 20 0
-9174 33 0
-9174 49 0
-9174 55 0
-9172 9173 9174 0
-9173 9172 9174 0
-9174 9172 9173 0
9175 -21 -31 -41 -71 0
-9175 21 0
-9175 31 0
-9175 41 0
-9175 71 0
9176 -21 -31 -44 -62 0
-9176 21 0
-9176 31 0
-9176 44 0
-9176 62 0
9177 -21 -31 -50 -56 0
-9177 21 0
-9177 31 0
-9177 50 0
-9177 56 0
-9175 9176 9177 0
-9176 9175 9177 0
-9177 9175 9176 0
9178 -21 -32 -40 -70 0
-9178 21 0
-9178 32 0
-9178 40 0
-9178 70 0
9179 -21 -32 -43 -61 0
-9179 21 0
-9179 32 0
-9179 43 0
-9179 61 0
9180 -21 -32 -49 -55 0
-9180 21 0
-9180 32 0
-9180 49 0
-9180 55 0
-9178 9179 9180 0
-9179 9178 9180 0
-9180 9178 9179 0
9181 -19 -35 -42 -69 0
-9181 19 0
-9181 35 0
-9181 42 0
-9181 69 0
9182 -19 -35 -45 -60 0
-9182 19 0
-9182 35 0
-9182 45 0
-9182 60 0
9183 -19 -35 -48 -57 0
-9183 19 0
-9183 35 0
-9183 48 0
-9183 57 0
-9181 9182 9183 0
-9182 9181 9183 0
-9183 9181 9182 0
9184 -19 -36 -41 -68 0
-9184 19 0
-9184 36 0
-9184 41 0
-9184 68 0
9185 -19 -36 -44 -59 0
-9185 19 0
-9185 36 0
-9185 44 0
-9185 59 0
9186 -19 -36 -47 -56 0
-9186 19 0
-9186 36 0
-9186 47 0
-9186 56 0
-9184 9185 9186 0
-9185 9184 9186 0
-9186 9184 9185 0
9187 -20 -34 -42 -69 0
-9187 20 0
-9187 34 0
-9187 42 0
-9187 69 0
9188 -20 -34 -45 -60 0
-9188 20 0
-9188 34 0
-9188 45 0
-9188 60 0
9189 -20 -34 -48 -57 0
-9189 20 0
-9189 34 0
-9189 48 0
-9189 57 0
-9187 9188 9189 0
-9188 9187 9189 0
-9189 9187 9188 0
9190 -20 -36 -40 -67 0
-9190 20 0
-9190 36 0
-9190 40 0
-9190 67 0
9191 -20 -36 -43 -58 0
-9191 20 0
-9191 36 0
-9191 43 0
-9191 58 0
9192 -20 -36 -46 -55 0
-9192 20 0
-9192 36 0
-9192 46 0
-9192 55 0
-9190 9191 9192 0
-9191 9190 9192 0
-9192 9190 9191 0
9193 -21 -34 -41 -68 0
-9193 21 0
-9193 34 0
-9193 41 0
-9193 68 0
9194 -21 -34 -44 -59 0
-9194 21 0
-9194 34 0
-9194 44 0
-9194 59 0
9195 -21 -34 -47 -56 0
-9195 21 0
-9195 34 0
-9195 47 0
-9195 56 0
-9193 9194 9195 0
-9194 9193 9195 0
-9195 9193 9194 0
9196 -21 -35 -40 -67 0
-9196 21 0
-9196 35 0
-9196 40 0
-9196 67 0
9197 -21 -35 -43 -58 0
-9197 21 0
-9197 35 0
-9197 43 0
-9197 58 0
9198 -21 -35 -46 -55 0
-9198 21 0
-9198 35 0
-9198 46 0
-9198 55 0
-9196 9197 9198 0
-9197 9196 9198 0
-9198 9196 9197 0
