p cnf 9383 57011
-85 1 2 3 0
-1 85 0
-2 85 0
-3 85 0
86 -1 -2 0
-86 1 0
-86 2 0
87 -1 -3 0
-87 1 0
-87 3 0
88 -2 -3 0
-88 2 0
-88 3 0
-89 86 87 88 0
-86 89 0
-87 89 0
-88 89 0
-90 1 0
-90 -2 0
-90 -3 0
90 -1 2 3 0
-91 2 0
-91 -1 0
-91 -3 0
91 -2 1 3 0
-92 3 0
-92 -1 0
-92 -2 0
92 -3 1 2 0
-93 4 5 6 0
-4 93 0
-5 93 0
-6 93 0
94 -4 -5 0
-94 4 0
-94 5 0
95 -4 -6 0
-95 4 0
-95 6 0
96 -5 -6 0
-96 5 0
-96 6 0
-97 94 95 96 0
-94 97 0
-95 97 0
-96 97 0
-98 4 0
-98 -5 0
-98 -6 0
98 -4 5 6 0
-99 5 0
-99 -4 0
-99 -6 0
99 -5 4 6 0
-100 6 0
-100 -4 0
-100 -5 0
100 -6 4 5 0
-101 7 8 9 0
-7 101 0
-8 101 0
-9 101 0
102 -7 -8 0
-102 7 0
-102 8 0
103 -7 -9 0
-103 7 0
-103 9 0
104 -8 -9 0
-104 8 0
-104 9 0
-105 102 103 104 0
-102 105 0
-103 105 0
-104 105 0
-106 7 0
-106 -8 0
-106 -9 0
106 -7 8 9 0
-107 8 0
-107 -7 0
-107 -9 0
107 -8 7 9 0
-108 9 0
-108 -7 0
-108 -8 0
108 -9 7 8 0
-109 10 11 12 0
-10 109 0
-11 109 0
-12 109 0
110 -10 -11 0
-110 10 0
-110 11 0
111 -10 -12 0
-111 10 0
-111 12 0
112 -11 -12 0
-112 11 0
-112 12 0
-113 110 111 112 0
-110 113 0
-111 113 0
-112 113 0
-114 10 0
-114 -11 0
-114 -12 0
114 -10 11 12 0
-115 11 0
-115 -10 0
-115 -12 0
115 -11 10 12 0
-116 12 0
-116 -10 0
-116 -11 0
116 -12 10 11 0
-117 13 14 15 0
-13 117 0
-14 117 0
-15 117 0
118 -13 -14 0
-118 13 0
-118 14 0
119 -13 -15 0
-119 13 0
-119 15 0
120 -14 -15 0
-120 14 0
-120 15 0
-121 118 119 120 0
-118 121 0
-119 121 0
-120 121 0
-122 13 0
-122 -14 0
-122 -15 0
122 -13 14 15 0
-123 14 0
-123 -13 0
-123 -15 0
123 -14 13 15 0
-124 15 0
-124 -13 0
-124 -14 0
124 -15 13 14 0
-125 16 17 18 0
-16 125 0
-17 125 0
-18 125 0
126 -16 -17 0
-126 16 0
-126 17 0
127 -16 -18 0
-127 16 0
-127 18 0
128 -17 -18 0
-128 17 0
-128 18 0
-129 126 127 128 0
-126 129 0
-127 129 0
-128 129 0
-130 16 0
-130 -17 0
-130 -18 0
130 -16 17 18 0
-131 17 0
-131 -16 0
-131 -18 0
131 -17 16 18 0
-132 18 0
-132 -16 0
-132 -17 0
132 -18 16 17 0
-133 19 20 21 0
-19 133 0
-20 133 0
-21 133 0
134 -19 -20 0
-134 19 0
-134 20 0
135 -19 -21 0
-135 19 0
-135 21 0
136 -20 -21 0
-136 20 0
-136 21 0
-137 134 135 136 0
-134 137 0
-135 137 0
-136 137 0
-138 19 0
-138 -20 0
-138 -21 0
138 -19 20 21 0
-139 20 0
-139 -19 0
-139 -21 0
139 -20 19 21 0
-140 21 0
-140 -19 0
-140 -20 0
140 -21 19 20 0
-141 22 23 24 0
-22 141 0
-23 141 0
-24 141 0
142 -22 -23 0
-142 22 0
-142 23 0
143 -22 -24 0
-143 22 0
-143 24 0
144 -23 -24 0
-144 23 0
-144 24 0
-145 142 143 144 0
-142 145 0
-143 145 0
-144 145 0
-146 22 0
-146 -23 0
-146 -24 0
146 -22 23 24 0
-147 23 0
-147 -22 0
-147 -24 0
147 -23 22 24 0
-148 24 0
-148 -22 0
-148 -23 0
148 -24 22 23 0
-149 25 26 27 0
-25 149 0
-26 149 0
-27 149 0
150 -25 -26 0
-150 25 0
-150 26 0
151 -25 -27 0
-151 25 0
-151 27 0
152 -26 -27 0
-152 26 0
-152 27 0
-153 150 151 152 0
-150 153 0
-151 153 0
-152 153 0
-154 25 0
-154 -26 0
-154 -27 0
154 -25 26 27 0
-155 26 0
-155 -25 0
-155 -27 0
155 -26 25 27 0
-156 27 0
-156 -25 0
-156 -26 0
156 -27 25 26 0
-157 28 29 30 0
-28 157 0
-29 157 0
-30 157 0
158 -28 -29 0
-158 28 0
-158 29 0
159 -28 -30 0
-159 28 0
-159 30 0
160 -29 -30 0
-160 29 0
-160 30 0
-161 158 159 160 0
-158 161 0
-159 161 0
-160 161 0
-162 28 0
-162 -29 0
-162 -30 0
162 -28 29 30 0
-163 29 0
-163 -28 0
-163 -30 0
163 -29 28 30 0
-164 30 0
-164 -28 0
-164 -29 0
164 -30 28 29 0
-165 31 32 33 0
-31 165 0
-32 165 0
-33 165 0
166 -31 -32 0
-166 31 0
-166 32 0
167 -31 -33 0
-167 31 0
-167 33 0
168 -32 -33 0
-168 32 0
-168 33 0
-169 166 167 168 0
-166 169 0
-167 169 0
-168 169 0
-170 31 0
-170 -32 0
-170 -33 0
170 -31 32 33 0
-171 32 0
-171 -31 0
-171 -33 0
171 -32 31 33 0
-172 33 0
-172 -31 0
-172 -32 0
172 -33 31 32 0
-173 34 35 36 0
-34 173 0
-35 173 0
-36 173 0
174 -34 -35 0
-174 34 0
-174 35 0
175 -34 -36 0
-175 34 0
-175 36 0
176 -35 -36 0
-176 35 0
-176 36 0
-177 174 175 176 0
-174 177 0
-175 177 0
-176 177 0
-178 34 0
-178 -35 0
-178 -36 0
178 -34 35 36 0
-179 35 0
-179 -34 0
-179 -36 0
179 -35 34 36 0
-180 36 0
-180 -34 0
-180 -35 0
180 -36 34 35 0
-181 37 38 39 0
-37 181 0
-38 181 0
-39 181 0
182 -37 -38 0
-182 37 0
-182 38 0
183 -37 -39 0
-183 37 0
-183 39 0
184 -38 -39 0
-184 38 0
-184 39 0
-185 182 183 184 0
-182 185 0
-183 185 0
-184 185 0
-186 37 0
-186 -38 0
-186 -39 0
186 -37 38 39 0
-187 38 0
-187 -37 0
-187 -39 0
187 -38 37 39 0
-188 39 0
-188 -37 0
-188 -38 0
188 -39 37 38 0
-189 40 41 42 0
-40 189 0
-41 189 0
-42 189 0
190 -40 -41 0
-190 40 0
-190 41 0
191 -40 -42 0
-191 40 0
-191 42 0
192 -41 -42 0
-192 41 0
-192 42 0
-193 190 191 192 0
-190 193 0
-191 193 0
-192 193 0
-194 40 0
-194 -41 0
-194 -42 0
194 -40 41 42 0
-195 41 0
-195 -40 0
-195 -42 0
195 -41 40 42 0
-196 42 0
-196 -40 0
-196 -41 0
196 -42 40 41 0
-197 43 44 45 0
-43 197 0
-44 197 0
-45 197 0
198 -43 -44 0
-198 43 0
-198 44 0
199 -43 -45 0
-199 43 0
-199 45 0
200 -44 -45 0
-200 44 0
-200 45 0
-201 198 199 200 0
-198 201 0
-199 201 0
-200 201 0
-202 43 0
-202 -44 0
-202 -45 0
202 -43 44 45 0
-203 44 0
-203 -43 0
-203 -45 0
203 -44 43 45 0
-204 45 0
-204 -43 0
-204 -44 0
204 -45 43 44 0
-205 46 47 48 0
-46 205 0
-47 205 0
-48 205 0
206 -46 -47 0
-206 46 0
-206 47 0
207 -46 -48 0
-207 46 0
-207 48 0
208 -47 -48 0
-208 47 0
-208 48 0
-209 206 207 208 0
-206 209 0
-207 209 0
-208 209 0
-210 46 0
-210 -47 0
-210 -48 0
210 -46 47 48 0
-211 47 0
-211 -46 0
-211 -48 0
211 -47 46 48 0
-212 48 0
-212 -46 0
-212 -47 0
212 -48 46 47 0
-213 49 50 51 0
-49 213 0
-50 213 0
-51 213 0
214 -49 -50 0
-214 49 0
-214 50 0
215 -49 -51 0
-215 49 0
-215 51 0
216 -50 -51 0
-216 50 0
-216 51 0
-217 214 215 216 0
-214 217 0
-215 217 0
-216 217 0
-218 49 0
-218 -50 0
-218 -51 0
218 -49 50 51 0
-219 50 0
-219 -49 0
-219 -51 0
219 -50 49 51 0
-220 51 0
-220 -49 0
-220 -50 0
220 -51 49 50 0
-221 52 53 54 0
-52 221 0
-53 221 0
-54 221 0
222 -52 -53 0
-222 52 0
-222 53 0
223 -52 -54 0
-223 52 0
-223 54 0
224 -53 -54 0
-224 53 0
-224 54 0
-225 222 223 224 0
-222 225 0
-223 225 0
-224 225 0
-226 52 0
-226 -53 0
-226 -54 0
226 -52 53 54 0
-227 53 0
-227 -52 0
-227 -54 0
227 -53 52 54 0
-228 54 0
-228 -52 0
-228 -53 0
228 -54 52 53 0
-229 55 56 57 0
-55 229 0
-56 229 0
-57 229 0
230 -55 -56 0
-230 55 0
-230 56 0
231 -55 -57 0
-231 55 0
-231 57 0
232 -56 -57 0
-232 56 0
-232 57 0
-233 230 231 232 0
-230 233 0
-231 233 0
-232 233 0
-234 55 0
-234 -56 0
-234 -57 0
234 -55 56 57 0
-235 56 0
-235 -55 0
-235 -57 0
235 -56 55 57 0
-236 57 0
-236 -55 0
-236 -56 0
236 -57 55 56 0
-237 58 59 60 0
-58 237 0
-59 237 0
-60 237 0
238 -58 -59 0
-238 58 0
-238 59 0
239 -58 -60 0
-239 58 0
-239 60 0
240 -59 -60 0
-240 59 0
-240 60 0
-241 238 239 240 0
-238 241 0
-239 241 0
-240 241 0
-242 58 0
-242 -59 0
-242 -60 0
242 -58 59 60 0
-243 59 0
-243 -58 0
-243 -60 0
243 -59 58 60 0
-244 60 0
-244 -58 0
-244 -59 0
244 -60 58 59 0
-245 61 62 63 0
-61 245 0
-62 245 0
-63 245 0
246 -61 -62 0
-246 61 0
-246 62 0
247 -61 -63 0
-247 61 0
-247 63 0
248 -62 -63 0
-248 62 0
-248 63 0
-249 246 247 248 0
-246 249 0
-247 249 0
-248 249 0
-250 61 0
-250 -62 0
-250 -63 0
250 -61 62 63 0
-251 62 0
-251 -61 0
-251 -63 0
251 -62 61 63 0
-252 63 0
-252 -61 0
-252 -62 0
252 -63 61 62 0
-253 64 65 66 0
-64 253 0
-65 253 0
-66 253 0
254 -64 -65 0
-254 64 0
-254 65 0
255 -64 -66 0
-255 64 0
-255 66 0
256 -65 -66 0
-256 65 0
-256 66 0
-257 254 255 256 0
-254 257 0
-255 257 0
-256 257 0
-258 64 0
-258 -65 0
-258 -66 0
258 -64 65 66 0
-259 65 0
-259 -64 0
-259 -66 0
259 -65 64 66 0
-260 66 0
-260 -64 0
-260 -65 0
260 -66 64 65 0
-261 67 68 69 0
-67 261 0
-68 261 0
-69 261 0
262 -67 -68 0
-262 67 0
-262 68 0
263 -67 -69 0
-263 67 0
-263 69 0
264 -68 -69 0
-264 68 0
-264 69 0
-265 262 263 264 0
-262 265 0
-263 265 0
-264 265 0
-266 67 0
-266 -68 0
-266 -69 0
266 -67 68 69 0
-267 68 0
-267 -67 0
-267 -69 0
267 -68 67 69 0
-268 69 0
-268 -67 0
-268 -68 0
268 -69 67 68 0
-269 70 71 72 0
-70 269 0
-71 269 0
-72 269 0
270 -70 -71 0
-270 70 0
-270 71 0
271 -70 -72 0
-271 70 0
-271 72 0
272 -71 -72 0
-272 71 0
-272 72 0
-273 270 271 272 0
-270 273 0
-271 273 0
-272 273 0
-274 70 0
-274 -71 0
-274 -72 0
274 -70 71 72 0
-275 71 0
-275 -70 0
-275 -72 0
275 -71 70 72 0
-276 72 0
-276 -70 0
-276 -71 0
276 -72 70 71 0
-277 73 74 75 0
-73 277 0
-74 277 0
-75 277 0
278 -73 -74 0
-278 73 0
-278 74 0
279 -73 -75 0
-279 73 0
-279 75 0
280 -74 -75 0
-280 74 0
-280 75 0
-281 278 279 280 0
-278 281 0
-279 281 0
-280 281 0
-282 73 0
-282 -74 0
-282 -75 0
282 -73 74 75 0
-283 74 0
-283 -73 0
-283 -75 0
283 -74 73 75 0
-284 75 0
-284 -73 0
-284 -74 0
284 -75 73 74 0
-285 76 77 78 0
-76 285 0
-77 285 0
-78 285 0
286 -76 -77 0
-286 76 0
-286 77 0
287 -76 -78 0
-287 76 0
-287 78 0
288 -77 -78 0
-288 77 0
-288 78 0
-289 286 287 288 0
-286 289 0
-287 289 0
-288 289 0
-290 76 0
-290 -77 0
-290 -78 0
290 -76 77 78 0
-291 77 0
-291 -76 0
-291 -78 0
291 -77 76 78 0
-292 78 0
-292 -76 0
-292 -77 0
292 -78 76 77 0
-293 79 80 81 0
-79 293 0
-80 293 0
-81 293 0
294 -79 -80 0
-294 79 0
-294 80 0
295 -79 -81 0
-295 79 0
-295 81 0
296 -80 -81 0
-296 80 0
-296 81 0
-297 294 295 296 0
-294 297 0
-295 297 0
-296 297 0
-298 79 0
-298 -80 0
-298 -81 0
298 -79 80 81 0
-299 80 0
-299 -79 0
-299 -81 0
299 -80 79 81 0
-300 81 0
-300 -79 0
-300 -80 0
300 -81 79 80 0
-301 82 83 84 0
-82 301 0
-83 301 0
-84 301 0
302 -82 -83 0
-302 82 0
-302 83 0
303 -82 -84 0
-303 82 0
-303 84 0
304 -83 -84 0
-304 83 0
-304 84 0
-305 302 303 304 0
-302 305 0
-303 305 0
-304 305 0
-306 82 0
-306 -83 0
-306 -84 0
306 -82 83 84 0
-307 83 0
-307 -82 0
-307 -84 0
307 -83 82 84 0
-308 84 0
-308 -82 0
-308 -83 0
308 -84 82 83 0
-1 0
2 0
3 0
309 0
310 311 0
-310 -311 0
312 313 314 0
-312 -313 0
-312 -314 0
-313 -314 0
315 316 317 318 0
-315 -316 0
-315 -317 0
-315 -318 0
-316 -317 0
-316 -318 0
-317 -318 0
319 320 321 322 323 0
-319 -320 0
-319 -321 0
-319 -322 0
-319 -323 0
-320 -321 0
-320 -322 0
-320 -323 0
-321 -322 0
-321 -323 0
-322 -323 0
324 325 326 327 328 329 0
-324 -325 0
-324 -326 0
-324 -327 0
-324 -328 0
-324 -329 0
-325 -326 0
-325 -327 0
-325 -328 0
-325 -329 0
-326 -327 0
-326 -328 0
-326 -329 0
-327 -328 0
-327 -329 0
-328 -329 0
330 331 332 333 334 335 336 0
-330 -331 0
-330 -332 0
-330 -333 0
-330 -334 0
-330 -335 0
-330 -336 0
-331 -332 0
-331 -333 0
-331 -334 0
-331 -335 0
-331 -336 0
-332 -333 0
-332 -334 0
-332 -335 0
-332 -336 0
-333 -334 0
-333 -335 0
-333 -336 0
-334 -335 0
-334 -336 0
-335 -336 0
337 338 339 340 341 342 343 344 0
-337 -338 0
-337 -339 0
-337 -340 0
-337 -341 0
-337 -342 0
-337 -343 0
-337 -344 0
-338 -339 0
-338 -340 0
-338 -341 0
-338 -342 0
-338 -343 0
-338 -344 0
-339 -340 0
-339 -341 0
-339 -342 0
-339 -343 0
-339 -344 0
-340 -341 0
-340 -342 0
-340 -343 0
-340 -344 0
-341 -342 0
-341 -343 0
-341 -344 0
-342 -343 0
-342 -344 0
-343 -344 0
345 346 347 348 349 350 351 352 353 0
-345 -346 0
-345 -347 0
-345 -348 0
-345 -349 0
-345 -350 0
-345 -351 0
-345 -352 0
-345 -353 0
-346 -347 0
-346 -348 0
-346 -349 0
-346 -350 0
-346 -351 0
-346 -352 0
-346 -353 0
-347 -348 0
-347 -349 0
-347 -350 0
-347 -351 0
-347 -352 0
-347 -353 0
-348 -349 0
-348 -350 0
-348 -351 0
-348 -352 0
-348 -353 0
-349 -350 0
-349 -351 0
-349 -352 0
-349 -353 0
-350 -351 0
-350 -352 0
-350 -353 0
-351 -352 0
-351 -353 0
-352 -353 0
354 355 356 357 358 359 360 361 362 363 0
-354 -355 0
-354 -356 0
-354 -357 0
-354 -358 0
-354 -359 0
-354 -360 0
-354 -361 0
-354 -362 0
-354 -363 0
-355 -356 0
-355 -357 0
-355 -358 0
-355 -359 0
-355 -360 0
-355 -361 0
-355 -362 0
-355 -363 0
-356 -357 0
-356 -358 0
-356 -359 0
-356 -360 0
-356 -361 0
-356 -362 0
-356 -363 0
-357 -358 0
-357 -359 0
-357 -360 0
-357 -361 0
-357 -362 0
-357 -363 0
-358 -359 0
-358 -360 0
-358 -361 0
-358 -362 0
-358 -363 0
-359 -360 0
-359 -361 0
-359 -362 0
-359 -363 0
-360 -361 0
-360 -362 0
-360 -363 0
-361 -362 0
-361 -363 0
-362 -363 0
364 365 366 367 368 369 370 371 372 373 374 0
-364 -365 0
-364 -366 0
-364 -367 0
-364 -368 0
-364 -369 0
-364 -370 0
-364 -371 0
-364 -372 0
-364 -373 0
-364 -374 0
-365 -366 0
-365 -367 0
-365 -368 0
-365 -369 0
-365 -370 0
-365 -371 0
-365 -372 0
-365 -373 0
-365 -374 0
-366 -367 0
-366 -368 0
-366 -369 0
-366 -370 0
-366 -371 0
-366 -372 0
-366 -373 0
-366 -374 0
-367 -368 0
-367 -369 0
-367 -370 0
-367 -371 0
-367 -372 0
-367 -373 0
-367 -374 0
-368 -369 0
-368 -370 0
-368 -371 0
-368 -372 0
-368 -373 0
-368 -374 0
-369 -370 0
-369 -371 0
-369 -372 0
-369 -373 0
-369 -374 0
-370 -371 0
-370 -372 0
-370 -373 0
-370 -374 0
-371 -372 0
-371 -373 0
-371 -374 0
-372 -373 0
-372 -374 0
-373 -374 0
375 376 377 378 379 380 381 382 383 384 385 386 0
-375 -376 0
-375 -377 0
-375 -378 0
-375 -379 0
-375 -380 0
-375 -381 0
-375 -382 0
-375 -383 0
-375 -384 0
-375 -385 0
-375 -386 0
-376 -377 0
-376 -378 0
-376 -379 0
-376 -380 0
-376 -381 0
-376 -382 0
-376 -383 0
-376 -384 0
-376 -385 0
-376 -386 0
-377 -378 0
-377 -379 0
-377 -380 0
-377 -381 0
-377 -382 0
-377 -383 0
-377 -384 0
-377 -385 0
-377 -386 0
-378 -379 0
-378 -380 0
-378 -381 0
-378 -382 0
-378 -383 0
-378 -384 0
-378 -385 0
-378 -386 0
-379 -380 0
-379 -381 0
-379 -382 0
-379 -383 0
-379 -384 0
-379 -385 0
-379 -386 0
-380 -381 0
-380 -382 0
-380 -383 0
-380 -384 0
-380 -385 0
-380 -386 0
-381 -382 0
-381 -383 0
-381 -384 0
-381 -385 0
-381 -386 0
-382 -383 0
-382 -384 0
-382 -385 0
-382 -386 0
-383 -384 0
-383 -385 0
-383 -386 0
-384 -385 0
-384 -386 0
-385 -386 0
387 388 389 390 391 392 393 394 395 396 397 398 399 0
-387 -388 0
-387 -389 0
-387 -390 0
-387 -391 0
-387 -392 0
-387 -393 0
-387 -394 0
-387 -395 0
-387 -396 0
-387 -397 0
-387 -398 0
-387 -399 0
-388 -389 0
-388 -390 0
-388 -391 0
-388 -392 0
-388 -393 0
-388 -394 0
-388 -395 0
-388 -396 0
-388 -397 0
-388 -398 0
-388 -399 0
-389 -390 0
-389 -391 0
-389 -392 0
-389 -393 0
-389 -394 0
-389 -395 0
-389 -396 0
-389 -397 0
-389 -398 0
-389 -399 0
-390 -391 0
-390 -392 0
-390 -393 0
-390 -394 0
-390 -395 0
-390 -396 0
-390 -397 0
-390 -398 0
-390 -399 0
-391 -392 0
-391 -393 0
-391 -394 0
-391 -395 0
-391 -396 0
-391 -397 0
-391 -398 0
-391 -399 0
-392 -393 0
-392 -394 0
-392 -395 0
-392 -396 0
-392 -397 0
-392 -398 0
-392 -399 0
-393 -394 0
-393 -395 0
-393 -396 0
-393 -397 0
-393 -398 0
-393 -399 0
-394 -395 0
-394 -396 0
-394 -397 0
-394 -398 0
-394 -399 0
-395 -396 0
-395 -397 0
-395 -398 0
-395 -399 0
-396 -397 0
-396 -398 0
-396 -399 0
-397 -398 0
-397 -399 0
-398 -399 0
400 401 402 403 404 405 406 407 408 409 410 411 412 413 0
-400 -401 0
-400 -402 0
-400 -403 0
-400 -404 0
-400 -405 0
-400 -406 0
-400 -407 0
-400 -408 0
-400 -409 0
-400 -410 0
-400 -411 0
-400 -412 0
-400 -413 0
-401 -402 0
-401 -403 0
-401 -404 0
-401 -405 0
-401 -406 0
-401 -407 0
-401 -408 0
-401 -409 0
-401 -410 0
-401 -411 0
-401 -412 0
-401 -413 0
-402 -403 0
-402 -404 0
-402 -405 0
-402 -406 0
-402 -407 0
-402 -408 0
-402 -409 0
-402 -410 0
-402 -411 0
-402 -412 0
-402 -413 0
-403 -404 0
-403 -405 0
-403 -406 0
-403 -407 0
-403 -408 0
-403 -409 0
-403 -410 0
-403 -411 0
-403 -412 0
-403 -413 0
-404 -405 0
-404 -406 0
-404 -407 0
-404 -408 0
-404 -409 0
-404 -410 0
-404 -411 0
-404 -412 0
-404 -413 0
-405 -406 0
-405 -407 0
-405 -408 0
-405 -409 0
-405 -410 0
-405 -411 0
-405 -412 0
-405 -413 0
-406 -407 0
-406 -408 0
-406 -409 0
-406 -410 0
-406 -411 0
-406 -412 0
-406 -413 0
-407 -408 0
-407 -409 0
-407 -410 0
-407 -411 0
-407 -412 0
-407 -413 0
-408 -409 0
-408 -410 0
-408 -411 0
-408 -412 0
-408 -413 0
-409 -410 0
-409 -411 0
-409 -412 0
-409 -413 0
-410 -411 0
-410 -412 0
-410 -413 0
-411 -412 0
-411 -413 0
-412 -413 0
414 415 416 417 418 419 420 421 422 423 424 425 426 427 428 0
-414 -415 0
-414 -416 0
-414 -417 0
-414 -418 0
-414 -419 0
-414 -420 0
-414 -421 0
-414 -422 0
-414 -423 0
-414 -424 0
-414 -425 0
-414 -426 0
-414 -427 0
-414 -428 0
-415 -416 0
-415 -417 0
-415 -418 0
-415 -419 0
-415 -420 0
-415 -421 0
-415 -422 0
-415 -423 0
-415 -424 0
-415 -425 0
-415 -426 0
-415 -427 0
-415 -428 0
-416 -417 0
-416 -418 0
-416 -419 0
-416 -420 0
-416 -421 0
-416 -422 0
-416 -423 0
-416 -424 0
-416 -425 0
-416 -426 0
-416 -427 0
-416 -428 0
-417 -418 0
-417 -419 0
-417 -420 0
-417 -421 0
-417 -422 0
-417 -423 0
-417 -424 0
-417 -425 0
-417 -426 0
-417 -427 0
-417 -428 0
-418 -419 0
-418 -420 0
-418 -421 0
-418 -422 0
-418 -423 0
-418 -424 0
-418 -425 0
-418 -426 0
-418 -427 0
-418 -428 0
-419 -420 0
-419 -421 0
-419 -422 0
-419 -423 0
-419 -424 0
-419 -425 0
-419 -426 0
-419 -427 0
-419 -428 0
-420 -421 0
-420 -422 0
-420 -423 0
-420 -424 0
-420 -425 0
-420 -426 0
-420 -427 0
-420 -428 0
-421 -422 0
-421 -423 0
-421 -424 0
-421 -425 0
-421 -426 0
-421 -427 0
-421 -428 0
-422 -423 0
-422 -424 0
-422 -425 0
-422 -426 0
-422 -427 0
-422 -428 0
-423 -424 0
-423 -425 0
-423 -426 0
-423 -427 0
-423 -428 0
-424 -425 0
-424 -426 0
-424 -427 0
-424 -428 0
-425 -426 0
-425 -427 0
-425 -428 0
-426 -427 0
-426 -428 0
-427 -428 0
429 430 431 432 433 434 435 436 437 438 439 440 441 442 443 444 0
-429 -430 0
-429 -431 0
-429 -432 0
-429 -433 0
-429 -434 0
-429 -435 0
-429 -436 0
-429 -437 0
-429 -438 0
-429 -439 0
-429 -440 0
-429 -441 0
-429 -442 0
-429 -443 0
-429 -444 0
-430 -431 0
-430 -432 0
-430 -433 0
-430 -434 0
-430 -435 0
-430 -436 0
-430 -437 0
-430 -438 0
-430 -439 0
-430 -440 0
-430 -441 0
-430 -442 0
-430 -443 0
-430 -444 0
-431 -432 0
-431 -433 0
-431 -434 0
-431 -435 0
-431 -436 0
-431 -437 0
-431 -438 0
-431 -439 0
-431 -440 0
-431 -441 0
-431 -442 0
-431 -443 0
-431 -444 0
-432 -433 0
-432 -434 0
-432 -435 0
-432 -436 0
-432 -437 0
-432 -438 0
-432 -439 0
-432 -440 0
-432 -441 0
-432 -442 0
-432 -443 0
-432 -444 0
-433 -434 0
-433 -435 0
-433 -436 0
-433 -437 0
-433 -438 0
-433 -439 0
-433 -440 0
-433 -441 0
-433 -442 0
-433 -443 0
-433 -444 0
-434 -435 0
-434 -436 0
-434 -437 0
-434 -438 0
-434 -439 0
-434 -440 0
-434 -441 0
-434 -442 0
-434 -443 0
-434 -444 0
-435 -436 0
-435 -437 0
-435 -438 0
-435 -439 0
-435 -440 0
-435 -441 0
-435 -442 0
-435 -443 0
-435 -444 0
-436 -437 0
-436 -438 0
-436 -439 0
-436 -440 0
-436 -441 0
-436 -442 0
-436 -443 0
-436 -444 0
-437 -438 0
-437 -439 0
-437 -440 0
-437 -441 0
-437 -442 0
-437 -443 0
-437 -444 0
-438 -439 0
-438 -440 0
-438 -441 0
-438 -442 0
-438 -443 0
-438 -444 0
-439 -440 0
-439 -441 0
-439 -442 0
-439 -443 0
-439 -444 0
-440 -441 0
-440 -442 0
-440 -443 0
-440 -444 0
-441 -442 0
-441 -443 0
-441 -444 0
-442 -443 0
-442 -444 0
-443 -444 0
445 446 447 448 449 450 451 452 453 454 455 456 457 458 459 460 461 0
-445 -446 0
-445 -447 0
-445 -448 0
-445 -449 0
-445 -450 0
-445 -451 0
-445 -452 0
-445 -453 0
-445 -454 0
-445 -455 0
-445 -456 0
-445 -457 0
-445 -458 0
-445 -459 0
-445 -460 0
-445 -461 0
-446 -447 0
-446 -448 0
-446 -449 0
-446 -450 0
-446 -451 0
-446 -452 0
-446 -453 0
-446 -454 0
-446 -455 0
-446 -456 0
-446 -457 0
-446 -458 0
-446 -459 0
-446 -460 0
-446 -461 0
-447 -448 0
-447 -449 0
-447 -450 0
-447 -451 0
-447 -452 0
-447 -453 0
-447 -454 0
-447 -455 0
-447 -456 0
-447 -457 0
-447 -458 0
-447 -459 0
-447 -460 0
-447 -461 0
-448 -449 0
-448 -450 0
-448 -451 0
-448 -452 0
-448 -453 0
-448 -454 0
-448 -455 0
-448 -456 0
-448 -457 0
-448 -458 0
-448 -459 0
-448 -460 0
-448 -461 0
-449 -450 0
-449 -451 0
-449 -452 0
-449 -453 0
-449 -454 0
-449 -455 0
-449 -456 0
-449 -457 0
-449 -458 0
-449 -459 0
-449 -460 0
-449 -461 0
-450 -451 0
-450 -452 0
-450 -453 0
-450 -454 0
-450 -455 0
-450 -456 0
-450 -457 0
-450 -458 0
-450 -459 0
-450 -460 0
-450 -461 0
-451 -452 0
-451 -453 0
-451 -454 0
-451 -455 0
-451 -456 0
-451 -457 0
-451 -458 0
-451 -459 0
-451 -460 0
-451 -461 0
-452 -453 0
-452 -454 0
-452 -455 0
-452 -456 0
-452 -457 0
-452 -458 0
-452 -459 0
-452 -460 0
-452 -461 0
-453 -454 0
-453 -455 0
-453 -456 0
-453 -457 0
-453 -458 0
-453 -459 0
-453 -460 0
-453 -461 0
-454 -455 0
-454 -456 0
-454 -457 0
-454 -458 0
-454 -459 0
-454 -460 0
-454 -461 0
-455 -456 0
-455 -457 0
-455 -458 0
-455 -459 0
-455 -460 0
-455 -461 0
-456 -457 0
-456 -458 0
-456 -459 0
-456 -460 0
-456 -461 0
-457 -458 0
-457 -459 0
-457 -460 0
-457 -461 0
-458 -459 0
-458 -460 0
-458 -461 0
-459 -460 0
-459 -461 0
-460 -461 0
462 463 464 465 466 467 468 469 470 471 472 473 474 475 476 477 478 479 0
-462 -463 0
-462 -464 0
-462 -465 0
-462 -466 0
-462 -467 0
-462 -468 0
-462 -469 0
-462 -470 0
-462 -471 0
-462 -472 0
-462 -473 0
-462 -474 0
-462 -475 0
-462 -476 0
-462 -477 0
-462 -478 0
-462 -479 0
-463 -464 0
-463 -465 0
-463 -466 0
-463 -467 0
-463 -468 0
-463 -469 0
-463 -470 0
-463 -471 0
-463 -472 0
-463 -473 0
-463 -474 0
-463 -475 0
-463 -476 0
-463 -477 0
-463 -478 0
-463 -479 0
-464 -465 0
-464 -466 0
-464 -467 0
-464 -468 0
-464 -469 0
-464 -470 0
-464 -471 0
-464 -472 0
-464 -473 0
-464 -474 0
-464 -475 0
-464 -476 0
-464 -477 0
-464 -478 0
-464 -479 0
-465 -466 0
-465 -467 0
-465 -468 0
-465 -469 0
-465 -470 0
-465 -471 0
-465 -472 0
-465 -473 0
-465 -474 0
-465 -475 0
-465 -476 0
-465 -477 0
-465 -478 0
-465 -479 0
-466 -467 0
-466 -468 0
-466 -469 0
-466 -470 0
-466 -471 0
-466 -472 0
-466 -473 0
-466 -474 0
-466 -475 0
-466 -476 0
-466 -477 0
-466 -478 0
-466 -479 0
-467 -468 0
-467 -469 0
-467 -470 0
-467 -471 0
-467 -472 0
-467 -473 0
-467 -474 0
-467 -475 0
-467 -476 0
-467 -477 0
-467 -478 0
-467 -479 0
-468 -469 0
-468 -470 0
-468 -471 0
-468 -472 0
-468 -473 0
-468 -474 0
-468 -475 0
-468 -476 0
-468 -477 0
-468 -478 0
-468 -479 0
-469 -470 0
-469 -471 0
-469 -472 0
-469 -473 0
-469 -474 0
-469 -475 0
-469 -476 0
-469 -477 0
-469 -478 0
-469 -479 0
-470 -471 0
-470 -472 0
-470 -473 0
-470 -474 0
-470 -475 0
-470 -476 0
-470 -477 0
-470 -478 0
-470 -479 0
-471 -472 0
-471 -473 0
-471 -474 0
-471 -475 0
-471 -476 0
-471 -477 0
-471 -478 0
-471 -479 0
-472 -473 0
-472 -474 0
-472 -475 0
-472 -476 0
-472 -477 0
-472 -478 0
-472 -479 0
-473 -474 0
-473 -475 0
-473 -476 0
-473 -477 0
-473 -478 0
-473 -479 0
-474 -475 0
-474 -476 0
-474 -477 0
-474 -478 0
-474 -479 0
-475 -476 0
-475 -477 0
-475 -478 0
-475 -479 0
-476 -477 0
-476 -478 0
-476 -479 0
-477 -478 0
-477 -479 0
-478 -479 0
480 481 482 483 484 485 486 487 488 489 490 491 492 493 494 495 496 497 498 0
-480 -481 0
-480 -482 0
-480 -483 0
-480 -484 0
-480 -485 0
-480 -486 0
-480 -487 0
-480 -488 0
-480 -489 0
-480 -490 0
-480 -491 0
-480 -492 0
-480 -493 0
-480 -494 0
-480 -495 0
-480 -496 0
-480 -497 0
-480 -498 0
-481 -482 0
-481 -483 0
-481 -484 0
-481 -485 0
-481 -486 0
-481 -487 0
-481 -488 0
-481 -489 0
-481 -490 0
-481 -491 0
-481 -492 0
-481 -493 0
-481 -494 0
-481 -495 0
-481 -496 0
-481 -497 0
-481 -498 0
-482 -483 0
-482 -484 0
-482 -485 0
-482 -486 0
-482 -487 0
-482 -488 0
-482 -489 0
-482 -490 0
-482 -491 0
-482 -492 0
-482 -493 0
-482 -494 0
-482 -495 0
-482 -496 0
-482 -497 0
-482 -498 0
-483 -484 0
-483 -485 0
-483 -486 0
-483 -487 0
-483 -488 0
-483 -489 0
-483 -490 0
-483 -491 0
-483 -492 0
-483 -493 0
-483 -494 0
-483 -495 0
-483 -496 0
-483 -497 0
-483 -498 0
-484 -485 0
-484 -486 0
-484 -487 0
-484 -488 0
-484 -489 0
-484 -490 0
-484 -491 0
-484 -492 0
-484 -493 0
-484 -494 0
-484 -495 0
-484 -496 0
-484 -497 0
-484 -498 0
-485 -486 0
-485 -487 0
-485 -488 0
-485 -489 0
-485 -490 0
-485 -491 0
-485 -492 0
-485 -493 0
-485 -494 0
-485 -495 0
-485 -496 0
-485 -497 0
-485 -498 0
-486 -487 0
-486 -488 0
-486 -489 0
-486 -490 0
-486 -491 0
-486 -492 0
-486 -493 0
-486 -494 0
-486 -495 0
-486 -496 0
-486 -497 0
-486 -498 0
-487 -488 0
-487 -489 0
-487 -490 0
-487 -491 0
-487 -492 0
-487 -493 0
-487 -494 0
-487 -495 0
-487 -496 0
-487 -497 0
-487 -498 0
-488 -489 0
-488 -490 0
-488 -491 0
-488 -492 0
-488 -493 0
-488 -494 0
-488 -495 0
-488 -496 0
-488 -497 0
-488 -498 0
-489 -490 0
-489 -491 0
-489 -492 0
-489 -493 0
-489 -494 0
-489 -495 0
-489 -496 0
-489 -497 0
-489 -498 0
-490 -491 0
-490 -492 0
-490 -493 0
-490 -494 0
-490 -495 0
-490 -496 0
-490 -497 0
-490 -498 0
-491 -492 0
-491 -493 0
-491 -494 0
-491 -495 0
-491 -496 0
-491 -497 0
-491 -498 0
-492 -493 0
-492 -494 0
-492 -495 0
-492 -496 0
-492 -497 0
-492 -498 0
-493 -494 0
-493 -495 0
-493 -496 0
-493 -497 0
-493 -498 0
-494 -495 0
-494 -496 0
-494 -497 0
-494 -498 0
-495 -496 0
-495 -497 0
-495 -498 0
-496 -497 0
-496 -498 0
-497 -498 0
499 500 501 502 503 504 505 506 507 508 509 510 511 512 513 514 515 516 517 518 0
-499 -500 0
-499 -501 0
-499 -502 0
-499 -503 0
-499 -504 0
-499 -505 0
-499 -506 0
-499 -507 0
-499 -508 0
-499 -509 0
-499 -510 0
-499 -511 0
-499 -512 0
-499 -513 0
-499 -514 0
-499 -515 0
-499 -516 0
-499 -517 0
-499 -518 0
-500 -501 0
-500 -502 0
-500 -503 0
-500 -504 0
-500 -505 0
-500 -506 0
-500 -507 0
-500 -508 0
-500 -509 0
-500 -510 0
-500 -511 0
-500 -512 0
-500 -513 0
-500 -514 0
-500 -515 0
-500 -516 0
-500 -517 0
-500 -518 0
-501 -502 0
-501 -503 0
-501 -504 0
-501 -505 0
-501 -506 0
-501 -507 0
-501 -508 0
-501 -509 0
-501 -510 0
-501 -511 0
-501 -512 0
-501 -513 0
-501 -514 0
-501 -515 0
-501 -516 0
-501 -517 0
-501 -518 0
-502 -503 0
-502 -504 0
-502 -505 0
-502 -506 0
-502 -507 0
-502 -508 0
-502 -509 0
-502 -510 0
-502 -511 0
-502 -512 0
-502 -513 0
-502 -514 0
-502 -515 0
-502 -516 0
-502 -517 0
-502 -518 0
-503 -504 0
-503 -505 0
-503 -506 0
-503 -507 0
-503 -508 0
-503 -509 0
-503 -510 0
-503 -511 0
-503 -512 0
-503 -513 0
-503 -514 0
-503 -515 0
-503 -516 0
-503 -517 0
-503 -518 0
-504 -505 0
-504 -506 0
-504 -507 0
-504 -508 0
-504 -509 0
-504 -510 0
-504 -511 0
-504 -512 0
-504 -513 0
-504 -514 0
-504 -515 0
-504 -516 0
-504 -517 0
-504 -518 0
-505 -506 0
-505 -507 0
-505 -508 0
-505 -509 0
-505 -510 0
-505 -511 0
-505 -512 0
-505 -513 0
-505 -514 0
-505 -515 0
-505 -516 0
-505 -517 0
-505 -518 0
-506 -507 0
-506 -508 0
-506 -509 0
-506 -510 0
-506 -511 0
-506 -512 0
-506 -513 0
-506 -514 0
-506 -515 0
-506 -516 0
-506 -517 0
-506 -518 0
-507 -508 0
-507 -509 0
-507 -510 0
-507 -511 0
-507 -512 0
-507 -513 0
-507 -514 0
-507 -515 0
-507 -516 0
-507 -517 0
-507 -518 0
-508 -509 0
-508 -510 0
-508 -511 0
-508 -512 0
-508 -513 0
-508 -514 0
-508 -515 0
-508 -516 0
-508 -517 0
-508 -518 0
-509 -510 0
-509 -511 0
-509 -512 0
-509 -513 0
-509 -514 0
-509 -515 0
-509 -516 0
-509 -517 0
-509 -518 0
-510 -511 0
-510 -512 0
-510 -513 0
-510 -514 0
-510 -515 0
-510 -516 0
-510 -517 0
-510 -518 0
-511 -512 0
-511 -513 0
-511 -514 0
-511 -515 0
-511 -516 0
-511 -517 0
-511 -518 0
-512 -513 0
-512 -514 0
-512 -515 0
-512 -516 0
-512 -517 0
-512 -518 0
-513 -514 0
-513 -515 0
-513 -516 0
-513 -517 0
-513 -518 0
-514 -515 0
-514 -516 0
-514 -517 0
-514 -518 0
-515 -516 0
-515 -517 0
-515 -518 0
-516 -517 0
-516 -518 0
-517 -518 0
519 520 521 522 523 524 525 526 527 528 529 530 531 532 533 534 535 536 537 538 539 0
-519 -520 0
-519 -521 0
-519 -522 0
-519 -523 0
-519 -524 0
-519 -525 0
-519 -526 0
-519 -527 0
-519 -528 0
-519 -529 0
-519 -530 0
-519 -531 0
-519 -532 0
-519 -533 0
-519 -534 0
-519 -535 0
-519 -536 0
-519 -537 0
-519 -538 0
-519 -539 0
-520 -521 0
-520 -522 0
-520 -523 0
-520 -524 0
-520 -525 0
-520 -526 0
-520 -527 0
-520 -528 0
-520 -529 0
-520 -530 0
-520 -531 0
-520 -532 0
-520 -533 0
-520 -534 0
-520 -535 0
-520 -536 0
-520 -537 0
-520 -538 0
-520 -539 0
-521 -522 0
-521 -523 0
-521 -524 0
-521 -525 0
-521 -526 0
-521 -527 0
-521 -528 0
-521 -529 0
-521 -530 0
-521 -531 0
-521 -532 0
-521 -533 0
-521 -534 0
-521 -535 0
-521 -536 0
-521 -537 0
-521 -538 0
-521 -539 0
-522 -523 0
-522 -524 0
-522 -525 0
-522 -526 0
-522 -527 0
-522 -528 0
-522 -529 0
-522 -530 0
-522 -531 0
-522 -532 0
-522 -533 0
-522 -534 0
-522 -535 0
-522 -536 0
-522 -537 0
-522 -538 0
-522 -539 0
-523 -524 0
-523 -525 0
-523 -526 0
-523 -527 0
-523 -528 0
-523 -529 0
-523 -530 0
-523 -531 0
-523 -532 0
-523 -533 0
-523 -534 0
-523 -535 0
-523 -536 0
-523 -537 0
-523 -538 0
-523 -539 0
-524 -525 0
-524 -526 0
-524 -527 0
-524 -528 0
-524 -529 0
-524 -530 0
-524 -531 0
-524 -532 0
-524 -533 0
-524 -534 0
-524 -535 0
-524 -536 0
-524 -537 0
-524 -538 0
-524 -539 0
-525 -526 0
-525 -527 0
-525 -528 0
-525 -529 0
-525 -530 0
-525 -531 0
-525 -532 0
-525 -533 0
-525 -534 0
-525 -535 0
-525 -536 0
-525 -537 0
-525 -538 0
-525 -539 0
-526 -527 0
-526 -528 0
-526 -529 0
-526 -530 0
-526 -531 0
-526 -532 0
-526 -533 0
-526 -534 0
-526 -535 0
-526 -536 0
-526 -537 0
-526 -538 0
-526 -539 0
-527 -528 0
-527 -529 0
-527 -530 0
-527 -531 0
-527 -532 0
-527 -533 0
-527 -534 0
-527 -535 0
-527 -536 0
-527 -537 0
-527 -538 0
-527 -539 0
-528 -529 0
-528 -530 0
-528 -531 0
-528 -532 0
-528 -533 0
-528 -534 0
-528 -535 0
-528 -536 0
-528 -537 0
-528 -538 0
-528 -539 0
-529 -530 0
-529 -531 0
-529 -532 0
-529 -533 0
-529 -534 0
-529 -535 0
-529 -536 0
-529 -537 0
-529 -538 0
-529 -539 0
-530 -531 0
-530 -532 0
-530 -533 0
-530 -534 0
-530 -535 0
-530 -536 0
-530 -537 0
-530 -538 0
-530 -539 0
-531 -532 0
-531 -533 0
-531 -534 0
-531 -535 0
-531 -536 0
-531 -537 0
-531 -538 0
-531 -539 0
-532 -533 0
-532 -534 0
-532 -535 0
-532 -536 0
-532 -537 0
-532 -538 0
-532 -539 0
-533 -534 0
-533 -535 0
-533 -536 0
-533 -537 0
-533 -538 0
-533 -539 0
-534 -535 0
-534 -536 0
-534 -537 0
-534 -538 0
-534 -539 0
-535 -536 0
-535 -537 0
-535 -538 0
-535 -539 0
-536 -537 0
-536 -538 0
-536 -539 0
-537 -538 0
-537 -539 0
-538 -539 0
540 541 542 543 544 545 546 547 548 549 550 551 552 553 554 555 556 557 558 559 560 561 0
-540 -541 0
-540 -542 0
-540 -543 0
-540 -544 0
-540 -545 0
-540 -546 0
-540 -547 0
-540 -548 0
-540 -549 0
-540 -550 0
-540 -551 0
-540 -552 0
-540 -553 0
-540 -554 0
-540 -555 0
-540 -556 0
-540 -557 0
-540 -558 0
-540 -559 0
-540 -560 0
-540 -561 0
-541 -542 0
-541 -543 0
-541 -544 0
-541 -545 0
-541 -546 0
-541 -547 0
-541 -548 0
-541 -549 0
-541 -550 0
-541 -551 0
-541 -552 0
-541 -553 0
-541 -554 0
-541 -555 0
-541 -556 0
-541 -557 0
-541 -558 0
-541 -559 0
-541 -560 0
-541 -561 0
-542 -543 0
-542 -544 0
-542 -545 0
-542 -546 0
-542 -547 0
-542 -548 0
-542 -549 0
-542 -550 0
-542 -551 0
-542 -552 0
-542 -553 0
-542 -554 0
-542 -555 0
-542 -556 0
-542 -557 0
-542 -558 0
-542 -559 0
-542 -560 0
-542 -561 0
-543 -544 0
-543 -545 0
-543 -546 0
-543 -547 0
-543 -548 0
-543 -549 0
-543 -550 0
-543 -551 0
-543 -552 0
-543 -553 0
-543 -554 0
-543 -555 0
-543 -556 0
-543 -557 0
-543 -558 0
-543 -559 0
-543 -560 0
-543 -561 0
-544 -545 0
-544 -546 0
-544 -547 0
-544 -548 0
-544 -549 0
-544 -550 0
-544 -551 0
-544 -552 0
-544 -553 0
-544 -554 0
-544 -555 0
-544 -556 0
-544 -557 0
-544 -558 0
-544 -559 0
-544 -560 0
-544 -561 0
-545 -546 0
-545 -547 0
-545 -548 0
-545 -549 0
-545 -550 0
-545 -551 0
-545 -552 0
-545 -553 0
-545 -554 0
-545 -555 0
-545 -556 0
-545 -557 0
-545 -558 0
-545 -559 0
-545 -560 0
-545 -561 0
-546 -547 0
-546 -548 0
-546 -549 0
-546 -550 0
-546 -551 0
-546 -552 0
-546 -553 0
-546 -554 0
-546 -555 0
-546 -556 0
-546 -557 0
-546 -558 0
-546 -559 0
-546 -560 0
-546 -561 0
-547 -548 0
-547 -549 0
-547 -550 0
-547 -551 0
-547 -552 0
-547 -553 0
-547 -554 0
-547 -555 0
-547 -556 0
-547 -557 0
-547 -558 0
-547 -559 0
-547 -560 0
-547 -561 0
-548 -549 0
-548 -550 0
-548 -551 0
-548 -552 0
-548 -553 0
-548 -554 0
-548 -555 0
-548 -556 0
-548 -557 0
-548 -558 0
-548 -559 0
-548 -560 0
-548 -561 0
-549 -550 0
-549 -551 0
-549 -552 0
-549 -553 0
-549 -554 0
-549 -555 0
-549 -556 0
-549 -557 0
-549 -558 0
-549 -559 0
-549 -560 0
-549 -561 0
-550 -551 0
-550 -552 0
-550 -553 0
-550 -554 0
-550 -555 0
-550 -556 0
-550 -557 0
-550 -558 0
-550 -559 0
-550 -560 0
-550 -561 0
-551 -552 0
-551 -553 0
-551 -554 0
-551 -555 0
-551 -556 0
-551 -557 0
-551 -558 0
-551 -559 0
-551 -560 0
-551 -561 0
-552 -553 0
-552 -554 0
-552 -555 0
-552 -556 0
-552 -557 0
-552 -558 0
-552 -559 0
-552 -560 0
-552 -561 0
-553 -554 0
-553 -555 0
-553 -556 0
-553 -557 0
-553 -558 0
-553 -559 0
-553 -560 0
-553 -561 0
-554 -555 0
-554 -556 0
-554 -557 0
-554 -558 0
-554 -559 0
-554 -560 0
-554 -561 0
-555 -556 0
-555 -557 0
-555 -558 0
-555 -559 0
-555 -560 0
-555 -561 0
-556 -557 0
-556 -558 0
-556 -559 0
-556 -560 0
-556 -561 0
-557 -558 0
-557 -559 0
-557 -560 0
-557 -561 0
-558 -559 0
-558 -560 0
-558 -561 0
-559 -560 0
-559 -561 0
-560 -561 0
562 563 564 565 566 567 568 569 570 571 572 573 574 575 576 577 578 579 580 581 582 583 584 0
-562 -563 0
-562 -564 0
-562 -565 0
-562 -566 0
-562 -567 0
-562 -568 0
-562 -569 0
-562 -570 0
-562 -571 0
-562 -572 0
-562 -573 0
-562 -574 0
-562 -575 0
-562 -576 0
-562 -577 0
-562 -578 0
-562 -579 0
-562 -580 0
-562 -581 0
-562 -582 0
-562 -583 0
-562 -584 0
-563 -564 0
-563 -565 0
-563 -566 0
-563 -567 0
-563 -568 0
-563 -569 0
-563 -570 0
-563 -571 0
-563 -572 0
-563 -573 0
-563 -574 0
-563 -575 0
-563 -576 0
-563 -577 0
-563 -578 0
-563 -579 0
-563 -580 0
-563 -581 0
-563 -582 0
-563 -583 0
-563 -584 0
-564 -565 0
-564 -566 0
-564 -567 0
-564 -568 0
-564 -569 0
-564 -570 0
-564 -571 0
-564 -572 0
-564 -573 0
-564 -574 0
-564 -575 0
-564 -576 0
-564 -577 0
-564 -578 0
-564 -579 0
-564 -580 0
-564 -581 0
-564 -582 0
-564 -583 0
-564 -584 0
-565 -566 0
-565 -567 0
-565 -568 0
-565 -569 0
-565 -570 0
-565 -571 0
-565 -572 0
-565 -573 0
-565 -574 0
-565 -575 0
-565 -576 0
-565 -577 0
-565 -578 0
-565 -579 0
-565 -580 0
-565 -581 0
-565 -582 0
-565 -583 0
-565 -584 0
-566 -567 0
-566 -568 0
-566 -569 0
-566 -570 0
-566 -571 0
-566 -572 0
-566 -573 0
-566 -574 0
-566 -575 0
-566 -576 0
-566 -577 0
-566 -578 0
-566 -579 0
-566 -580 0
-566 -581 0
-566 -582 0
-566 -583 0
-566 -584 0
-567 -568 0
-567 -569 0
-567 -570 0
-567 -571 0
-567 -572 0
-567 -573 0
-567 -574 0
-567 -575 0
-567 -576 0
-567 -577 0
-567 -578 0
-567 -579 0
-567 -580 0
-567 -581 0
-567 -582 0
-567 -583 0
-567 -584 0
-568 -569 0
-568 -570 0
-568 -571 0
-568 -572 0
-568 -573 0
-568 -574 0
-568 -575 0
-568 -576 0
-568 -577 0
-568 -578 0
-568 -579 0
-568 -580 0
-568 -581 0
-568 -582 0
-568 -583 0
-568 -584 0
-569 -570 0
-569 -571 0
-569 -572 0
-569 -573 0
-569 -574 0
-569 -575 0
-569 -576 0
-569 -577 0
-569 -578 0
-569 -579 0
-569 -580 0
-569 -581 0
-569 -582 0
-569 -583 0
-569 -584 0
-570 -571 0
-570 -572 0
-570 -573 0
-570 -574 0
-570 -575 0
-570 -576 0
-570 -577 0
-570 -578 0
-570 -579 0
-570 -580 0
-570 -581 0
-570 -582 0
-570 -583 0
-570 -584 0
-571 -572 0
-571 -573 0
-571 -574 0
-571 -575 0
-571 -576 0
-571 -577 0
-571 -578 0
-571 -579 0
-571 -580 0
-571 -581 0
-571 -582 0
-571 -583 0
-571 -584 0
-572 -573 0
-572 -574 0
-572 -575 0
-572 -576 0
-572 -577 0
-572 -578 0
-572 -579 0
-572 -580 0
-572 -581 0
-572 -582 0
-572 -583 0
-572 -584 0
-573 -574 0
-573 -575 0
-573 -576 0
-573 -577 0
-573 -578 0
-573 -579 0
-573 -580 0
-573 -581 0
-573 -582 0
-573 -583 0
-573 -584 0
-574 -575 0
-574 -576 0
-574 -577 0
-574 -578 0
-574 -579 0
-574 -580 0
-574 -581 0
-574 -582 0
-574 -583 0
-574 -584 0
-575 -576 0
-575 -577 0
-575 -578 0
-575 -579 0
-575 -580 0
-575 -581 0
-575 -582 0
-575 -583 0
-575 -584 0
-576 -577 0
-576 -578 0
-576 -579 0
-576 -580 0
-576 -581 0
-576 -582 0
-576 -583 0
-576 -584 0
-577 -578 0
-577 -579 0
-577 -580 0
-577 -581 0
-577 -582 0
-577 -583 0
-577 -584 0
-578 -579 0
-578 -580 0
-578 -581 0
-578 -582 0
-578 -583 0
-578 -584 0
-579 -580 0
-579 -581 0
-579 -582 0
-579 -583 0
-579 -584 0
-580 -581 0
-580 -582 0
-580 -583 0
-580 -584 0
-581 -582 0
-581 -583 0
-581 -584 0
-582 -583 0
-582 -584 0
-583 -584 0
585 586 587 588 589 590 591 592 593 594 595 596 597 598 599 600 601 602 603 604 605 606 607 608 0
-585 -586 0
-585 -587 0
-585 -588 0
-585 -589 0
-585 -590 0
-585 -591 0
-585 -592 0
-585 -593 0
-585 -594 0
-585 -595 0
-585 -596 0
-585 -597 0
-585 -598 0
-585 -599 0
-585 -600 0
-585 -601 0
-585 -602 0
-585 -603 0
-585 -604 0
-585 -605 0
-585 -606 0
-585 -607 0
-585 -608 0
-586 -587 0
-586 -588 0
-586 -589 0
-586 -590 0
-586 -591 0
-586 -592 0
-586 -593 0
-586 -594 0
-586 -595 0
-586 -596 0
-586 -597 0
-586 -598 0
-586 -599 0
-586 -600 0
-586 -601 0
-586 -602 0
-586 -603 0
-586 -604 0
-586 -605 0
-586 -606 0
-586 -607 0
-586 -608 0
-587 -588 0
-587 -589 0
-587 -590 0
-587 -591 0
-587 -592 0
-587 -593 0
-587 -594 0
-587 -595 0
-587 -596 0
-587 -597 0
-587 -598 0
-587 -599 0
-587 -600 0
-587 -601 0
-587 -602 0
-587 -603 0
-587 -604 0
-587 -605 0
-587 -606 0
-587 -607 0
-587 -608 0
-588 -589 0
-588 -590 0
-588 -591 0
-588 -592 0
-588 -593 0
-588 -594 0
-588 -595 0
-588 -596 0
-588 -597 0
-588 -598 0
-588 -599 0
-588 -600 0
-588 -601 0
-588 -602 0
-588 -603 0
-588 -604 0
-588 -605 0
-588 -606 0
-588 -607 0
-588 -608 0
-589 -590 0
-589 -591 0
-589 -592 0
-589 -593 0
-589 -594 0
-589 -595 0
-589 -596 0
-589 -597 0
-589 -598 0
-589 -599 0
-589 -600 0
-589 -601 0
-589 -602 0
-589 -603 0
-589 -604 0
-589 -605 0
-589 -606 0
-589 -607 0
-589 -608 0
-590 -591 0
-590 -592 0
-590 -593 0
-590 -594 0
-590 -595 0
-590 -596 0
-590 -597 0
-590 -598 0
-590 -599 0
-590 -600 0
-590 -601 0
-590 -602 0
-590 -603 0
-590 -604 0
-590 -605 0
-590 -606 0
-590 -607 0
-590 -608 0
-591 -592 0
-591 -593 0
-591 -594 0
-591 -595 0
-591 -596 0
-591 -597 0
-591 -598 0
-591 -599 0
-591 -600 0
-591 -601 0
-591 -602 0
-591 -603 0
-591 -604 0
-591 -605 0
-591 -606 0
-591 -607 0
-591 -608 0
-592 -593 0
-592 -594 0
-592 -595 0
-592 -596 0
-592 -597 0
-592 -598 0
-592 -599 0
-592 -600 0
-592 -601 0
-592 -602 0
-592 -603 0
-592 -604 0
-592 -605 0
-592 -606 0
-592 -607 0
-592 -608 0
-593 -594 0
-593 -595 0
-593 -596 0
-593 -597 0
-593 -598 0
-593 -599 0
-593 -600 0
-593 -601 0
-593 -602 0
-593 -603 0
-593 -604 0
-593 -605 0
-593 -606 0
-593 -607 0
-593 -608 0
-594 -595 0
-594 -596 0
-594 -597 0
-594 -598 0
-594 -599 0
-594 -600 0
-594 -601 0
-594 -602 0
-594 -603 0
-594 -604 0
-594 -605 0
-594 -606 0
-594 -607 0
-594 -608 0
-595 -596 0
-595 -597 0
-595 -598 0
-595 -599 0
-595 -600 0
-595 -601 0
-595 -602 0
-595 -603 0
-595 -604 0
-595 -605 0
-595 -606 0
-595 -607 0
-595 -608 0
-596 -597 0
-596 -598 0
-596 -599 0
-596 -600 0
-596 -601 0
-596 -602 0
-596 -603 0
-596 -604 0
-596 -605 0
-596 -606 0
-596 -607 0
-596 -608 0
-597 -598 0
-597 -599 0
-597 -600 0
-597 -601 0
-597 -602 0
-597 -603 0
-597 -604 0
-597 -605 0
-597 -606 0
-597 -607 0
-597 -608 0
-598 -599 0
-598 -600 0
-598 -601 0
-598 -602 0
-598 -603 0
-598 -604 0
-598 -605 0
-598 -606 0
-598 -607 0
-598 -608 0
-599 -600 0
-599 -601 0
-599 -602 0
-599 -603 0
-599 -604 0
-599 -605 0
-599 -606 0
-599 -607 0
-599 -608 0
-600 -601 0
-600 -602 0
-600 -603 0
-600 -604 0
-600 -605 0
-600 -606 0
-600 -607 0
-600 -608 0
-601 -602 0
-601 -603 0
-601 -604 0
-601 -605 0
-601 -606 0
-601 -607 0
-601 -608 0
-602 -603 0
-602 -604 0
-602 -605 0
-602 -606 0
-602 -607 0
-602 -608 0
-603 -604 0
-603 -605 0
-603 -606 0
-603 -607 0
-603 -608 0
-604 -605 0
-604 -606 0
-604 -607 0
-604 -608 0
-605 -606 0
-605 -607 0
-605 -608 0
-606 -607 0
-606 -608 0
-607 -608 0
609 610 611 612 613 614 615 616 617 618 619 620 621 622 623 624 625 626 627 628 629 630 631 632 633 0
-609 -610 0
-609 -611 0
-609 -612 0
-609 -613 0
-609 -614 0
-609 -615 0
-609 -616 0
-609 -617 0
-609 -618 0
-609 -619 0
-609 -620 0
-609 -621 0
-609 -622 0
-609 -623 0
-609 -624 0
-609 -625 0
-609 -626 0
-609 -627 0
-609 -628 0
-609 -629 0
-609 -630 0
-609 -631 0
-609 -632 0
-609 -633 0
-610 -611 0
-610 -612 0
-610 -613 0
-610 -614 0
-610 -615 0
-610 -616 0
-610 -617 0
-610 -618 0
-610 -619 0
-610 -620 0
-610 -621 0
-610 -622 0
-610 -623 0
-610 -624 0
-610 -625 0
-610 -626 0
-610 -627 0
-610 -628 0
-610 -629 0
-610 -630 0
-610 -631 0
-610 -632 0
-610 -633 0
-611 -612 0
-611 -613 0
-611 -614 0
-611 -615 0
-611 -616 0
-611 -617 0
-611 -618 0
-611 -619 0
-611 -620 0
-611 -621 0
-611 -622 0
-611 -623 0
-611 -624 0
-611 -625 0
-611 -626 0
-611 -627 0
-611 -628 0
-611 -629 0
-611 -630 0
-611 -631 0
-611 -632 0
-611 -633 0
-612 -613 0
-612 -614 0
-612 -615 0
-612 -616 0
-612 -617 0
-612 -618 0
-612 -619 0
-612 -620 0
-612 -621 0
-612 -622 0
-612 -623 0
-612 -624 0
-612 -625 0
-612 -626 0
-612 -627 0
-612 -628 0
-612 -629 0
-612 -630 0
-612 -631 0
-612 -632 0
-612 -633 0
-613 -614 0
-613 -615 0
-613 -616 0
-613 -617 0
-613 -618 0
-613 -619 0
-613 -620 0
-613 -621 0
-613 -622 0
-613 -623 0
-613 -624 0
-613 -625 0
-613 -626 0
-613 -627 0
-613 -628 0
-613 -629 0
-613 -630 0
-613 -631 0
-613 -632 0
-613 -633 0
-614 -615 0
-614 -616 0
-614 -617 0
-614 -618 0
-614 -619 0
-614 -620 0
-614 -621 0
-614 -622 0
-614 -623 0
-614 -624 0
-614 -625 0
-614 -626 0
-614 -627 0
-614 -628 0
-614 -629 0
-614 -630 0
-614 -631 0
-614 -632 0
-614 -633 0
-615 -616 0
-615 -617 0
-615 -618 0
-615 -619 0
-615 -620 0
-615 -621 0
-615 -622 0
-615 -623 0
-615 -624 0
-615 -625 0
-615 -626 0
-615 -627 0
-615 -628 0
-615 -629 0
-615 -630 0
-615 -631 0
-615 -632 0
-615 -633 0
-616 -617 0
-616 -618 0
-616 -619 0
-616 -620 0
-616 -621 0
-616 -622 0
-616 -623 0
-616 -624 0
-616 -625 0
-616 -626 0
-616 -627 0
-616 -628 0
-616 -629 0
-616 -630 0
-616 -631 0
-616 -632 0
-616 -633 0
-617 -618 0
-617 -619 0
-617 -620 0
-617 -621 0
-617 -622 0
-617 -623 0
-617 -624 0
-617 -625 0
-617 -626 0
-617 -627 0
-617 -628 0
-617 -629 0
-617 -630 0
-617 -631 0
-617 -632 0
-617 -633 0
-618 -619 0
-618 -620 0
-618 -621 0
-618 -622 0
-618 -623 0
-618 -624 0
-618 -625 0
-618 -626 0
-618 -627 0
-618 -628 0
-618 -629 0
-618 -630 0
-618 -631 0
-618 -632 0
-618 -633 0
-619 -620 0
-619 -621 0
-619 -622 0
-619 -623 0
-619 -624 0
-619 -625 0
-619 -626 0
-619 -627 0
-619 -628 0
-619 -629 0
-619 -630 0
-619 -631 0
-619 -632 0
-619 -633 0
-620 -621 0
-620 -622 0
-620 -623 0
-620 -624 0
-620 -625 0
-620 -626 0
-620 -627 0
-620 -628 0
-620 -629 0
-620 -630 0
-620 -631 0
-620 -632 0
-620 -633 0
-621 -622 0
-621 -623 0
-621 -624 0
-621 -625 0
-621 -626 0
-621 -627 0
-621 -628 0
-621 -629 0
-621 -630 0
-621 -631 0
-621 -632 0
-621 -633 0
-622 -623 0
-622 -624 0
-622 -625 0
-622 -626 0
-622 -627 0
-622 -628 0
-622 -629 0
-622 -630 0
-622 -631 0
-622 -632 0
-622 -633 0
-623 -624 0
-623 -625 0
-623 -626 0
-623 -627 0
-623 -628 0
-623 -629 0
-623 -630 0
-623 -631 0
-623 -632 0
-623 -633 0
-624 -625 0
-624 -626 0
-624 -627 0
-624 -628 0
-624 -629 0
-624 -630 0
-624 -631 0
-624 -632 0
-624 -633 0
-625 -626 0
-625 -627 0
-625 -628 0
-625 -629 0
-625 -630 0
-625 -631 0
-625 -632 0
-625 -633 0
-626 -627 0
-626 -628 0
-626 -629 0
-626 -630 0
-626 -631 0
-626 -632 0
-626 -633 0
-627 -628 0
-627 -629 0
-627 -630 0
-627 -631 0
-627 -632 0
-627 -633 0
-628 -629 0
-628 -630 0
-628 -631 0
-628 -632 0
-628 -633 0
-629 -630 0
-629 -631 0
-629 -632 0
-629 -633 0
-630 -631 0
-630 -632 0
-630 -633 0
-631 -632 0
-631 -633 0
-632 -633 0
634 635 636 637 638 639 640 641 642 643 644 645 646 647 648 649 650 651 652 653 654 655 656 657 658 659 0
-634 -635 0
-634 -636 0
-634 -637 0
-634 -638 0
-634 -639 0
-634 -640 0
-634 -641 0
-634 -642 0
-634 -643 0
-634 -644 0
-634 -645 0
-634 -646 0
-634 -647 0
-634 -648 0
-634 -649 0
-634 -650 0
-634 -651 0
-634 -652 0
-634 -653 0
-634 -654 0
-634 -655 0
-634 -656 0
-634 -657 0
-634 -658 0
-634 -659 0
-635 -636 0
-635 -637 0
-635 -638 0
-635 -639 0
-635 -640 0
-635 -641 0
-635 -642 0
-635 -643 0
-635 -644 0
-635 -645 0
-635 -646 0
-635 -647 0
-635 -648 0
-635 -649 0
-635 -650 0
-635 -651 0
-635 -652 0
-635 -653 0
-635 -654 0
-635 -655 0
-635 -656 0
-635 -657 0
-635 -658 0
-635 -659 0
-636 -637 0
-636 -638 0
-636 -639 0
-636 -640 0
-636 -641 0
-636 -642 0
-636 -643 0
-636 -644 0
-636 -645 0
-636 -646 0
-636 -647 0
-636 -648 0
-636 -649 0
-636 -650 0
-636 -651 0
-636 -652 0
-636 -653 0
-636 -654 0
-636 -655 0
-636 -656 0
-636 -657 0
-636 -658 0
-636 -659 0
-637 -638 0
-637 -639 0
-637 -640 0
-637 -641 0
-637 -642 0
-637 -643 0
-637 -644 0
-637 -645 0
-637 -646 0
-637 -647 0
-637 -648 0
-637 -649 0
-637 -650 0
-637 -651 0
-637 -652 0
-637 -653 0
-637 -654 0
-637 -655 0
-637 -656 0
-637 -657 0
-637 -658 0
-637 -659 0
-638 -639 0
-638 -640 0
-638 -641 0
-638 -642 0
-638 -643 0
-638 -644 0
-638 -645 0
-638 -646 0
-638 -647 0
-638 -648 0
-638 -649 0
-638 -650 0
-638 -651 0
-638 -652 0
-638 -653 0
-638 -654 0
-638 -655 0
-638 -656 0
-638 -657 0
-638 -658 0
-638 -659 0
-639 -640 0
-639 -641 0
-639 -642 0
-639 -643 0
-639 -644 0
-639 -645 0
-639 -646 0
-639 -647 0
-639 -648 0
-639 -649 0
-639 -650 0
-639 -651 0
-639 -652 0
-639 -653 0
-639 -654 0
-639 -655 0
-639 -656 0
-639 -657 0
-639 -658 0
-639 -659 0
-640 -641 0
-640 -642 0
-640 -643 0
-640 -644 0
-640 -645 0
-640 -646 0
-640 -647 0
-640 -648 0
-640 -649 0
-640 -650 0
-640 -651 0
-640 -652 0
-640 -653 0
-640 -654 0
-640 -655 0
-640 -656 0
-640 -657 0
-640 -658 0
-640 -659 0
-641 -642 0
-641 -643 0
-641 -644 0
-641 -645 0
-641 -646 0
-641 -647 0
-641 -648 0
-641 -649 0
-641 -650 0
-641 -651 0
-641 -652 0
-641 -653 0
-641 -654 0
-641 -655 0
-641 -656 0
-641 -657 0
-641 -658 0
-641 -659 0
-642 -643 0
-642 -644 0
-642 -645 0
-642 -646 0
-642 -647 0
-642 -648 0
-642 -649 0
-642 -650 0
-642 -651 0
-642 -652 0
-642 -653 0
-642 -654 0
-642 -655 0
-642 -656 0
-642 -657 0
-642 -658 0
-642 -659 0
-643 -644 0
-643 -645 0
-643 -646 0
-643 -647 0
-643 -648 0
-643 -649 0
-643 -650 0
-643 -651 0
-643 -652 0
-643 -653 0
-643 -654 0
-643 -655 0
-643 -656 0
-643 -657 0
-643 -658 0
-643 -659 0
-644 -645 0
-644 -646 0
-644 -647 0
-644 -648 0
-644 -649 0
-644 -650 0
-644 -651 0
-644 -652 0
-644 -653 0
-644 -654 0
-644 -655 0
-644 -656 0
-644 -657 0
-644 -658 0
-644 -659 0
-645 -646 0
-645 -647 0
-645 -648 0
-645 -649 0
-645 -650 0
-645 -651 0
-645 -652 0
-645 -653 0
-645 -654 0
-645 -655 0
-645 -656 0
-645 -657 0
-645 -658 0
-645 -659 0
-646 -647 0
-646 -648 0
-646 -649 0
-646 -650 0
-646 -651 0
-646 -652 0
-646 -653 0
-646 -654 0
-646 -655 0
-646 -656 0
-646 -657 0
-646 -658 0
-646 -659 0
-647 -648 0
-647 -649 0
-647 -650 0
-647 -651 0
-647 -652 0
-647 -653 0
-647 -654 0
-647 -655 0
-647 -656 0
-647 -657 0
-647 -658 0
-647 -659 0
-648 -649 0
-648 -650 0
-648 -651 0
-648 -652 0
-648 -653 0
-648 -654 0
-648 -655 0
-648 -656 0
-648 -657 0
-648 -658 0
-648 -659 0
-649 -650 0
-649 -651 0
-649 -652 0
-649 -653 0
-649 -654 0
-649 -655 0
-649 -656 0
-649 -657 0
-649 -658 0
-649 -659 0
-650 -651 0
-650 -652 0
-650 -653 0
-650 -654 0
-650 -655 0
-650 -656 0
-650 -657 0
-650 -658 0
-650 -659 0
-651 -652 0
-651 -653 0
-651 -654 0
-651 -655 0
-651 -656 0
-651 -657 0
-651 -658 0
-651 -659 0
-652 -653 0
-652 -654 0
-652 -655 0
-652 -656 0
-652 -657 0
-652 -658 0
-652 -659 0
-653 -654 0
-653 -655 0
-653 -656 0
-653 -657 0
-653 -658 0
-653 -659 0
-654 -655 0
-654 -656 0
-654 -657 0
-654 -658 0
-654 -659 0
-655 -656 0
-655 -657 0
-655 -658 0
-655 -659 0
-656 -657 0
-656 -658 0
-656 -659 0
-657 -658 0
-657 -659 0
-658 -659 0
660 661 662 663 664 665 666 667 668 669 670 671 672 673 674 675 676 677 678 679 680 681 682 683 684 685 686 0
-660 -661 0
-660 -662 0
-660 -663 0
-660 -664 0
-660 -665 0
-660 -666 0
-660 -667 0
-660 -668 0
-660 -669 0
-660 -670 0
-660 -671 0
-660 -672 0
-660 -673 0
-660 -674 0
-660 -675 0
-660 -676 0
-660 -677 0
-660 -678 0
-660 -679 0
-660 -680 0
-660 -681 0
-660 -682 0
-660 -683 0
-660 -684 0
-660 -685 0
-660 -686 0
-661 -662 0
-661 -663 0
-661 -664 0
-661 -665 0
-661 -666 0
-661 -667 0
-661 -668 0
-661 -669 0
-661 -670 0
-661 -671 0
-661 -672 0
-661 -673 0
-661 -674 0
-661 -675 0
-661 -676 0
-661 -677 0
-661 -678 0
-661 -679 0
-661 -680 0
-661 -681 0
-661 -682 0
-661 -683 0
-661 -684 0
-661 -685 0
-661 -686 0
-662 -663 0
-662 -664 0
-662 -665 0
-662 -666 0
-662 -667 0
-662 -668 0
-662 -669 0
-662 -670 0
-662 -671 0
-662 -672 0
-662 -673 0
-662 -674 0
-662 -675 0
-662 -676 0
-662 -677 0
-662 -678 0
-662 -679 0
-662 -680 0
-662 -681 0
-662 -682 0
-662 -683 0
-662 -684 0
-662 -685 0
-662 -686 0
-663 -664 0
-663 -665 0
-663 -666 0
-663 -667 0
-663 -668 0
-663 -669 0
-663 -670 0
-663 -671 0
-663 -672 0
-663 -673 0
-663 -674 0
-663 -675 0
-663 -676 0
-663 -677 0
-663 -678 0
-663 -679 0
-663 -680 0
-663 -681 0
-663 -682 0
-663 -683 0
-663 -684 0
-663 -685 0
-663 -686 0
-664 -665 0
-664 -666 0
-664 -667 0
-664 -668 0
-664 -669 0
-664 -670 0
-664 -671 0
-664 -672 0
-664 -673 0
-664 -674 0
-664 -675 0
-664 -676 0
-664 -677 0
-664 -678 0
-664 -679 0
-664 -680 0
-664 -681 0
-664 -682 0
-664 -683 0
-664 -684 0
-664 -685 0
-664 -686 0
-665 -666 0
-665 -667 0
-665 -668 0
-665 -669 0
-665 -670 0
-665 -671 0
-665 -672 0
-665 -673 0
-665 -674 0
-665 -675 0
-665 -676 0
-665 -677 0
-665 -678 0
-665 -679 0
-665 -680 0
-665 -681 0
-665 -682 0
-665 -683 0
-665 -684 0
-665 -685 0
-665 -686 0
-666 -667 0
-666 -668 0
-666 -669 0
-666 -670 0
-666 -671 0
-666 -672 0
-666 -673 0
-666 -674 0
-666 -675 0
-666 -676 0
-666 -677 0
-666 -678 0
-666 -679 0
-666 -680 0
-666 -681 0
-666 -682 0
-666 -683 0
-666 -684 0
-666 -685 0
-666 -686 0
-667 -668 0
-667 -669 0
-667 -670 0
-667 -671 0
-667 -672 0
-667 -673 0
-667 -674 0
-667 -675 0
-667 -676 0
-667 -677 0
-667 -678 0
-667 -679 0
-667 -680 0
-667 -681 0
-667 -682 0
-667 -683 0
-667 -684 0
-667 -685 0
-667 -686 0
-668 -669 0
-668 -670 0
-668 -671 0
-668 -672 0
-668 -673 0
-668 -674 0
-668 -675 0
-668 -676 0
-668 -677 0
-668 -678 0
-668 -679 0
-668 -680 0
-668 -681 0
-668 -682 0
-668 -683 0
-668 -684 0
-668 -685 0
-668 -686 0
-669 -670 0
-669 -671 0
-669 -672 0
-669 -673 0
-669 -674 0
-669 -675 0
-669 -676 0
-669 -677 0
-669 -678 0
-669 -679 0
-669 -680 0
-669 -681 0
-669 -682 0
-669 -683 0
-669 -684 0
-669 -685 0
-669 -686 0
-670 -671 0
-670 -672 0
-670 -673 0
-670 -674 0
-670 -675 0
-670 -676 0
-670 -677 0
-670 -678 0
-670 -679 0
-670 -680 0
-670 -681 0
-670 -682 0
-670 -683 0
-670 -684 0
-670 -685 0
-670 -686 0
-671 -672 0
-671 -673 0
-671 -674 0
-671 -675 0
-671 -676 0
-671 -677 0
-671 -678 0
-671 -679 0
-671 -680 0
-671 -681 0
-671 -682 0
-671 -683 0
-671 -684 0
-671 -685 0
-671 -686 0
-672 -673 0
-672 -674 0
-672 -675 0
-672 -676 0
-672 -677 0
-672 -678 0
-672 -679 0
-672 -680 0
-672 -681 0
-672 -682 0
-672 -683 0
-672 -684 0
-672 -685 0
-672 -686 0
-673 -674 0
-673 -675 0
-673 -676 0
-673 -677 0
-673 -678 0
-673 -679 0
-673 -680 0
-673 -681 0
-673 -682 0
-673 -683 0
-673 -684 0
-673 -685 0
-673 -686 0
-674 -675 0
-674 -676 0
-674 -677 0
-674 -678 0
-674 -679 0
-674 -680 0
-674 -681 0
-674 -682 0
-674 -683 0
-674 -684 0
-674 -685 0
-674 -686 0
-675 -676 0
-675 -677 0
-675 -678 0
-675 -679 0
-675 -680 0
-675 -681 0
-675 -682 0
-675 -683 0
-675 -684 0
-675 -685 0
-675 -686 0
-676 -677 0
-676 -678 0
-676 -679 0
-676 -680 0
-676 -681 0
-676 -682 0
-676 -683 0
-676 -684 0
-676 -685 0
-676 -686 0
-677 -678 0
-677 -679 0
-677 -680 0
-677 -681 0
-677 -682 0
-677 -683 0
-677 -684 0
-677 -685 0
-677 -686 0
-678 -679 0
-678 -680 0
-678 -681 0
-678 -682 0
-678 -683 0
-678 -684 0
-678 -685 0
-678 -686 0
-679 -680 0
-679 -681 0
-679 -682 0
-679 -683 0
-679 -684 0
-679 -685 0
-679 -686 0
-680 -681 0
-680 -682 0
-680 -683 0
-680 -684 0
-680 -685 0
-680 -686 0
-681 -682 0
-681 -683 0
-681 -684 0
-681 -685 0
-681 -686 0
-682 -683 0
-682 -684 0
-682 -685 0
-682 -686 0
-683 -684 0
-683 -685 0
-683 -686 0
-684 -685 0
-684 -686 0
-685 -686 0
687 688 689 690 691 692 693 694 695 696 697 698 699 700 701 702 703 704 705 706 707 708 709 710 711 712 713 714 0
-687 -688 0
-687 -689 0
-687 -690 0
-687 -691 0
-687 -692 0
-687 -693 0
-687 -694 0
-687 -695 0
-687 -696 0
-687 -697 0
-687 -698 0
-687 -699 0
-687 -700 0
-687 -701 0
-687 -702 0
-687 -703 0
-687 -704 0
-687 -705 0
-687 -706 0
-687 -707 0
-687 -708 0
-687 -709 0
-687 -710 0
-687 -711 0
-687 -712 0
-687 -713 0
-687 -714 0
-688 -689 0
-688 -690 0
-688 -691 0
-688 -692 0
-688 -693 0
-688 -694 0
-688 -695 0
-688 -696 0
-688 -697 0
-688 -698 0
-688 -699 0
-688 -700 0
-688 -701 0
-688 -702 0
-688 -703 0
-688 -704 0
-688 -705 0
-688 -706 0
-688 -707 0
-688 -708 0
-688 -709 0
-688 -710 0
-688 -711 0
-688 -712 0
-688 -713 0
-688 -714 0
-689 -690 0
-689 -691 0
-689 -692 0
-689 -693 0
-689 -694 0
-689 -695 0
-689 -696 0
-689 -697 0
-689 -698 0
-689 -699 0
-689 -700 0
-689 -701 0
-689 -702 0
-689 -703 0
-689 -704 0
-689 -705 0
-689 -706 0
-689 -707 0
-689 -708 0
-689 -709 0
-689 -710 0
-689 -711 0
-689 -712 0
-689 -713 0
-689 -714 0
-690 -691 0
-690 -692 0
-690 -693 0
-690 -694 0
-690 -695 0
-690 -696 0
-690 -697 0
-690 -698 0
-690 -699 0
-690 -700 0
-690 -701 0
-690 -702 0
-690 -703 0
-690 -704 0
-690 -705 0
-690 -706 0
-690 -707 0
-690 -708 0
-690 -709 0
-690 -710 0
-690 -711 0
-690 -712 0
-690 -713 0
-690 -714 0
-691 -692 0
-691 -693 0
-691 -694 0
-691 -695 0
-691 -696 0
-691 -697 0
-691 -698 0
-691 -699 0
-691 -700 0
-691 -701 0
-691 -702 0
-691 -703 0
-691 -704 0
-691 -705 0
-691 -706 0
-691 -707 0
-691 -708 0
-691 -709 0
-691 -710 0
-691 -711 0
-691 -712 0
-691 -713 0
-691 -714 0
-692 -693 0
-692 -694 0
-692 -695 0
-692 -696 0
-692 -697 0
-692 -698 0
-692 -699 0
-692 -700 0
-692 -701 0
-692 -702 0
-692 -703 0
-692 -704 0
-692 -705 0
-692 -706 0
-692 -707 0
-692 -708 0
-692 -709 0
-692 -710 0
-692 -711 0
-692 -712 0
-692 -713 0
-692 -714 0
-693 -694 0
-693 -695 0
-693 -696 0
-693 -697 0
-693 -698 0
-693 -699 0
-693 -700 0
-693 -701 0
-693 -702 0
-693 -703 0
-693 -704 0
-693 -705 0
-693 -706 0
-693 -707 0
-693 -708 0
-693 -709 0
-693 -710 0
-693 -711 0
-693 -712 0
-693 -713 0
-693 -714 0
-694 -695 0
-694 -696 0
-694 -697 0
-694 -698 0
-694 -699 0
-694 -700 0
-694 -701 0
-694 -702 0
-694 -703 0
-694 -704 0
-694 -705 0
-694 -706 0
-694 -707 0
-694 -708 0
-694 -709 0
-694 -710 0
-694 -711 0
-694 -712 0
-694 -713 0
-694 -714 0
-695 -696 0
-695 -697 0
-695 -698 0
-695 -699 0
-695 -700 0
-695 -701 0
-695 -702 0
-695 -703 0
-695 -704 0
-695 -705 0
-695 -706 0
-695 -707 0
-695 -708 0
-695 -709 0
-695 -710 0
-695 -711 0
-695 -712 0
-695 -713 0
-695 -714 0
-696 -697 0
-696 -698 0
-696 -699 0
-696 -700 0
-696 -701 0
-696 -702 0
-696 -703 0
-696 -704 0
-696 -705 0
-696 -706 0
-696 -707 0
-696 -708 0
-696 -709 0
-696 -710 0
-696 -711 0
-696 -712 0
-696 -713 0
-696 -714 0
-697 -698 0
-697 -699 0
-697 -700 0
-697 -701 0
-697 -702 0
-697 -703 0
-697 -704 0
-697 -705 0
-697 -706 0
-697 -707 0
-697 -708 0
-697 -709 0
-697 -710 0
-697 -711 0
-697 -712 0
-697 -713 0
-697 -714 0
-698 -699 0
-698 -700 0
-698 -701 0
-698 -702 0
-698 -703 0
-698 -704 0
-698 -705 0
-698 -706 0
-698 -707 0
-698 -708 0
-698 -709 0
-698 -710 0
-698 -711 0
-698 -712 0
-698 -713 0
-698 -714 0
-699 -700 0
-699 -701 0
-699 -702 0
-699 -703 0
-699 -704 0
-699 -705 0
-699 -706 0
-699 -707 0
-699 -708 0
-699 -709 0
-699 -710 0
-699 -711 0
-699 -712 0
-699 -713 0
-699 -714 0
-700 -701 0
-700 -702 0
-700 -703 0
-700 -704 0
-700 -705 0
-700 -706 0
-700 -707 0
-700 -708 0
-700 -709 0
-700 -710 0
-700 -711 0
-700 -712 0
-700 -713 0
-700 -714 0
-701 -702 0
-701 -703 0
-701 -704 0
-701 -705 0
-701 -706 0
-701 -707 0
-701 -708 0
-701 -709 0
-701 -710 0
-701 -711 0
-701 -712 0
-701 -713 0
-701 -714 0
-702 -703 0
-702 -704 0
-702 -705 0
-702 -706 0
-702 -707 0
-702 -708 0
-702 -709 0
-702 -710 0
-702 -711 0
-702 -712 0
-702 -713 0
-702 -714 0
-703 -704 0
-703 -705 0
-703 -706 0
-703 -707 0
-703 -708 0
-703 -709 0
-703 -710 0
-703 -711 0
-703 -712 0
-703 -713 0
-703 -714 0
-704 -705 0
-704 -706 0
-704 -707 0
-704 -708 0
-704 -709 0
-704 -710 0
-704 -711 0
-704 -712 0
-704 -713 0
-704 -714 0
-705 -706 0
-705 -707 0
-705 -708 0
-705 -709 0
-705 -710 0
-705 -711 0
-705 -712 0
-705 -713 0
-705 -714 0
-706 -707 0
-706 -708 0
-706 -709 0
-706 -710 0
-706 -711 0
-706 -712 0
-706 -713 0
-706 -714 0
-707 -708 0
-707 -709 0
-707 -710 0
-707 -711 0
-707 -712 0
-707 -713 0
-707 -714 0
-708 -709 0
-708 -710 0
-708 -711 0
-708 -712 0
-708 -713 0
-708 -714 0
-709 -710 0
-709 -711 0
-709 -712 0
-709 -713 0
-709 -714 0
-710 -711 0
-710 -712 0
-710 -713 0
-710 -714 0
-711 -712 0
-711 -713 0
-711 -714 0
-712 -713 0
-712 -714 0
-713 -714 0
715 716 717 718 719 720 721 722 723 724 725 726 727 728 729 730 731 732 733 734 735 736 737 738 739 740 741 742 743 0
-715 -716 0
-715 -717 0
-715 -718 0
-715 -719 0
-715 -720 0
-715 -721 0
-715 -722 0
-715 -723 0
-715 -724 0
-715 -725 0
-715 -726 0
-715 -727 0
-715 -728 0
-715 -729 0
-715 -730 0
-715 -731 0
-715 -732 0
-715 -733 0
-715 -734 0
-715 -735 0
-715 -736 0
-715 -737 0
-715 -738 0
-715 -739 0
-715 -740 0
-715 -741 0
-715 -742 0
-715 -743 0
-716 -717 0
-716 -718 0
-716 -719 0
-716 -720 0
-716 -721 0
-716 -722 0
-716 -723 0
-716 -724 0
-716 -725 0
-716 -726 0
-716 -727 0
-716 -728 0
-716 -729 0
-716 -730 0
-716 -731 0
-716 -732 0
-716 -733 0
-716 -734 0
-716 -735 0
-716 -736 0
-716 -737 0
-716 -738 0
-716 -739 0
-716 -740 0
-716 -741 0
-716 -742 0
-716 -743 0
-717 -718 0
-717 -719 0
-717 -720 0
-717 -721 0
-717 -722 0
-717 -723 0
-717 -724 0
-717 -725 0
-717 -726 0
-717 -727 0
-717 -728 0
-717 -729 0
-717 -730 0
-717 -731 0
-717 -732 0
-717 -733 0
-717 -734 0
-717 -735 0
-717 -736 0
-717 -737 0
-717 -738 0
-717 -739 0
-717 -740 0
-717 -741 0
-717 -742 0
-717 -743 0
-718 -719 0
-718 -720 0
-718 -721 0
-718 -722 0
-718 -723 0
-718 -724 0
-718 -725 0
-718 -726 0
-718 -727 0
-718 -728 0
-718 -729 0
-718 -730 0
-718 -731 0
-718 -732 0
-718 -733 0
-718 -734 0
-718 -735 0
-718 -736 0
-718 -737 0
-718 -738 0
-718 -739 0
-718 -740 0
-718 -741 0
-718 -742 0
-718 -743 0
-719 -720 0
-719 -721 0
-719 -722 0
-719 -723 0
-719 -724 0
-719 -725 0
-719 -726 0
-719 -727 0
-719 -728 0
-719 -729 0
-719 -730 0
-719 -731 0
-719 -732 0
-719 -733 0
-719 -734 0
-719 -735 0
-719 -736 0
-719 -737 0
-719 -738 0
-719 -739 0
-719 -740 0
-719 -741 0
-719 -742 0
-719 -743 0
-720 -721 0
-720 -722 0
-720 -723 0
-720 -724 0
-720 -725 0
-720 -726 0
-720 -727 0
-720 -728 0
-720 -729 0
-720 -730 0
-720 -731 0
-720 -732 0
-720 -733 0
-720 -734 0
-720 -735 0
-720 -736 0
-720 -737 0
-720 -738 0
-720 -739 0
-720 -740 0
-720 -741 0
-720 -742 0
-720 -743 0
-721 -722 0
-721 -723 0
-721 -724 0
-721 -725 0
-721 -726 0
-721 -727 0
-721 -728 0
-721 -729 0
-721 -730 0
-721 -731 0
-721 -732 0
-721 -733 0
-721 -734 0
-721 -735 0
-721 -736 0
-721 -737 0
-721 -738 0
-721 -739 0
-721 -740 0
-721 -741 0
-721 -742 0
-721 -743 0
-722 -723 0
-722 -724 0
-722 -725 0
-722 -726 0
-722 -727 0
-722 -728 0
-722 -729 0
-722 -730 0
-722 -731 0
-722 -732 0
-722 -733 0
-722 -734 0
-722 -735 0
-722 -736 0
-722 -737 0
-722 -738 0
-722 -739 0
-722 -740 0
-722 -741 0
-722 -742 0
-722 -743 0
-723 -724 0
-723 -725 0
-723 -726 0
-723 -727 0
-723 -728 0
-723 -729 0
-723 -730 0
-723 -731 0
-723 -732 0
-723 -733 0
-723 -734 0
-723 -735 0
-723 -736 0
-723 -737 0
-723 -738 0
-723 -739 0
-723 -740 0
-723 -741 0
-723 -742 0
-723 -743 0
-724 -725 0
-724 -726 0
-724 -727 0
-724 -728 0
-724 -729 0
-724 -730 0
-724 -731 0
-724 -732 0
-724 -733 0
-724 -734 0
-724 -735 0
-724 -736 0
-724 -737 0
-724 -738 0
-724 -739 0
-724 -740 0
-724 -741 0
-724 -742 0
-724 -743 0
-725 -726 0
-725 -727 0
-725 -728 0
-725 -729 0
-725 -730 0
-725 -731 0
-725 -732 0
-725 -733 0
-725 -734 0
-725 -735 0
-725 -736 0
-725 -737 0
-725 -738 0
-725 -739 0
-725 -740 0
-725 -741 0
-725 -742 0
-725 -743 0
-726 -727 0
-726 -728 0
-726 -729 0
-726 -730 0
-726 -731 0
-726 -732 0
-726 -733 0
-726 -734 0
-726 -735 0
-726 -736 0
-726 -737 0
-726 -738 0
-726 -739 0
-726 -740 0
-726 -741 0
-726 -742 0
-726 -743 0
-727 -728 0
-727 -729 0
-727 -730 0
-727 -731 0
-727 -732 0
-727 -733 0
-727 -734 0
-727 -735 0
-727 -736 0
-727 -737 0
-727 -738 0
-727 -739 0
-727 -740 0
-727 -741 0
-727 -742 0
-727 -743 0
-728 -729 0
-728 -730 0
-728 -731 0
-728 -732 0
-728 -733 0
-728 -734 0
-728 -735 0
-728 -736 0
-728 -737 0
-728 -738 0
-728 -739 0
-728 -740 0
-728 -741 0
-728 -742 0
-728 -743 0
-729 -730 0
-729 -731 0
-729 -732 0
-729 -733 0
-729 -734 0
-729 -735 0
-729 -736 0
-729 -737 0
-729 -738 0
-729 -739 0
-729 -740 0
-729 -741 0
-729 -742 0
-729 -743 0
-730 -731 0
-730 -732 0
-730 -733 0
-730 -734 0
-730 -735 0
-730 -736 0
-730 -737 0
-730 -738 0
-730 -739 0
-730 -740 0
-730 -741 0
-730 -742 0
-730 -743 0
-731 -732 0
-731 -733 0
-731 -734 0
-731 -735 0
-731 -736 0
-731 -737 0
-731 -738 0
-731 -739 0
-731 -740 0
-731 -741 0
-731 -742 0
-731 -743 0
-732 -733 0
-732 -734 0
-732 -735 0
-732 -736 0
-732 -737 0
-732 -738 0
-732 -739 0
-732 -740 0
-732 -741 0
-732 -742 0
-732 -743 0
-733 -734 0
-733 -735 0
-733 -736 0
-733 -737 0
-733 -738 0
-733 -739 0
-733 -740 0
-733 -741 0
-733 -742 0
-733 -743 0
-734 -735 0
-734 -736 0
-734 -737 0
-734 -738 0
-734 -739 0
-734 -740 0
-734 -741 0
-734 -742 0
-734 -743 0
-735 -736 0
-735 -737 0
-735 -738 0
-735 -739 0
-735 -740 0
-735 -741 0
-735 -742 0
-735 -743 0
-736 -737 0
-736 -738 0
-736 -739 0
-736 -740 0
-736 -741 0
-736 -742 0
-736 -743 0
-737 -738 0
-737 -739 0
-737 -740 0
-737 -741 0
-737 -742 0
-737 -743 0
-738 -739 0
-738 -740 0
-738 -741 0
-738 -742 0
-738 -743 0
-739 -740 0
-739 -741 0
-739 -742 0
-739 -743 0
-740 -741 0
-740 -742 0
-740 -743 0
-741 -742 0
-741 -743 0
-742 -743 0
309 0
-309 85 310 0
-309 -85 311 0
-310 93 312 0
-310 -93 313 0
-311 93 313 0
-311 -93 314 0
-312 101 315 0
-312 -101 316 0
-313 101 316 0
-313 -101 317 0
-314 101 317 0
-314 -101 318 0
-315 109 319 0
-315 -109 320 0
-316 109 320 0
-316 -109 321 0
-317 109 321 0
-317 -109 322 0
-318 109 322 0
-318 -109 323 0
-319 117 324 0
-319 -117 325 0
-320 117 325 0
-320 -117 326 0
-321 117 326 0
-321 -117 327 0
-322 117 327 0
-322 -117 328 0
-323 117 328 0
-323 -117 329 0
-324 125 330 0
-324 -125 331 0
-325 125 331 0
-325 -125 332 0
-326 125 332 0
-326 -125 333 0
-327 125 333 0
-327 -125 334 0
-328 125 334 0
-328 -125 335 0
-329 125 335 0
-329 -125 336 0
-330 133 337 0
-330 -133 338 0
-331 133 338 0
-331 -133 339 0
-332 133 339 0
-332 -133 340 0
-333 133 340 0
-333 -133 341 0
-334 133 341 0
-334 -133 342 0
-335 133 342 0
-335 -133 343 0
-336 133 343 0
-336 -133 344 0
-337 141 345 0
-337 -141 346 0
-338 141 346 0
-338 -141 347 0
-339 141 347 0
-339 -141 348 0
-340 141 348 0
-340 -141 349 0
-341 141 349 0
-341 -141 350 0
-342 141 350 0
-342 -141 351 0
-343 141 351 0
-343 -141 352 0
-344 141 352 0
-344 -141 353 0
-345 149 354 0
-345 -149 355 0
-346 149 355 0
-346 -149 356 0
-347 149 356 0
-347 -149 357 0
-348 149 357 0
-348 -149 358 0
-349 149 358 0
-349 -149 359 0
-350 149 359 0
-350 -149 360 0
-351 149 360 0
-351 -149 361 0
-352 149 361 0
-352 -149 362 0
-353 149 362 0
-353 -149 363 0
-354 157 364 0
-354 -157 365 0
-355 157 365 0
-355 -157 366 0
-356 157 366 0
-356 -157 367 0
-357 157 367 0
-357 -157 368 0
-358 157 368 0
-358 -157 369 0
-359 157 369 0
-359 -157 370 0
-360 157 370 0
-360 -157 371 0
-361 157 371 0
-361 -157 372 0
-362 157 372 0
-362 -157 373 0
-363 157 373 0
-363 -157 374 0
-364 165 375 0
-364 -165 376 0
-365 165 376 0
-365 -165 377 0
-366 165 377 0
-366 -165 378 0
-367 165 378 0
-367 -165 379 0
-368 165 379 0
-368 -165 380 0
-369 165 380 0
-369 -165 381 0
-370 165 381 0
-370 -165 382 0
-371 165 382 0
-371 -165 383 0
-372 165 383 0
-372 -165 384 0
-373 165 384 0
-373 -165 385 0
-374 165 385 0
-374 -165 386 0
-375 173 387 0
-375 -173 388 0
-376 173 388 0
-376 -173 389 0
-377 173 389 0
-377 -173 390 0
-378 173 390 0
-378 -173 391 0
-379 173 391 0
-379 -173 392 0
-380 173 392 0
-380 -173 393 0
-381 173 393 0
-381 -173 394 0
-382 173 394 0
-382 -173 395 0
-383 173 395 0
-383 -173 396 0
-384 173 396 0
-384 -173 397 0
-385 173 397 0
-385 -173 398 0
-386 173 398 0
-386 -173 399 0
-387 181 400 0
-387 -181 401 0
-388 181 401 0
-388 -181 402 0
-389 181 402 0
-389 -181 403 0
-390 181 403 0
-390 -181 404 0
-391 181 404 0
-391 -181 405 0
-392 181 405 0
-392 -181 406 0
-393 181 406 0
-393 -181 407 0
-394 181 407 0
-394 -181 408 0
-395 181 408 0
-395 -181 409 0
-396 181 409 0
-396 -181 410 0
-397 181 410 0
-397 -181 411 0
-398 181 411 0
-398 -181 412 0
-399 181 412 0
-399 -181 413 0
-400 189 414 0
-400 -189 415 0
-401 189 415 0
-401 -189 416 0
-402 189 416 0
-402 -189 417 0
-403 189 417 0
-403 -189 418 0
-404 189 418 0
-404 -189 419 0
-405 189 419 0
-405 -189 420 0
-406 189 420 0
-406 -189 421 0
-407 189 421 0
-407 -189 422 0
-408 189 422 0
-408 -189 423 0
-409 189 423 0
-409 -189 424 0
-410 189 424 0
-410 -189 425 0
-411 189 425 0
-411 -189 426 0
-412 189 426 0
-412 -189 427 0
-413 189 427 0
-413 -189 428 0
-414 197 429 0
-414 -197 430 0
-415 197 430 0
-415 -197 431 0
-416 197 431 0
-416 -197 432 0
-417 197 432 0
-417 -197 433 0
-418 197 433 0
-418 -197 434 0
-419 197 434 0
-419 -197 435 0
-420 197 435 0
-420 -197 436 0
-421 197 436 0
-421 -197 437 0
-422 197 437 0
-422 -197 438 0
-423 197 438 0
-423 -197 439 0
-424 197 439 0
-424 -197 440 0
-425 197 440 0
-425 -197 441 0
-426 197 441 0
-426 -197 442 0
-427 197 442 0
-427 -197 443 0
-428 197 443 0
-428 -197 444 0
-429 205 445 0
-429 -205 446 0
-430 205 446 0
-430 -205 447 0
-431 205 447 0
-431 -205 448 0
-432 205 448 0
-432 -205 449 0
-433 205 449 0
-433 -205 450 0
-434 205 450 0
-434 -205 451 0
-435 205 451 0
-435 -205 452 0
-436 205 452 0
-436 -205 453 0
-437 205 453 0
-437 -205 454 0
-438 205 454 0
-438 -205 455 0
-439 205 455 0
-439 -205 456 0
-440 205 456 0
-440 -205 457 0
-441 205 457 0
-441 -205 458 0
-442 205 458 0
-442 -205 459 0
-443 205 459 0
-443 -205 460 0
-444 205 460 0
-444 -205 461 0
-445 213 462 0
-445 -213 463 0
-446 213 463 0
-446 -213 464 0
-447 213 464 0
-447 -213 465 0
-448 213 465 0
-448 -213 466 0
-449 213 466 0
-449 -213 467 0
-450 213 467 0
-450 -213 468 0
-451 213 468 0
-451 -213 469 0
-452 213 469 0
-452 -213 470 0
-453 213 470 0
-453 -213 471 0
-454 213 471 0
-454 -213 472 0
-455 213 472 0
-455 -213 473 0
-456 213 473 0
-456 -213 474 0
-457 213 474 0
-457 -213 475 0
-458 213 475 0
-458 -213 476 0
-459 213 476 0
-459 -213 477 0
-460 213 477 0
-460 -213 478 0
-461 213 478 0
-461 -213 479 0
-462 221 480 0
-462 -221 481 0
-463 221 481 0
-463 -221 482 0
-464 221 482 0
-464 -221 483 0
-465 221 483 0
-465 -221 484 0
-466 221 484 0
-466 -221 485 0
-467 221 485 0
-467 -221 486 0
-468 221 486 0
-468 -221 487 0
-469 221 487 0
-469 -221 488 0
-470 221 488 0
-470 -221 489 0
-471 221 489 0
-471 -221 490 0
-472 221 490 0
-472 -221 491 0
-473 221 491 0
-473 -221 492 0
-474 221 492 0
-474 -221 493 0
-475 221 493 0
-475 -221 494 0
-476 221 494 0
-476 -221 495 0
-477 221 495 0
-477 -221 496 0
-478 221 496 0
-478 -221 497 0
-479 221 497 0
-479 -221 498 0
-480 229 499 0
-480 -229 500 0
-481 229 500 0
-481 -229 501 0
-482 229 501 0
-482 -229 502 0
-483 229 502 0
-483 -229 503 0
-484 229 503 0
-484 -229 504 0
-485 229 504 0
-485 -229 505 0
-486 229 505 0
-486 -229 506 0
-487 229 506 0
-487 -229 507 0
-488 229 507 0
-488 -229 508 0
-489 229 508 0
-489 -229 509 0
-490 229 509 0
-490 -229 510 0
-491 229 510 0
-491 -229 511 0
-492 229 511 0
-492 -229 512 0
-493 229 512 0
-493 -229 513 0
-494 229 513 0
-494 -229 514 0
-495 229 514 0
-495 -229 515 0
-496 229 515 0
-496 -229 516 0
-497 229 516 0
-497 -229 517 0
-498 229 517 0
-498 -229 518 0
-499 237 519 0
-499 -237 520 0
-500 237 520 0
-500 -237 521 0
-501 237 521 0
-501 -237 522 0
-502 237 522 0
-502 -237 523 0
-503 237 523 0
-503 -237 524 0
-504 237 524 0
-504 -237 525 0
-505 237 525 0
-505 -237 526 0
-506 237 526 0
-506 -237 527 0
-507 237 527 0
-507 -237 528 0
-508 237 528 0
-508 -237 529 0
-509 237 529 0
-509 -237 530 0
-510 237 530 0
-510 -237 531 0
-511 237 531 0
-511 -237 532 0
-512 237 532 0
-512 -237 533 0
-513 237 533 0
-513 -237 534 0
-514 237 534 0
-514 -237 535 0
-515 237 535 0
-515 -237 536 0
-516 237 536 0
-516 -237 537 0
-517 237 537 0
-517 -237 538 0
-518 237 538 0
-518 -237 539 0
-519 245 540 0
-519 -245 541 0
-520 245 541 0
-520 -245 542 0
-521 245 542 0
-521 -245 543 0
-522 245 543 0
-522 -245 544 0
-523 245 544 0
-523 -245 545 0
-524 245 545 0
-524 -245 546 0
-525 245 546 0
-525 -245 547 0
-526 245 547 0
-526 -245 548 0
-527 245 548 0
-527 -245 549 0
-528 245 549 0
-528 -245 550 0
-529 245 550 0
-529 -245 551 0
-530 245 551 0
-530 -245 552 0
-531 245 552 0
-531 -245 553 0
-532 245 553 0
-532 -245 554 0
-533 245 554 0
-533 -245 555 0
-534 245 555 0
-534 -245 556 0
-535 245 556 0
-535 -245 557 0
-536 245 557 0
-536 -245 558 0
-537 245 558 0
-537 -245 559 0
-538 245 559 0
-538 -245 560 0
-539 245 560 0
-539 -245 561 0
-540 253 562 0
-540 -253 563 0
-541 253 563 0
-541 -253 564 0
-542 253 564 0
-542 -253 565 0
-543 253 565 0
-543 -253 566 0
-544 253 566 0
-544 -253 567 0
-545 253 567 0
-545 -253 568 0
-546 253 568 0
-546 -253 569 0
-547 253 569 0
-547 -253 570 0
-548 253 570 0
-548 -253 571 0
-549 253 571 0
-549 -253 572 0
-550 253 572 0
-550 -253 573 0
-551 253 573 0
-551 -253 574 0
-552 253 574 0
-552 -253 575 0
-553 253 575 0
-553 -253 576 0
-554 253 576 0
-554 -253 577 0
-555 253 577 0
-555 -253 578 0
-556 253 578 0
-556 -253 579 0
-557 253 579 0
-557 -253 580 0
-558 253 580 0
-558 -253 581 0
-559 253 581 0
-559 -253 582 0
-560 253 582 0
-560 -253 583 0
-561 253 583 0
-561 -253 584 0
-562 261 585 0
-562 -261 586 0
-563 261 586 0
-563 -261 587 0
-564 261 587 0
-564 -261 588 0
-565 261 588 0
-565 -261 589 0
-566 261 589 0
-566 -261 590 0
-567 261 590 0
-567 -261 591 0
-568 261 591 0
-568 -261 592 0
-569 261 592 0
-569 -261 593 0
-570 261 593 0
-570 -261 594 0
-571 261 594 0
-571 -261 595 0
-572 261 595 0
-572 -261 596 0
-573 261 596 0
-573 -261 597 0
-574 261 597 0
-574 -261 598 0
-575 261 598 0
-575 -261 599 0
-576 261 599 0
-576 -261 600 0
-577 261 600 0
-577 -261 601 0
-578 261 601 0
-578 -261 602 0
-579 261 602 0
-579 -261 603 0
-580 261 603 0
-580 -261 604 0
-581 261 604 0
-581 -261 605 0
-582 261 605 0
-582 -261 606 0
-583 261 606 0
-583 -261 607 0
-584 261 607 0
-584 -261 608 0
-585 269 609 0
-585 -269 610 0
-586 269 610 0
-586 -269 611 0
-587 269 611 0
-587 -269 612 0
-588 269 612 0
-588 -269 613 0
-589 269 613 0
-589 -269 614 0
-590 269 614 0
-590 -269 615 0
-591 269 615 0
-591 -269 616 0
-592 269 616 0
-592 -269 617 0
-593 269 617 0
-593 -269 618 0
-594 269 618 0
-594 -269 619 0
-595 269 619 0
-595 -269 620 0
-596 269 620 0
-596 -269 621 0
-597 269 621 0
-597 -269 622 0
-598 269 622 0
-598 -269 623 0
-599 269 623 0
-599 -269 624 0
-600 269 624 0
-600 -269 625 0
-601 269 625 0
-601 -269 626 0
-602 269 626 0
-602 -269 627 0
-603 269 627 0
-603 -269 628 0
-604 269 628 0
-604 -269 629 0
-605 269 629 0
-605 -269 630 0
-606 269 630 0
-606 -269 631 0
-607 269 631 0
-607 -269 632 0
-608 269 632 0
-608 -269 633 0
-609 277 634 0
-609 -277 635 0
-610 277 635 0
-610 -277 636 0
-611 277 636 0
-611 -277 637 0
-612 277 637 0
-612 -277 638 0
-613 277 638 0
-613 -277 639 0
-614 277 639 0
-614 -277 640 0
-615 277 640 0
-615 -277 641 0
-616 277 641 0
-616 -277 642 0
-617 277 642 0
-617 -277 643 0
-618 277 643 0
-618 -277 644 0
-619 277 644 0
-619 -277 645 0
-620 277 645 0
-620 -277 646 0
-621 277 646 0
-621 -277 647 0
-622 277 647 0
-622 -277 648 0
-623 277 648 0
-623 -277 649 0
-624 277 649 0
-624 -277 650 0
-625 277 650 0
-625 -277 651 0
-626 277 651 0
-626 -277 652 0
-627 277 652 0
-627 -277 653 0
-628 277 653 0
-628 -277 654 0
-629 277 654 0
-629 -277 655 0
-630 277 655 0
-630 -277 656 0
-631 277 656 0
-631 -277 657 0
-632 277 657 0
-632 -277 658 0
-633 277 658 0
-633 -277 659 0
-634 285 660 0
-634 -285 661 0
-635 285 661 0
-635 -285 662 0
-636 285 662 0
-636 -285 663 0
-637 285 663 0
-637 -285 664 0
-638 285 664 0
-638 -285 665 0
-639 285 665 0
-639 -285 666 0
-640 285 666 0
-640 -285 667 0
-641 285 667 0
-641 -285 668 0
-642 285 668 0
-642 -285 669 0
-643 285 669 0
-643 -285 670 0
-644 285 670 0
-644 -285 671 0
-645 285 671 0
-645 -285 672 0
-646 285 672 0
-646 -285 673 0
-647 285 673 0
-647 -285 674 0
-648 285 674 0
-648 -285 675 0
-649 285 675 0
-649 -285 676 0
-650 285 676 0
-650 -285 677 0
-651 285 677 0
-651 -285 678 0
-652 285 678 0
-652 -285 679 0
-653 285 679 0
-653 -285 680 0
-654 285 680 0
-654 -285 681 0
-655 285 681 0
-655 -285 682 0
-656 285 682 0
-656 -285 683 0
-657 285 683 0
-657 -285 684 0
-658 285 684 0
-658 -285 685 0
-659 285 685 0
-659 -285 686 0
-660 293 687 0
-660 -293 688 0
-661 293 688 0
-661 -293 689 0
-662 293 689 0
-662 -293 690 0
-663 293 690 0
-663 -293 691 0
-664 293 691 0
-664 -293 692 0
-665 293 692 0
-665 -293 693 0
-666 293 693 0
-666 -293 694 0
-667 293 694 0
-667 -293 695 0
-668 293 695 0
-668 -293 696 0
-669 293 696 0
-669 -293 697 0
-670 293 697 0
-670 -293 698 0
-671 293 698 0
-671 -293 699 0
-672 293 699 0
-672 -293 700 0
-673 293 700 0
-673 -293 701 0
-674 293 701 0
-674 -293 702 0
-675 293 702 0
-675 -293 703 0
-676 293 703 0
-676 -293 704 0
-677 293 704 0
-677 -293 705 0
-678 293 705 0
-678 -293 706 0
-679 293 706 0
-679 -293 707 0
-680 293 707 0
-680 -293 708 0
-681 293 708 0
-681 -293 709 0
-682 293 709 0
-682 -293 710 0
-683 293 710 0
-683 -293 711 0
-684 293 711 0
-684 -293 712 0
-685 293 712 0
-685 -293 713 0
-686 293 713 0
-686 -293 714 0
-687 301 715 0
-687 -301 716 0
-688 301 716 0
-688 -301 717 0
-689 301 717 0
-689 -301 718 0
-690 301 718 0
-690 -301 719 0
-691 301 719 0
-691 -301 720 0
-692 301 720 0
-692 -301 721 0
-693 301 721 0
-693 -301 722 0
-694 301 722 0
-694 -301 723 0
-695 301 723 0
-695 -301 724 0
-696 301 724 0
-696 -301 725 0
-697 301 725 0
-697 -301 726 0
-698 301 726 0
-698 -301 727 0
-699 301 727 0
-699 -301 728 0
-700 301 728 0
-700 -301 729 0
-701 301 729 0
-701 -301 730 0
-702 301 730 0
-702 -301 731 0
-703 301 731 0
-703 -301 732 0
-704 301 732 0
-704 -301 733 0
-705 301 733 0
-705 -301 734 0
-706 301 734 0
-706 -301 735 0
-707 301 735 0
-707 -301 736 0
-708 301 736 0
-708 -301 737 0
-709 301 737 0
-709 -301 738 0
-710 301 738 0
-710 -301 739 0
-711 301 739 0
-711 -301 740 0
-712 301 740 0
-712 -301 741 0
-713 301 741 0
-713 -301 742 0
-714 301 742 0
-714 -301 743 0
737 0
744 0
745 746 0
-745 -746 0
747 748 749 0
-747 -748 0
-747 -749 0
-748 -749 0
750 751 752 753 0
-750 -751 0
-750 -752 0
-750 -753 0
-751 -752 0
-751 -753 0
-752 -753 0
754 755 756 757 758 0
-754 -755 0
-754 -756 0
-754 -757 0
-754 -758 0
-755 -756 0
-755 -757 0
-755 -758 0
-756 -757 0
-756 -758 0
-757 -758 0
759 760 761 762 763 0
-759 -760 0
-759 -761 0
-759 -762 0
-759 -763 0
-760 -761 0
-760 -762 0
-760 -763 0
-761 -762 0
-761 -763 0
-762 -763 0
764 765 766 767 768 0
-764 -765 0
-764 -766 0
-764 -767 0
-764 -768 0
-765 -766 0
-765 -767 0
-765 -768 0
-766 -767 0
-766 -768 0
-767 -768 0
769 770 771 772 773 0
-769 -770 0
-769 -771 0
-769 -772 0
-769 -773 0
-770 -771 0
-770 -772 0
-770 -773 0
-771 -772 0
-771 -773 0
-772 -773 0
774 775 776 777 778 0
-774 -775 0
-774 -776 0
-774 -777 0
-774 -778 0
-775 -776 0
-775 -777 0
-775 -778 0
-776 -777 0
-776 -778 0
-777 -778 0
779 780 781 782 783 0
-779 -780 0
-779 -781 0
-779 -782 0
-779 -783 0
-780 -781 0
-780 -782 0
-780 -783 0
-781 -782 0
-781 -783 0
-782 -783 0
784 785 786 787 788 0
-784 -785 0
-784 -786 0
-784 -787 0
-784 -788 0
-785 -786 0
-785 -787 0
-785 -788 0
-786 -787 0
-786 -788 0
-787 -788 0
789 790 791 792 793 0
-789 -790 0
-789 -791 0
-789 -792 0
-789 -793 0
-790 -791 0
-790 -792 0
-790 -793 0
-791 -792 0
-791 -793 0
-792 -793 0
794 795 796 797 798 0
-794 -795 0
-794 -796 0
-794 -797 0
-794 -798 0
-795 -796 0
-795 -797 0
-795 -798 0
-796 -797 0
-796 -798 0
-797 -798 0
799 800 801 802 803 0
-799 -800 0
-799 -801 0
-799 -802 0
-799 -803 0
-800 -801 0
-800 -802 0
-800 -803 0
-801 -802 0
-801 -803 0
-802 -803 0
804 805 806 807 808 0
-804 -805 0
-804 -806 0
-804 -807 0
-804 -808 0
-805 -806 0
-805 -807 0
-805 -808 0
-806 -807 0
-806 -808 0
-807 -808 0
809 810 811 812 813 0
-809 -810 0
-809 -811 0
-809 -812 0
-809 -813 0
-810 -811 0
-810 -812 0
-810 -813 0
-811 -812 0
-811 -813 0
-812 -813 0
814 815 816 817 818 0
-814 -815 0
-814 -816 0
-814 -817 0
-814 -818 0
-815 -816 0
-815 -817 0
-815 -818 0
-816 -817 0
-816 -818 0
-817 -818 0
819 820 821 822 823 0
-819 -820 0
-819 -821 0
-819 -822 0
-819 -823 0
-820 -821 0
-820 -822 0
-820 -823 0
-821 -822 0
-821 -823 0
-822 -823 0
824 825 826 827 828 0
-824 -825 0
-824 -826 0
-824 -827 0
-824 -828 0
-825 -826 0
-825 -827 0
-825 -828 0
-826 -827 0
-826 -828 0
-827 -828 0
829 830 831 832 833 0
-829 -830 0
-829 -831 0
-829 -832 0
-829 -833 0
-830 -831 0
-830 -832 0
-830 -833 0
-831 -832 0
-831 -833 0
-832 -833 0
834 835 836 837 838 0
-834 -835 0
-834 -836 0
-834 -837 0
-834 -838 0
-835 -836 0
-835 -837 0
-835 -838 0
-836 -837 0
-836 -838 0
-837 -838 0
839 840 841 842 843 0
-839 -840 0
-839 -841 0
-839 -842 0
-839 -843 0
-840 -841 0
-840 -842 0
-840 -843 0
-841 -842 0
-841 -843 0
-842 -843 0
844 845 846 847 848 0
-844 -845 0
-844 -846 0
-844 -847 0
-844 -848 0
-845 -846 0
-845 -847 0
-845 -848 0
-846 -847 0
-846 -848 0
-847 -848 0
849 850 851 852 853 0
-849 -850 0
-849 -851 0
-849 -852 0
-849 -853 0
-850 -851 0
-850 -852 0
-850 -853 0
-851 -852 0
-851 -853 0
-852 -853 0
854 855 856 857 858 0
-854 -855 0
-854 -856 0
-854 -857 0
-854 -858 0
-855 -856 0
-855 -857 0
-855 -858 0
-856 -857 0
-856 -858 0
-857 -858 0
859 860 861 862 863 0
-859 -860 0
-859 -861 0
-859 -862 0
-859 -863 0
-860 -861 0
-860 -862 0
-860 -863 0
-861 -862 0
-861 -863 0
-862 -863 0
864 865 866 867 868 0
-864 -865 0
-864 -866 0
-864 -867 0
-864 -868 0
-865 -866 0
-865 -867 0
-865 -868 0
-866 -867 0
-866 -868 0
-867 -868 0
869 870 871 872 873 0
-869 -870 0
-869 -871 0
-869 -872 0
-869 -873 0
-870 -871 0
-870 -872 0
-870 -873 0
-871 -872 0
-871 -873 0
-872 -873 0
874 875 876 877 878 0
-874 -875 0
-874 -876 0
-874 -877 0
-874 -878 0
-875 -876 0
-875 -877 0
-875 -878 0
-876 -877 0
-876 -878 0
-877 -878 0
744 0
-744 89 745 0
-744 -89 746 0
-745 97 747 0
-745 -97 748 0
-746 97 748 0
-746 -97 749 0
-747 105 750 0
-747 -105 751 0
-748 105 751 0
-748 -105 752 0
-749 105 752 0
-749 -105 753 0
-750 113 754 0
-750 -113 755 0
-751 113 755 0
-751 -113 756 0
-752 113 756 0
-752 -113 757 0
-753 113 757 0
-753 -113 758 0
-754 121 759 0
-754 -121 760 0
-755 121 760 0
-755 -121 761 0
-756 121 761 0
-756 -121 762 0
-757 121 762 0
-757 -121 763 0
-758 121 763 0
-758 -121 763 0
-759 129 764 0
-759 -129 765 0
-760 129 765 0
-760 -129 766 0
-761 129 766 0
-761 -129 767 0
-762 129 767 0
-762 -129 768 0
-763 129 768 0
-763 -129 768 0
-764 137 769 0
-764 -137 770 0
-765 137 770 0
-765 -137 771 0
-766 137 771 0
-766 -137 772 0
-767 137 772 0
-767 -137 773 0
-768 137 773 0
-768 -137 773 0
-769 145 774 0
-769 -145 775 0
-770 145 775 0
-770 -145 776 0
-771 145 776 0
-771 -145 777 0
-772 145 777 0
-772 -145 778 0
-773 145 778 0
-773 -145 778 0
-774 153 779 0
-774 -153 780 0
-775 153 780 0
-775 -153 781 0
-776 153 781 0
-776 -153 782 0
-777 153 782 0
-777 -153 783 0
-778 153 783 0
-778 -153 783 0
-779 161 784 0
-779 -161 785 0
-780 161 785 0
-780 -161 786 0
-781 161 786 0
-781 -161 787 0
-782 161 787 0
-782 -161 788 0
-783 161 788 0
-783 -161 788 0
-784 169 789 0
-784 -169 790 0
-785 169 790 0
-785 -169 791 0
-786 169 791 0
-786 -169 792 0
-787 169 792 0
-787 -169 793 0
-788 169 793 0
-788 -169 793 0
-789 177 794 0
-789 -177 795 0
-790 177 795 0
-790 -177 796 0
-791 177 796 0
-791 -177 797 0
-792 177 797 0
-792 -177 798 0
-793 177 798 0
-793 -177 798 0
-794 185 799 0
-794 -185 800 0
-795 185 800 0
-795 -185 801 0
-796 185 801 0
-796 -185 802 0
-797 185 802 0
-797 -185 803 0
-798 185 803 0
-798 -185 803 0
-799 193 804 0
-799 -193 805 0
-800 193 805 0
-800 -193 806 0
-801 193 806 0
-801 -193 807 0
-802 193 807 0
-802 -193 808 0
-803 193 808 0
-803 -193 808 0
-804 201 809 0
-804 -201 810 0
-805 201 810 0
-805 -201 811 0
-806 201 811 0
-806 -201 812 0
-807 201 812 0
-807 -201 813 0
-808 201 813 0
-808 -201 813 0
-809 209 814 0
-809 -209 815 0
-810 209 815 0
-810 -209 816 0
-811 209 816 0
-811 -209 817 0
-812 209 817 0
-812 -209 818 0
-813 209 818 0
-813 -209 818 0
-814 217 819 0
-814 -217 820 0
-815 217 820 0
-815 -217 821 0
-816 217 821 0
-816 -217 822 0
-817 217 822 0
-817 -217 823 0
-818 217 823 0
-818 -217 823 0
-819 225 824 0
-819 -225 825 0
-820 225 825 0
-820 -225 826 0
-821 225 826 0
-821 -225 827 0
-822 225 827 0
-822 -225 828 0
-823 225 828 0
-823 -225 828 0
-824 233 829 0
-824 -233 830 0
-825 233 830 0
-825 -233 831 0
-826 233 831 0
-826 -233 832 0
-827 233 832 0
-827 -233 833 0
-828 233 833 0
-828 -233 833 0
-829 241 834 0
-829 -241 835 0
-830 241 835 0
-830 -241 836 0
-831 241 836 0
-831 -241 837 0
-832 241 837 0
-832 -241 838 0
-833 241 838 0
-833 -241 838 0
-834 249 839 0
-834 -249 840 0
-835 249 840 0
-835 -249 841 0
-836 249 841 0
-836 -249 842 0
-837 249 842 0
-837 -249 843 0
-838 249 843 0
-838 -249 843 0
-839 257 844 0
-839 -257 845 0
-840 257 845 0
-840 -257 846 0
-841 257 846 0
-841 -257 847 0
-842 257 847 0
-842 -257 848 0
-843 257 848 0
-843 -257 848 0
-844 265 849 0
-844 -265 850 0
-845 265 850 0
-845 -265 851 0
-846 265 851 0
-846 -265 852 0
-847 265 852 0
-847 -265 853 0
-848 265 853 0
-848 -265 853 0
-849 273 854 0
-849 -273 855 0
-850 273 855 0
-850 -273 856 0
-851 273 856 0
-851 -273 857 0
-852 273 857 0
-852 -273 858 0
-853 273 858 0
-853 -273 858 0
-854 281 859 0
-854 -281 860 0
-855 281 860 0
-855 -281 861 0
-856 281 861 0
-856 -281 862 0
-857 281 862 0
-857 -281 863 0
-858 281 863 0
-858 -281 863 0
-859 289 864 0
-859 -289 865 0
-860 289 865 0
-860 -289 866 0
-861 289 866 0
-861 -289 867 0
-862 289 867 0
-862 -289 868 0
-863 289 868 0
-863 -289 868 0
-864 297 869 0
-864 -297 870 0
-865 297 870 0
-865 -297 871 0
-866 297 871 0
-866 -297 872 0
-867 297 872 0
-867 -297 873 0
-868 297 873 0
-868 -297 873 0
-869 305 874 0
-869 -305 875 0
-870 305 875 0
-870 -305 876 0
-871 305 876 0
-871 -305 877 0
-872 305 877 0
-872 -305 878 0
-873 305 878 0
-873 -305 878 0
878 0
90 98 106 114 122 130 138 0
91 99 107 115 123 131 139 0
92 100 108 116 124 132 140 0
90 146 154 162 170 178 186 0
91 147 155 163 171 179 187 0
92 148 156 164 172 180 188 0
98 146 194 202 210 218 226 0
99 147 195 203 211 219 227 0
100 148 196 204 212 220 228 0
106 154 194 234 242 250 258 0
107 155 195 235 243 251 259 0
108 156 196 236 244 252 260 0
114 162 202 234 266 274 282 0
115 163 203 235 267 275 283 0
116 164 204 236 268 276 284 0
122 170 210 242 266 290 298 0
123 171 211 243 267 291 299 0
124 172 212 244 268 292 300 0
130 178 218 250 274 290 306 0
131 179 219 251 275 291 307 0
132 180 220 252 276 292 308 0
138 186 226 258 282 298 306 0
139 187 227 259 283 299 307 0
140 188 228 260 284 300 308 0
879 -1 -40 -67 -82 0
-879 1 0
-879 40 0
-879 67 0
-879 82 0
880 -1 -40 -70 -79 0
-880 1 0
-880 40 0
-880 70 0
-880 79 0
881 -1 -40 -73 -76 0
-881 1 0
-881 40 0
-881 73 0
-881 76 0
882 -1 -43 -58 -82 0
-882 1 0
-882 43 0
-882 58 0
-882 82 0
883 -1 -43 -61 -79 0
-883 1 0
-883 43 0
-883 61 0
-883 79 0
884 -1 -43 -64 -76 0
-884 1 0
-884 43 0
-884 64 0
-884 76 0
885 -1 -46 -55 -82 0
-885 1 0
-885 46 0
-885 55 0
-885 82 0
886 -1 -46 -61 -73 0
-886 1 0
-886 46 0
-886 61 0
-886 73 0
887 -1 -46 -64 -70 0
-887 1 0
-887 46 0
-887 64 0
-887 70 0
888 -1 -49 -55 -79 0
-888 1 0
-888 49 0
-888 55 0
-888 79 0
889 -1 -49 -58 -73 0
-889 1 0
-889 49 0
-889 58 0
-889 73 0
890 -1 -49 -64 -67 0
-890 1 0
-890 49 0
-890 64 0
-890 67 0
891 -1 -52 -55 -76 0
-891 1 0
-891 52 0
-891 55 0
-891 76 0
892 -1 -52 -58 -70 0
-892 1 0
-892 52 0
-892 58 0
-892 70 0
893 -1 -52 -61 -67 0
-893 1 0
-893 52 0
-893 61 0
-893 67 0
894 -4 -25 -67 -82 0
-894 4 0
-894 25 0
-894 67 0
-894 82 0
895 -4 -25 -70 -79 0
-895 4 0
-895 25 0
-895 70 0
-895 79 0
896 -4 -25 -73 -76 0
-896 4 0
-896 25 0
-896 73 0
-896 76 0
897 -4 -28 -58 -82 0
-897 4 0
-897 28 0
-897 58 0
-897 82 0
898 -4 -28 -61 -79 0
-898 4 0
-898 28 0
-898 61 0
-898 79 0
899 -4 -28 -64 -76 0
-899 4 0
-899 28 0
-899 64 0
-899 76 0
900 -4 -31 -55 -82 0
-900 4 0
-900 31 0
-900 55 0
-900 82 0
901 -4 -31 -61 -73 0
-901 4 0
-901 31 0
-901 61 0
-901 73 0
902 -4 -31 -64 -70 0
-902 4 0
-902 31 0
-902 64 0
-902 70 0
903 -4 -34 -55 -79 0
-903 4 0
-903 34 0
-903 55 0
-903 79 0
904 -4 -34 -58 -73 0
-904 4 0
-904 34 0
-904 58 0
-904 73 0
905 -4 -34 -64 -67 0
-905 4 0
-905 34 0
-905 64 0
-905 67 0
906 -4 -37 -55 -76 0
-906 4 0
-906 37 0
-906 55 0
-906 76 0
907 -4 -37 -58 -70 0
-907 4 0
-907 37 0
-907 58 0
-907 70 0
908 -4 -37 -61 -67 0
-908 4 0
-908 37 0
-908 61 0
-908 67 0
909 -7 -22 -67 -82 0
-909 7 0
-909 22 0
-909 67 0
-909 82 0
910 -7 -22 -70 -79 0
-910 7 0
-910 22 0
-910 70 0
-910 79 0
911 -7 -22 -73 -76 0
-911 7 0
-911 22 0
-911 73 0
-911 76 0
912 -7 -28 -46 -82 0
-912 7 0
-912 28 0
-912 46 0
-912 82 0
913 -7 -28 -49 -79 0
-913 7 0
-913 28 0
-913 49 0
-913 79 0
914 -7 -28 -52 -76 0
-914 7 0
-914 28 0
-914 52 0
-914 76 0
915 -7 -31 -43 -82 0
-915 7 0
-915 31 0
-915 43 0
-915 82 0
916 -7 -31 -49 -73 0
-916 7 0
-916 31 0
-916 49 0
-916 73 0
917 -7 -31 -52 -70 0
-917 7 0
-917 31 0
-917 52 0
-917 70 0
918 -7 -34 -43 -79 0
-918 7 0
-918 34 0
-918 43 0
-918 79 0
919 -7 -34 -46 -73 0
-919 7 0
-919 34 0
-919 46 0
-919 73 0
920 -7 -34 -52 -67 0
-920 7 0
-920 34 0
-920 52 0
-920 67 0
921 -7 -37 -43 -76 0
-921 7 0
-921 37 0
-921 43 0
-921 76 0
922 -7 -37 -46 -70 0
-922 7 0
-922 37 0
-922 46 0
-922 70 0
923 -7 -37 -49 -67 0
-923 7 0
-923 37 0
-923 49 0
-923 67 0
924 -10 -22 -58 -82 0
-924 10 0
-924 22 0
-924 58 0
-924 82 0
925 -10 -22 -61 -79 0
-925 10 0
-925 22 0
-925 61 0
-925 79 0
926 -10 -22 -64 -76 0
-926 10 0
-926 22 0
-926 64 0
-926 76 0
927 -10 -25 -46 -82 0
-927 10 0
-927 25 0
-927 46 0
-927 82 0
928 -10 -25 -49 -79 0
-928 10 0
-928 25 0
-928 49 0
-928 79 0
929 -10 -25 -52 -76 0
-929 10 0
-929 25 0
-929 52 0
-929 76 0
930 -10 -31 -40 -82 0
-930 10 0
-930 31 0
-930 40 0
-930 82 0
931 -10 -31 -49 -64 0
-931 10 0
-931 31 0
-931 49 0
-931 64 0
932 -10 -31 -52 -61 0
-932 10 0
-932 31 0
-932 52 0
-932 61 0
933 -10 -34 -40 -79 0
-933 10 0
-933 34 0
-933 40 0
-933 79 0
934 -10 -34 -46 -64 0
-934 10 0
-934 34 0
-934 46 0
-934 64 0
935 -10 -34 -52 -58 0
-935 10 0
-935 34 0
-935 52 0
-935 58 0
936 -10 -37 -40 -76 0
-936 10 0
-936 37 0
-936 40 0
-936 76 0
937 -10 -37 -46 -61 0
-937 10 0
-937 37 0
-937 46 0
-937 61 0
938 -10 -37 -49 -58 0
-938 10 0
-938 37 0
-938 49 0
-938 58 0
939 -13 -22 -55 -82 0
-939 13 0
-939 22 0
-939 55 0
-939 82 0
940 -13 -22 -61 -73 0
-940 13 0
-940 22 0
-940 61 0
-940 73 0
941 -13 -22 -64 -70 0
-941 13 0
-941 22 0
-941 64 0
-941 70 0
942 -13 -25 -43 -82 0
-942 13 0
-942 25 0
-942 43 0
-942 82 0
943 -13 -25 -49 -73 0
-943 13 0
-943 25 0
-943 49 0
-943 73 0
944 -13 -25 -52 -70 0
-944 13 0
-944 25 0
-944 52 0
-944 70 0
945 -13 -28 -40 -82 0
-945 13 0
-945 28 0
-945 40 0
-945 82 0
946 -13 -28 -49 -64 0
-946 13 0
-946 28 0
-946 49 0
-946 64 0
947 -13 -28 -52 -61 0
-947 13 0
-947 28 0
-947 52 0
-947 61 0
948 -13 -34 -40 -73 0
-948 13 0
-948 34 0
-948 40 0
-948 73 0
949 -13 -34 -43 -64 0
-949 13 0
-949 34 0
-949 43 0
-949 64 0
950 -13 -34 -52 -55 0
-950 13 0
-950 34 0
-950 52 0
-950 55 0
951 -13 -37 -40 -70 0
-951 13 0
-951 37 0
-951 40 0
-951 70 0
952 -13 -37 -43 -61 0
-952 13 0
-952 37 0
-952 43 0
-952 61 0
953 -13 -37 -49 -55 0
-953 13 0
-953 37 0
-953 49 0
-953 55 0
954 -16 -22 -55 -79 0
-954 16 0
-954 22 0
-954 55 0
-954 79 0
955 -16 -22 -58 -73 0
-955 16 0
-955 22 0
-955 58 0
-955 73 0
956 -16 -22 -64 -67 0
-956 16 0
-956 22 0
-956 64 0
-956 67 0
957 -16 -25 -43 -79 0
-957 16 0
-957 25 0
-957 43 0
-957 79 0
958 -16 -25 -46 -73 0
-958 16 0
-958 25 0
-958 46 0
-958 73 0
959 -16 -25 -52 -67 0
-959 16 0
-959 25 0
-959 52 0
-959 67 0
960 -16 -28 -40 -79 0
-960 16 0
-960 28 0
-960 40 0
-960 79 0
961 -16 -28 -46 -64 0
-961 16 0
-961 28 0
-961 46 0
-961 64 0
962 -16 -28 -52 -58 0
-962 16 0
-962 28 0
-962 52 0
-962 58 0
963 -16 -31 -40 -73 0
-963 16 0
-963 31 0
-963 40 0
-963 73 0
964 -16 -31 -43 -64 0
-964 16 0
-964 31 0
-964 43 0
-964 64 0
965 -16 -31 -52 -55 0
-965 16 0
-965 31 0
-965 52 0
-965 55 0
966 -16 -37 -40 -67 0
-966 16 0
-966 37 0
-966 40 0
-966 67 0
967 -16 -37 -43 -58 0
-967 16 0
-967 37 0
-967 43 0
-967 58 0
968 -16 -37 -46 -55 0
-968 16 0
-968 37 0
-968 46 0
-968 55 0
969 -19 -22 -55 -76 0
-969 19 0
-969 22 0
-969 55 0
-969 76 0
970 -19 -22 -58 -70 0
-970 19 0
-970 22 0
-970 58 0
-970 70 0
971 -19 -22 -61 -67 0
-971 19 0
-971 22 0
-971 61 0
-971 67 0
972 -19 -25 -43 -76 0
-972 19 0
-972 25 0
-972 43 0
-972 76 0
973 -19 -25 -46 -70 0
-973 19 0
-973 25 0
-973 46 0
-973 70 0
974 -19 -25 -49 -67 0
-974 19 0
-974 25 0
-974 49 0
-974 67 0
975 -19 -28 -40 -76 0
-975 19 0
-975 28 0
-975 40 0
-975 76 0
976 -19 -28 -46 -61 0
-976 19 0
-976 28 0
-976 46 0
-976 61 0
977 -19 -28 -49 -58 0
-977 19 0
-977 28 0
-977 49 0
-977 58 0
978 -19 -31 -40 -70 0
-978 19 0
-978 31 0
-978 40 0
-978 70 0
979 -19 -31 -43 -61 0
-979 19 0
-979 31 0
-979 43 0
-979 61 0
980 -19 -31 -49 -55 0
-980 19 0
-980 31 0
-980 49 0
-980 55 0
981 -19 -34 -40 -67 0
-981 19 0
-981 34 0
-981 40 0
-981 67 0
982 -19 -34 -43 -58 0
-982 19 0
-982 34 0
-982 43 0
-982 58 0
983 -19 -34 -46 -55 0
-983 19 0
-983 34 0
-983 46 0
-983 55 0
879 880 881 882 883 884 885 886 887 888 889 890 891 892 893 894 895 896 897 898 899 900 901 902 903 904 905 906 907 908 909 910 911 912 913 914 915 916 917 918 919 920 921 922 923 924 925 926 927 928 929 930 931 932 933 934 935 936 937 938 939 940 941 942 943 944 945 946 947 948 949 950 951 952 953 954 955 956 957 958 959 960 961 962 963 964 965 966 967 968 969 970 971 972 973 974 975 976 977 978 979 980 981 982 983 0
984 -1 -40 -67 -83 0
-984 1 0
-984 40 0
-984 67 0
-984 83 0
985 -1 -43 -58 -83 0
-985 1 0
-985 43 0
-985 58 0
-985 83 0
986 -1 -46 -55 -83 0
-986 1 0
-986 46 0
-986 55 0
-986 83 0
987 -4 -25 -67 -83 0
-987 4 0
-987 25 0
-987 67 0
-987 83 0
988 -4 -28 -58 -83 0
-988 4 0
-988 28 0
-988 58 0
-988 83 0
989 -4 -31 -55 -83 0
-989 4 0
-989 31 0
-989 55 0
-989 83 0
990 -7 -22 -67 -83 0
-990 7 0
-990 22 0
-990 67 0
-990 83 0
991 -7 -28 -46 -83 0
-991 7 0
-991 28 0
-991 46 0
-991 83 0
992 -7 -31 -43 -83 0
-992 7 0
-992 31 0
-992 43 0
-992 83 0
993 -10 -22 -58 -83 0
-993 10 0
-993 22 0
-993 58 0
-993 83 0
994 -10 -25 -46 -83 0
-994 10 0
-994 25 0
-994 46 0
-994 83 0
995 -10 -31 -40 -83 0
-995 10 0
-995 31 0
-995 40 0
-995 83 0
996 -13 -22 -55 -83 0
-996 13 0
-996 22 0
-996 55 0
-996 83 0
997 -13 -25 -43 -83 0
-997 13 0
-997 25 0
-997 43 0
-997 83 0
998 -13 -28 -40 -83 0
-998 13 0
-998 28 0
-998 40 0
-998 83 0
-984 985 986 987 988 989 990 991 992 993 994 995 996 997 998 0
-985 984 986 987 988 989 990 991 992 993 994 995 996 997 998 0
-986 984 985 987 988 989 990 991 992 993 994 995 996 997 998 0
-987 984 985 986 988 989 990 991 992 993 994 995 996 997 998 0
-988 984 985 986 987 989 990 991 992 993 994 995 996 997 998 0
-989 984 985 986 987 988 990 991 992 993 994 995 996 997 998 0
-990 984 985 986 987 988 989 991 992 993 994 995 996 997 998 0
-991 984 985 986 987 988 989 990 992 993 994 995 996 997 998 0
-992 984 985 986 987 988 989 990 991 993 994 995 996 997 998 0
-993 984 985 986 987 988 989 990 991 992 994 995 996 997 998 0
-994 984 985 986 987 988 989 990 991 992 993 995 996 997 998 0
-995 984 985 986 987 988 989 990 991 992 993 994 996 997 998 0
-996 984 985 986 987 988 989 990 991 992 993 994 995 997 998 0
-997 984 985 986 987 988 989 990 991 992 993 994 995 996 998 0
-998 984 985 986 987 988 989 990 991 992 993 994 995 996 997 0
999 -1 -40 -67 -84 0
-999 1 0
-999 40 0
-999 67 0
-999 84 0
1000 -1 -43 -58 -84 0
-1000 1 0
-1000 43 0
-1000 58 0
-1000 84 0
1001 -1 -46 -55 -84 0
-1001 1 0
-1001 46 0
-1001 55 0
-1001 84 0
1002 -4 -25 -67 -84 0
-1002 4 0
-1002 25 0
-1002 67 0
-1002 84 0
1003 -4 -28 -58 -84 0
-1003 4 0
-1003 28 0
-1003 58 0
-1003 84 0
1004 -4 -31 -55 -84 0
-1004 4 0
-1004 31 0
-1004 55 0
-1004 84 0
1005 -7 -22 -67 -84 0
-1005 7 0
-1005 22 0
-1005 67 0
-1005 84 0
1006 -7 -28 -46 -84 0
-1006 7 0
-1006 28 0
-1006 46 0
-1006 84 0
1007 -7 -31 -43 -84 0
-1007 7 0
-1007 31 0
-1007 43 0
-1007 84 0
1008 -10 -22 -58 -84 0
-1008 10 0
-1008 22 0
-1008 58 0
-1008 84 0
1009 -10 -25 -46 -84 0
-1009 10 0
-1009 25 0
-1009 46 0
-1009 84 0
1010 -10 -31 -40 -84 0
-1010 10 0
-1010 31 0
-1010 40 0
-1010 84 0
1011 -13 -22 -55 -84 0
-1011 13 0
-1011 22 0
-1011 55 0
-1011 84 0
1012 -13 -25 -43 -84 0
-1012 13 0
-1012 25 0
-1012 43 0
-1012 84 0
1013 -13 -28 -40 -84 0
-1013 13 0
-1013 28 0
-1013 40 0
-1013 84 0
-999 1000 1001 1002 1003 1004 1005 1006 1007 1008 1009 1010 1011 1012 1013 0
-1000 999 1001 1002 1003 1004 1005 1006 1007 1008 1009 1010 1011 1012 1013 0
-1001 999 1000 1002 1003 1004 1005 1006 1007 1008 1009 1010 1011 1012 1013 0
-1002 999 1000 1001 1003 1004 1005 1006 1007 1008 1009 1010 1011 1012 1013 0
-1003 999 1000 1001 1002 1004 1005 1006 1007 1008 1009 1010 1011 1012 1013 0
-1004 999 1000 1001 1002 1003 1005 1006 1007 1008 1009 1010 1011 1012 1013 0
-1005 999 1000 1001 1002 1003 1004 1006 1007 1008 1009 1010 1011 1012 1013 0
-1006 999 1000 1001 1002 1003 1004 1005 1007 1008 1009 1010 1011 1012 1013 0
-1007 999 1000 1001 1002 1003 1004 1005 1006 1008 1009 1010 1011 1012 1013 0
-1008 999 1000 1001 1002 1003 1004 1005 1006 1007 1009 1010 1011 1012 1013 0
-1009 999 1000 1001 1002 1003 1004 1005 1006 1007 1008 1010 1011 1012 1013 0
-1010 999 1000 1001 1002 1003 1004 1005 1006 1007 1008 1009 1011 1012 1013 0
-1011 999 1000 1001 1002 1003 1004 1005 1006 1007 1008 1009 1010 1012 1013 0
-1012 999 1000 1001 1002 1003 1004 1005 1006 1007 1008 1009 1010 1011 1013 0
-1013 999 1000 1001 1002 1003 1004 1005 1006 1007 1008 1009 1010 1011 1012 0
1014 -1 -40 -68 -82 0
-1014 1 0
-1014 40 0
-1014 68 0
-1014 82 0
1015 -1 -49 -64 -68 0
-1015 1 0
-1015 49 0
-1015 64 0
-1015 68 0
1016 -1 -52 -61 -68 0
-1016 1 0
-1016 52 0
-1016 61 0
-1016 68 0
1017 -4 -25 -68 -82 0
-1017 4 0
-1017 25 0
-1017 68 0
-1017 82 0
1018 -4 -34 -64 -68 0
-1018 4 0
-1018 34 0
-1018 64 0
-1018 68 0
1019 -4 -37 -61 -68 0
-1019 4 0
-1019 37 0
-1019 61 0
-1019 68 0
1020 -7 -22 -68 -82 0
-1020 7 0
-1020 22 0
-1020 68 0
-1020 82 0
1021 -7 -34 -52 -68 0
-1021 7 0
-1021 34 0
-1021 52 0
-1021 68 0
1022 -7 -37 -49 -68 0
-1022 7 0
-1022 37 0
-1022 49 0
-1022 68 0
1023 -16 -22 -64 -68 0
-1023 16 0
-1023 22 0
-1023 64 0
-1023 68 0
1024 -16 -25 -52 -68 0
-1024 16 0
-1024 25 0
-1024 52 0
-1024 68 0
1025 -16 -37 -40 -68 0
-1025 16 0
-1025 37 0
-1025 40 0
-1025 68 0
1026 -19 -22 -61 -68 0
-1026 19 0
-1026 22 0
-1026 61 0
-1026 68 0
1027 -19 -25 -49 -68 0
-1027 19 0
-1027 25 0
-1027 49 0
-1027 68 0
1028 -19 -34 -40 -68 0
-1028 19 0
-1028 34 0
-1028 40 0
-1028 68 0
-1014 1015 1016 1017 1018 1019 1020 1021 1022 1023 1024 1025 1026 1027 1028 0
-1015 1014 1016 1017 1018 1019 1020 1021 1022 1023 1024 1025 1026 1027 1028 0
-1016 1014 1015 1017 1018 1019 1020 1021 1022 1023 1024 1025 1026 1027 1028 0
-1017 1014 1015 1016 1018 1019 1020 1021 1022 1023 1024 1025 1026 1027 1028 0
-1018 1014 1015 1016 1017 1019 1020 1021 1022 1023 1024 1025 1026 1027 1028 0
-1019 1014 1015 1016 1017 1018 1020 1021 1022 1023 1024 1025 1026 1027 1028 0
-1020 1014 1015 1016 1017 1018 1019 1021 1022 1023 1024 1025 1026 1027 1028 0
-1021 1014 1015 1016 1017 1018 1019 1020 1022 1023 1024 1025 1026 1027 1028 0
-1022 1014 1015 1016 1017 1018 1019 1020 1021 1023 1024 1025 1026 1027 1028 0
-1023 1014 1015 1016 1017 1018 1019 1020 1021 1022 1024 1025 1026 1027 1028 0
-1024 1014 1015 1016 1017 1018 1019 1020 1021 1022 1023 1025 1026 1027 1028 0
-1025 1014 1015 1016 1017 1018 1019 1020 1021 1022 1023 1024 1026 1027 1028 0
-1026 1014 1015 1016 1017 1018 1019 1020 1021 1022 1023 1024 1025 1027 1028 0
-1027 1014 1015 1016 1017 1018 1019 1020 1021 1022 1023 1024 1025 1026 1028 0
-1028 1014 1015 1016 1017 1018 1019 1020 1021 1022 1023 1024 1025 1026 1027 0
1029 -1 -40 -68 -83 0
-1029 1 0
-1029 40 0
-1029 68 0
-1029 83 0
1030 -1 -40 -71 -80 0
-1030 1 0
-1030 40 0
-1030 71 0
-1030 80 0
1031 -1 -40 -74 -77 0
-1031 1 0
-1031 40 0
-1031 74 0
-1031 77 0
1032 -4 -25 -68 -83 0
-1032 4 0
-1032 25 0
-1032 68 0
-1032 83 0
1033 -4 -25 -71 -80 0
-1033 4 0
-1033 25 0
-1033 71 0
-1033 80 0
1034 -4 -25 -74 -77 0
-1034 4 0
-1034 25 0
-1034 74 0
-1034 77 0
1035 -7 -22 -68 -83 0
-1035 7 0
-1035 22 0
-1035 68 0
-1035 83 0
1036 -7 -22 -71 -80 0
-1036 7 0
-1036 22 0
-1036 71 0
-1036 80 0
1037 -7 -22 -74 -77 0
-1037 7 0
-1037 22 0
-1037 74 0
-1037 77 0
-1029 1030 1031 1032 1033 1034 1035 1036 1037 0
-1030 1029 1031 1032 1033 1034 1035 1036 1037 0
-1031 1029 1030 1032 1033 1034 1035 1036 1037 0
-1032 1029 1030 1031 1033 1034 1035 1036 1037 0
-1033 1029 1030 1031 1032 1034 1035 1036 1037 0
-1034 1029 1030 1031 1032 1033 1035 1036 1037 0
-1035 1029 1030 1031 1032 1033 1034 1036 1037 0
-1036 1029 1030 1031 1032 1033 1034 1035 1037 0
-1037 1029 1030 1031 1032 1033 1034 1035 1036 0
1038 -1 -40 -68 -84 0
-1038 1 0
-1038 40 0
-1038 68 0
-1038 84 0
1039 -4 -25 -68 -84 0
-1039 4 0
-1039 25 0
-1039 68 0
-1039 84 0
1040 -7 -22 -68 -84 0
-1040 7 0
-1040 22 0
-1040 68 0
-1040 84 0
-1038 1039 1040 0
-1039 1038 1040 0
-1040 1038 1039 0
1041 -1 -40 -69 -82 0
-1041 1 0
-1041 40 0
-1041 69 0
-1041 82 0
1042 -1 -49 -64 -69 0
-1042 1 0
-1042 49 0
-1042 64 0
-1042 69 0
1043 -1 -52 -61 -69 0
-1043 1 0
-1043 52 0
-1043 61 0
-1043 69 0
1044 -4 -25 -69 -82 0
-1044 4 0
-1044 25 0
-1044 69 0
-1044 82 0
1045 -4 -34 -64 -69 0
-1045 4 0
-1045 34 0
-1045 64 0
-1045 69 0
1046 -4 -37 -61 -69 0
-1046 4 0
-1046 37 0
-1046 61 0
-1046 69 0
1047 -7 -22 -69 -82 0
-1047 7 0
-1047 22 0
-1047 69 0
-1047 82 0
1048 -7 -34 -52 -69 0
-1048 7 0
-1048 34 0
-1048 52 0
-1048 69 0
1049 -7 -37 -49 -69 0
-1049 7 0
-1049 37 0
-1049 49 0
-1049 69 0
1050 -16 -22 -64 -69 0
-1050 16 0
-1050 22 0
-1050 64 0
-1050 69 0
1051 -16 -25 -52 -69 0
-1051 16 0
-1051 25 0
-1051 52 0
-1051 69 0
1052 -16 -37 -40 -69 0
-1052 16 0
-1052 37 0
-1052 40 0
-1052 69 0
1053 -19 -22 -61 -69 0
-1053 19 0
-1053 22 0
-1053 61 0
-1053 69 0
1054 -19 -25 -49 -69 0
-1054 19 0
-1054 25 0
-1054 49 0
-1054 69 0
1055 -19 -34 -40 -69 0
-1055 19 0
-1055 34 0
-1055 40 0
-1055 69 0
-1041 1042 1043 1044 1045 1046 1047 1048 1049 1050 1051 1052 1053 1054 1055 0
-1042 1041 1043 1044 1045 1046 1047 1048 1049 1050 1051 1052 1053 1054 1055 0
-1043 1041 1042 1044 1045 1046 1047 1048 1049 1050 1051 1052 1053 1054 1055 0
-1044 1041 1042 1043 1045 1046 1047 1048 1049 1050 1051 1052 1053 1054 1055 0
-1045 1041 1042 1043 1044 1046 1047 1048 1049 1050 1051 1052 1053 1054 1055 0
-1046 1041 1042 1043 1044 1045 1047 1048 1049 1050 1051 1052 1053 1054 1055 0
-1047 1041 1042 1043 1044 1045 1046 1048 1049 1050 1051 1052 1053 1054 1055 0
-1048 1041 1042 1043 1044 1045 1046 1047 1049 1050 1051 1052 1053 1054 1055 0
-1049 1041 1042 1043 1044 1045 1046 1047 1048 1050 1051 1052 1053 1054 1055 0
-1050 1041 1042 1043 1044 1045 1046 1047 1048 1049 1051 1052 1053 1054 1055 0
-1051 1041 1042 1043 1044 1045 1046 1047 1048 1049 1050 1052 1053 1054 1055 0
-1052 1041 1042 1043 1044 1045 1046 1047 1048 1049 1050 1051 1053 1054 1055 0
-1053 1041 1042 1043 1044 1045 1046 1047 1048 1049 1050 1051 1052 1054 1055 0
-1054 1041 1042 1043 1044 1045 1046 1047 1048 1049 1050 1051 1052 1053 1055 0
-1055 1041 1042 1043 1044 1045 1046 1047 1048 1049 1050 1051 1052 1053 1054 0
1056 -1 -40 -69 -83 0
-1056 1 0
-1056 40 0
-1056 69 0
-1056 83 0
1057 -4 -25 -69 -83 0
-1057 4 0
-1057 25 0
-1057 69 0
-1057 83 0
1058 -7 -22 -69 -83 0
-1058 7 0
-1058 22 0
-1058 69 0
-1058 83 0
-1056 1057 1058 0
-1057 1056 1058 0
-1058 1056 1057 0
1059 -1 -40 -69 -84 0
-1059 1 0
-1059 40 0
-1059 69 0
-1059 84 0
1060 -1 -40 -72 -81 0
-1060 1 0
-1060 40 0
-1060 72 0
-1060 81 0
1061 -1 -40 -75 -78 0
-1061 1 0
-1061 40 0
-1061 75 0
-1061 78 0
1062 -4 -25 -69 -84 0
-1062 4 0
-1062 25 0
-1062 69 0
-1062 84 0
1063 -4 -25 -72 -81 0
-1063 4 0
-1063 25 0
-1063 72 0
-1063 81 0
1064 -4 -25 -75 -78 0
-1064 4 0
-1064 25 0
-1064 75 0
-1064 78 0
1065 -7 -22 -69 -84 0
-1065 7 0
-1065 22 0
-1065 69 0
-1065 84 0
1066 -7 -22 -72 -81 0
-1066 7 0
-1066 22 0
-1066 72 0
-1066 81 0
1067 -7 -22 -75 -78 0
-1067 7 0
-1067 22 0
-1067 75 0
-1067 78 0
-1059 1060 1061 1062 1063 1064 1065 1066 1067 0
-1060 1059 1061 1062 1063 1064 1065 1066 1067 0
-1061 1059 1060 1062 1063 1064 1065 1066 1067 0
-1062 1059 1060 1061 1063 1064 1065 1066 1067 0
-1063 1059 1060 1061 1062 1064 1065 1066 1067 0
-1064 1059 1060 1061 1062 1063 1065 1066 1067 0
-1065 1059 1060 1061 1062 1063 1064 1066 1067 0
-1066 1059 1060 1061 1062 1063 1064 1065 1067 0
-1067 1059 1060 1061 1062 1063 1064 1065 1066 0
1068 -1 -41 -67 -82 0
-1068 1 0
-1068 41 0
-1068 67 0
-1068 82 0
1069 -1 -41 -70 -79 0
-1069 1 0
-1069 41 0
-1069 70 0
-1069 79 0
1070 -1 -41 -73 -76 0
-1070 1 0
-1070 41 0
-1070 73 0
-1070 76 0
1071 -10 -31 -41 -82 0
-1071 10 0
-1071 31 0
-1071 41 0
-1071 82 0
1072 -10 -34 -41 -79 0
-1072 10 0
-1072 34 0
-1072 41 0
-1072 79 0
1073 -10 -37 -41 -76 0
-1073 10 0
-1073 37 0
-1073 41 0
-1073 76 0
1074 -13 -28 -41 -82 0
-1074 13 0
-1074 28 0
-1074 41 0
-1074 82 0
1075 -13 -34 -41 -73 0
-1075 13 0
-1075 34 0
-1075 41 0
-1075 73 0
1076 -13 -37 -41 -70 0
-1076 13 0
-1076 37 0
-1076 41 0
-1076 70 0
1077 -16 -28 -41 -79 0
-1077 16 0
-1077 28 0
-1077 41 0
-1077 79 0
1078 -16 -31 -41 -73 0
-1078 16 0
-1078 31 0
-1078 41 0
-1078 73 0
1079 -16 -37 -41 -67 0
-1079 16 0
-1079 37 0
-1079 41 0
-1079 67 0
1080 -19 -28 -41 -76 0
-1080 19 0
-1080 28 0
-1080 41 0
-1080 76 0
1081 -19 -31 -41 -70 0
-1081 19 0
-1081 31 0
-1081 41 0
-1081 70 0
1082 -19 -34 -41 -67 0
-1082 19 0
-1082 34 0
-1082 41 0
-1082 67 0
-1068 1069 1070 1071 1072 1073 1074 1075 1076 1077 1078 1079 1080 1081 1082 0
-1069 1068 1070 1071 1072 1073 1074 1075 1076 1077 1078 1079 1080 1081 1082 0
-1070 1068 1069 1071 1072 1073 1074 1075 1076 1077 1078 1079 1080 1081 1082 0
-1071 1068 1069 1070 1072 1073 1074 1075 1076 1077 1078 1079 1080 1081 1082 0
-1072 1068 1069 1070 1071 1073 1074 1075 1076 1077 1078 1079 1080 1081 1082 0
-1073 1068 1069 1070 1071 1072 1074 1075 1076 1077 1078 1079 1080 1081 1082 0
-1074 1068 1069 1070 1071 1072 1073 1075 1076 1077 1078 1079 1080 1081 1082 0
-1075 1068 1069 1070 1071 1072 1073 1074 1076 1077 1078 1079 1080 1081 1082 0
-1076 1068 1069 1070 1071 1072 1073 1074 1075 1077 1078 1079 1080 1081 1082 0
-1077 1068 1069 1070 1071 1072 1073 1074 1075 1076 1078 1079 1080 1081 1082 0
-1078 1068 1069 1070 1071 1072 1073 1074 1075 1076 1077 1079 1080 1081 1082 0
-1079 1068 1069 1070 1071 1072 1073 1074 1075 1076 1077 1078 1080 1081 1082 0
-1080 1068 1069 1070 1071 1072 1073 1074 1075 1076 1077 1078 1079 1081 1082 0
-1081 1068 1069 1070 1071 1072 1073 1074 1075 1076 1077 1078 1079 1080 1082 0
-1082 1068 1069 1070 1071 1072 1073 1074 1075 1076 1077 1078 1079 1080 1081 0
1083 -1 -41 -67 -83 0
-1083 1 0
-1083 41 0
-1083 67 0
-1083 83 0
1084 -1 -50 -65 -67 0
-1084 1 0
-1084 50 0
-1084 65 0
-1084 67 0
1085 -1 -53 -62 -67 0
-1085 1 0
-1085 53 0
-1085 62 0
-1085 67 0
1086 -10 -31 -41 -83 0
-1086 10 0
-1086 31 0
-1086 41 0
-1086 83 0
1087 -10 -31 -50 -65 0
-1087 10 0
-1087 31 0
-1087 50 0
-1087 65 0
1088 -10 -31 -53 -62 0
-1088 10 0
-1088 31 0
-1088 53 0
-1088 62 0
1089 -13 -28 -41 -83 0
-1089 13 0
-1089 28 0
-1089 41 0
-1089 83 0
1090 -13 -28 -50 -65 0
-1090 13 0
-1090 28 0
-1090 50 0
-1090 65 0
1091 -13 -28 -53 -62 0
-1091 13 0
-1091 28 0
-1091 53 0
-1091 62 0
-1083 1084 1085 1086 1087 1088 1089 1090 1091 0
-1084 1083 1085 1086 1087 1088 1089 1090 1091 0
-1085 1083 1084 1086 1087 1088 1089 1090 1091 0
-1086 1083 1084 1085 1087 1088 1089 1090 1091 0
-1087 1083 1084 1085 1086 1088 1089 1090 1091 0
-1088 1083 1084 1085 1086 1087 1089 1090 1091 0
-1089 1083 1084 1085 1086 1087 1088 1090 1091 0
-1090 1083 1084 1085 1086 1087 1088 1089 1091 0
-1091 1083 1084 1085 1086 1087 1088 1089 1090 0
1092 -1 -41 -67 -84 0
-1092 1 0
-1092 41 0
-1092 67 0
-1092 84 0
1093 -10 -31 -41 -84 0
-1093 10 0
-1093 31 0
-1093 41 0
-1093 84 0
1094 -13 -28 -41 -84 0
-1094 13 0
-1094 28 0
-1094 41 0
-1094 84 0
-1092 1093 1094 0
-1093 1092 1094 0
-1094 1092 1093 0
1095 -1 -41 -68 -82 0
-1095 1 0
-1095 41 0
-1095 68 0
-1095 82 0
1096 -1 -44 -59 -82 0
-1096 1 0
-1096 44 0
-1096 59 0
-1096 82 0
1097 -1 -47 -56 -82 0
-1097 1 0
-1097 47 0
-1097 56 0
-1097 82 0
1098 -16 -37 -41 -68 0
-1098 16 0
-1098 37 0
-1098 41 0
-1098 68 0
1099 -16 -37 -44 -59 0
-1099 16 0
-1099 37 0
-1099 44 0
-1099 59 0
1100 -16 -37 -47 -56 0
-1100 16 0
-1100 37 0
-1100 47 0
-1100 56 0
1101 -19 -34 -41 -68 0
-1101 19 0
-1101 34 0
-1101 41 0
-1101 68 0
1102 -19 -34 -44 -59 0
-1102 19 0
-1102 34 0
-1102 44 0
-1102 59 0
1103 -19 -34 -47 -56 0
-1103 19 0
-1103 34 0
-1103 47 0
-1103 56 0
-1095 1096 1097 1098 1099 1100 1101 1102 1103 0
-1096 1095 1097 1098 1099 1100 1101 1102 1103 0
-1097 1095 1096 1098 1099 1100 1101 1102 1103 0
-1098 1095 1096 1097 1099 1100 1101 1102 1103 0
-1099 1095 1096 1097 1098 1100 1101 1102 1103 0
-1100 1095 1096 1097 1098 1099 1101 1102 1103 0
-1101 1095 1096 1097 1098 1099 1100 1102 1103 0
-1102 1095 1096 1097 1098 1099 1100 1101 1103 0
-1103 1095 1096 1097 1098 1099 1100 1101 1102 0
1104 -1 -41 -68 -83 0
-1104 1 0
-1104 41 0
-1104 68 0
-1104 83 0
1105 -1 -41 -71 -80 0
-1105 1 0
-1105 41 0
-1105 71 0
-1105 80 0
1106 -1 -41 -74 -77 0
-1106 1 0
-1106 41 0
-1106 74 0
-1106 77 0
1107 -1 -44 -59 -83 0
-1107 1 0
-1107 44 0
-1107 59 0
-1107 83 0
1108 -1 -44 -62 -80 0
-1108 1 0
-1108 44 0
-1108 62 0
-1108 80 0
1109 -1 -44 -65 -77 0
-1109 1 0
-1109 44 0
-1109 65 0
-1109 77 0
1110 -1 -47 -56 -83 0
-1110 1 0
-1110 47 0
-1110 56 0
-1110 83 0
1111 -1 -47 -62 -74 0
-1111 1 0
-1111 47 0
-1111 62 0
-1111 74 0
1112 -1 -47 -65 -71 0
-1112 1 0
-1112 47 0
-1112 65 0
-1112 71 0
1113 -1 -50 -56 -80 0
-1113 1 0
-1113 50 0
-1113 56 0
-1113 80 0
1114 -1 -50 -59 -74 0
-1114 1 0
-1114 50 0
-1114 59 0
-1114 74 0
1115 -1 -50 -65 -68 0
-1115 1 0
-1115 50 0
-1115 65 0
-1115 68 0
1116 -1 -53 -56 -77 0
-1116 1 0
-1116 53 0
-1116 56 0
-1116 77 0
1117 -1 -53 -59 -71 0
-1117 1 0
-1117 53 0
-1117 59 0
-1117 71 0
1118 -1 -53 -62 -68 0
-1118 1 0
-1118 53 0
-1118 62 0
-1118 68 0
-1104 1105 1106 1107 1108 1109 1110 1111 1112 1113 1114 1115 1116 1117 1118 0
-1105 1104 1106 1107 1108 1109 1110 1111 1112 1113 1114 1115 1116 1117 1118 0
-1106 1104 1105 1107 1108 1109 1110 1111 1112 1113 1114 1115 1116 1117 1118 0
-1107 1104 1105 1106 1108 1109 1110 1111 1112 1113 1114 1115 1116 1117 1118 0
-1108 1104 1105 1106 1107 1109 1110 1111 1112 1113 1114 1115 1116 1117 1118 0
-1109 1104 1105 1106 1107 1108 1110 1111 1112 1113 1114 1115 1116 1117 1118 0
-1110 1104 1105 1106 1107 1108 1109 1111 1112 1113 1114 1115 1116 1117 1118 0
-1111 1104 1105 1106 1107 1108 1109 1110 1112 1113 1114 1115 1116 1117 1118 0
-1112 1104 1105 1106 1107 1108 1109 1110 1111 1113 1114 1115 1116 1117 1118 0
-1113 1104 1105 1106 1107 1108 1109 1110 1111 1112 1114 1115 1116 1117 1118 0
-1114 1104 1105 1106 1107 1108 1109 1110 1111 1112 1113 1115 1116 1117 1118 0
-1115 1104 1105 1106 1107 1108 1109 1110 1111 1112 1113 1114 1116 1117 1118 0
-1116 1104 1105 1106 1107 1108 1109 1110 1111 1112 1113 1114 1115 1117 1118 0
-1117 1104 1105 1106 1107 1108 1109 1110 1111 1112 1113 1114 1115 1116 1118 0
-1118 1104 1105 1106 1107 1108 1109 1110 1111 1112 1113 1114 1115 1116 1117 0
1119 -1 -41 -68 -84 0
-1119 1 0
-1119 41 0
-1119 68 0
-1119 84 0
1120 -1 -44 -59 -84 0
-1120 1 0
-1120 44 0
-1120 59 0
-1120 84 0
1121 -1 -47 -56 -84 0
-1121 1 0
-1121 47 0
-1121 56 0
-1121 84 0
-1119 1120 1121 0
-1120 1119 1121 0
-1121 1119 1120 0
1122 -1 -41 -69 -82 0
-1122 1 0
-1122 41 0
-1122 69 0
-1122 82 0
1123 -16 -37 -41 -69 0
-1123 16 0
-1123 37 0
-1123 41 0
-1123 69 0
1124 -19 -34 -41 -69 0
-1124 19 0
-1124 34 0
-1124 41 0
-1124 69 0
-1122 1123 1124 0
-1123 1122 1124 0
-1124 1122 1123 0
1125 -1 -41 -69 -83 0
-1125 1 0
-1125 41 0
-1125 69 0
-1125 83 0
1126 -1 -50 -65 -69 0
-1126 1 0
-1126 50 0
-1126 65 0
-1126 69 0
1127 -1 -53 -62 -69 0
-1127 1 0
-1127 53 0
-1127 62 0
-1127 69 0
-1125 1126 1127 0
-1126 1125 1127 0
-1127 1125 1126 0
1128 -1 -41 -69 -84 0
-1128 1 0
-1128 41 0
-1128 69 0
-1128 84 0
1129 -1 -41 -72 -81 0
-1129 1 0
-1129 41 0
-1129 72 0
-1129 81 0
1130 -1 -41 -75 -78 0
-1130 1 0
-1130 41 0
-1130 75 0
-1130 78 0
-1128 1129 1130 0
-1129 1128 1130 0
-1130 1128 1129 0
1131 -1 -42 -67 -82 0
-1131 1 0
-1131 42 0
-1131 67 0
-1131 82 0
1132 -1 -42 -70 -79 0
-1132 1 0
-1132 42 0
-1132 70 0
-1132 79 0
1133 -1 -42 -73 -76 0
-1133 1 0
-1133 42 0
-1133 73 0
-1133 76 0
1134 -10 -31 -42 -82 0
-1134 10 0
-1134 31 0
-1134 42 0
-1134 82 0
1135 -10 -34 -42 -79 0
-1135 10 0
-1135 34 0
-1135 42 0
-1135 79 0
1136 -10 -37 -42 -76 0
-1136 10 0
-1136 37 0
-1136 42 0
-1136 76 0
1137 -13 -28 -42 -82 0
-1137 13 0
-1137 28 0
-1137 42 0
-1137 82 0
1138 -13 -34 -42 -73 0
-1138 13 0
-1138 34 0
-1138 42 0
-1138 73 0
1139 -13 -37 -42 -70 0
-1139 13 0
-1139 37 0
-1139 42 0
-1139 70 0
1140 -16 -28 -42 -79 0
-1140 16 0
-1140 28 0
-1140 42 0
-1140 79 0
1141 -16 -31 -42 -73 0
-1141 16 0
-1141 31 0
-1141 42 0
-1141 73 0
1142 -16 -37 -42 -67 0
-1142 16 0
-1142 37 0
-1142 42 0
-1142 67 0
1143 -19 -28 -42 -76 0
-1143 19 0
-1143 28 0
-1143 42 0
-1143 76 0
1144 -19 -31 -42 -70 0
-1144 19 0
-1144 31 0
-1144 42 0
-1144 70 0
1145 -19 -34 -42 -67 0
-1145 19 0
-1145 34 0
-1145 42 0
-1145 67 0
-1131 1132 1133 1134 1135 1136 1137 1138 1139 1140 1141 1142 1143 1144 1145 0
-1132 1131 1133 1134 1135 1136 1137 1138 1139 1140 1141 1142 1143 1144 1145 0
-1133 1131 1132 1134 1135 1136 1137 1138 1139 1140 1141 1142 1143 1144 1145 0
-1134 1131 1132 1133 1135 1136 1137 1138 1139 1140 1141 1142 1143 1144 1145 0
-1135 1131 1132 1133 1134 1136 1137 1138 1139 1140 1141 1142 1143 1144 1145 0
-1136 1131 1132 1133 1134 1135 1137 1138 1139 1140 1141 1142 1143 1144 1145 0
-1137 1131 1132 1133 1134 1135 1136 1138 1139 1140 1141 1142 1143 1144 1145 0
-1138 1131 1132 1133 1134 1135 1136 1137 1139 1140 1141 1142 1143 1144 1145 0
-1139 1131 1132 1133 1134 1135 1136 1137 1138 1140 1141 1142 1143 1144 1145 0
-1140 1131 1132 1133 1134 1135 1136 1137 1138 1139 1141 1142 1143 1144 1145 0
-1141 1131 1132 1133 1134 1135 1136 1137 1138 1139 1140 1142 1143 1144 1145 0
-1142 1131 1132 1133 1134 1135 1136 1137 1138 1139 1140 1141 1143 1144 1145 0
-1143 1131 1132 1133 1134 1135 1136 1137 1138 1139 1140 1141 1142 1144 1145 0
-1144 1131 1132 1133 1134 1135 1136 1137 1138 1139 1140 1141 1142 1143 1145 0
-1145 1131 1132 1133 1134 1135 1136 1137 1138 1139 1140 1141 1142 1143 1144 0
1146 -1 -42 -67 -83 0
-1146 1 0
-1146 42 0
-1146 67 0
-1146 83 0
1147 -10 -31 -42 -83 0
-1147 10 0
-1147 31 0
-1147 42 0
-1147 83 0
1148 -13 -28 -42 -83 0
-1148 13 0
-1148 28 0
-1148 42 0
-1148 83 0
-1146 1147 1148 0
-1147 1146 1148 0
-1148 1146 1147 0
1149 -1 -42 -67 -84 0
-1149 1 0
-1149 42 0
-1149 67 0
-1149 84 0
1150 -1 -51 -66 -67 0
-1150 1 0
-1150 51 0
-1150 66 0
-1150 67 0
1151 -1 -54 -63 -67 0
-1151 1 0
-1151 54 0
-1151 63 0
-1151 67 0
1152 -10 -31 -42 -84 0
-1152 10 0
-1152 31 0
-1152 42 0
-1152 84 0
1153 -10 -31 -51 -66 0
-1153 10 0
-1153 31 0
-1153 51 0
-1153 66 0
1154 -10 -31 -54 -63 0
-1154 10 0
-1154 31 0
-1154 54 0
-1154 63 0
1155 -13 -28 -42 -84 0
-1155 13 0
-1155 28 0
-1155 42 0
-1155 84 0
1156 -13 -28 -51 -66 0
-1156 13 0
-1156 28 0
-1156 51 0
-1156 66 0
1157 -13 -28 -54 -63 0
-1157 13 0
-1157 28 0
-1157 54 0
-1157 63 0
-1149 1150 1151 1152 1153 1154 1155 1156 1157 0
-1150 1149 1151 1152 1153 1154 1155 1156 1157 0
-1151 1149 1150 1152 1153 1154 1155 1156 1157 0
-1152 1149 1150 1151 1153 1154 1155 1156 1157 0
-1153 1149 1150 1151 1152 1154 1155 1156 1157 0
-1154 1149 1150 1151 1152 1153 1155 1156 1157 0
-1155 1149 1150 1151 1152 1153 1154 1156 1157 0
-1156 1149 1150 1151 1152 1153 1154 1155 1157 0
-1157 1149 1150 1151 1152 1153 1154 1155 1156 0
1158 -1 -42 -68 -82 0
-1158 1 0
-1158 42 0
-1158 68 0
-1158 82 0
1159 -16 -37 -42 -68 0
-1159 16 0
-1159 37 0
-1159 42 0
-1159 68 0
1160 -19 -34 -42 -68 0
-1160 19 0
-1160 34 0
-1160 42 0
-1160 68 0
-1158 1159 1160 0
-1159 1158 1160 0
-1160 1158 1159 0
1161 -1 -42 -68 -83 0
-1161 1 0
-1161 42 0
-1161 68 0
-1161 83 0
1162 -1 -42 -71 -80 0
-1162 1 0
-1162 42 0
-1162 71 0
-1162 80 0
1163 -1 -42 -74 -77 0
-1163 1 0
-1163 42 0
-1163 74 0
-1163 77 0
-1161 1162 1163 0
-1162 1161 1163 0
-1163 1161 1162 0
1164 -1 -42 -68 -84 0
-1164 1 0
-1164 42 0
-1164 68 0
-1164 84 0
1165 -1 -51 -66 -68 0
-1165 1 0
-1165 51 0
-1165 66 0
-1165 68 0
1166 -1 -54 -63 -68 0
-1166 1 0
-1166 54 0
-1166 63 0
-1166 68 0
-1164 1165 1166 0
-1165 1164 1166 0
-1166 1164 1165 0
1167 -1 -42 -69 -82 0
-1167 1 0
-1167 42 0
-1167 69 0
-1167 82 0
1168 -1 -45 -60 -82 0
-1168 1 0
-1168 45 0
-1168 60 0
-1168 82 0
1169 -1 -48 -57 -82 0
-1169 1 0
-1169 48 0
-1169 57 0
-1169 82 0
1170 -16 -37 -42 -69 0
-1170 16 0
-1170 37 0
-1170 42 0
-1170 69 0
1171 -16 -37 -45 -60 0
-1171 16 0
-1171 37 0
-1171 45 0
-1171 60 0
1172 -16 -37 -48 -57 0
-1172 16 0
-1172 37 0
-1172 48 0
-1172 57 0
1173 -19 -34 -42 -69 0
-1173 19 0
-1173 34 0
-1173 42 0
-1173 69 0
1174 -19 -34 -45 -60 0
-1174 19 0
-1174 34 0
-1174 45 0
-1174 60 0
1175 -19 -34 -48 -57 0
-1175 19 0
-1175 34 0
-1175 48 0
-1175 57 0
-1167 1168 1169 1170 1171 1172 1173 1174 1175 0
-1168 1167 1169 1170 1171 1172 1173 1174 1175 0
-1169 1167 1168 1170 1171 1172 1173 1174 1175 0
-1170 1167 1168 1169 1171 1172 1173 1174 1175 0
-1171 1167 1168 1169 1170 1172 1173 1174 1175 0
-1172 1167 1168 1169 1170 1171 1173 1174 1175 0
-1173 1167 1168 1169 1170 1171 1172 1174 1175 0
-1174 1167 1168 1169 1170 1171 1172 1173 1175 0
-1175 1167 1168 1169 1170 1171 1172 1173 1174 0
1176 -1 -42 -69 -83 0
-1176 1 0
-1176 42 0
-1176 69 0
-1176 83 0
1177 -1 -45 -60 -83 0
-1177 1 0
-1177 45 0
-1177 60 0
-1177 83 0
1178 -1 -48 -57 -83 0
-1178 1 0
-1178 48 0
-1178 57 0
-1178 83 0
-1176 1177 1178 0
-1177 1176 1178 0
-1178 1176 1177 0
1179 -1 -42 -69 -84 0
-1179 1 0
-1179 42 0
-1179 69 0
-1179 84 0
1180 -1 -42 -72 -81 0
-1180 1 0
-1180 42 0
-1180 72 0
-1180 81 0
1181 -1 -42 -75 -78 0
-1181 1 0
-1181 42 0
-1181 75 0
-1181 78 0
1182 -1 -45 -60 -84 0
-1182 1 0
-1182 45 0
-1182 60 0
-1182 84 0
1183 -1 -45 -63 -81 0
-1183 1 0
-1183 45 0
-1183 63 0
-1183 81 0
1184 -1 -45 -66 -78 0
-1184 1 0
-1184 45 0
-1184 66 0
-1184 78 0
1185 -1 -48 -57 -84 0
-1185 1 0
-1185 48 0
-1185 57 0
-1185 84 0
1186 -1 -48 -63 -75 0
-1186 1 0
-1186 48 0
-1186 63 0
-1186 75 0
1187 -1 -48 -66 -72 0
-1187 1 0
-1187 48 0
-1187 66 0
-1187 72 0
1188 -1 -51 -57 -81 0
-1188 1 0
-1188 51 0
-1188 57 0
-1188 81 0
1189 -1 -51 -60 -75 0
-1189 1 0
-1189 51 0
-1189 60 0
-1189 75 0
1190 -1 -51 -66 -69 0
-1190 1 0
-1190 51 0
-1190 66 0
-1190 69 0
1191 -1 -54 -57 -78 0
-1191 1 0
-1191 54 0
-1191 57 0
-1191 78 0
1192 -1 -54 -60 -72 0
-1192 1 0
-1192 54 0
-1192 60 0
-1192 72 0
1193 -1 -54 -63 -69 0
-1193 1 0
-1193 54 0
-1193 63 0
-1193 69 0
-1179 1180 1181 1182 1183 1184 1185 1186 1187 1188 1189 1190 1191 1192 1193 0
-1180 1179 1181 1182 1183 1184 1185 1186 1187 1188 1189 1190 1191 1192 1193 0
-1181 1179 1180 1182 1183 1184 1185 1186 1187 1188 1189 1190 1191 1192 1193 0
-1182 1179 1180 1181 1183 1184 1185 1186 1187 1188 1189 1190 1191 1192 1193 0
-1183 1179 1180 1181 1182 1184 1185 1186 1187 1188 1189 1190 1191 1192 1193 0
-1184 1179 1180 1181 1182 1183 1185 1186 1187 1188 1189 1190 1191 1192 1193 0
-1185 1179 1180 1181 1182 1183 1184 1186 1187 1188 1189 1190 1191 1192 1193 0
-1186 1179 1180 1181 1182 1183 1184 1185 1187 1188 1189 1190 1191 1192 1193 0
-1187 1179 1180 1181 1182 1183 1184 1185 1186 1188 1189 1190 1191 1192 1193 0
-1188 1179 1180 1181 1182 1183 1184 1185 1186 1187 1189 1190 1191 1192 1193 0
-1189 1179 1180 1181 1182 1183 1184 1185 1186 1187 1188 1190 1191 1192 1193 0
-1190 1179 1180 1181 1182 1183 1184 1185 1186 1187 1188 1189 1191 1192 1193 0
-1191 1179 1180 1181 1182 1183 1184 1185 1186 1187 1188 1189 1190 1192 1193 0
-1192 1179 1180 1181 1182 1183 1184 1185 1186 1187 1188 1189 1190 1191 1193 0
-1193 1179 1180 1181 1182 1183 1184 1185 1186 1187 1188 1189 1190 1191 1192 0
1194 -2 -40 -67 -82 0
-1194 2 0
-1194 40 0
-1194 67 0
-1194 82 0
1195 -2 -40 -70 -79 0
-1195 2 0
-1195 40 0
-1195 70 0
-1195 79 0
1196 -2 -40 -73 -76 0
-1196 2 0
-1196 40 0
-1196 73 0
-1196 76 0
1197 -2 -43 -58 -82 0
-1197 2 0
-1197 43 0
-1197 58 0
-1197 82 0
1198 -2 -43 -61 -79 0
-1198 2 0
-1198 43 0
-1198 61 0
-1198 79 0
1199 -2 -43 -64 -76 0
-1199 2 0
-1199 43 0
-1199 64 0
-1199 76 0
1200 -2 -46 -55 -82 0
-1200 2 0
-1200 46 0
-1200 55 0
-1200 82 0
1201 -2 -46 -61 -73 0
-1201 2 0
-1201 46 0
-1201 61 0
-1201 73 0
1202 -2 -46 -64 -70 0
-1202 2 0
-1202 46 0
-1202 64 0
-1202 70 0
1203 -2 -49 -55 -79 0
-1203 2 0
-1203 49 0
-1203 55 0
-1203 79 0
1204 -2 -49 -58 -73 0
-1204 2 0
-1204 49 0
-1204 58 0
-1204 73 0
1205 -2 -49 -64 -67 0
-1205 2 0
-1205 49 0
-1205 64 0
-1205 67 0
1206 -2 -52 -55 -76 0
-1206 2 0
-1206 52 0
-1206 55 0
-1206 76 0
1207 -2 -52 -58 -70 0
-1207 2 0
-1207 52 0
-1207 58 0
-1207 70 0
1208 -2 -52 -61 -67 0
-1208 2 0
-1208 52 0
-1208 61 0
-1208 67 0
-1194 1195 1196 1197 1198 1199 1200 1201 1202 1203 1204 1205 1206 1207 1208 0
-1195 1194 1196 1197 1198 1199 1200 1201 1202 1203 1204 1205 1206 1207 1208 0
-1196 1194 1195 1197 1198 1199 1200 1201 1202 1203 1204 1205 1206 1207 1208 0
-1197 1194 1195 1196 1198 1199 1200 1201 1202 1203 1204 1205 1206 1207 1208 0
-1198 1194 1195 1196 1197 1199 1200 1201 1202 1203 1204 1205 1206 1207 1208 0
-1199 1194 1195 1196 1197 1198 1200 1201 1202 1203 1204 1205 1206 1207 1208 0
-1200 1194 1195 1196 1197 1198 1199 1201 1202 1203 1204 1205 1206 1207 1208 0
-1201 1194 1195 1196 1197 1198 1199 1200 1202 1203 1204 1205 1206 1207 1208 0
-1202 1194 1195 1196 1197 1198 1199 1200 1201 1203 1204 1205 1206 1207 1208 0
-1203 1194 1195 1196 1197 1198 1199 1200 1201 1202 1204 1205 1206 1207 1208 0
-1204 1194 1195 1196 1197 1198 1199 1200 1201 1202 1203 1205 1206 1207 1208 0
-1205 1194 1195 1196 1197 1198 1199 1200 1201 1202 1203 1204 1206 1207 1208 0
-1206 1194 1195 1196 1197 1198 1199 1200 1201 1202 1203 1204 1205 1207 1208 0
-1207 1194 1195 1196 1197 1198 1199 1200 1201 1202 1203 1204 1205 1206 1208 0
-1208 1194 1195 1196 1197 1198 1199 1200 1201 1202 1203 1204 1205 1206 1207 0
1209 -2 -40 -67 -83 0
-1209 2 0
-1209 40 0
-1209 67 0
-1209 83 0
1210 -2 -43 -58 -83 0
-1210 2 0
-1210 43 0
-1210 58 0
-1210 83 0
1211 -2 -46 -55 -83 0
-1211 2 0
-1211 46 0
-1211 55 0
-1211 83 0
1212 -17 -38 -40 -67 0
-1212 17 0
-1212 38 0
-1212 40 0
-1212 67 0
1213 -17 -38 -43 -58 0
-1213 17 0
-1213 38 0
-1213 43 0
-1213 58 0
1214 -17 -38 -46 -55 0
-1214 17 0
-1214 38 0
-1214 46 0
-1214 55 0
1215 -20 -35 -40 -67 0
-1215 20 0
-1215 35 0
-1215 40 0
-1215 67 0
1216 -20 -35 -43 -58 0
-1216 20 0
-1216 35 0
-1216 43 0
-1216 58 0
1217 -20 -35 -46 -55 0
-1217 20 0
-1217 35 0
-1217 46 0
-1217 55 0
-1209 1210 1211 1212 1213 1214 1215 1216 1217 0
-1210 1209 1211 1212 1213 1214 1215 1216 1217 0
-1211 1209 1210 1212 1213 1214 1215 1216 1217 0
-1212 1209 1210 1211 1213 1214 1215 1216 1217 0
-1213 1209 1210 1211 1212 1214 1215 1216 1217 0
-1214 1209 1210 1211 1212 1213 1215 1216 1217 0
-1215 1209 1210 1211 1212 1213 1214 1216 1217 0
-1216 1209 1210 1211 1212 1213 1214 1215 1217 0
-1217 1209 1210 1211 1212 1213 1214 1215 1216 0
1218 -2 -40 -67 -84 0
-1218 2 0
-1218 40 0
-1218 67 0
-1218 84 0
1219 -2 -43 -58 -84 0
-1219 2 0
-1219 43 0
-1219 58 0
-1219 84 0
1220 -2 -46 -55 -84 0
-1220 2 0
-1220 46 0
-1220 55 0
-1220 84 0
-1218 1219 1220 0
-1219 1218 1220 0
-1220 1218 1219 0
1221 -2 -40 -68 -82 0
-1221 2 0
-1221 40 0
-1221 68 0
-1221 82 0
1222 -2 -49 -64 -68 0
-1222 2 0
-1222 49 0
-1222 64 0
-1222 68 0
1223 -2 -52 -61 -68 0
-1223 2 0
-1223 52 0
-1223 61 0
-1223 68 0
1224 -11 -32 -40 -82 0
-1224 11 0
-1224 32 0
-1224 40 0
-1224 82 0
1225 -11 -32 -49 -64 0
-1225 11 0
-1225 32 0
-1225 49 0
-1225 64 0
1226 -11 -32 -52 -61 0
-1226 11 0
-1226 32 0
-1226 52 0
-1226 61 0
1227 -14 -29 -40 -82 0
-1227 14 0
-1227 29 0
-1227 40 0
-1227 82 0
1228 -14 -29 -49 -64 0
-1228 14 0
-1228 29 0
-1228 49 0
-1228 64 0
1229 -14 -29 -52 -61 0
-1229 14 0
-1229 29 0
-1229 52 0
-1229 61 0
-1221 1222 1223 1224 1225 1226 1227 1228 1229 0
-1222 1221 1223 1224 1225 1226 1227 1228 1229 0
-1223 1221 1222 1224 1225 1226 1227 1228 1229 0
-1224 1221 1222 1223 1225 1226 1227 1228 1229 0
-1225 1221 1222 1223 1224 1226 1227 1228 1229 0
-1226 1221 1222 1223 1224 1225 1227 1228 1229 0
-1227 1221 1222 1223 1224 1225 1226 1228 1229 0
-1228 1221 1222 1223 1224 1225 1226 1227 1229 0
-1229 1221 1222 1223 1224 1225 1226 1227 1228 0
1230 -2 -40 -68 -83 0
-1230 2 0
-1230 40 0
-1230 68 0
-1230 83 0
1231 -2 -40 -71 -80 0
-1231 2 0
-1231 40 0
-1231 71 0
-1231 80 0
1232 -2 -40 -74 -77 0
-1232 2 0
-1232 40 0
-1232 74 0
-1232 77 0
1233 -11 -32 -40 -83 0
-1233 11 0
-1233 32 0
-1233 40 0
-1233 83 0
1234 -11 -35 -40 -80 0
-1234 11 0
-1234 35 0
-1234 40 0
-1234 80 0
1235 -11 -38 -40 -77 0
-1235 11 0
-1235 38 0
-1235 40 0
-1235 77 0
1236 -14 -29 -40 -83 0
-1236 14 0
-1236 29 0
-1236 40 0
-1236 83 0
1237 -14 -35 -40 -74 0
-1237 14 0
-1237 35 0
-1237 40 0
-1237 74 0
1238 -14 -38 -40 -71 0
-1238 14 0
-1238 38 0
-1238 40 0
-1238 71 0
1239 -17 -29 -40 -80 0
-1239 17 0
-1239 29 0
-1239 40 0
-1239 80 0
1240 -17 -32 -40 -74 0
-1240 17 0
-1240 32 0
-1240 40 0
-1240 74 0
1241 -17 -38 -40 -68 0
-1241 17 0
-1241 38 0
-1241 40 0
-1241 68 0
1242 -20 -29 -40 -77 0
-1242 20 0
-1242 29 0
-1242 40 0
-1242 77 0
1243 -20 -32 -40 -71 0
-1243 20 0
-1243 32 0
-1243 40 0
-1243 71 0
1244 -20 -35 -40 -68 0
-1244 20 0
-1244 35 0
-1244 40 0
-1244 68 0
-1230 1231 1232 1233 1234 1235 1236 1237 1238 1239 1240 1241 1242 1243 1244 0
-1231 1230 1232 1233 1234 1235 1236 1237 1238 1239 1240 1241 1242 1243 1244 0
-1232 1230 1231 1233 1234 1235 1236 1237 1238 1239 1240 1241 1242 1243 1244 0
-1233 1230 1231 1232 1234 1235 1236 1237 1238 1239 1240 1241 1242 1243 1244 0
-1234 1230 1231 1232 1233 1235 1236 1237 1238 1239 1240 1241 1242 1243 1244 0
-1235 1230 1231 1232 1233 1234 1236 1237 1238 1239 1240 1241 1242 1243 1244 0
-1236 1230 1231 1232 1233 1234 1235 1237 1238 1239 1240 1241 1242 1243 1244 0
-1237 1230 1231 1232 1233 1234 1235 1236 1238 1239 1240 1241 1242 1243 1244 0
-1238 1230 1231 1232 1233 1234 1235 1236 1237 1239 1240 1241 1242 1243 1244 0
-1239 1230 1231 1232 1233 1234 1235 1236 1237 1238 1240 1241 1242 1243 1244 0
-1240 1230 1231 1232 1233 1234 1235 1236 1237 1238 1239 1241 1242 1243 1244 0
-1241 1230 1231 1232 1233 1234 1235 1236 1237 1238 1239 1240 1242 1243 1244 0
-1242 1230 1231 1232 1233 1234 1235 1236 1237 1238 1239 1240 1241 1243 1244 0
-1243 1230 1231 1232 1233 1234 1235 1236 1237 1238 1239 1240 1241 1242 1244 0
-1244 1230 1231 1232 1233 1234 1235 1236 1237 1238 1239 1240 1241 1242 1243 0
1245 -2 -40 -68 -84 0
-1245 2 0
-1245 40 0
-1245 68 0
-1245 84 0
1246 -11 -32 -40 -84 0
-1246 11 0
-1246 32 0
-1246 40 0
-1246 84 0
1247 -14 -29 -40 -84 0
-1247 14 0
-1247 29 0
-1247 40 0
-1247 84 0
-1245 1246 1247 0
-1246 1245 1247 0
-1247 1245 1246 0
1248 -2 -40 -69 -82 0
-1248 2 0
-1248 40 0
-1248 69 0
-1248 82 0
1249 -2 -49 -64 -69 0
-1249 2 0
-1249 49 0
-1249 64 0
-1249 69 0
1250 -2 -52 -61 -69 0
-1250 2 0
-1250 52 0
-1250 61 0
-1250 69 0
-1248 1249 1250 0
-1249 1248 1250 0
-1250 1248 1249 0
1251 -2 -40 -69 -83 0
-1251 2 0
-1251 40 0
-1251 69 0
-1251 83 0
1252 -17 -38 -40 -69 0
-1252 17 0
-1252 38 0
-1252 40 0
-1252 69 0
1253 -20 -35 -40 -69 0
-1253 20 0
-1253 35 0
-1253 40 0
-1253 69 0
-1251 1252 1253 0
-1252 1251 1253 0
-1253 1251 1252 0
1254 -2 -40 -69 -84 0
-1254 2 0
-1254 40 0
-1254 69 0
-1254 84 0
1255 -2 -40 -72 -81 0
-1255 2 0
-1255 40 0
-1255 72 0
-1255 81 0
1256 -2 -40 -75 -78 0
-1256 2 0
-1256 40 0
-1256 75 0
-1256 78 0
-1254 1255 1256 0
-1255 1254 1256 0
-1256 1254 1255 0
1257 -2 -41 -67 -82 0
-1257 2 0
-1257 41 0
-1257 67 0
-1257 82 0
1258 -2 -41 -70 -79 0
-1258 2 0
-1258 41 0
-1258 70 0
-1258 79 0
1259 -2 -41 -73 -76 0
-1259 2 0
-1259 41 0
-1259 73 0
-1259 76 0
1260 -5 -26 -67 -82 0
-1260 5 0
-1260 26 0
-1260 67 0
-1260 82 0
1261 -5 -26 -70 -79 0
-1261 5 0
-1261 26 0
-1261 70 0
-1261 79 0
1262 -5 -26 -73 -76 0
-1262 5 0
-1262 26 0
-1262 73 0
-1262 76 0
1263 -8 -23 -67 -82 0
-1263 8 0
-1263 23 0
-1263 67 0
-1263 82 0
1264 -8 -23 -70 -79 0
-1264 8 0
-1264 23 0
-1264 70 0
-1264 79 0
1265 -8 -23 -73 -76 0
-1265 8 0
-1265 23 0
-1265 73 0
-1265 76 0
-1257 1258 1259 1260 1261 1262 1263 1264 1265 0
-1258 1257 1259 1260 1261 1262 1263 1264 1265 0
-1259 1257 1258 1260 1261 1262 1263 1264 1265 0
-1260 1257 1258 1259 1261 1262 1263 1264 1265 0
-1261 1257 1258 1259 1260 1262 1263 1264 1265 0
-1262 1257 1258 1259 1260 1261 1263 1264 1265 0
-1263 1257 1258 1259 1260 1261 1262 1264 1265 0
-1264 1257 1258 1259 1260 1261 1262 1263 1265 0
-1265 1257 1258 1259 1260 1261 1262 1263 1264 0
1266 -2 -41 -67 -83 0
-1266 2 0
-1266 41 0
-1266 67 0
-1266 83 0
1267 -2 -50 -65 -67 0
-1267 2 0
-1267 50 0
-1267 65 0
-1267 67 0
1268 -2 -53 -62 -67 0
-1268 2 0
-1268 53 0
-1268 62 0
-1268 67 0
1269 -5 -26 -67 -83 0
-1269 5 0
-1269 26 0
-1269 67 0
-1269 83 0
1270 -5 -35 -65 -67 0
-1270 5 0
-1270 35 0
-1270 65 0
-1270 67 0
1271 -5 -38 -62 -67 0
-1271 5 0
-1271 38 0
-1271 62 0
-1271 67 0
1272 -8 -23 -67 -83 0
-1272 8 0
-1272 23 0
-1272 67 0
-1272 83 0
1273 -8 -35 -53 -67 0
-1273 8 0
-1273 35 0
-1273 53 0
-1273 67 0
1274 -8 -38 -50 -67 0
-1274 8 0
-1274 38 0
-1274 50 0
-1274 67 0
1275 -17 -23 -65 -67 0
-1275 17 0
-1275 23 0
-1275 65 0
-1275 67 0
1276 -17 -26 -53 -67 0
-1276 17 0
-1276 26 0
-1276 53 0
-1276 67 0
1277 -17 -38 -41 -67 0
-1277 17 0
-1277 38 0
-1277 41 0
-1277 67 0
1278 -20 -23 -62 -67 0
-1278 20 0
-1278 23 0
-1278 62 0
-1278 67 0
1279 -20 -26 -50 -67 0
-1279 20 0
-1279 26 0
-1279 50 0
-1279 67 0
1280 -20 -35 -41 -67 0
-1280 20 0
-1280 35 0
-1280 41 0
-1280 67 0
-1266 1267 1268 1269 1270 1271 1272 1273 1274 1275 1276 1277 1278 1279 1280 0
-1267 1266 1268 1269 1270 1271 1272 1273 1274 1275 1276 1277 1278 1279 1280 0
-1268 1266 1267 1269 1270 1271 1272 1273 1274 1275 1276 1277 1278 1279 1280 0
-1269 1266 1267 1268 1270 1271 1272 1273 1274 1275 1276 1277 1278 1279 1280 0
-1270 1266 1267 1268 1269 1271 1272 1273 1274 1275 1276 1277 1278 1279 1280 0
-1271 1266 1267 1268 1269 1270 1272 1273 1274 1275 1276 1277 1278 1279 1280 0
-1272 1266 1267 1268 1269 1270 1271 1273 1274 1275 1276 1277 1278 1279 1280 0
-1273 1266 1267 1268 1269 1270 1271 1272 1274 1275 1276 1277 1278 1279 1280 0
-1274 1266 1267 1268 1269 1270 1271 1272 1273 1275 1276 1277 1278 1279 1280 0
-1275 1266 1267 1268 1269 1270 1271 1272 1273 1274 1276 1277 1278 1279 1280 0
-1276 1266 1267 1268 1269 1270 1271 1272 1273 1274 1275 1277 1278 1279 1280 0
-1277 1266 1267 1268 1269 1270 1271 1272 1273 1274 1275 1276 1278 1279 1280 0
-1278 1266 1267 1268 1269 1270 1271 1272 1273 1274 1275 1276 1277 1279 1280 0
-1279 1266 1267 1268 1269 1270 1271 1272 1273 1274 1275 1276 1277 1278 1280 0
-1280 1266 1267 1268 1269 1270 1271 1272 1273 1274 1275 1276 1277 1278 1279 0
1281 -2 -41 -67 -84 0
-1281 2 0
-1281 41 0
-1281 67 0
-1281 84 0
1282 -5 -26 -67 -84 0
-1282 5 0
-1282 26 0
-1282 67 0
-1282 84 0
1283 -8 -23 -67 -84 0
-1283 8 0
-1283 23 0
-1283 67 0
-1283 84 0
-1281 1282 1283 0
-1282 1281 1283 0
-1283 1281 1282 0
1284 -2 -41 -68 -82 0
-1284 2 0
-1284 41 0
-1284 68 0
-1284 82 0
1285 -2 -44 -59 -82 0
-1285 2 0
-1285 44 0
-1285 59 0
-1285 82 0
1286 -2 -47 -56 -82 0
-1286 2 0
-1286 47 0
-1286 56 0
-1286 82 0
1287 -5 -26 -68 -82 0
-1287 5 0
-1287 26 0
-1287 68 0
-1287 82 0
1288 -5 -29 -59 -82 0
-1288 5 0
-1288 29 0
-1288 59 0
-1288 82 0
1289 -5 -32 -56 -82 0
-1289 5 0
-1289 32 0
-1289 56 0
-1289 82 0
1290 -8 -23 -68 -82 0
-1290 8 0
-1290 23 0
-1290 68 0
-1290 82 0
1291 -8 -29 -47 -82 0
-1291 8 0
-1291 29 0
-1291 47 0
-1291 82 0
1292 -8 -32 -44 -82 0
-1292 8 0
-1292 32 0
-1292 44 0
-1292 82 0
1293 -11 -23 -59 -82 0
-1293 11 0
-1293 23 0
-1293 59 0
-1293 82 0
1294 -11 -26 -47 -82 0
-1294 11 0
-1294 26 0
-1294 47 0
-1294 82 0
1295 -11 -32 -41 -82 0
-1295 11 0
-1295 32 0
-1295 41 0
-1295 82 0
1296 -14 -23 -56 -82 0
-1296 14 0
-1296 23 0
-1296 56 0
-1296 82 0
1297 -14 -26 -44 -82 0
-1297 14 0
-1297 26 0
-1297 44 0
-1297 82 0
1298 -14 -29 -41 -82 0
-1298 14 0
-1298 29 0
-1298 41 0
-1298 82 0
-1284 1285 1286 1287 1288 1289 1290 1291 1292 1293 1294 1295 1296 1297 1298 0
-1285 1284 1286 1287 1288 1289 1290 1291 1292 1293 1294 1295 1296 1297 1298 0
-1286 1284 1285 1287 1288 1289 1290 1291 1292 1293 1294 1295 1296 1297 1298 0
-1287 1284 1285 1286 1288 1289 1290 1291 1292 1293 1294 1295 1296 1297 1298 0
-1288 1284 1285 1286 1287 1289 1290 1291 1292 1293 1294 1295 1296 1297 1298 0
-1289 1284 1285 1286 1287 1288 1290 1291 1292 1293 1294 1295 1296 1297 1298 0
-1290 1284 1285 1286 1287 1288 1289 1291 1292 1293 1294 1295 1296 1297 1298 0
-1291 1284 1285 1286 1287 1288 1289 1290 1292 1293 1294 1295 1296 1297 1298 0
-1292 1284 1285 1286 1287 1288 1289 1290 1291 1293 1294 1295 1296 1297 1298 0
-1293 1284 1285 1286 1287 1288 1289 1290 1291 1292 1294 1295 1296 1297 1298 0
-1294 1284 1285 1286 1287 1288 1289 1290 1291 1292 1293 1295 1296 1297 1298 0
-1295 1284 1285 1286 1287 1288 1289 1290 1291 1292 1293 1294 1296 1297 1298 0
-1296 1284 1285 1286 1287 1288 1289 1290 1291 1292 1293 1294 1295 1297 1298 0
-1297 1284 1285 1286 1287 1288 1289 1290 1291 1292 1293 1294 1295 1296 1298 0
-1298 1284 1285 1286 1287 1288 1289 1290 1291 1292 1293 1294 1295 1296 1297 0
1299 -2 -41 -68 -83 0
-1299 2 0
-1299 41 0
-1299 68 0
-1299 83 0
1300 -2 -41 -71 -80 0
-1300 2 0
-1300 41 0
-1300 71 0
-1300 80 0
1301 -2 -41 -74 -77 0
-1301 2 0
-1301 41 0
-1301 74 0
-1301 77 0
1302 -2 -44 -59 -83 0
-1302 2 0
-1302 44 0
-1302 59 0
-1302 83 0
1303 -2 -44 -62 -80 0
-1303 2 0
-1303 44 0
-1303 62 0
-1303 80 0
1304 -2 -44 -65 -77 0
-1304 2 0
-1304 44 0
-1304 65 0
-1304 77 0
1305 -2 -47 -56 -83 0
-1305 2 0
-1305 47 0
-1305 56 0
-1305 83 0
1306 -2 -47 -62 -74 0
-1306 2 0
-1306 47 0
-1306 62 0
-1306 74 0
1307 -2 -47 -65 -71 0
-1307 2 0
-1307 47 0
-1307 65 0
-1307 71 0
1308 -2 -50 -56 -80 0
-1308 2 0
-1308 50 0
-1308 56 0
-1308 80 0
1309 -2 -50 -59 -74 0
-1309 2 0
-1309 50 0
-1309 59 0
-1309 74 0
1310 -2 -50 -65 -68 0
-1310 2 0
-1310 50 0
-1310 65 0
-1310 68 0
1311 -2 -53 -56 -77 0
-1311 2 0
-1311 53 0
-1311 56 0
-1311 77 0
1312 -2 -53 -59 -71 0
-1312 2 0
-1312 53 0
-1312 59 0
-1312 71 0
1313 -2 -53 -62 -68 0
-1313 2 0
-1313 53 0
-1313 62 0
-1313 68 0
1314 -5 -26 -68 -83 0
-1314 5 0
-1314 26 0
-1314 68 0
-1314 83 0
1315 -5 -26 -71 -80 0
-1315 5 0
-1315 26 0
-1315 71 0
-1315 80 0
1316 -5 -26 -74 -77 0
-1316 5 0
-1316 26 0
-1316 74 0
-1316 77 0
1317 -5 -29 -59 -83 0
-1317 5 0
-1317 29 0
-1317 59 0
-1317 83 0
1318 -5 -29 -62 -80 0
-1318 5 0
-1318 29 0
-1318 62 0
-1318 80 0
1319 -5 -29 -65 -77 0
-1319 5 0
-1319 29 0
-1319 65 0
-1319 77 0
1320 -5 -32 -56 -83 0
-1320 5 0
-1320 32 0
-1320 56 0
-1320 83 0
1321 -5 -32 -62 -74 0
-1321 5 0
-1321 32 0
-1321 62 0
-1321 74 0
1322 -5 -32 -65 -71 0
-1322 5 0
-1322 32 0
-1322 65 0
-1322 71 0
1323 -5 -35 -56 -80 0
-1323 5 0
-1323 35 0
-1323 56 0
-1323 80 0
1324 -5 -35 -59 -74 0
-1324 5 0
-1324 35 0
-1324 59 0
-1324 74 0
1325 -5 -35 -65 -68 0
-1325 5 0
-1325 35 0
-1325 65 0
-1325 68 0
1326 -5 -38 -56 -77 0
-1326 5 0
-1326 38 0
-1326 56 0
-1326 77 0
1327 -5 -38 -59 -71 0
-1327 5 0
-1327 38 0
-1327 59 0
-1327 71 0
1328 -5 -38 -62 -68 0
-1328 5 0
-1328 38 0
-1328 62 0
-1328 68 0
1329 -8 -23 -68 -83 0
-1329 8 0
-1329 23 0
-1329 68 0
-1329 83 0
1330 -8 -23 -71 -80 0
-1330 8 0
-1330 23 0
-1330 71 0
-1330 80 0
1331 -8 -23 -74 -77 0
-1331 8 0
-1331 23 0
-1331 74 0
-1331 77 0
1332 -8 -29 -47 -83 0
-1332 8 0
-1332 29 0
-1332 47 0
-1332 83 0
1333 -8 -29 -50 -80 0
-1333 8 0
-1333 29 0
-1333 50 0
-1333 80 0
1334 -8 -29 -53 -77 0
-1334 8 0
-1334 29 0
-1334 53 0
-1334 77 0
1335 -8 -32 -44 -83 0
-1335 8 0
-1335 32 0
-1335 44 0
-1335 83 0
1336 -8 -32 -50 -74 0
-1336 8 0
-1336 32 0
-1336 50 0
-1336 74 0
1337 -8 -32 -53 -71 0
-1337 8 0
-1337 32 0
-1337 53 0
-1337 71 0
1338 -8 -35 -44 -80 0
-1338 8 0
-1338 35 0
-1338 44 0
-1338 80 0
1339 -8 -35 -47 -74 0
-1339 8 0
-1339 35 0
-1339 47 0
-1339 74 0
1340 -8 -35 -53 -68 0
-1340 8 0
-1340 35 0
-1340 53 0
-1340 68 0
1341 -8 -38 -44 -77 0
-1341 8 0
-1341 38 0
-1341 44 0
-1341 77 0
1342 -8 -38 -47 -71 0
-1342 8 0
-1342 38 0
-1342 47 0
-1342 71 0
1343 -8 -38 -50 -68 0
-1343 8 0
-1343 38 0
-1343 50 0
-1343 68 0
1344 -11 -23 -59 -83 0
-1344 11 0
-1344 23 0
-1344 59 0
-1344 83 0
1345 -11 -23 -62 -80 0
-1345 11 0
-1345 23 0
-1345 62 0
-1345 80 0
1346 -11 -23 -65 -77 0
-1346 11 0
-1346 23 0
-1346 65 0
-1346 77 0
1347 -11 -26 -47 -83 0
-1347 11 0
-1347 26 0
-1347 47 0
-1347 83 0
1348 -11 -26 -50 -80 0
-1348 11 0
-1348 26 0
-1348 50 0
-1348 80 0
1349 -11 -26 -53 -77 0
-1349 11 0
-1349 26 0
-1349 53 0
-1349 77 0
1350 -11 -32 -41 -83 0
-1350 11 0
-1350 32 0
-1350 41 0
-1350 83 0
1351 -11 -32 -50 -65 0
-1351 11 0
-1351 32 0
-1351 50 0
-1351 65 0
1352 -11 -32 -53 -62 0
-1352 11 0
-1352 32 0
-1352 53 0
-1352 62 0
1353 -11 -35 -41 -80 0
-1353 11 0
-1353 35 0
-1353 41 0
-1353 80 0
1354 -11 -35 -47 -65 0
-1354 11 0
-1354 35 0
-1354 47 0
-1354 65 0
1355 -11 -35 -53 -59 0
-1355 11 0
-1355 35 0
-1355 53 0
-1355 59 0
1356 -11 -38 -41 -77 0
-1356 11 0
-1356 38 0
-1356 41 0
-1356 77 0
1357 -11 -38 -47 -62 0
-1357 11 0
-1357 38 0
-1357 47 0
-1357 62 0
1358 -11 -38 -50 -59 0
-1358 11 0
-1358 38 0
-1358 50 0
-1358 59 0
1359 -14 -23 -56 -83 0
-1359 14 0
-1359 23 0
-1359 56 0
-1359 83 0
1360 -14 -23 -62 -74 0
-1360 14 0
-1360 23 0
-1360 62 0
-1360 74 0
1361 -14 -23 -65 -71 0
-1361 14 0
-1361 23 0
-1361 65 0
-1361 71 0
1362 -14 -26 -44 -83 0
-1362 14 0
-1362 26 0
-1362 44 0
-1362 83 0
1363 -14 -26 -50 -74 0
-1363 14 0
-1363 26 0
-1363 50 0
-1363 74 0
1364 -14 -26 -53 -71 0
-1364 14 0
-1364 26 0
-1364 53 0
-1364 71 0
1365 -14 -29 -41 -83 0
-1365 14 0
-1365 29 0
-1365 41 0
-1365 83 0
1366 -14 -29 -50 -65 0
-1366 14 0
-1366 29 0
-1366 50 0
-1366 65 0
1367 -14 -29 -53 -62 0
-1367 14 0
-1367 29 0
-1367 53 0
-1367 62 0
1368 -14 -35 -41 -74 0
-1368 14 0
-1368 35 0
-1368 41 0
-1368 74 0
1369 -14 -35 -44 -65 0
-1369 14 0
-1369 35 0
-1369 44 0
-1369 65 0
1370 -14 -35 -53 -56 0
-1370 14 0
-1370 35 0
-1370 53 0
-1370 56 0
1371 -14 -38 -41 -71 0
-1371 14 0
-1371 38 0
-1371 41 0
-1371 71 0
1372 -14 -38 -44 -62 0
-1372 14 0
-1372 38 0
-1372 44 0
-1372 62 0
1373 -14 -38 -50 -56 0
-1373 14 0
-1373 38 0
-1373 50 0
-1373 56 0
1374 -17 -23 -56 -80 0
-1374 17 0
-1374 23 0
-1374 56 0
-1374 80 0
1375 -17 -23 -59 -74 0
-1375 17 0
-1375 23 0
-1375 59 0
-1375 74 0
1376 -17 -23 -65 -68 0
-1376 17 0
-1376 23 0
-1376 65 0
-1376 68 0
1377 -17 -26 -44 -80 0
-1377 17 0
-1377 26 0
-1377 44 0
-1377 80 0
1378 -17 -26 -47 -74 0
-1378 17 0
-1378 26 0
-1378 47 0
-1378 74 0
1379 -17 -26 -53 -68 0
-1379 17 0
-1379 26 0
-1379 53 0
-1379 68 0
1380 -17 -29 -41 -80 0
-1380 17 0
-1380 29 0
-1380 41 0
-1380 80 0
1381 -17 -29 -47 -65 0
-1381 17 0
-1381 29 0
-1381 47 0
-1381 65 0
1382 -17 -29 -53 -59 0
-1382 17 0
-1382 29 0
-1382 53 0
-1382 59 0
1383 -17 -32 -41 -74 0
-1383 17 0
-1383 32 0
-1383 41 0
-1383 74 0
1384 -17 -32 -44 -65 0
-1384 17 0
-1384 32 0
-1384 44 0
-1384 65 0
1385 -17 -32 -53 -56 0
-1385 17 0
-1385 32 0
-1385 53 0
-1385 56 0
1386 -17 -38 -41 -68 0
-1386 17 0
-1386 38 0
-1386 41 0
-1386 68 0
1387 -17 -38 -44 -59 0
-1387 17 0
-1387 38 0
-1387 44 0
-1387 59 0
1388 -17 -38 -47 -56 0
-1388 17 0
-1388 38 0
-1388 47 0
-1388 56 0
1389 -20 -23 -56 -77 0
-1389 20 0
-1389 23 0
-1389 56 0
-1389 77 0
1390 -20 -23 -59 -71 0
-1390 20 0
-1390 23 0
-1390 59 0
-1390 71 0
1391 -20 -23 -62 -68 0
-1391 20 0
-1391 23 0
-1391 62 0
-1391 68 0
1392 -20 -26 -44 -77 0
-1392 20 0
-1392 26 0
-1392 44 0
-1392 77 0
1393 -20 -26 -47 -71 0
-1393 20 0
-1393 26 0
-1393 47 0
-1393 71 0
1394 -20 -26 -50 -68 0
-1394 20 0
-1394 26 0
-1394 50 0
-1394 68 0
1395 -20 -29 -41 -77 0
-1395 20 0
-1395 29 0
-1395 41 0
-1395 77 0
1396 -20 -29 -47 -62 0
-1396 20 0
-1396 29 0
-1396 47 0
-1396 62 0
1397 -20 -29 -50 -59 0
-1397 20 0
-1397 29 0
-1397 50 0
-1397 59 0
1398 -20 -32 -41 -71 0
-1398 20 0
-1398 32 0
-1398 41 0
-1398 71 0
1399 -20 -32 -44 -62 0
-1399 20 0
-1399 32 0
-1399 44 0
-1399 62 0
1400 -20 -32 -50 -56 0
-1400 20 0
-1400 32 0
-1400 50 0
-1400 56 0
1401 -20 -35 -41 -68 0
-1401 20 0
-1401 35 0
-1401 41 0
-1401 68 0
1402 -20 -35 -44 -59 0
-1402 20 0
-1402 35 0
-1402 44 0
-1402 59 0
1403 -20 -35 -47 -56 0
-1403 20 0
-1403 35 0
-1403 47 0
-1403 56 0
1299 1300 1301 1302 1303 1304 1305 1306 1307 1308 1309 1310 1311 1312 1313 1314 1315 1316 1317 1318 1319 1320 1321 1322 1323 1324 1325 1326 1327 1328 1329 1330 1331 1332 1333 1334 1335 1336 1337 1338 1339 1340 1341 1342 1343 1344 1345 1346 1347 1348 1349 1350 1351 1352 1353 1354 1355 1356 1357 1358 1359 1360 1361 1362 1363 1364 1365 1366 1367 1368 1369 1370 1371 1372 1373 1374 1375 1376 1377 1378 1379 1380 1381 1382 1383 1384 1385 1386 1387 1388 1389 1390 1391 1392 1393 1394 1395 1396 1397 1398 1399 1400 1401 1402 1403 0
1404 -2 -41 -68 -84 0
-1404 2 0
-1404 41 0
-1404 68 0
-1404 84 0
1405 -2 -44 -59 -84 0
-1405 2 0
-1405 44 0
-1405 59 0
-1405 84 0
1406 -2 -47 -56 -84 0
-1406 2 0
-1406 47 0
-1406 56 0
-1406 84 0
1407 -5 -26 -68 -84 0
-1407 5 0
-1407 26 0
-1407 68 0
-1407 84 0
1408 -5 -29 -59 -84 0
-1408 5 0
-1408 29 0
-1408 59 0
-1408 84 0
1409 -5 -32 -56 -84 0
-1409 5 0
-1409 32 0
-1409 56 0
-1409 84 0
1410 -8 -23 -68 -84 0
-1410 8 0
-1410 23 0
-1410 68 0
-1410 84 0
1411 -8 -29 -47 -84 0
-1411 8 0
-1411 29 0
-1411 47 0
-1411 84 0
1412 -8 -32 -44 -84 0
-1412 8 0
-1412 32 0
-1412 44 0
-1412 84 0
1413 -11 -23 -59 -84 0
-1413 11 0
-1413 23 0
-1413 59 0
-1413 84 0
1414 -11 -26 -47 -84 0
-1414 11 0
-1414 26 0
-1414 47 0
-1414 84 0
1415 -11 -32 -41 -84 0
-1415 11 0
-1415 32 0
-1415 41 0
-1415 84 0
1416 -14 -23 -56 -84 0
-1416 14 0
-1416 23 0
-1416 56 0
-1416 84 0
1417 -14 -26 -44 -84 0
-1417 14 0
-1417 26 0
-1417 44 0
-1417 84 0
1418 -14 -29 -41 -84 0
-1418 14 0
-1418 29 0
-1418 41 0
-1418 84 0
-1404 1405 1406 1407 1408 1409 1410 1411 1412 1413 1414 1415 1416 1417 1418 0
-1405 1404 1406 1407 1408 1409 1410 1411 1412 1413 1414 1415 1416 1417 1418 0
-1406 1404 1405 1407 1408 1409 1410 1411 1412 1413 1414 1415 1416 1417 1418 0
-1407 1404 1405 1406 1408 1409 1410 1411 1412 1413 1414 1415 1416 1417 1418 0
-1408 1404 1405 1406 1407 1409 1410 1411 1412 1413 1414 1415 1416 1417 1418 0
-1409 1404 1405 1406 1407 1408 1410 1411 1412 1413 1414 1415 1416 1417 1418 0
-1410 1404 1405 1406 1407 1408 1409 1411 1412 1413 1414 1415 1416 1417 1418 0
-1411 1404 1405 1406 1407 1408 1409 1410 1412 1413 1414 1415 1416 1417 1418 0
-1412 1404 1405 1406 1407 1408 1409 1410 1411 1413 1414 1415 1416 1417 1418 0
-1413 1404 1405 1406 1407 1408 1409 1410 1411 1412 1414 1415 1416 1417 1418 0
-1414 1404 1405 1406 1407 1408 1409 1410 1411 1412 1413 1415 1416 1417 1418 0
-1415 1404 1405 1406 1407 1408 1409 1410 1411 1412 1413 1414 1416 1417 1418 0
-1416 1404 1405 1406 1407 1408 1409 1410 1411 1412 1413 1414 1415 1417 1418 0
-1417 1404 1405 1406 1407 1408 1409 1410 1411 1412 1413 1414 1415 1416 1418 0
-1418 1404 1405 1406 1407 1408 1409 1410 1411 1412 1413 1414 1415 1416 1417 0
1419 -2 -41 -69 -82 0
-1419 2 0
-1419 41 0
-1419 69 0
-1419 82 0
1420 -5 -26 -69 -82 0
-1420 5 0
-1420 26 0
-1420 69 0
-1420 82 0
1421 -8 -23 -69 -82 0
-1421 8 0
-1421 23 0
-1421 69 0
-1421 82 0
-1419 1420 1421 0
-1420 1419 1421 0
-1421 1419 1420 0
1422 -2 -41 -69 -83 0
-1422 2 0
-1422 41 0
-1422 69 0
-1422 83 0
1423 -2 -50 -65 -69 0
-1423 2 0
-1423 50 0
-1423 65 0
-1423 69 0
1424 -2 -53 -62 -69 0
-1424 2 0
-1424 53 0
-1424 62 0
-1424 69 0
1425 -5 -26 -69 -83 0
-1425 5 0
-1425 26 0
-1425 69 0
-1425 83 0
1426 -5 -35 -65 -69 0
-1426 5 0
-1426 35 0
-1426 65 0
-1426 69 0
1427 -5 -38 -62 -69 0
-1427 5 0
-1427 38 0
-1427 62 0
-1427 69 0
1428 -8 -23 -69 -83 0
-1428 8 0
-1428 23 0
-1428 69 0
-1428 83 0
1429 -8 -35 -53 -69 0
-1429 8 0
-1429 35 0
-1429 53 0
-1429 69 0
1430 -8 -38 -50 -69 0
-1430 8 0
-1430 38 0
-1430 50 0
-1430 69 0
1431 -17 -23 -65 -69 0
-1431 17 0
-1431 23 0
-1431 65 0
-1431 69 0
1432 -17 -26 -53 -69 0
-1432 17 0
-1432 26 0
-1432 53 0
-1432 69 0
1433 -17 -38 -41 -69 0
-1433 17 0
-1433 38 0
-1433 41 0
-1433 69 0
1434 -20 -23 -62 -69 0
-1434 20 0
-1434 23 0
-1434 62 0
-1434 69 0
1435 -20 -26 -50 -69 0
-1435 20 0
-1435 26 0
-1435 50 0
-1435 69 0
1436 -20 -35 -41 -69 0
-1436 20 0
-1436 35 0
-1436 41 0
-1436 69 0
-1422 1423 1424 1425 1426 1427 1428 1429 1430 1431 1432 1433 1434 1435 1436 0
-1423 1422 1424 1425 1426 1427 1428 1429 1430 1431 1432 1433 1434 1435 1436 0
-1424 1422 1423 1425 1426 1427 1428 1429 1430 1431 1432 1433 1434 1435 1436 0
-1425 1422 1423 1424 1426 1427 1428 1429 1430 1431 1432 1433 1434 1435 1436 0
-1426 1422 1423 1424 1425 1427 1428 1429 1430 1431 1432 1433 1434 1435 1436 0
-1427 1422 1423 1424 1425 1426 1428 1429 1430 1431 1432 1433 1434 1435 1436 0
-1428 1422 1423 1424 1425 1426 1427 1429 1430 1431 1432 1433 1434 1435 1436 0
-1429 1422 1423 1424 1425 1426 1427 1428 1430 1431 1432 1433 1434 1435 1436 0
-1430 1422 1423 1424 1425 1426 1427 1428 1429 1431 1432 1433 1434 1435 1436 0
-1431 1422 1423 1424 1425 1426 1427 1428 1429 1430 1432 1433 1434 1435 1436 0
-1432 1422 1423 1424 1425 1426 1427 1428 1429 1430 1431 1433 1434 1435 1436 0
-1433 1422 1423 1424 1425 1426 1427 1428 1429 1430 1431 1432 1434 1435 1436 0
-1434 1422 1423 1424 1425 1426 1427 1428 1429 1430 1431 1432 1433 1435 1436 0
-1435 1422 1423 1424 1425 1426 1427 1428 1429 1430 1431 1432 1433 1434 1436 0
-1436 1422 1423 1424 1425 1426 1427 1428 1429 1430 1431 1432 1433 1434 1435 0
1437 -2 -41 -69 -84 0
-1437 2 0
-1437 41 0
-1437 69 0
-1437 84 0
1438 -2 -41 -72 -81 0
-1438 2 0
-1438 41 0
-1438 72 0
-1438 81 0
1439 -2 -41 -75 -78 0
-1439 2 0
-1439 41 0
-1439 75 0
-1439 78 0
1440 -5 -26 -69 -84 0
-1440 5 0
-1440 26 0
-1440 69 0
-1440 84 0
1441 -5 -26 -72 -81 0
-1441 5 0
-1441 26 0
-1441 72 0
-1441 81 0
1442 -5 -26 -75 -78 0
-1442 5 0
-1442 26 0
-1442 75 0
-1442 78 0
1443 -8 -23 -69 -84 0
-1443 8 0
-1443 23 0
-1443 69 0
-1443 84 0
1444 -8 -23 -72 -81 0
-1444 8 0
-1444 23 0
-1444 72 0
-1444 81 0
1445 -8 -23 -75 -78 0
-1445 8 0
-1445 23 0
-1445 75 0
-1445 78 0
-1437 1438 1439 1440 1441 1442 1443 1444 1445 0
-1438 1437 1439 1440 1441 1442 1443 1444 1445 0
-1439 1437 1438 1440 1441 1442 1443 1444 1445 0
-1440 1437 1438 1439 1441 1442 1443 1444 1445 0
-1441 1437 1438 1439 1440 1442 1443 1444 1445 0
-1442 1437 1438 1439 1440 1441 1443 1444 1445 0
-1443 1437 1438 1439 1440 1441 1442 1444 1445 0
-1444 1437 1438 1439 1440 1441 1442 1443 1445 0
-1445 1437 1438 1439 1440 1441 1442 1443 1444 0
1446 -2 -42 -67 -82 0
-1446 2 0
-1446 42 0
-1446 67 0
-1446 82 0
1447 -2 -42 -70 -79 0
-1447 2 0
-1447 42 0
-1447 70 0
-1447 79 0
1448 -2 -42 -73 -76 0
-1448 2 0
-1448 42 0
-1448 73 0
-1448 76 0
-1446 1447 1448 0
-1447 1446 1448 0
-1448 1446 1447 0
1449 -2 -42 -67 -83 0
-1449 2 0
-1449 42 0
-1449 67 0
-1449 83 0
1450 -17 -38 -42 -67 0
-1450 17 0
-1450 38 0
-1450 42 0
-1450 67 0
1451 -20 -35 -42 -67 0
-1451 20 0
-1451 35 0
-1451 42 0
-1451 67 0
-1449 1450 1451 0
-1450 1449 1451 0
-1451 1449 1450 0
1452 -2 -42 -67 -84 0
-1452 2 0
-1452 42 0
-1452 67 0
-1452 84 0
1453 -2 -51 -66 -67 0
-1453 2 0
-1453 51 0
-1453 66 0
-1453 67 0
1454 -2 -54 -63 -67 0
-1454 2 0
-1454 54 0
-1454 63 0
-1454 67 0
-1452 1453 1454 0
-1453 1452 1454 0
-1454 1452 1453 0
1455 -2 -42 -68 -82 0
-1455 2 0
-1455 42 0
-1455 68 0
-1455 82 0
1456 -11 -32 -42 -82 0
-1456 11 0
-1456 32 0
-1456 42 0
-1456 82 0
1457 -14 -29 -42 -82 0
-1457 14 0
-1457 29 0
-1457 42 0
-1457 82 0
-1455 1456 1457 0
-1456 1455 1457 0
-1457 1455 1456 0
1458 -2 -42 -68 -83 0
-1458 2 0
-1458 42 0
-1458 68 0
-1458 83 0
1459 -2 -42 -71 -80 0
-1459 2 0
-1459 42 0
-1459 71 0
-1459 80 0
1460 -2 -42 -74 -77 0
-1460 2 0
-1460 42 0
-1460 74 0
-1460 77 0
1461 -11 -32 -42 -83 0
-1461 11 0
-1461 32 0
-1461 42 0
-1461 83 0
1462 -11 -35 -42 -80 0
-1462 11 0
-1462 35 0
-1462 42 0
-1462 80 0
1463 -11 -38 -42 -77 0
-1463 11 0
-1463 38 0
-1463 42 0
-1463 77 0
1464 -14 -29 -42 -83 0
-1464 14 0
-1464 29 0
-1464 42 0
-1464 83 0
1465 -14 -35 -42 -74 0
-1465 14 0
-1465 35 0
-1465 42 0
-1465 74 0
1466 -14 -38 -42 -71 0
-1466 14 0
-1466 38 0
-1466 42 0
-1466 71 0
1467 -17 -29 -42 -80 0
-1467 17 0
-1467 29 0
-1467 42 0
-1467 80 0
1468 -17 -32 -42 -74 0
-1468 17 0
-1468 32 0
-1468 42 0
-1468 74 0
1469 -17 -38 -42 -68 0
-1469 17 0
-1469 38 0
-1469 42 0
-1469 68 0
1470 -20 -29 -42 -77 0
-1470 20 0
-1470 29 0
-1470 42 0
-1470 77 0
1471 -20 -32 -42 -71 0
-1471 20 0
-1471 32 0
-1471 42 0
-1471 71 0
1472 -20 -35 -42 -68 0
-1472 20 0
-1472 35 0
-1472 42 0
-1472 68 0
-1458 1459 1460 1461 1462 1463 1464 1465 1466 1467 1468 1469 1470 1471 1472 0
-1459 1458 1460 1461 1462 1463 1464 1465 1466 1467 1468 1469 1470 1471 1472 0
-1460 1458 1459 1461 1462 1463 1464 1465 1466 1467 1468 1469 1470 1471 1472 0
-1461 1458 1459 1460 1462 1463 1464 1465 1466 1467 1468 1469 1470 1471 1472 0
-1462 1458 1459 1460 1461 1463 1464 1465 1466 1467 1468 1469 1470 1471 1472 0
-1463 1458 1459 1460 1461 1462 1464 1465 1466 1467 1468 1469 1470 1471 1472 0
-1464 1458 1459 1460 1461 1462 1463 1465 1466 1467 1468 1469 1470 1471 1472 0
-1465 1458 1459 1460 1461 1462 1463 1464 1466 1467 1468 1469 1470 1471 1472 0
-1466 1458 1459 1460 1461 1462 1463 1464 1465 1467 1468 1469 1470 1471 1472 0
-1467 1458 1459 1460 1461 1462 1463 1464 1465 1466 1468 1469 1470 1471 1472 0
-1468 1458 1459 1460 1461 1462 1463 1464 1465 1466 1467 1469 1470 1471 1472 0
-1469 1458 1459 1460 1461 1462 1463 1464 1465 1466 1467 1468 1470 1471 1472 0
-1470 1458 1459 1460 1461 1462 1463 1464 1465 1466 1467 1468 1469 1471 1472 0
-1471 1458 1459 1460 1461 1462 1463 1464 1465 1466 1467 1468 1469 1470 1472 0
-1472 1458 1459 1460 1461 1462 1463 1464 1465 1466 1467 1468 1469 1470 1471 0
1473 -2 -42 -68 -84 0
-1473 2 0
-1473 42 0
-1473 68 0
-1473 84 0
1474 -2 -51 -66 -68 0
-1474 2 0
-1474 51 0
-1474 66 0
-1474 68 0
1475 -2 -54 -63 -68 0
-1475 2 0
-1475 54 0
-1475 63 0
-1475 68 0
1476 -11 -32 -42 -84 0
-1476 11 0
-1476 32 0
-1476 42 0
-1476 84 0
1477 -11 -32 -51 -66 0
-1477 11 0
-1477 32 0
-1477 51 0
-1477 66 0
1478 -11 -32 -54 -63 0
-1478 11 0
-1478 32 0
-1478 54 0
-1478 63 0
1479 -14 -29 -42 -84 0
-1479 14 0
-1479 29 0
-1479 42 0
-1479 84 0
1480 -14 -29 -51 -66 0
-1480 14 0
-1480 29 0
-1480 51 0
-1480 66 0
1481 -14 -29 -54 -63 0
-1481 14 0
-1481 29 0
-1481 54 0
-1481 63 0
-1473 1474 1475 1476 1477 1478 1479 1480 1481 0
-1474 1473 1475 1476 1477 1478 1479 1480 1481 0
-1475 1473 1474 1476 1477 1478 1479 1480 1481 0
-1476 1473 1474 1475 1477 1478 1479 1480 1481 0
-1477 1473 1474 1475 1476 1478 1479 1480 1481 0
-1478 1473 1474 1475 1476 1477 1479 1480 1481 0
-1479 1473 1474 1475 1476 1477 1478 1480 1481 0
-1480 1473 1474 1475 1476 1477 1478 1479 1481 0
-1481 1473 1474 1475 1476 1477 1478 1479 1480 0
1482 -2 -42 -69 -82 0
-1482 2 0
-1482 42 0
-1482 69 0
-1482 82 0
1483 -2 -45 -60 -82 0
-1483 2 0
-1483 45 0
-1483 60 0
-1483 82 0
1484 -2 -48 -57 -82 0
-1484 2 0
-1484 48 0
-1484 57 0
-1484 82 0
-1482 1483 1484 0
-1483 1482 1484 0
-1484 1482 1483 0
1485 -2 -42 -69 -83 0
-1485 2 0
-1485 42 0
-1485 69 0
-1485 83 0
1486 -2 -45 -60 -83 0
-1486 2 0
-1486 45 0
-1486 60 0
-1486 83 0
1487 -2 -48 -57 -83 0
-1487 2 0
-1487 48 0
-1487 57 0
-1487 83 0
1488 -17 -38 -42 -69 0
-1488 17 0
-1488 38 0
-1488 42 0
-1488 69 0
1489 -17 -38 -45 -60 0
-1489 17 0
-1489 38 0
-1489 45 0
-1489 60 0
1490 -17 -38 -48 -57 0
-1490 17 0
-1490 38 0
-1490 48 0
-1490 57 0
1491 -20 -35 -42 -69 0
-1491 20 0
-1491 35 0
-1491 42 0
-1491 69 0
1492 -20 -35 -45 -60 0
-1492 20 0
-1492 35 0
-1492 45 0
-1492 60 0
1493 -20 -35 -48 -57 0
-1493 20 0
-1493 35 0
-1493 48 0
-1493 57 0
-1485 1486 1487 1488 1489 1490 1491 1492 1493 0
-1486 1485 1487 1488 1489 1490 1491 1492 1493 0
-1487 1485 1486 1488 1489 1490 1491 1492 1493 0
-1488 1485 1486 1487 1489 1490 1491 1492 1493 0
-1489 1485 1486 1487 1488 1490 1491 1492 1493 0
-1490 1485 1486 1487 1488 1489 1491 1492 1493 0
-1491 1485 1486 1487 1488 1489 1490 1492 1493 0
-1492 1485 1486 1487 1488 1489 1490 1491 1493 0
-1493 1485 1486 1487 1488 1489 1490 1491 1492 0
1494 -2 -42 -69 -84 0
-1494 2 0
-1494 42 0
-1494 69 0
-1494 84 0
1495 -2 -42 -72 -81 0
-1495 2 0
-1495 42 0
-1495 72 0
-1495 81 0
1496 -2 -42 -75 -78 0
-1496 2 0
-1496 42 0
-1496 75 0
-1496 78 0
1497 -2 -45 -60 -84 0
-1497 2 0
-1497 45 0
-1497 60 0
-1497 84 0
1498 -2 -45 -63 -81 0
-1498 2 0
-1498 45 0
-1498 63 0
-1498 81 0
1499 -2 -45 -66 -78 0
-1499 2 0
-1499 45 0
-1499 66 0
-1499 78 0
1500 -2 -48 -57 -84 0
-1500 2 0
-1500 48 0
-1500 57 0
-1500 84 0
1501 -2 -48 -63 -75 0
-1501 2 0
-1501 48 0
-1501 63 0
-1501 75 0
1502 -2 -48 -66 -72 0
-1502 2 0
-1502 48 0
-1502 66 0
-1502 72 0
1503 -2 -51 -57 -81 0
-1503 2 0
-1503 51 0
-1503 57 0
-1503 81 0
1504 -2 -51 -60 -75 0
-1504 2 0
-1504 51 0
-1504 60 0
-1504 75 0
1505 -2 -51 -66 -69 0
-1505 2 0
-1505 51 0
-1505 66 0
-1505 69 0
1506 -2 -54 -57 -78 0
-1506 2 0
-1506 54 0
-1506 57 0
-1506 78 0
1507 -2 -54 -60 -72 0
-1507 2 0
-1507 54 0
-1507 60 0
-1507 72 0
1508 -2 -54 -63 -69 0
-1508 2 0
-1508 54 0
-1508 63 0
-1508 69 0
-1494 1495 1496 1497 1498 1499 1500 1501 1502 1503 1504 1505 1506 1507 1508 0
-1495 1494 1496 1497 1498 1499 1500 1501 1502 1503 1504 1505 1506 1507 1508 0
-1496 1494 1495 1497 1498 1499 1500 1501 1502 1503 1504 1505 1506 1507 1508 0
-1497 1494 1495 1496 1498 1499 1500 1501 1502 1503 1504 1505 1506 1507 1508 0
-1498 1494 1495 1496 1497 1499 1500 1501 1502 1503 1504 1505 1506 1507 1508 0
-1499 1494 1495 1496 1497 1498 1500 1501 1502 1503 1504 1505 1506 1507 1508 0
-1500 1494 1495 1496 1497 1498 1499 1501 1502 1503 1504 1505 1506 1507 1508 0
-1501 1494 1495 1496 1497 1498 1499 1500 1502 1503 1504 1505 1506 1507 1508 0
-1502 1494 1495 1496 1497 1498 1499 1500 1501 1503 1504 1505 1506 1507 1508 0
-1503 1494 1495 1496 1497 1498 1499 1500 1501 1502 1504 1505 1506 1507 1508 0
-1504 1494 1495 1496 1497 1498 1499 1500 1501 1502 1503 1505 1506 1507 1508 0
-1505 1494 1495 1496 1497 1498 1499 1500 1501 1502 1503 1504 1506 1507 1508 0
-1506 1494 1495 1496 1497 1498 1499 1500 1501 1502 1503 1504 1505 1507 1508 0
-1507 1494 1495 1496 1497 1498 1499 1500 1501 1502 1503 1504 1505 1506 1508 0
-1508 1494 1495 1496 1497 1498 1499 1500 1501 1502 1503 1504 1505 1506 1507 0
1509 -3 -40 -67 -82 0
-1509 3 0
-1509 40 0
-1509 67 0
-1509 82 0
1510 -3 -40 -70 -79 0
-1510 3 0
-1510 40 0
-1510 70 0
-1510 79 0
1511 -3 -40 -73 -76 0
-1511 3 0
-1511 40 0
-1511 73 0
-1511 76 0
1512 -3 -43 -58 -82 0
-1512 3 0
-1512 43 0
-1512 58 0
-1512 82 0
1513 -3 -43 -61 -79 0
-1513 3 0
-1513 43 0
-1513 61 0
-1513 79 0
1514 -3 -43 -64 -76 0
-1514 3 0
-1514 43 0
-1514 64 0
-1514 76 0
1515 -3 -46 -55 -82 0
-1515 3 0
-1515 46 0
-1515 55 0
-1515 82 0
1516 -3 -46 -61 -73 0
-1516 3 0
-1516 46 0
-1516 61 0
-1516 73 0
1517 -3 -46 -64 -70 0
-1517 3 0
-1517 46 0
-1517 64 0
-1517 70 0
1518 -3 -49 -55 -79 0
-1518 3 0
-1518 49 0
-1518 55 0
-1518 79 0
1519 -3 -49 -58 -73 0
-1519 3 0
-1519 49 0
-1519 58 0
-1519 73 0
1520 -3 -49 -64 -67 0
-1520 3 0
-1520 49 0
-1520 64 0
-1520 67 0
1521 -3 -52 -55 -76 0
-1521 3 0
-1521 52 0
-1521 55 0
-1521 76 0
1522 -3 -52 -58 -70 0
-1522 3 0
-1522 52 0
-1522 58 0
-1522 70 0
1523 -3 -52 -61 -67 0
-1523 3 0
-1523 52 0
-1523 61 0
-1523 67 0
-1509 1510 1511 1512 1513 1514 1515 1516 1517 1518 1519 1520 1521 1522 1523 0
-1510 1509 1511 1512 1513 1514 1515 1516 1517 1518 1519 1520 1521 1522 1523 0
-1511 1509 1510 1512 1513 1514 1515 1516 1517 1518 1519 1520 1521 1522 1523 0
-1512 1509 1510 1511 1513 1514 1515 1516 1517 1518 1519 1520 1521 1522 1523 0
-1513 1509 1510 1511 1512 1514 1515 1516 1517 1518 1519 1520 1521 1522 1523 0
-1514 1509 1510 1511 1512 1513 1515 1516 1517 1518 1519 1520 1521 1522 1523 0
-1515 1509 1510 1511 1512 1513 1514 1516 1517 1518 1519 1520 1521 1522 1523 0
-1516 1509 1510 1511 1512 1513 1514 1515 1517 1518 1519 1520 1521 1522 1523 0
-1517 1509 1510 1511 1512 1513 1514 1515 1516 1518 1519 1520 1521 1522 1523 0
-1518 1509 1510 1511 1512 1513 1514 1515 1516 1517 1519 1520 1521 1522 1523 0
-1519 1509 1510 1511 1512 1513 1514 1515 1516 1517 1518 1520 1521 1522 1523 0
-1520 1509 1510 1511 1512 1513 1514 1515 1516 1517 1518 1519 1521 1522 1523 0
-1521 1509 1510 1511 1512 1513 1514 1515 1516 1517 1518 1519 1520 1522 1523 0
-1522 1509 1510 1511 1512 1513 1514 1515 1516 1517 1518 1519 1520 1521 1523 0
-1523 1509 1510 1511 1512 1513 1514 1515 1516 1517 1518 1519 1520 1521 1522 0
1524 -3 -40 -67 -83 0
-1524 3 0
-1524 40 0
-1524 67 0
-1524 83 0
1525 -3 -43 -58 -83 0
-1525 3 0
-1525 43 0
-1525 58 0
-1525 83 0
1526 -3 -46 -55 -83 0
-1526 3 0
-1526 46 0
-1526 55 0
-1526 83 0
-1524 1525 1526 0
-1525 1524 1526 0
-1526 1524 1525 0
1527 -3 -40 -67 -84 0
-1527 3 0
-1527 40 0
-1527 67 0
-1527 84 0
1528 -3 -43 -58 -84 0
-1528 3 0
-1528 43 0
-1528 58 0
-1528 84 0
1529 -3 -46 -55 -84 0
-1529 3 0
-1529 46 0
-1529 55 0
-1529 84 0
1530 -18 -39 -40 -67 0
-1530 18 0
-1530 39 0
-1530 40 0
-1530 67 0
1531 -18 -39 -43 -58 0
-1531 18 0
-1531 39 0
-1531 43 0
-1531 58 0
1532 -18 -39 -46 -55 0
-1532 18 0
-1532 39 0
-1532 46 0
-1532 55 0
1533 -21 -36 -40 -67 0
-1533 21 0
-1533 36 0
-1533 40 0
-1533 67 0
1534 -21 -36 -43 -58 0
-1534 21 0
-1534 36 0
-1534 43 0
-1534 58 0
1535 -21 -36 -46 -55 0
-1535 21 0
-1535 36 0
-1535 46 0
-1535 55 0
-1527 1528 1529 1530 1531 1532 1533 1534 1535 0
-1528 1527 1529 1530 1531 1532 1533 1534 1535 0
-1529 1527 1528 1530 1531 1532 1533 1534 1535 0
-1530 1527 1528 1529 1531 1532 1533 1534 1535 0
-1531 1527 1528 1529 1530 1532 1533 1534 1535 0
-1532 1527 1528 1529 1530 1531 1533 1534 1535 0
-1533 1527 1528 1529 1530 1531 1532 1534 1535 0
-1534 1527 1528 1529 1530 1531 1532 1533 1535 0
-1535 1527 1528 1529 1530 1531 1532 1533 1534 0
1536 -3 -40 -68 -82 0
-1536 3 0
-1536 40 0
-1536 68 0
-1536 82 0
1537 -3 -49 -64 -68 0
-1537 3 0
-1537 49 0
-1537 64 0
-1537 68 0
1538 -3 -52 -61 -68 0
-1538 3 0
-1538 52 0
-1538 61 0
-1538 68 0
-1536 1537 1538 0
-1537 1536 1538 0
-1538 1536 1537 0
1539 -3 -40 -68 -83 0
-1539 3 0
-1539 40 0
-1539 68 0
-1539 83 0
1540 -3 -40 -71 -80 0
-1540 3 0
-1540 40 0
-1540 71 0
-1540 80 0
1541 -3 -40 -74 -77 0
-1541 3 0
-1541 40 0
-1541 74 0
-1541 77 0
-1539 1540 1541 0
-1540 1539 1541 0
-1541 1539 1540 0
1542 -3 -40 -68 -84 0
-1542 3 0
-1542 40 0
-1542 68 0
-1542 84 0
1543 -18 -39 -40 -68 0
-1543 18 0
-1543 39 0
-1543 40 0
-1543 68 0
1544 -21 -36 -40 -68 0
-1544 21 0
-1544 36 0
-1544 40 0
-1544 68 0
-1542 1543 1544 0
-1543 1542 1544 0
-1544 1542 1543 0
1545 -3 -40 -69 -82 0
-1545 3 0
-1545 40 0
-1545 69 0
-1545 82 0
1546 -3 -49 -64 -69 0
-1546 3 0
-1546 49 0
-1546 64 0
-1546 69 0
1547 -3 -52 -61 -69 0
-1547 3 0
-1547 52 0
-1547 61 0
-1547 69 0
1548 -12 -33 -40 -82 0
-1548 12 0
-1548 33 0
-1548 40 0
-1548 82 0
1549 -12 -33 -49 -64 0
-1549 12 0
-1549 33 0
-1549 49 0
-1549 64 0
1550 -12 -33 -52 -61 0
-1550 12 0
-1550 33 0
-1550 52 0
-1550 61 0
1551 -15 -30 -40 -82 0
-1551 15 0
-1551 30 0
-1551 40 0
-1551 82 0
1552 -15 -30 -49 -64 0
-1552 15 0
-1552 30 0
-1552 49 0
-1552 64 0
1553 -15 -30 -52 -61 0
-1553 15 0
-1553 30 0
-1553 52 0
-1553 61 0
-1545 1546 1547 1548 1549 1550 1551 1552 1553 0
-1546 1545 1547 1548 1549 1550 1551 1552 1553 0
-1547 1545 1546 1548 1549 1550 1551 1552 1553 0
-1548 1545 1546 1547 1549 1550 1551 1552 1553 0
-1549 1545 1546 1547 1548 1550 1551 1552 1553 0
-1550 1545 1546 1547 1548 1549 1551 1552 1553 0
-1551 1545 1546 1547 1548 1549 1550 1552 1553 0
-1552 1545 1546 1547 1548 1549 1550 1551 1553 0
-1553 1545 1546 1547 1548 1549 1550 1551 1552 0
1554 -3 -40 -69 -83 0
-1554 3 0
-1554 40 0
-1554 69 0
-1554 83 0
1555 -12 -33 -40 -83 0
-1555 12 0
-1555 33 0
-1555 40 0
-1555 83 0
1556 -15 -30 -40 -83 0
-1556 15 0
-1556 30 0
-1556 40 0
-1556 83 0
-1554 1555 1556 0
-1555 1554 1556 0
-1556 1554 1555 0
1557 -3 -40 -69 -84 0
-1557 3 0
-1557 40 0
-1557 69 0
-1557 84 0
1558 -3 -40 -72 -81 0
-1558 3 0
-1558 40 0
-1558 72 0
-1558 81 0
1559 -3 -40 -75 -78 0
-1559 3 0
-1559 40 0
-1559 75 0
-1559 78 0
1560 -12 -33 -40 -84 0
-1560 12 0
-1560 33 0
-1560 40 0
-1560 84 0
1561 -12 -36 -40 -81 0
-1561 12 0
-1561 36 0
-1561 40 0
-1561 81 0
1562 -12 -39 -40 -78 0
-1562 12 0
-1562 39 0
-1562 40 0
-1562 78 0
1563 -15 -30 -40 -84 0
-1563 15 0
-1563 30 0
-1563 40 0
-1563 84 0
1564 -15 -36 -40 -75 0
-1564 15 0
-1564 36 0
-1564 40 0
-1564 75 0
1565 -15 -39 -40 -72 0
-1565 15 0
-1565 39 0
-1565 40 0
-1565 72 0
1566 -18 -30 -40 -81 0
-1566 18 0
-1566 30 0
-1566 40 0
-1566 81 0
1567 -18 -33 -40 -75 0
-1567 18 0
-1567 33 0
-1567 40 0
-1567 75 0
1568 -18 -39 -40 -69 0
-1568 18 0
-1568 39 0
-1568 40 0
-1568 69 0
1569 -21 -30 -40 -78 0
-1569 21 0
-1569 30 0
-1569 40 0
-1569 78 0
1570 -21 -33 -40 -72 0
-1570 21 0
-1570 33 0
-1570 40 0
-1570 72 0
1571 -21 -36 -40 -69 0
-1571 21 0
-1571 36 0
-1571 40 0
-1571 69 0
-1557 1558 1559 1560 1561 1562 1563 1564 1565 1566 1567 1568 1569 1570 1571 0
-1558 1557 1559 1560 1561 1562 1563 1564 1565 1566 1567 1568 1569 1570 1571 0
-1559 1557 1558 1560 1561 1562 1563 1564 1565 1566 1567 1568 1569 1570 1571 0
-1560 1557 1558 1559 1561 1562 1563 1564 1565 1566 1567 1568 1569 1570 1571 0
-1561 1557 1558 1559 1560 1562 1563 1564 1565 1566 1567 1568 1569 1570 1571 0
-1562 1557 1558 1559 1560 1561 1563 1564 1565 1566 1567 1568 1569 1570 1571 0
-1563 1557 1558 1559 1560 1561 1562 1564 1565 1566 1567 1568 1569 1570 1571 0
-1564 1557 1558 1559 1560 1561 1562 1563 1565 1566 1567 1568 1569 1570 1571 0
-1565 1557 1558 1559 1560 1561 1562 1563 1564 1566 1567 1568 1569 1570 1571 0
-1566 1557 1558 1559 1560 1561 1562 1563 1564 1565 1567 1568 1569 1570 1571 0
-1567 1557 1558 1559 1560 1561 1562 1563 1564 1565 1566 1568 1569 1570 1571 0
-1568 1557 1558 1559 1560 1561 1562 1563 1564 1565 1566 1567 1569 1570 1571 0
-1569 1557 1558 1559 1560 1561 1562 1563 1564 1565 1566 1567 1568 1570 1571 0
-1570 1557 1558 1559 1560 1561 1562 1563 1564 1565 1566 1567 1568 1569 1571 0
-1571 1557 1558 1559 1560 1561 1562 1563 1564 1565 1566 1567 1568 1569 1570 0
1572 -3 -41 -67 -82 0
-1572 3 0
-1572 41 0
-1572 67 0
-1572 82 0
1573 -3 -41 -70 -79 0
-1573 3 0
-1573 41 0
-1573 70 0
-1573 79 0
1574 -3 -41 -73 -76 0
-1574 3 0
-1574 41 0
-1574 73 0
-1574 76 0
-1572 1573 1574 0
-1573 1572 1574 0
-1574 1572 1573 0
1575 -3 -41 -67 -83 0
-1575 3 0
-1575 41 0
-1575 67 0
-1575 83 0
1576 -3 -50 -65 -67 0
-1576 3 0
-1576 50 0
-1576 65 0
-1576 67 0
1577 -3 -53 -62 -67 0
-1577 3 0
-1577 53 0
-1577 62 0
-1577 67 0
-1575 1576 1577 0
-1576 1575 1577 0
-1577 1575 1576 0
1578 -3 -41 -67 -84 0
-1578 3 0
-1578 41 0
-1578 67 0
-1578 84 0
1579 -18 -39 -41 -67 0
-1579 18 0
-1579 39 0
-1579 41 0
-1579 67 0
1580 -21 -36 -41 -67 0
-1580 21 0
-1580 36 0
-1580 41 0
-1580 67 0
-1578 1579 1580 0
-1579 1578 1580 0
-1580 1578 1579 0
1581 -3 -41 -68 -82 0
-1581 3 0
-1581 41 0
-1581 68 0
-1581 82 0
1582 -3 -44 -59 -82 0
-1582 3 0
-1582 44 0
-1582 59 0
-1582 82 0
1583 -3 -47 -56 -82 0
-1583 3 0
-1583 47 0
-1583 56 0
-1583 82 0
-1581 1582 1583 0
-1582 1581 1583 0
-1583 1581 1582 0
1584 -3 -41 -68 -83 0
-1584 3 0
-1584 41 0
-1584 68 0
-1584 83 0
1585 -3 -41 -71 -80 0
-1585 3 0
-1585 41 0
-1585 71 0
-1585 80 0
1586 -3 -41 -74 -77 0
-1586 3 0
-1586 41 0
-1586 74 0
-1586 77 0
1587 -3 -44 -59 -83 0
-1587 3 0
-1587 44 0
-1587 59 0
-1587 83 0
1588 -3 -44 -62 -80 0
-1588 3 0
-1588 44 0
-1588 62 0
-1588 80 0
1589 -3 -44 -65 -77 0
-1589 3 0
-1589 44 0
-1589 65 0
-1589 77 0
1590 -3 -47 -56 -83 0
-1590 3 0
-1590 47 0
-1590 56 0
-1590 83 0
1591 -3 -47 -62 -74 0
-1591 3 0
-1591 47 0
-1591 62 0
-1591 74 0
1592 -3 -47 -65 -71 0
-1592 3 0
-1592 47 0
-1592 65 0
-1592 71 0
1593 -3 -50 -56 -80 0
-1593 3 0
-1593 50 0
-1593 56 0
-1593 80 0
1594 -3 -50 -59 -74 0
-1594 3 0
-1594 50 0
-1594 59 0
-1594 74 0
1595 -3 -50 -65 -68 0
-1595 3 0
-1595 50 0
-1595 65 0
-1595 68 0
1596 -3 -53 -56 -77 0
-1596 3 0
-1596 53 0
-1596 56 0
-1596 77 0
1597 -3 -53 -59 -71 0
-1597 3 0
-1597 53 0
-1597 59 0
-1597 71 0
1598 -3 -53 -62 -68 0
-1598 3 0
-1598 53 0
-1598 62 0
-1598 68 0
-1584 1585 1586 1587 1588 1589 1590 1591 1592 1593 1594 1595 1596 1597 1598 0
-1585 1584 1586 1587 1588 1589 1590 1591 1592 1593 1594 1595 1596 1597 1598 0
-1586 1584 1585 1587 1588 1589 1590 1591 1592 1593 1594 1595 1596 1597 1598 0
-1587 1584 1585 1586 1588 1589 1590 1591 1592 1593 1594 1595 1596 1597 1598 0
-1588 1584 1585 1586 1587 1589 1590 1591 1592 1593 1594 1595 1596 1597 1598 0
-1589 1584 1585 1586 1587 1588 1590 1591 1592 1593 1594 1595 1596 1597 1598 0
-1590 1584 1585 1586 1587 1588 1589 1591 1592 1593 1594 1595 1596 1597 1598 0
-1591 1584 1585 1586 1587 1588 1589 1590 1592 1593 1594 1595 1596 1597 1598 0
-1592 1584 1585 1586 1587 1588 1589 1590 1591 1593 1594 1595 1596 1597 1598 0
-1593 1584 1585 1586 1587 1588 1589 1590 1591 1592 1594 1595 1596 1597 1598 0
-1594 1584 1585 1586 1587 1588 1589 1590 1591 1592 1593 1595 1596 1597 1598 0
-1595 1584 1585 1586 1587 1588 1589 1590 1591 1592 1593 1594 1596 1597 1598 0
-1596 1584 1585 1586 1587 1588 1589 1590 1591 1592 1593 1594 1595 1597 1598 0
-1597 1584 1585 1586 1587 1588 1589 1590 1591 1592 1593 1594 1595 1596 1598 0
-1598 1584 1585 1586 1587 1588 1589 1590 1591 1592 1593 1594 1595 1596 1597 0
1599 -3 -41 -68 -84 0
-1599 3 0
-1599 41 0
-1599 68 0
-1599 84 0
1600 -3 -44 -59 -84 0
-1600 3 0
-1600 44 0
-1600 59 0
-1600 84 0
1601 -3 -47 -56 -84 0
-1601 3 0
-1601 47 0
-1601 56 0
-1601 84 0
1602 -18 -39 -41 -68 0
-1602 18 0
-1602 39 0
-1602 41 0
-1602 68 0
1603 -18 -39 -44 -59 0
-1603 18 0
-1603 39 0
-1603 44 0
-1603 59 0
1604 -18 -39 -47 -56 0
-1604 18 0
-1604 39 0
-1604 47 0
-1604 56 0
1605 -21 -36 -41 -68 0
-1605 21 0
-1605 36 0
-1605 41 0
-1605 68 0
1606 -21 -36 -44 -59 0
-1606 21 0
-1606 36 0
-1606 44 0
-1606 59 0
1607 -21 -36 -47 -56 0
-1607 21 0
-1607 36 0
-1607 47 0
-1607 56 0
-1599 1600 1601 1602 1603 1604 1605 1606 1607 0
-1600 1599 1601 1602 1603 1604 1605 1606 1607 0
-1601 1599 1600 1602 1603 1604 1605 1606 1607 0
-1602 1599 1600 1601 1603 1604 1605 1606 1607 0
-1603 1599 1600 1601 1602 1604 1605 1606 1607 0
-1604 1599 1600 1601 1602 1603 1605 1606 1607 0
-1605 1599 1600 1601 1602 1603 1604 1606 1607 0
-1606 1599 1600 1601 1602 1603 1604 1605 1607 0
-1607 1599 1600 1601 1602 1603 1604 1605 1606 0
1608 -3 -41 -69 -82 0
-1608 3 0
-1608 41 0
-1608 69 0
-1608 82 0
1609 -12 -33 -41 -82 0
-1609 12 0
-1609 33 0
-1609 41 0
-1609 82 0
1610 -15 -30 -41 -82 0
-1610 15 0
-1610 30 0
-1610 41 0
-1610 82 0
-1608 1609 1610 0
-1609 1608 1610 0
-1610 1608 1609 0
1611 -3 -41 -69 -83 0
-1611 3 0
-1611 41 0
-1611 69 0
-1611 83 0
1612 -3 -50 -65 -69 0
-1612 3 0
-1612 50 0
-1612 65 0
-1612 69 0
1613 -3 -53 -62 -69 0
-1613 3 0
-1613 53 0
-1613 62 0
-1613 69 0
1614 -12 -33 -41 -83 0
-1614 12 0
-1614 33 0
-1614 41 0
-1614 83 0
1615 -12 -33 -50 -65 0
-1615 12 0
-1615 33 0
-1615 50 0
-1615 65 0
1616 -12 -33 -53 -62 0
-1616 12 0
-1616 33 0
-1616 53 0
-1616 62 0
1617 -15 -30 -41 -83 0
-1617 15 0
-1617 30 0
-1617 41 0
-1617 83 0
1618 -15 -30 -50 -65 0
-1618 15 0
-1618 30 0
-1618 50 0
-1618 65 0
1619 -15 -30 -53 -62 0
-1619 15 0
-1619 30 0
-1619 53 0
-1619 62 0
-1611 1612 1613 1614 1615 1616 1617 1618 1619 0
-1612 1611 1613 1614 1615 1616 1617 1618 1619 0
-1613 1611 1612 1614 1615 1616 1617 1618 1619 0
-1614 1611 1612 1613 1615 1616 1617 1618 1619 0
-1615 1611 1612 1613 1614 1616 1617 1618 1619 0
-1616 1611 1612 1613 1614 1615 1617 1618 1619 0
-1617 1611 1612 1613 1614 1615 1616 1618 1619 0
-1618 1611 1612 1613 1614 1615 1616 1617 1619 0
-1619 1611 1612 1613 1614 1615 1616 1617 1618 0
1620 -3 -41 -69 -84 0
-1620 3 0
-1620 41 0
-1620 69 0
-1620 84 0
1621 -3 -41 -72 -81 0
-1621 3 0
-1621 41 0
-1621 72 0
-1621 81 0
1622 -3 -41 -75 -78 0
-1622 3 0
-1622 41 0
-1622 75 0
-1622 78 0
1623 -12 -33 -41 -84 0
-1623 12 0
-1623 33 0
-1623 41 0
-1623 84 0
1624 -12 -36 -41 -81 0
-1624 12 0
-1624 36 0
-1624 41 0
-1624 81 0
1625 -12 -39 -41 -78 0
-1625 12 0
-1625 39 0
-1625 41 0
-1625 78 0
1626 -15 -30 -41 -84 0
-1626 15 0
-1626 30 0
-1626 41 0
-1626 84 0
1627 -15 -36 -41 -75 0
-1627 15 0
-1627 36 0
-1627 41 0
-1627 75 0
1628 -15 -39 -41 -72 0
-1628 15 0
-1628 39 0
-1628 41 0
-1628 72 0
1629 -18 -30 -41 -81 0
-1629 18 0
-1629 30 0
-1629 41 0
-1629 81 0
1630 -18 -33 -41 -75 0
-1630 18 0
-1630 33 0
-1630 41 0
-1630 75 0
1631 -18 -39 -41 -69 0
-1631 18 0
-1631 39 0
-1631 41 0
-1631 69 0
1632 -21 -30 -41 -78 0
-1632 21 0
-1632 30 0
-1632 41 0
-1632 78 0
1633 -21 -33 -41 -72 0
-1633 21 0
-1633 33 0
-1633 41 0
-1633 72 0
1634 -21 -36 -41 -69 0
-1634 21 0
-1634 36 0
-1634 41 0
-1634 69 0
-1620 1621 1622 1623 1624 1625 1626 1627 1628 1629 1630 1631 1632 1633 1634 0
-1621 1620 1622 1623 1624 1625 1626 1627 1628 1629 1630 1631 1632 1633 1634 0
-1622 1620 1621 1623 1624 1625 1626 1627 1628 1629 1630 1631 1632 1633 1634 0
-1623 1620 1621 1622 1624 1625 1626 1627 1628 1629 1630 1631 1632 1633 1634 0
-1624 1620 1621 1622 1623 1625 1626 1627 1628 1629 1630 1631 1632 1633 1634 0
-1625 1620 1621 1622 1623 1624 1626 1627 1628 1629 1630 1631 1632 1633 1634 0
-1626 1620 1621 1622 1623 1624 1625 1627 1628 1629 1630 1631 1632 1633 1634 0
-1627 1620 1621 1622 1623 1624 1625 1626 1628 1629 1630 1631 1632 1633 1634 0
-1628 1620 1621 1622 1623 1624 1625 1626 1627 1629 1630 1631 1632 1633 1634 0
-1629 1620 1621 1622 1623 1624 1625 1626 1627 1628 1630 1631 1632 1633 1634 0
-1630 1620 1621 1622 1623 1624 1625 1626 1627 1628 1629 1631 1632 1633 1634 0
-1631 1620 1621 1622 1623 1624 1625 1626 1627 1628 1629 1630 1632 1633 1634 0
-1632 1620 1621 1622 1623 1624 1625 1626 1627 1628 1629 1630 1631 1633 1634 0
-1633 1620 1621 1622 1623 1624 1625 1626 1627 1628 1629 1630 1631 1632 1634 0
-1634 1620 1621 1622 1623 1624 1625 1626 1627 1628 1629 1630 1631 1632 1633 0
1635 -3 -42 -67 -82 0
-1635 3 0
-1635 42 0
-1635 67 0
-1635 82 0
1636 -3 -42 -70 -79 0
-1636 3 0
-1636 42 0
-1636 70 0
-1636 79 0
1637 -3 -42 -73 -76 0
-1637 3 0
-1637 42 0
-1637 73 0
-1637 76 0
1638 -6 -27 -67 -82 0
-1638 6 0
-1638 27 0
-1638 67 0
-1638 82 0
1639 -6 -27 -70 -79 0
-1639 6 0
-1639 27 0
-1639 70 0
-1639 79 0
1640 -6 -27 -73 -76 0
-1640 6 0
-1640 27 0
-1640 73 0
-1640 76 0
1641 -9 -24 -67 -82 0
-1641 9 0
-1641 24 0
-1641 67 0
-1641 82 0
1642 -9 -24 -70 -79 0
-1642 9 0
-1642 24 0
-1642 70 0
-1642 79 0
1643 -9 -24 -73 -76 0
-1643 9 0
-1643 24 0
-1643 73 0
-1643 76 0
-1635 1636 1637 1638 1639 1640 1641 1642 1643 0
-1636 1635 1637 1638 1639 1640 1641 1642 1643 0
-1637 1635 1636 1638 1639 1640 1641 1642 1643 0
-1638 1635 1636 1637 1639 1640 1641 1642 1643 0
-1639 1635 1636 1637 1638 1640 1641 1642 1643 0
-1640 1635 1636 1637 1638 1639 1641 1642 1643 0
-1641 1635 1636 1637 1638 1639 1640 1642 1643 0
-1642 1635 1636 1637 1638 1639 1640 1641 1643 0
-1643 1635 1636 1637 1638 1639 1640 1641 1642 0
1644 -3 -42 -67 -83 0
-1644 3 0
-1644 42 0
-1644 67 0
-1644 83 0
1645 -6 -27 -67 -83 0
-1645 6 0
-1645 27 0
-1645 67 0
-1645 83 0
1646 -9 -24 -67 -83 0
-1646 9 0
-1646 24 0
-1646 67 0
-1646 83 0
-1644 1645 1646 0
-1645 1644 1646 0
-1646 1644 1645 0
1647 -3 -42 -67 -84 0
-1647 3 0
-1647 42 0
-1647 67 0
-1647 84 0
1648 -3 -51 -66 -67 0
-1648 3 0
-1648 51 0
-1648 66 0
-1648 67 0
1649 -3 -54 -63 -67 0
-1649 3 0
-1649 54 0
-1649 63 0
-1649 67 0
1650 -6 -27 -67 -84 0
-1650 6 0
-1650 27 0
-1650 67 0
-1650 84 0
1651 -6 -36 -66 -67 0
-1651 6 0
-1651 36 0
-1651 66 0
-1651 67 0
1652 -6 -39 -63 -67 0
-1652 6 0
-1652 39 0
-1652 63 0
-1652 67 0
1653 -9 -24 -67 -84 0
-1653 9 0
-1653 24 0
-1653 67 0
-1653 84 0
1654 -9 -36 -54 -67 0
-1654 9 0
-1654 36 0
-1654 54 0
-1654 67 0
1655 -9 -39 -51 -67 0
-1655 9 0
-1655 39 0
-1655 51 0
-1655 67 0
1656 -18 -24 -66 -67 0
-1656 18 0
-1656 24 0
-1656 66 0
-1656 67 0
1657 -18 -27 -54 -67 0
-1657 18 0
-1657 27 0
-1657 54 0
-1657 67 0
1658 -18 -39 -42 -67 0
-1658 18 0
-1658 39 0
-1658 42 0
-1658 67 0
1659 -21 -24 -63 -67 0
-1659 21 0
-1659 24 0
-1659 63 0
-1659 67 0
1660 -21 -27 -51 -67 0
-1660 21 0
-1660 27 0
-1660 51 0
-1660 67 0
1661 -21 -36 -42 -67 0
-1661 21 0
-1661 36 0
-1661 42 0
-1661 67 0
-1647 1648 1649 1650 1651 1652 1653 1654 1655 1656 1657 1658 1659 1660 1661 0
-1648 1647 1649 1650 1651 1652 1653 1654 1655 1656 1657 1658 1659 1660 1661 0
-1649 1647 1648 1650 1651 1652 1653 1654 1655 1656 1657 1658 1659 1660 1661 0
-1650 1647 1648 1649 1651 1652 1653 1654 1655 1656 1657 1658 1659 1660 1661 0
-1651 1647 1648 1649 1650 1652 1653 1654 1655 1656 1657 1658 1659 1660 1661 0
-1652 1647 1648 1649 1650 1651 1653 1654 1655 1656 1657 1658 1659 1660 1661 0
-1653 1647 1648 1649 1650 1651 1652 1654 1655 1656 1657 1658 1659 1660 1661 0
-1654 1647 1648 1649 1650 1651 1652 1653 1655 1656 1657 1658 1659 1660 1661 0
-1655 1647 1648 1649 1650 1651 1652 1653 1654 1656 1657 1658 1659 1660 1661 0
-1656 1647 1648 1649 1650 1651 1652 1653 1654 1655 1657 1658 1659 1660 1661 0
-1657 1647 1648 1649 1650 1651 1652 1653 1654 1655 1656 1658 1659 1660 1661 0
-1658 1647 1648 1649 1650 1651 1652 1653 1654 1655 1656 1657 1659 1660 1661 0
-1659 1647 1648 1649 1650 1651 1652 1653 1654 1655 1656 1657 1658 1660 1661 0
-1660 1647 1648 1649 1650 1651 1652 1653 1654 1655 1656 1657 1658 1659 1661 0
-1661 1647 1648 1649 1650 1651 1652 1653 1654 1655 1656 1657 1658 1659 1660 0
1662 -3 -42 -68 -82 0
-1662 3 0
-1662 42 0
-1662 68 0
-1662 82 0
1663 -6 -27 -68 -82 0
-1663 6 0
-1663 27 0
-1663 68 0
-1663 82 0
1664 -9 -24 -68 -82 0
-1664 9 0
-1664 24 0
-1664 68 0
-1664 82 0
-1662 1663 1664 0
-1663 1662 1664 0
-1664 1662 1663 0
1665 -3 -42 -68 -83 0
-1665 3 0
-1665 42 0
-1665 68 0
-1665 83 0
1666 -3 -42 -71 -80 0
-1666 3 0
-1666 42 0
-1666 71 0
-1666 80 0
1667 -3 -42 -74 -77 0
-1667 3 0
-1667 42 0
-1667 74 0
-1667 77 0
1668 -6 -27 -68 -83 0
-1668 6 0
-1668 27 0
-1668 68 0
-1668 83 0
1669 -6 -27 -71 -80 0
-1669 6 0
-1669 27 0
-1669 71 0
-1669 80 0
1670 -6 -27 -74 -77 0
-1670 6 0
-1670 27 0
-1670 74 0
-1670 77 0
1671 -9 -24 -68 -83 0
-1671 9 0
-1671 24 0
-1671 68 0
-1671 83 0
1672 -9 -24 -71 -80 0
-1672 9 0
-1672 24 0
-1672 71 0
-1672 80 0
1673 -9 -24 -74 -77 0
-1673 9 0
-1673 24 0
-1673 74 0
-1673 77 0
-1665 1666 1667 1668 1669 1670 1671 1672 1673 0
-1666 1665 1667 1668 1669 1670 1671 1672 1673 0
-1667 1665 1666 1668 1669 1670 1671 1672 1673 0
-1668 1665 1666 1667 1669 1670 1671 1672 1673 0
-1669 1665 1666 1667 1668 1670 1671 1672 1673 0
-1670 1665 1666 1667 1668 1669 1671 1672 1673 0
-1671 1665 1666 1667 1668 1669 1670 1672 1673 0
-1672 1665 1666 1667 1668 1669 1670 1671 1673 0
-1673 1665 1666 1667 1668 1669 1670 1671 1672 0
1674 -3 -42 -68 -84 0
-1674 3 0
-1674 42 0
-1674 68 0
-1674 84 0
1675 -3 -51 -66 -68 0
-1675 3 0
-1675 51 0
-1675 66 0
-1675 68 0
1676 -3 -54 -63 -68 0
-1676 3 0
-1676 54 0
-1676 63 0
-1676 68 0
1677 -6 -27 -68 -84 0
-1677 6 0
-1677 27 0
-1677 68 0
-1677 84 0
1678 -6 -36 -66 -68 0
-1678 6 0
-1678 36 0
-1678 66 0
-1678 68 0
1679 -6 -39 -63 -68 0
-1679 6 0
-1679 39 0
-1679 63 0
-1679 68 0
1680 -9 -24 -68 -84 0
-1680 9 0
-1680 24 0
-1680 68 0
-1680 84 0
1681 -9 -36 -54 -68 0
-1681 9 0
-1681 36 0
-1681 54 0
-1681 68 0
1682 -9 -39 -51 -68 0
-1682 9 0
-1682 39 0
-1682 51 0
-1682 68 0
1683 -18 -24 -66 -68 0
-1683 18 0
-1683 24 0
-1683 66 0
-1683 68 0
1684 -18 -27 -54 -68 0
-1684 18 0
-1684 27 0
-1684 54 0
-1684 68 0
1685 -18 -39 -42 -68 0
-1685 18 0
-1685 39 0
-1685 42 0
-1685 68 0
1686 -21 -24 -63 -68 0
-1686 21 0
-1686 24 0
-1686 63 0
-1686 68 0
1687 -21 -27 -51 -68 0
-1687 21 0
-1687 27 0
-1687 51 0
-1687 68 0
1688 -21 -36 -42 -68 0
-1688 21 0
-1688 36 0
-1688 42 0
-1688 68 0
-1674 1675 1676 1677 1678 1679 1680 1681 1682 1683 1684 1685 1686 1687 1688 0
-1675 1674 1676 1677 1678 1679 1680 1681 1682 1683 1684 1685 1686 1687 1688 0
-1676 1674 1675 1677 1678 1679 1680 1681 1682 1683 1684 1685 1686 1687 1688 0
-1677 1674 1675 1676 1678 1679 1680 1681 1682 1683 1684 1685 1686 1687 1688 0
-1678 1674 1675 1676 1677 1679 1680 1681 1682 1683 1684 1685 1686 1687 1688 0
-1679 1674 1675 1676 1677 1678 1680 1681 1682 1683 1684 1685 1686 1687 1688 0
-1680 1674 1675 1676 1677 1678 1679 1681 1682 1683 1684 1685 1686 1687 1688 0
-1681 1674 1675 1676 1677 1678 1679 1680 1682 1683 1684 1685 1686 1687 1688 0
-1682 1674 1675 1676 1677 1678 1679 1680 1681 1683 1684 1685 1686 1687 1688 0
-1683 1674 1675 1676 1677 1678 1679 1680 1681 1682 1684 1685 1686 1687 1688 0
-1684 1674 1675 1676 1677 1678 1679 1680 1681 1682 1683 1685 1686 1687 1688 0
-1685 1674 1675 1676 1677 1678 1679 1680 1681 1682 1683 1684 1686 1687 1688 0
-1686 1674 1675 1676 1677 1678 1679 1680 1681 1682 1683 1684 1685 1687 1688 0
-1687 1674 1675 1676 1677 1678 1679 1680 1681 1682 1683 1684 1685 1686 1688 0
-1688 1674 1675 1676 1677 1678 1679 1680 1681 1682 1683 1684 1685 1686 1687 0
1689 -3 -42 -69 -82 0
-1689 3 0
-1689 42 0
-1689 69 0
-1689 82 0
1690 -3 -45 -60 -82 0
-1690 3 0
-1690 45 0
-1690 60 0
-1690 82 0
1691 -3 -48 -57 -82 0
-1691 3 0
-1691 48 0
-1691 57 0
-1691 82 0
1692 -6 -27 -69 -82 0
-1692 6 0
-1692 27 0
-1692 69 0
-1692 82 0
1693 -6 -30 -60 -82 0
-1693 6 0
-1693 30 0
-1693 60 0
-1693 82 0
1694 -6 -33 -57 -82 0
-1694 6 0
-1694 33 0
-1694 57 0
-1694 82 0
1695 -9 -24 -69 -82 0
-1695 9 0
-1695 24 0
-1695 69 0
-1695 82 0
1696 -9 -30 -48 -82 0
-1696 9 0
-1696 30 0
-1696 48 0
-1696 82 0
1697 -9 -33 -45 -82 0
-1697 9 0
-1697 33 0
-1697 45 0
-1697 82 0
1698 -12 -24 -60 -82 0
-1698 12 0
-1698 24 0
-1698 60 0
-1698 82 0
1699 -12 -27 -48 -82 0
-1699 12 0
-1699 27 0
-1699 48 0
-1699 82 0
1700 -12 -33 -42 -82 0
-1700 12 0
-1700 33 0
-1700 42 0
-1700 82 0
1701 -15 -24 -57 -82 0
-1701 15 0
-1701 24 0
-1701 57 0
-1701 82 0
1702 -15 -27 -45 -82 0
-1702 15 0
-1702 27 0
-1702 45 0
-1702 82 0
1703 -15 -30 -42 -82 0
-1703 15 0
-1703 30 0
-1703 42 0
-1703 82 0
-1689 1690 1691 1692 1693 1694 1695 1696 1697 1698 1699 1700 1701 1702 1703 0
-1690 1689 1691 1692 1693 1694 1695 1696 1697 1698 1699 1700 1701 1702 1703 0
-1691 1689 1690 1692 1693 1694 1695 1696 1697 1698 1699 1700 1701 1702 1703 0
-1692 1689 1690 1691 1693 1694 1695 1696 1697 1698 1699 1700 1701 1702 1703 0
-1693 1689 1690 1691 1692 1694 1695 1696 1697 1698 1699 1700 1701 1702 1703 0
-1694 1689 1690 1691 1692 1693 1695 1696 1697 1698 1699 1700 1701 1702 1703 0
-1695 1689 1690 1691 1692 1693 1694 1696 1697 1698 1699 1700 1701 1702 1703 0
-1696 1689 1690 1691 1692 1693 1694 1695 1697 1698 1699 1700 1701 1702 1703 0
-1697 1689 1690 1691 1692 1693 1694 1695 1696 1698 1699 1700 1701 1702 1703 0
-1698 1689 1690 1691 1692 1693 1694 1695 1696 1697 1699 1700 1701 1702 1703 0
-1699 1689 1690 1691 1692 1693 1694 1695 1696 1697 1698 1700 1701 1702 1703 0
-1700 1689 1690 1691 1692 1693 1694 1695 1696 1697 1698 1699 1701 1702 1703 0
-1701 1689 1690 1691 1692 1693 1694 1695 1696 1697 1698 1699 1700 1702 1703 0
-1702 1689 1690 1691 1692 1693 1694 1695 1696 1697 1698 1699 1700 1701 1703 0
-1703 1689 1690 1691 1692 1693 1694 1695 1696 1697 1698 1699 1700 1701 1702 0
1704 -3 -42 -69 -83 0
-1704 3 0
-1704 42 0
-1704 69 0
-1704 83 0
1705 -3 -45 -60 -83 0
-1705 3 0
-1705 45 0
-1705 60 0
-1705 83 0
1706 -3 -48 -57 -83 0
-1706 3 0
-1706 48 0
-1706 57 0
-1706 83 0
1707 -6 -27 -69 -83 0
-1707 6 0
-1707 27 0
-1707 69 0
-1707 83 0
1708 -6 -30 -60 -83 0
-1708 6 0
-1708 30 0
-1708 60 0
-1708 83 0
1709 -6 -33 -57 -83 0
-1709 6 0
-1709 33 0
-1709 57 0
-1709 83 0
1710 -9 -24 -69 -83 0
-1710 9 0
-1710 24 0
-1710 69 0
-1710 83 0
1711 -9 -30 -48 -83 0
-1711 9 0
-1711 30 0
-1711 48 0
-1711 83 0
1712 -9 -33 -45 -83 0
-1712 9 0
-1712 33 0
-1712 45 0
-1712 83 0
1713 -12 -24 -60 -83 0
-1713 12 0
-1713 24 0
-1713 60 0
-1713 83 0
1714 -12 -27 -48 -83 0
-1714 12 0
-1714 27 0
-1714 48 0
-1714 83 0
1715 -12 -33 -42 -83 0
-1715 12 0
-1715 33 0
-1715 42 0
-1715 83 0
1716 -15 -24 -57 -83 0
-1716 15 0
-1716 24 0
-1716 57 0
-1716 83 0
1717 -15 -27 -45 -83 0
-1717 15 0
-1717 27 0
-1717 45 0
-1717 83 0
1718 -15 -30 -42 -83 0
-1718 15 0
-1718 30 0
-1718 42 0
-1718 83 0
-1704 1705 1706 1707 1708 1709 1710 1711 1712 1713 1714 1715 1716 1717 1718 0
-1705 1704 1706 1707 1708 1709 1710 1711 1712 1713 1714 1715 1716 1717 1718 0
-1706 1704 1705 1707 1708 1709 1710 1711 1712 1713 1714 1715 1716 1717 1718 0
-1707 1704 1705 1706 1708 1709 1710 1711 1712 1713 1714 1715 1716 1717 1718 0
-1708 1704 1705 1706 1707 1709 1710 1711 1712 1713 1714 1715 1716 1717 1718 0
-1709 1704 1705 1706 1707 1708 1710 1711 1712 1713 1714 1715 1716 1717 1718 0
-1710 1704 1705 1706 1707 1708 1709 1711 1712 1713 1714 1715 1716 1717 1718 0
-1711 1704 1705 1706 1707 1708 1709 1710 1712 1713 1714 1715 1716 1717 1718 0
-1712 1704 1705 1706 1707 1708 1709 1710 1711 1713 1714 1715 1716 1717 1718 0
-1713 1704 1705 1706 1707 1708 1709 1710 1711 1712 1714 1715 1716 1717 1718 0
-1714 1704 1705 1706 1707 1708 1709 1710 1711 1712 1713 1715 1716 1717 1718 0
-1715 1704 1705 1706 1707 1708 1709 1710 1711 1712 1713 1714 1716 1717 1718 0
-1716 1704 1705 1706 1707 1708 1709 1710 1711 1712 1713 1714 1715 1717 1718 0
-1717 1704 1705 1706 1707 1708 1709 1710 1711 1712 1713 1714 1715 1716 1718 0
-1718 1704 1705 1706 1707 1708 1709 1710 1711 1712 1713 1714 1715 1716 1717 0
1719 -3 -42 -69 -84 0
-1719 3 0
-1719 42 0
-1719 69 0
-1719 84 0
1720 -3 -42 -72 -81 0
-1720 3 0
-1720 42 0
-1720 72 0
-1720 81 0
1721 -3 -42 -75 -78 0
-1721 3 0
-1721 42 0
-1721 75 0
-1721 78 0
1722 -3 -45 -60 -84 0
-1722 3 0
-1722 45 0
-1722 60 0
-1722 84 0
1723 -3 -45 -63 -81 0
-1723 3 0
-1723 45 0
-1723 63 0
-1723 81 0
1724 -3 -45 -66 -78 0
-1724 3 0
-1724 45 0
-1724 66 0
-1724 78 0
1725 -3 -48 -57 -84 0
-1725 3 0
-1725 48 0
-1725 57 0
-1725 84 0
1726 -3 -48 -63 -75 0
-1726 3 0
-1726 48 0
-1726 63 0
-1726 75 0
1727 -3 -48 -66 -72 0
-1727 3 0
-1727 48 0
-1727 66 0
-1727 72 0
1728 -3 -51 -57 -81 0
-1728 3 0
-1728 51 0
-1728 57 0
-1728 81 0
1729 -3 -51 -60 -75 0
-1729 3 0
-1729 51 0
-1729 60 0
-1729 75 0
1730 -3 -51 -66 -69 0
-1730 3 0
-1730 51 0
-1730 66 0
-1730 69 0
1731 -3 -54 -57 -78 0
-1731 3 0
-1731 54 0
-1731 57 0
-1731 78 0
1732 -3 -54 -60 -72 0
-1732 3 0
-1732 54 0
-1732 60 0
-1732 72 0
1733 -3 -54 -63 -69 0
-1733 3 0
-1733 54 0
-1733 63 0
-1733 69 0
1734 -6 -27 -69 -84 0
-1734 6 0
-1734 27 0
-1734 69 0
-1734 84 0
1735 -6 -27 -72 -81 0
-1735 6 0
-1735 27 0
-1735 72 0
-1735 81 0
1736 -6 -27 -75 -78 0
-1736 6 0
-1736 27 0
-1736 75 0
-1736 78 0
1737 -6 -30 -60 -84 0
-1737 6 0
-1737 30 0
-1737 60 0
-1737 84 0
1738 -6 -30 -63 -81 0
-1738 6 0
-1738 30 0
-1738 63 0
-1738 81 0
1739 -6 -30 -66 -78 0
-1739 6 0
-1739 30 0
-1739 66 0
-1739 78 0
1740 -6 -33 -57 -84 0
-1740 6 0
-1740 33 0
-1740 57 0
-1740 84 0
1741 -6 -33 -63 -75 0
-1741 6 0
-1741 33 0
-1741 63 0
-1741 75 0
1742 -6 -33 -66 -72 0
-1742 6 0
-1742 33 0
-1742 66 0
-1742 72 0
1743 -6 -36 -57 -81 0
-1743 6 0
-1743 36 0
-1743 57 0
-1743 81 0
1744 -6 -36 -60 -75 0
-1744 6 0
-1744 36 0
-1744 60 0
-1744 75 0
1745 -6 -36 -66 -69 0
-1745 6 0
-1745 36 0
-1745 66 0
-1745 69 0
1746 -6 -39 -57 -78 0
-1746 6 0
-1746 39 0
-1746 57 0
-1746 78 0
1747 -6 -39 -60 -72 0
-1747 6 0
-1747 39 0
-1747 60 0
-1747 72 0
1748 -6 -39 -63 -69 0
-1748 6 0
-1748 39 0
-1748 63 0
-1748 69 0
1749 -9 -24 -69 -84 0
-1749 9 0
-1749 24 0
-1749 69 0
-1749 84 0
1750 -9 -24 -72 -81 0
-1750 9 0
-1750 24 0
-1750 72 0
-1750 81 0
1751 -9 -24 -75 -78 0
-1751 9 0
-1751 24 0
-1751 75 0
-1751 78 0
1752 -9 -30 -48 -84 0
-1752 9 0
-1752 30 0
-1752 48 0
-1752 84 0
1753 -9 -30 -51 -81 0
-1753 9 0
-1753 30 0
-1753 51 0
-1753 81 0
1754 -9 -30 -54 -78 0
-1754 9 0
-1754 30 0
-1754 54 0
-1754 78 0
1755 -9 -33 -45 -84 0
-1755 9 0
-1755 33 0
-1755 45 0
-1755 84 0
1756 -9 -33 -51 -75 0
-1756 9 0
-1756 33 0
-1756 51 0
-1756 75 0
1757 -9 -33 -54 -72 0
-1757 9 0
-1757 33 0
-1757 54 0
-1757 72 0
1758 -9 -36 -45 -81 0
-1758 9 0
-1758 36 0
-1758 45 0
-1758 81 0
1759 -9 -36 -48 -75 0
-1759 9 0
-1759 36 0
-1759 48 0
-1759 75 0
1760 -9 -36 -54 -69 0
-1760 9 0
-1760 36 0
-1760 54 0
-1760 69 0
1761 -9 -39 -45 -78 0
-1761 9 0
-1761 39 0
-1761 45 0
-1761 78 0
1762 -9 -39 -48 -72 0
-1762 9 0
-1762 39 0
-1762 48 0
-1762 72 0
1763 -9 -39 -51 -69 0
-1763 9 0
-1763 39 0
-1763 51 0
-1763 69 0
1764 -12 -24 -60 -84 0
-1764 12 0
-1764 24 0
-1764 60 0
-1764 84 0
1765 -12 -24 -63 -81 0
-1765 12 0
-1765 24 0
-1765 63 0
-1765 81 0
1766 -12 -24 -66 -78 0
-1766 12 0
-1766 24 0
-1766 66 0
-1766 78 0
1767 -12 -27 -48 -84 0
-1767 12 0
-1767 27 0
-1767 48 0
-1767 84 0
1768 -12 -27 -51 -81 0
-1768 12 0
-1768 27 0
-1768 51 0
-1768 81 0
1769 -12 -27 -54 -78 0
-1769 12 0
-1769 27 0
-1769 54 0
-1769 78 0
1770 -12 -33 -42 -84 0
-1770 12 0
-1770 33 0
-1770 42 0
-1770 84 0
1771 -12 -33 -51 -66 0
-1771 12 0
-1771 33 0
-1771 51 0
-1771 66 0
1772 -12 -33 -54 -63 0
-1772 12 0
-1772 33 0
-1772 54 0
-1772 63 0
1773 -12 -36 -42 -81 0
-1773 12 0
-1773 36 0
-1773 42 0
-1773 81 0
1774 -12 -36 -48 -66 0
-1774 12 0
-1774 36 0
-1774 48 0
-1774 66 0
1775 -12 -36 -54 -60 0
-1775 12 0
-1775 36 0
-1775 54 0
-1775 60 0
1776 -12 -39 -42 -78 0
-1776 12 0
-1776 39 0
-1776 42 0
-1776 78 0
1777 -12 -39 -48 -63 0
-1777 12 0
-1777 39 0
-1777 48 0
-1777 63 0
1778 -12 -39 -51 -60 0
-1778 12 0
-1778 39 0
-1778 51 0
-1778 60 0
1779 -15 -24 -57 -84 0
-1779 15 0
-1779 24 0
-1779 57 0
-1779 84 0
1780 -15 -24 -63 -75 0
-1780 15 0
-1780 24 0
-1780 63 0
-1780 75 0
1781 -15 -24 -66 -72 0
-1781 15 0
-1781 24 0
-1781 66 0
-1781 72 0
1782 -15 -27 -45 -84 0
-1782 15 0
-1782 27 0
-1782 45 0
-1782 84 0
1783 -15 -27 -51 -75 0
-1783 15 0
-1783 27 0
-1783 51 0
-1783 75 0
1784 -15 -27 -54 -72 0
-1784 15 0
-1784 27 0
-1784 54 0
-1784 72 0
1785 -15 -30 -42 -84 0
-1785 15 0
-1785 30 0
-1785 42 0
-1785 84 0
1786 -15 -30 -51 -66 0
-1786 15 0
-1786 30 0
-1786 51 0
-1786 66 0
1787 -15 -30 -54 -63 0
-1787 15 0
-1787 30 0
-1787 54 0
-1787 63 0
1788 -15 -36 -42 -75 0
-1788 15 0
-1788 36 0
-1788 42 0
-1788 75 0
1789 -15 -36 -45 -66 0
-1789 15 0
-1789 36 0
-1789 45 0
-1789 66 0
1790 -15 -36 -54 -57 0
-1790 15 0
-1790 36 0
-1790 54 0
-1790 57 0
1791 -15 -39 -42 -72 0
-1791 15 0
-1791 39 0
-1791 42 0
-1791 72 0
1792 -15 -39 -45 -63 0
-1792 15 0
-1792 39 0
-1792 45 0
-1792 63 0
1793 -15 -39 -51 -57 0
-1793 15 0
-1793 39 0
-1793 51 0
-1793 57 0
1794 -18 -24 -57 -81 0
-1794 18 0
-1794 24 0
-1794 57 0
-1794 81 0
1795 -18 -24 -60 -75 0
-1795 18 0
-1795 24 0
-1795 60 0
-1795 75 0
1796 -18 -24 -66 -69 0
-1796 18 0
-1796 24 0
-1796 66 0
-1796 69 0
1797 -18 -27 -45 -81 0
-1797 18 0
-1797 27 0
-1797 45 0
-1797 81 0
1798 -18 -27 -48 -75 0
-1798 18 0
-1798 27 0
-1798 48 0
-1798 75 0
1799 -18 -27 -54 -69 0
-1799 18 0
-1799 27 0
-1799 54 0
-1799 69 0
1800 -18 -30 -42 -81 0
-1800 18 0
-1800 30 0
-1800 42 0
-1800 81 0
1801 -18 -30 -48 -66 0
-1801 18 0
-1801 30 0
-1801 48 0
-1801 66 0
1802 -18 -30 -54 -60 0
-1802 18 0
-1802 30 0
-1802 54 0
-1802 60 0
1803 -18 -33 -42 -75 0
-1803 18 0
-1803 33 0
-1803 42 0
-1803 75 0
1804 -18 -33 -45 -66 0
-1804 18 0
-1804 33 0
-1804 45 0
-1804 66 0
1805 -18 -33 -54 -57 0
-1805 18 0
-1805 33 0
-1805 54 0
-1805 57 0
1806 -18 -39 -42 -69 0
-1806 18 0
-1806 39 0
-1806 42 0
-1806 69 0
1807 -18 -39 -45 -60 0
-1807 18 0
-1807 39 0
-1807 45 0
-1807 60 0
1808 -18 -39 -48 -57 0
-1808 18 0
-1808 39 0
-1808 48 0
-1808 57 0
1809 -21 -24 -57 -78 0
-1809 21 0
-1809 24 0
-1809 57 0
-1809 78 0
1810 -21 -24 -60 -72 0
-1810 21 0
-1810 24 0
-1810 60 0
-1810 72 0
1811 -21 -24 -63 -69 0
-1811 21 0
-1811 24 0
-1811 63 0
-1811 69 0
1812 -21 -27 -45 -78 0
-1812 21 0
-1812 27 0
-1812 45 0
-1812 78 0
1813 -21 -27 -48 -72 0
-1813 21 0
-1813 27 0
-1813 48 0
-1813 72 0
1814 -21 -27 -51 -69 0
-1814 21 0
-1814 27 0
-1814 51 0
-1814 69 0
1815 -21 -30 -42 -78 0
-1815 21 0
-1815 30 0
-1815 42 0
-1815 78 0
1816 -21 -30 -48 -63 0
-1816 21 0
-1816 30 0
-1816 48 0
-1816 63 0
1817 -21 -30 -51 -60 0
-1817 21 0
-1817 30 0
-1817 51 0
-1817 60 0
1818 -21 -33 -42 -72 0
-1818 21 0
-1818 33 0
-1818 42 0
-1818 72 0
1819 -21 -33 -45 -63 0
-1819 21 0
-1819 33 0
-1819 45 0
-1819 63 0
1820 -21 -33 -51 -57 0
-1820 21 0
-1820 33 0
-1820 51 0
-1820 57 0
1821 -21 -36 -42 -69 0
-1821 21 0
-1821 36 0
-1821 42 0
-1821 69 0
1822 -21 -36 -45 -60 0
-1822 21 0
-1822 36 0
-1822 45 0
-1822 60 0
1823 -21 -36 -48 -57 0
-1823 21 0
-1823 36 0
-1823 48 0
-1823 57 0
1719 1720 1721 1722 1723 1724 1725 1726 1727 1728 1729 1730 1731 1732 1733 1734 1735 1736 1737 1738 1739 1740 1741 1742 1743 1744 1745 1746 1747 1748 1749 1750 1751 1752 1753 1754 1755 1756 1757 1758 1759 1760 1761 1762 1763 1764 1765 1766 1767 1768 1769 1770 1771 1772 1773 1774 1775 1776 1777 1778 1779 1780 1781 1782 1783 1784 1785 1786 1787 1788 1789 1790 1791 1792 1793 1794 1795 1796 1797 1798 1799 1800 1801 1802 1803 1804 1805 1806 1807 1808 1809 1810 1811 1812 1813 1814 1815 1816 1817 1818 1819 1820 1821 1822 1823 0
1824 -1 -40 -70 -80 0
-1824 1 0
-1824 40 0
-1824 70 0
-1824 80 0
1825 -1 -43 -61 -80 0
-1825 1 0
-1825 43 0
-1825 61 0
-1825 80 0
1826 -1 -49 -55 -80 0
-1826 1 0
-1826 49 0
-1826 55 0
-1826 80 0
1827 -4 -25 -70 -80 0
-1827 4 0
-1827 25 0
-1827 70 0
-1827 80 0
1828 -4 -28 -61 -80 0
-1828 4 0
-1828 28 0
-1828 61 0
-1828 80 0
1829 -4 -34 -55 -80 0
-1829 4 0
-1829 34 0
-1829 55 0
-1829 80 0
1830 -7 -22 -70 -80 0
-1830 7 0
-1830 22 0
-1830 70 0
-1830 80 0
1831 -7 -28 -49 -80 0
-1831 7 0
-1831 28 0
-1831 49 0
-1831 80 0
1832 -7 -34 -43 -80 0
-1832 7 0
-1832 34 0
-1832 43 0
-1832 80 0
1833 -10 -22 -61 -80 0
-1833 10 0
-1833 22 0
-1833 61 0
-1833 80 0
1834 -10 -25 -49 -80 0
-1834 10 0
-1834 25 0
-1834 49 0
-1834 80 0
1835 -10 -34 -40 -80 0
-1835 10 0
-1835 34 0
-1835 40 0
-1835 80 0
1836 -16 -22 -55 -80 0
-1836 16 0
-1836 22 0
-1836 55 0
-1836 80 0
1837 -16 -25 -43 -80 0
-1837 16 0
-1837 25 0
-1837 43 0
-1837 80 0
1838 -16 -28 -40 -80 0
-1838 16 0
-1838 28 0
-1838 40 0
-1838 80 0
-1824 1825 1826 1827 1828 1829 1830 1831 1832 1833 1834 1835 1836 1837 1838 0
-1825 1824 1826 1827 1828 1829 1830 1831 1832 1833 1834 1835 1836 1837 1838 0
-1826 1824 1825 1827 1828 1829 1830 1831 1832 1833 1834 1835 1836 1837 1838 0
-1827 1824 1825 1826 1828 1829 1830 1831 1832 1833 1834 1835 1836 1837 1838 0
-1828 1824 1825 1826 1827 1829 1830 1831 1832 1833 1834 1835 1836 1837 1838 0
-1829 1824 1825 1826 1827 1828 1830 1831 1832 1833 1834 1835 1836 1837 1838 0
-1830 1824 1825 1826 1827 1828 1829 1831 1832 1833 1834 1835 1836 1837 1838 0
-1831 1824 1825 1826 1827 1828 1829 1830 1832 1833 1834 1835 1836 1837 1838 0
-1832 1824 1825 1826 1827 1828 1829 1830 1831 1833 1834 1835 1836 1837 1838 0
-1833 1824 1825 1826 1827 1828 1829 1830 1831 1832 1834 1835 1836 1837 1838 0
-1834 1824 1825 1826 1827 1828 1829 1830 1831 1832 1833 1835 1836 1837 1838 0
-1835 1824 1825 1826 1827 1828 1829 1830 1831 1832 1833 1834 1836 1837 1838 0
-1836 1824 1825 1826 1827 1828 1829 1830 1831 1832 1833 1834 1835 1837 1838 0
-1837 1824 1825 1826 1827 1828 1829 1830 1831 1832 1833 1834 1835 1836 1838 0
-1838 1824 1825 1826 1827 1828 1829 1830 1831 1832 1833 1834 1835 1836 1837 0
1839 -1 -40 -70 -81 0
-1839 1 0
-1839 40 0
-1839 70 0
-1839 81 0
1840 -1 -43 -61 -81 0
-1840 1 0
-1840 43 0
-1840 61 0
-1840 81 0
1841 -1 -49 -55 -81 0
-1841 1 0
-1841 49 0
-1841 55 0
-1841 81 0
1842 -4 -25 -70 -81 0
-1842 4 0
-1842 25 0
-1842 70 0
-1842 81 0
1843 -4 -28 -61 -81 0
-1843 4 0
-1843 28 0
-1843 61 0
-1843 81 0
1844 -4 -34 -55 -81 0
-1844 4 0
-1844 34 0
-1844 55 0
-1844 81 0
1845 -7 -22 -70 -81 0
-1845 7 0
-1845 22 0
-1845 70 0
-1845 81 0
1846 -7 -28 -49 -81 0
-1846 7 0
-1846 28 0
-1846 49 0
-1846 81 0
1847 -7 -34 -43 -81 0
-1847 7 0
-1847 34 0
-1847 43 0
-1847 81 0
1848 -10 -22 -61 -81 0
-1848 10 0
-1848 22 0
-1848 61 0
-1848 81 0
1849 -10 -25 -49 -81 0
-1849 10 0
-1849 25 0
-1849 49 0
-1849 81 0
1850 -10 -34 -40 -81 0
-1850 10 0
-1850 34 0
-1850 40 0
-1850 81 0
1851 -16 -22 -55 -81 0
-1851 16 0
-1851 22 0
-1851 55 0
-1851 81 0
1852 -16 -25 -43 -81 0
-1852 16 0
-1852 25 0
-1852 43 0
-1852 81 0
1853 -16 -28 -40 -81 0
-1853 16 0
-1853 28 0
-1853 40 0
-1853 81 0
-1839 1840 1841 1842 1843 1844 1845 1846 1847 1848 1849 1850 1851 1852 1853 0
-1840 1839 1841 1842 1843 1844 1845 1846 1847 1848 1849 1850 1851 1852 1853 0
-1841 1839 1840 1842 1843 1844 1845 1846 1847 1848 1849 1850 1851 1852 1853 0
-1842 1839 1840 1841 1843 1844 1845 1846 1847 1848 1849 1850 1851 1852 1853 0
-1843 1839 1840 1841 1842 1844 1845 1846 1847 1848 1849 1850 1851 1852 1853 0
-1844 1839 1840 1841 1842 1843 1845 1846 1847 1848 1849 1850 1851 1852 1853 0
-1845 1839 1840 1841 1842 1843 1844 1846 1847 1848 1849 1850 1851 1852 1853 0
-1846 1839 1840 1841 1842 1843 1844 1845 1847 1848 1849 1850 1851 1852 1853 0
-1847 1839 1840 1841 1842 1843 1844 1845 1846 1848 1849 1850 1851 1852 1853 0
-1848 1839 1840 1841 1842 1843 1844 1845 1846 1847 1849 1850 1851 1852 1853 0
-1849 1839 1840 1841 1842 1843 1844 1845 1846 1847 1848 1850 1851 1852 1853 0
-1850 1839 1840 1841 1842 1843 1844 1845 1846 1847 1848 1849 1851 1852 1853 0
-1851 1839 1840 1841 1842 1843 1844 1845 1846 1847 1848 1849 1850 1852 1853 0
-1852 1839 1840 1841 1842 1843 1844 1845 1846 1847 1848 1849 1850 1851 1853 0
-1853 1839 1840 1841 1842 1843 1844 1845 1846 1847 1848 1849 1850 1851 1852 0
1854 -1 -40 -71 -79 0
-1854 1 0
-1854 40 0
-1854 71 0
-1854 79 0
1855 -1 -46 -64 -71 0
-1855 1 0
-1855 46 0
-1855 64 0
-1855 71 0
1856 -1 -52 -58 -71 0
-1856 1 0
-1856 52 0
-1856 58 0
-1856 71 0
1857 -4 -25 -71 -79 0
-1857 4 0
-1857 25 0
-1857 71 0
-1857 79 0
1858 -4 -31 -64 -71 0
-1858 4 0
-1858 31 0
-1858 64 0
-1858 71 0
1859 -4 -37 -58 -71 0
-1859 4 0
-1859 37 0
-1859 58 0
-1859 71 0
1860 -7 -22 -71 -79 0
-1860 7 0
-1860 22 0
-1860 71 0
-1860 79 0
1861 -7 -31 -52 -71 0
-1861 7 0
-1861 31 0
-1861 52 0
-1861 71 0
1862 -7 -37 -46 -71 0
-1862 7 0
-1862 37 0
-1862 46 0
-1862 71 0
1863 -13 -22 -64 -71 0
-1863 13 0
-1863 22 0
-1863 64 0
-1863 71 0
1864 -13 -25 -52 -71 0
-1864 13 0
-1864 25 0
-1864 52 0
-1864 71 0
1865 -13 -37 -40 -71 0
-1865 13 0
-1865 37 0
-1865 40 0
-1865 71 0
1866 -19 -22 -58 -71 0
-1866 19 0
-1866 22 0
-1866 58 0
-1866 71 0
1867 -19 -25 -46 -71 0
-1867 19 0
-1867 25 0
-1867 46 0
-1867 71 0
1868 -19 -31 -40 -71 0
-1868 19 0
-1868 31 0
-1868 40 0
-1868 71 0
-1854 1855 1856 1857 1858 1859 1860 1861 1862 1863 1864 1865 1866 1867 1868 0
-1855 1854 1856 1857 1858 1859 1860 1861 1862 1863 1864 1865 1866 1867 1868 0
-1856 1854 1855 1857 1858 1859 1860 1861 1862 1863 1864 1865 1866 1867 1868 0
-1857 1854 1855 1856 1858 1859 1860 1861 1862 1863 1864 1865 1866 1867 1868 0
-1858 1854 1855 1856 1857 1859 1860 1861 1862 1863 1864 1865 1866 1867 1868 0
-1859 1854 1855 1856 1857 1858 1860 1861 1862 1863 1864 1865 1866 1867 1868 0
-1860 1854 1855 1856 1857 1858 1859 1861 1862 1863 1864 1865 1866 1867 1868 0
-1861 1854 1855 1856 1857 1858 1859 1860 1862 1863 1864 1865 1866 1867 1868 0
-1862 1854 1855 1856 1857 1858 1859 1860 1861 1863 1864 1865 1866 1867 1868 0
-1863 1854 1855 1856 1857 1858 1859 1860 1861 1862 1864 1865 1866 1867 1868 0
-1864 1854 1855 1856 1857 1858 1859 1860 1861 1862 1863 1865 1866 1867 1868 0
-1865 1854 1855 1856 1857 1858 1859 1860 1861 1862 1863 1864 1866 1867 1868 0
-1866 1854 1855 1856 1857 1858 1859 1860 1861 1862 1863 1864 1865 1867 1868 0
-1867 1854 1855 1856 1857 1858 1859 1860 1861 1862 1863 1864 1865 1866 1868 0
-1868 1854 1855 1856 1857 1858 1859 1860 1861 1862 1863 1864 1865 1866 1867 0
1869 -1 -40 -71 -81 0
-1869 1 0
-1869 40 0
-1869 71 0
-1869 81 0
1870 -4 -25 -71 -81 0
-1870 4 0
-1870 25 0
-1870 71 0
-1870 81 0
1871 -7 -22 -71 -81 0
-1871 7 0
-1871 22 0
-1871 71 0
-1871 81 0
-1869 1870 1871 0
-1870 1869 1871 0
-1871 1869 1870 0
1872 -1 -40 -72 -79 0
-1872 1 0
-1872 40 0
-1872 72 0
-1872 79 0
1873 -1 -46 -64 -72 0
-1873 1 0
-1873 46 0
-1873 64 0
-1873 72 0
1874 -1 -52 -58 -72 0
-1874 1 0
-1874 52 0
-1874 58 0
-1874 72 0
1875 -4 -25 -72 -79 0
-1875 4 0
-1875 25 0
-1875 72 0
-1875 79 0
1876 -4 -31 -64 -72 0
-1876 4 0
-1876 31 0
-1876 64 0
-1876 72 0
1877 -4 -37 -58 -72 0
-1877 4 0
-1877 37 0
-1877 58 0
-1877 72 0
1878 -7 -22 -72 -79 0
-1878 7 0
-1878 22 0
-1878 72 0
-1878 79 0
1879 -7 -31 -52 -72 0
-1879 7 0
-1879 31 0
-1879 52 0
-1879 72 0
1880 -7 -37 -46 -72 0
-1880 7 0
-1880 37 0
-1880 46 0
-1880 72 0
1881 -13 -22 -64 -72 0
-1881 13 0
-1881 22 0
-1881 64 0
-1881 72 0
1882 -13 -25 -52 -72 0
-1882 13 0
-1882 25 0
-1882 52 0
-1882 72 0
1883 -13 -37 -40 -72 0
-1883 13 0
-1883 37 0
-1883 40 0
-1883 72 0
1884 -19 -22 -58 -72 0
-1884 19 0
-1884 22 0
-1884 58 0
-1884 72 0
1885 -19 -25 -46 -72 0
-1885 19 0
-1885 25 0
-1885 46 0
-1885 72 0
1886 -19 -31 -40 -72 0
-1886 19 0
-1886 31 0
-1886 40 0
-1886 72 0
-1872 1873 1874 1875 1876 1877 1878 1879 1880 1881 1882 1883 1884 1885 1886 0
-1873 1872 1874 1875 1876 1877 1878 1879 1880 1881 1882 1883 1884 1885 1886 0
-1874 1872 1873 1875 1876 1877 1878 1879 1880 1881 1882 1883 1884 1885 1886 0
-1875 1872 1873 1874 1876 1877 1878 1879 1880 1881 1882 1883 1884 1885 1886 0
-1876 1872 1873 1874 1875 1877 1878 1879 1880 1881 1882 1883 1884 1885 1886 0
-1877 1872 1873 1874 1875 1876 1878 1879 1880 1881 1882 1883 1884 1885 1886 0
-1878 1872 1873 1874 1875 1876 1877 1879 1880 1881 1882 1883 1884 1885 1886 0
-1879 1872 1873 1874 1875 1876 1877 1878 1880 1881 1882 1883 1884 1885 1886 0
-1880 1872 1873 1874 1875 1876 1877 1878 1879 1881 1882 1883 1884 1885 1886 0
-1881 1872 1873 1874 1875 1876 1877 1878 1879 1880 1882 1883 1884 1885 1886 0
-1882 1872 1873 1874 1875 1876 1877 1878 1879 1880 1881 1883 1884 1885 1886 0
-1883 1872 1873 1874 1875 1876 1877 1878 1879 1880 1881 1882 1884 1885 1886 0
-1884 1872 1873 1874 1875 1876 1877 1878 1879 1880 1881 1882 1883 1885 1886 0
-1885 1872 1873 1874 1875 1876 1877 1878 1879 1880 1881 1882 1883 1884 1886 0
-1886 1872 1873 1874 1875 1876 1877 1878 1879 1880 1881 1882 1883 1884 1885 0
1887 -1 -40 -72 -80 0
-1887 1 0
-1887 40 0
-1887 72 0
-1887 80 0
1888 -4 -25 -72 -80 0
-1888 4 0
-1888 25 0
-1888 72 0
-1888 80 0
1889 -7 -22 -72 -80 0
-1889 7 0
-1889 22 0
-1889 72 0
-1889 80 0
-1887 1888 1889 0
-1888 1887 1889 0
-1889 1887 1888 0
1890 -1 -41 -70 -80 0
-1890 1 0
-1890 41 0
-1890 70 0
-1890 80 0
1891 -1 -47 -65 -70 0
-1891 1 0
-1891 47 0
-1891 65 0
-1891 70 0
1892 -1 -53 -59 -70 0
-1892 1 0
-1892 53 0
-1892 59 0
-1892 70 0
1893 -10 -34 -41 -80 0
-1893 10 0
-1893 34 0
-1893 41 0
-1893 80 0
1894 -10 -34 -47 -65 0
-1894 10 0
-1894 34 0
-1894 47 0
-1894 65 0
1895 -10 -34 -53 -59 0
-1895 10 0
-1895 34 0
-1895 53 0
-1895 59 0
1896 -16 -28 -41 -80 0
-1896 16 0
-1896 28 0
-1896 41 0
-1896 80 0
1897 -16 -28 -47 -65 0
-1897 16 0
-1897 28 0
-1897 47 0
-1897 65 0
1898 -16 -28 -53 -59 0
-1898 16 0
-1898 28 0
-1898 53 0
-1898 59 0
-1890 1891 1892 1893 1894 1895 1896 1897 1898 0
-1891 1890 1892 1893 1894 1895 1896 1897 1898 0
-1892 1890 1891 1893 1894 1895 1896 1897 1898 0
-1893 1890 1891 1892 1894 1895 1896 1897 1898 0
-1894 1890 1891 1892 1893 1895 1896 1897 1898 0
-1895 1890 1891 1892 1893 1894 1896 1897 1898 0
-1896 1890 1891 1892 1893 1894 1895 1897 1898 0
-1897 1890 1891 1892 1893 1894 1895 1896 1898 0
-1898 1890 1891 1892 1893 1894 1895 1896 1897 0
1899 -1 -41 -70 -81 0
-1899 1 0
-1899 41 0
-1899 70 0
-1899 81 0
1900 -10 -34 -41 -81 0
-1900 10 0
-1900 34 0
-1900 41 0
-1900 81 0
1901 -16 -28 -41 -81 0
-1901 16 0
-1901 28 0
-1901 41 0
-1901 81 0
-1899 1900 1901 0
-1900 1899 1901 0
-1901 1899 1900 0
1902 -1 -41 -71 -79 0
-1902 1 0
-1902 41 0
-1902 71 0
-1902 79 0
1903 -1 -44 -62 -79 0
-1903 1 0
-1903 44 0
-1903 62 0
-1903 79 0
1904 -1 -50 -56 -79 0
-1904 1 0
-1904 50 0
-1904 56 0
-1904 79 0
1905 -13 -37 -41 -71 0
-1905 13 0
-1905 37 0
-1905 41 0
-1905 71 0
1906 -13 -37 -44 -62 0
-1906 13 0
-1906 37 0
-1906 44 0
-1906 62 0
1907 -13 -37 -50 -56 0
-1907 13 0
-1907 37 0
-1907 50 0
-1907 56 0
1908 -19 -31 -41 -71 0
-1908 19 0
-1908 31 0
-1908 41 0
-1908 71 0
1909 -19 -31 -44 -62 0
-1909 19 0
-1909 31 0
-1909 44 0
-1909 62 0
1910 -19 -31 -50 -56 0
-1910 19 0
-1910 31 0
-1910 50 0
-1910 56 0
-1902 1903 1904 1905 1906 1907 1908 1909 1910 0
-1903 1902 1904 1905 1906 1907 1908 1909 1910 0
-1904 1902 1903 1905 1906 1907 1908 1909 1910 0
-1905 1902 1903 1904 1906 1907 1908 1909 1910 0
-1906 1902 1903 1904 1905 1907 1908 1909 1910 0
-1907 1902 1903 1904 1905 1906 1908 1909 1910 0
-1908 1902 1903 1904 1905 1906 1907 1909 1910 0
-1909 1902 1903 1904 1905 1906 1907 1908 1910 0
-1910 1902 1903 1904 1905 1906 1907 1908 1909 0
1911 -1 -41 -71 -81 0
-1911 1 0
-1911 41 0
-1911 71 0
-1911 81 0
1912 -1 -44 -62 -81 0
-1912 1 0
-1912 44 0
-1912 62 0
-1912 81 0
1913 -1 -50 -56 -81 0
-1913 1 0
-1913 50 0
-1913 56 0
-1913 81 0
-1911 1912 1913 0
-1912 1911 1913 0
-1913 1911 1912 0
1914 -1 -41 -72 -79 0
-1914 1 0
-1914 41 0
-1914 72 0
-1914 79 0
1915 -13 -37 -41 -72 0
-1915 13 0
-1915 37 0
-1915 41 0
-1915 72 0
1916 -19 -31 -41 -72 0
-1916 19 0
-1916 31 0
-1916 41 0
-1916 72 0
-1914 1915 1916 0
-1915 1914 1916 0
-1916 1914 1915 0
1917 -1 -41 -72 -80 0
-1917 1 0
-1917 41 0
-1917 72 0
-1917 80 0
1918 -1 -47 -65 -72 0
-1918 1 0
-1918 47 0
-1918 65 0
-1918 72 0
1919 -1 -53 -59 -72 0
-1919 1 0
-1919 53 0
-1919 59 0
-1919 72 0
-1917 1918 1919 0
-1918 1917 1919 0
-1919 1917 1918 0
1920 -1 -42 -70 -80 0
-1920 1 0
-1920 42 0
-1920 70 0
-1920 80 0
1921 -10 -34 -42 -80 0
-1921 10 0
-1921 34 0
-1921 42 0
-1921 80 0
1922 -16 -28 -42 -80 0
-1922 16 0
-1922 28 0
-1922 42 0
-1922 80 0
-1920 1921 1922 0
-1921 1920 1922 0
-1922 1920 1921 0
1923 -1 -42 -70 -81 0
-1923 1 0
-1923 42 0
-1923 70 0
-1923 81 0
1924 -1 -48 -66 -70 0
-1924 1 0
-1924 48 0
-1924 66 0
-1924 70 0
1925 -1 -54 -60 -70 0
-1925 1 0
-1925 54 0
-1925 60 0
-1925 70 0
1926 -10 -34 -42 -81 0
-1926 10 0
-1926 34 0
-1926 42 0
-1926 81 0
1927 -10 -34 -48 -66 0
-1927 10 0
-1927 34 0
-1927 48 0
-1927 66 0
1928 -10 -34 -54 -60 0
-1928 10 0
-1928 34 0
-1928 54 0
-1928 60 0
1929 -16 -28 -42 -81 0
-1929 16 0
-1929 28 0
-1929 42 0
-1929 81 0
1930 -16 -28 -48 -66 0
-1930 16 0
-1930 28 0
-1930 48 0
-1930 66 0
1931 -16 -28 -54 -60 0
-1931 16 0
-1931 28 0
-1931 54 0
-1931 60 0
-1923 1924 1925 1926 1927 1928 1929 1930 1931 0
-1924 1923 1925 1926 1927 1928 1929 1930 1931 0
-1925 1923 1924 1926 1927 1928 1929 1930 1931 0
-1926 1923 1924 1925 1927 1928 1929 1930 1931 0
-1927 1923 1924 1925 1926 1928 1929 1930 1931 0
-1928 1923 1924 1925 1926 1927 1929 1930 1931 0
-1929 1923 1924 1925 1926 1927 1928 1930 1931 0
-1930 1923 1924 1925 1926 1927 1928 1929 1931 0
-1931 1923 1924 1925 1926 1927 1928 1929 1930 0
1932 -1 -42 -71 -79 0
-1932 1 0
-1932 42 0
-1932 71 0
-1932 79 0
1933 -13 -37 -42 -71 0
-1933 13 0
-1933 37 0
-1933 42 0
-1933 71 0
1934 -19 -31 -42 -71 0
-1934 19 0
-1934 31 0
-1934 42 0
-1934 71 0
-1932 1933 1934 0
-1933 1932 1934 0
-1934 1932 1933 0
1935 -1 -42 -71 -81 0
-1935 1 0
-1935 42 0
-1935 71 0
-1935 81 0
1936 -1 -48 -66 -71 0
-1936 1 0
-1936 48 0
-1936 66 0
-1936 71 0
1937 -1 -54 -60 -71 0
-1937 1 0
-1937 54 0
-1937 60 0
-1937 71 0
-1935 1936 1937 0
-1936 1935 1937 0
-1937 1935 1936 0
1938 -1 -42 -72 -79 0
-1938 1 0
-1938 42 0
-1938 72 0
-1938 79 0
1939 -1 -45 -63 -79 0
-1939 1 0
-1939 45 0
-1939 63 0
-1939 79 0
1940 -1 -51 -57 -79 0
-1940 1 0
-1940 51 0
-1940 57 0
-1940 79 0
1941 -13 -37 -42 -72 0
-1941 13 0
-1941 37 0
-1941 42 0
-1941 72 0
1942 -13 -37 -45 -63 0
-1942 13 0
-1942 37 0
-1942 45 0
-1942 63 0
1943 -13 -37 -51 -57 0
-1943 13 0
-1943 37 0
-1943 51 0
-1943 57 0
1944 -19 -31 -42 -72 0
-1944 19 0
-1944 31 0
-1944 42 0
-1944 72 0
1945 -19 -31 -45 -63 0
-1945 19 0
-1945 31 0
-1945 45 0
-1945 63 0
1946 -19 -31 -51 -57 0
-1946 19 0
-1946 31 0
-1946 51 0
-1946 57 0
-1938 1939 1940 1941 1942 1943 1944 1945 1946 0
-1939 1938 1940 1941 1942 1943 1944 1945 1946 0
-1940 1938 1939 1941 1942 1943 1944 1945 1946 0
-1941 1938 1939 1940 1942 1943 1944 1945 1946 0
-1942 1938 1939 1940 1941 1943 1944 1945 1946 0
-1943 1938 1939 1940 1941 1942 1944 1945 1946 0
-1944 1938 1939 1940 1941 1942 1943 1945 1946 0
-1945 1938 1939 1940 1941 1942 1943 1944 1946 0
-1946 1938 1939 1940 1941 1942 1943 1944 1945 0
1947 -1 -42 -72 -80 0
-1947 1 0
-1947 42 0
-1947 72 0
-1947 80 0
1948 -1 -45 -63 -80 0
-1948 1 0
-1948 45 0
-1948 63 0
-1948 80 0
1949 -1 -51 -57 -80 0
-1949 1 0
-1949 51 0
-1949 57 0
-1949 80 0
-1947 1948 1949 0
-1948 1947 1949 0
-1949 1947 1948 0
1950 -2 -40 -70 -80 0
-1950 2 0
-1950 40 0
-1950 70 0
-1950 80 0
1951 -2 -43 -61 -80 0
-1951 2 0
-1951 43 0
-1951 61 0
-1951 80 0
1952 -2 -49 -55 -80 0
-1952 2 0
-1952 49 0
-1952 55 0
-1952 80 0
1953 -14 -38 -40 -70 0
-1953 14 0
-1953 38 0
-1953 40 0
-1953 70 0
1954 -14 -38 -43 -61 0
-1954 14 0
-1954 38 0
-1954 43 0
-1954 61 0
1955 -14 -38 -49 -55 0
-1955 14 0
-1955 38 0
-1955 49 0
-1955 55 0
1956 -20 -32 -40 -70 0
-1956 20 0
-1956 32 0
-1956 40 0
-1956 70 0
1957 -20 -32 -43 -61 0
-1957 20 0
-1957 32 0
-1957 43 0
-1957 61 0
1958 -20 -32 -49 -55 0
-1958 20 0
-1958 32 0
-1958 49 0
-1958 55 0
-1950 1951 1952 1953 1954 1955 1956 1957 1958 0
-1951 1950 1952 1953 1954 1955 1956 1957 1958 0
-1952 1950 1951 1953 1954 1955 1956 1957 1958 0
-1953 1950 1951 1952 1954 1955 1956 1957 1958 0
-1954 1950 1951 1952 1953 1955 1956 1957 1958 0
-1955 1950 1951 1952 1953 1954 1956 1957 1958 0
-1956 1950 1951 1952 1953 1954 1955 1957 1958 0
-1957 1950 1951 1952 1953 1954 1955 1956 1958 0
-1958 1950 1951 1952 1953 1954 1955 1956 1957 0
1959 -2 -40 -70 -81 0
-1959 2 0
-1959 40 0
-1959 70 0
-1959 81 0
1960 -2 -43 -61 -81 0
-1960 2 0
-1960 43 0
-1960 61 0
-1960 81 0
1961 -2 -49 -55 -81 0
-1961 2 0
-1961 49 0
-1961 55 0
-1961 81 0
-1959 1960 1961 0
-1960 1959 1961 0
-1961 1959 1960 0
1962 -2 -40 -71 -79 0
-1962 2 0
-1962 40 0
-1962 71 0
-1962 79 0
1963 -2 -46 -64 -71 0
-1963 2 0
-1963 46 0
-1963 64 0
-1963 71 0
1964 -2 -52 -58 -71 0
-1964 2 0
-1964 52 0
-1964 58 0
-1964 71 0
1965 -11 -35 -40 -79 0
-1965 11 0
-1965 35 0
-1965 40 0
-1965 79 0
1966 -11 -35 -46 -64 0
-1966 11 0
-1966 35 0
-1966 46 0
-1966 64 0
1967 -11 -35 -52 -58 0
-1967 11 0
-1967 35 0
-1967 52 0
-1967 58 0
1968 -17 -29 -40 -79 0
-1968 17 0
-1968 29 0
-1968 40 0
-1968 79 0
1969 -17 -29 -46 -64 0
-1969 17 0
-1969 29 0
-1969 46 0
-1969 64 0
1970 -17 -29 -52 -58 0
-1970 17 0
-1970 29 0
-1970 52 0
-1970 58 0
-1962 1963 1964 1965 1966 1967 1968 1969 1970 0
-1963 1962 1964 1965 1966 1967 1968 1969 1970 0
-1964 1962 1963 1965 1966 1967 1968 1969 1970 0
-1965 1962 1963 1964 1966 1967 1968 1969 1970 0
-1966 1962 1963 1964 1965 1967 1968 1969 1970 0
-1967 1962 1963 1964 1965 1966 1968 1969 1970 0
-1968 1962 1963 1964 1965 1966 1967 1969 1970 0
-1969 1962 1963 1964 1965 1966 1967 1968 1970 0
-1970 1962 1963 1964 1965 1966 1967 1968 1969 0
1971 -2 -40 -71 -81 0
-1971 2 0
-1971 40 0
-1971 71 0
-1971 81 0
1972 -11 -35 -40 -81 0
-1972 11 0
-1972 35 0
-1972 40 0
-1972 81 0
1973 -17 -29 -40 -81 0
-1973 17 0
-1973 29 0
-1973 40 0
-1973 81 0
-1971 1972 1973 0
-1972 1971 1973 0
-1973 1971 1972 0
1974 -2 -40 -72 -79 0
-1974 2 0
-1974 40 0
-1974 72 0
-1974 79 0
1975 -2 -46 -64 -72 0
-1975 2 0
-1975 46 0
-1975 64 0
-1975 72 0
1976 -2 -52 -58 -72 0
-1976 2 0
-1976 52 0
-1976 58 0
-1976 72 0
-1974 1975 1976 0
-1975 1974 1976 0
-1976 1974 1975 0
1977 -2 -40 -72 -80 0
-1977 2 0
-1977 40 0
-1977 72 0
-1977 80 0
1978 -14 -38 -40 -72 0
-1978 14 0
-1978 38 0
-1978 40 0
-1978 72 0
1979 -20 -32 -40 -72 0
-1979 20 0
-1979 32 0
-1979 40 0
-1979 72 0
-1977 1978 1979 0
-1978 1977 1979 0
-1979 1977 1978 0
1980 -2 -41 -70 -80 0
-1980 2 0
-1980 41 0
-1980 70 0
-1980 80 0
1981 -2 -47 -65 -70 0
-1981 2 0
-1981 47 0
-1981 65 0
-1981 70 0
1982 -2 -53 -59 -70 0
-1982 2 0
-1982 53 0
-1982 59 0
-1982 70 0
1983 -5 -26 -70 -80 0
-1983 5 0
-1983 26 0
-1983 70 0
-1983 80 0
1984 -5 -32 -65 -70 0
-1984 5 0
-1984 32 0
-1984 65 0
-1984 70 0
1985 -5 -38 -59 -70 0
-1985 5 0
-1985 38 0
-1985 59 0
-1985 70 0
1986 -8 -23 -70 -80 0
-1986 8 0
-1986 23 0
-1986 70 0
-1986 80 0
1987 -8 -32 -53 -70 0
-1987 8 0
-1987 32 0
-1987 53 0
-1987 70 0
1988 -8 -38 -47 -70 0
-1988 8 0
-1988 38 0
-1988 47 0
-1988 70 0
1989 -14 -23 -65 -70 0
-1989 14 0
-1989 23 0
-1989 65 0
-1989 70 0
1990 -14 -26 -53 -70 0
-1990 14 0
-1990 26 0
-1990 53 0
-1990 70 0
1991 -14 -38 -41 -70 0
-1991 14 0
-1991 38 0
-1991 41 0
-1991 70 0
1992 -20 -23 -59 -70 0
-1992 20 0
-1992 23 0
-1992 59 0
-1992 70 0
1993 -20 -26 -47 -70 0
-1993 20 0
-1993 26 0
-1993 47 0
-1993 70 0
1994 -20 -32 -41 -70 0
-1994 20 0
-1994 32 0
-1994 41 0
-1994 70 0
-1980 1981 1982 1983 1984 1985 1986 1987 1988 1989 1990 1991 1992 1993 1994 0
-1981 1980 1982 1983 1984 1985 1986 1987 1988 1989 1990 1991 1992 1993 1994 0
-1982 1980 1981 1983 1984 1985 1986 1987 1988 1989 1990 1991 1992 1993 1994 0
-1983 1980 1981 1982 1984 1985 1986 1987 1988 1989 1990 1991 1992 1993 1994 0
-1984 1980 1981 1982 1983 1985 1986 1987 1988 1989 1990 1991 1992 1993 1994 0
-1985 1980 1981 1982 1983 1984 1986 1987 1988 1989 1990 1991 1992 1993 1994 0
-1986 1980 1981 1982 1983 1984 1985 1987 1988 1989 1990 1991 1992 1993 1994 0
-1987 1980 1981 1982 1983 1984 1985 1986 1988 1989 1990 1991 1992 1993 1994 0
-1988 1980 1981 1982 1983 1984 1985 1986 1987 1989 1990 1991 1992 1993 1994 0
-1989 1980 1981 1982 1983 1984 1985 1986 1987 1988 1990 1991 1992 1993 1994 0
-1990 1980 1981 1982 1983 1984 1985 1986 1987 1988 1989 1991 1992 1993 1994 0
-1991 1980 1981 1982 1983 1984 1985 1986 1987 1988 1989 1990 1992 1993 1994 0
-1992 1980 1981 1982 1983 1984 1985 1986 1987 1988 1989 1990 1991 1993 1994 0
-1993 1980 1981 1982 1983 1984 1985 1986 1987 1988 1989 1990 1991 1992 1994 0
-1994 1980 1981 1982 1983 1984 1985 1986 1987 1988 1989 1990 1991 1992 1993 0
1995 -2 -41 -70 -81 0
-1995 2 0
-1995 41 0
-1995 70 0
-1995 81 0
1996 -5 -26 -70 -81 0
-1996 5 0
-1996 26 0
-1996 70 0
-1996 81 0
1997 -8 -23 -70 -81 0
-1997 8 0
-1997 23 0
-1997 70 0
-1997 81 0
-1995 1996 1997 0
-1996 1995 1997 0
-1997 1995 1996 0
1998 -2 -41 -71 -79 0
-1998 2 0
-1998 41 0
-1998 71 0
-1998 79 0
1999 -2 -44 -62 -79 0
-1999 2 0
-1999 44 0
-1999 62 0
-1999 79 0
2000 -2 -50 -56 -79 0
-2000 2 0
-2000 50 0
-2000 56 0
-2000 79 0
2001 -5 -26 -71 -79 0
-2001 5 0
-2001 26 0
-2001 71 0
-2001 79 0
2002 -5 -29 -62 -79 0
-2002 5 0
-2002 29 0
-2002 62 0
-2002 79 0
2003 -5 -35 -56 -79 0
-2003 5 0
-2003 35 0
-2003 56 0
-2003 79 0
2004 -8 -23 -71 -79 0
-2004 8 0
-2004 23 0
-2004 71 0
-2004 79 0
2005 -8 -29 -50 -79 0
-2005 8 0
-2005 29 0
-2005 50 0
-2005 79 0
2006 -8 -35 -44 -79 0
-2006 8 0
-2006 35 0
-2006 44 0
-2006 79 0
2007 -11 -23 -62 -79 0
-2007 11 0
-2007 23 0
-2007 62 0
-2007 79 0
2008 -11 -26 -50 -79 0
-2008 11 0
-2008 26 0
-2008 50 0
-2008 79 0
2009 -11 -35 -41 -79 0
-2009 11 0
-2009 35 0
-2009 41 0
-2009 79 0
2010 -17 -23 -56 -79 0
-2010 17 0
-2010 23 0
-2010 56 0
-2010 79 0
2011 -17 -26 -44 -79 0
-2011 17 0
-2011 26 0
-2011 44 0
-2011 79 0
2012 -17 -29 -41 -79 0
-2012 17 0
-2012 29 0
-2012 41 0
-2012 79 0
-1998 1999 2000 2001 2002 2003 2004 2005 2006 2007 2008 2009 2010 2011 2012 0
-1999 1998 2000 2001 2002 2003 2004 2005 2006 2007 2008 2009 2010 2011 2012 0
-2000 1998 1999 2001 2002 2003 2004 2005 2006 2007 2008 2009 2010 2011 2012 0
-2001 1998 1999 2000 2002 2003 2004 2005 2006 2007 2008 2009 2010 2011 2012 0
-2002 1998 1999 2000 2001 2003 2004 2005 2006 2007 2008 2009 2010 2011 2012 0
-2003 1998 1999 2000 2001 2002 2004 2005 2006 2007 2008 2009 2010 2011 2012 0
-2004 1998 1999 2000 2001 2002 2003 2005 2006 2007 2008 2009 2010 2011 2012 0
-2005 1998 1999 2000 2001 2002 2003 2004 2006 2007 2008 2009 2010 2011 2012 0
-2006 1998 1999 2000 2001 2002 2003 2004 2005 2007 2008 2009 2010 2011 2012 0
-2007 1998 1999 2000 2001 2002 2003 2004 2005 2006 2008 2009 2010 2011 2012 0
-2008 1998 1999 2000 2001 2002 2003 2004 2005 2006 2007 2009 2010 2011 2012 0
-2009 1998 1999 2000 2001 2002 2003 2004 2005 2006 2007 2008 2010 2011 2012 0
-2010 1998 1999 2000 2001 2002 2003 2004 2005 2006 2007 2008 2009 2011 2012 0
-2011 1998 1999 2000 2001 2002 2003 2004 2005 2006 2007 2008 2009 2010 2012 0
-2012 1998 1999 2000 2001 2002 2003 2004 2005 2006 2007 2008 2009 2010 2011 0
2013 -2 -41 -71 -81 0
-2013 2 0
-2013 41 0
-2013 71 0
-2013 81 0
2014 -2 -44 -62 -81 0
-2014 2 0
-2014 44 0
-2014 62 0
-2014 81 0
2015 -2 -50 -56 -81 0
-2015 2 0
-2015 50 0
-2015 56 0
-2015 81 0
2016 -5 -26 -71 -81 0
-2016 5 0
-2016 26 0
-2016 71 0
-2016 81 0
2017 -5 -29 -62 -81 0
-2017 5 0
-2017 29 0
-2017 62 0
-2017 81 0
2018 -5 -35 -56 -81 0
-2018 5 0
-2018 35 0
-2018 56 0
-2018 81 0
2019 -8 -23 -71 -81 0
-2019 8 0
-2019 23 0
-2019 71 0
-2019 81 0
2020 -8 -29 -50 -81 0
-2020 8 0
-2020 29 0
-2020 50 0
-2020 81 0
2021 -8 -35 -44 -81 0
-2021 8 0
-2021 35 0
-2021 44 0
-2021 81 0
2022 -11 -23 -62 -81 0
-2022 11 0
-2022 23 0
-2022 62 0
-2022 81 0
2023 -11 -26 -50 -81 0
-2023 11 0
-2023 26 0
-2023 50 0
-2023 81 0
2024 -11 -35 -41 -81 0
-2024 11 0
-2024 35 0
-2024 41 0
-2024 81 0
2025 -17 -23 -56 -81 0
-2025 17 0
-2025 23 0
-2025 56 0
-2025 81 0
2026 -17 -26 -44 -81 0
-2026 17 0
-2026 26 0
-2026 44 0
-2026 81 0
2027 -17 -29 -41 -81 0
-2027 17 0
-2027 29 0
-2027 41 0
-2027 81 0
-2013 2014 2015 2016 2017 2018 2019 2020 2021 2022 2023 2024 2025 2026 2027 0
-2014 2013 2015 2016 2017 2018 2019 2020 2021 2022 2023 2024 2025 2026 2027 0
-2015 2013 2014 2016 2017 2018 2019 2020 2021 2022 2023 2024 2025 2026 2027 0
-2016 2013 2014 2015 2017 2018 2019 2020 2021 2022 2023 2024 2025 2026 2027 0
-2017 2013 2014 2015 2016 2018 2019 2020 2021 2022 2023 2024 2025 2026 2027 0
-2018 2013 2014 2015 2016 2017 2019 2020 2021 2022 2023 2024 2025 2026 2027 0
-2019 2013 2014 2015 2016 2017 2018 2020 2021 2022 2023 2024 2025 2026 2027 0
-2020 2013 2014 2015 2016 2017 2018 2019 2021 2022 2023 2024 2025 2026 2027 0
-2021 2013 2014 2015 2016 2017 2018 2019 2020 2022 2023 2024 2025 2026 2027 0
-2022 2013 2014 2015 2016 2017 2018 2019 2020 2021 2023 2024 2025 2026 2027 0
-2023 2013 2014 2015 2016 2017 2018 2019 2020 2021 2022 2024 2025 2026 2027 0
-2024 2013 2014 2015 2016 2017 2018 2019 2020 2021 2022 2023 2025 2026 2027 0
-2025 2013 2014 2015 2016 2017 2018 2019 2020 2021 2022 2023 2024 2026 2027 0
-2026 2013 2014 2015 2016 2017 2018 2019 2020 2021 2022 2023 2024 2025 2027 0
-2027 2013 2014 2015 2016 2017 2018 2019 2020 2021 2022 2023 2024 2025 2026 0
2028 -2 -41 -72 -79 0
-2028 2 0
-2028 41 0
-2028 72 0
-2028 79 0
2029 -5 -26 -72 -79 0
-2029 5 0
-2029 26 0
-2029 72 0
-2029 79 0
2030 -8 -23 -72 -79 0
-2030 8 0
-2030 23 0
-2030 72 0
-2030 79 0
-2028 2029 2030 0
-2029 2028 2030 0
-2030 2028 2029 0
2031 -2 -41 -72 -80 0
-2031 2 0
-2031 41 0
-2031 72 0
-2031 80 0
2032 -2 -47 -65 -72 0
-2032 2 0
-2032 47 0
-2032 65 0
-2032 72 0
2033 -2 -53 -59 -72 0
-2033 2 0
-2033 53 0
-2033 59 0
-2033 72 0
2034 -5 -26 -72 -80 0
-2034 5 0
-2034 26 0
-2034 72 0
-2034 80 0
2035 -5 -32 -65 -72 0
-2035 5 0
-2035 32 0
-2035 65 0
-2035 72 0
2036 -5 -38 -59 -72 0
-2036 5 0
-2036 38 0
-2036 59 0
-2036 72 0
2037 -8 -23 -72 -80 0
-2037 8 0
-2037 23 0
-2037 72 0
-2037 80 0
2038 -8 -32 -53 -72 0
-2038 8 0
-2038 32 0
-2038 53 0
-2038 72 0
2039 -8 -38 -47 -72 0
-2039 8 0
-2039 38 0
-2039 47 0
-2039 72 0
2040 -14 -23 -65 -72 0
-2040 14 0
-2040 23 0
-2040 65 0
-2040 72 0
2041 -14 -26 -53 -72 0
-2041 14 0
-2041 26 0
-2041 53 0
-2041 72 0
2042 -14 -38 -41 -72 0
-2042 14 0
-2042 38 0
-2042 41 0
-2042 72 0
2043 -20 -23 -59 -72 0
-2043 20 0
-2043 23 0
-2043 59 0
-2043 72 0
2044 -20 -26 -47 -72 0
-2044 20 0
-2044 26 0
-2044 47 0
-2044 72 0
2045 -20 -32 -41 -72 0
-2045 20 0
-2045 32 0
-2045 41 0
-2045 72 0
-2031 2032 2033 2034 2035 2036 2037 2038 2039 2040 2041 2042 2043 2044 2045 0
-2032 2031 2033 2034 2035 2036 2037 2038 2039 2040 2041 2042 2043 2044 2045 0
-2033 2031 2032 2034 2035 2036 2037 2038 2039 2040 2041 2042 2043 2044 2045 0
-2034 2031 2032 2033 2035 2036 2037 2038 2039 2040 2041 2042 2043 2044 2045 0
-2035 2031 2032 2033 2034 2036 2037 2038 2039 2040 2041 2042 2043 2044 2045 0
-2036 2031 2032 2033 2034 2035 2037 2038 2039 2040 2041 2042 2043 2044 2045 0
-2037 2031 2032 2033 2034 2035 2036 2038 2039 2040 2041 2042 2043 2044 2045 0
-2038 2031 2032 2033 2034 2035 2036 2037 2039 2040 2041 2042 2043 2044 2045 0
-2039 2031 2032 2033 2034 2035 2036 2037 2038 2040 2041 2042 2043 2044 2045 0
-2040 2031 2032 2033 2034 2035 2036 2037 2038 2039 2041 2042 2043 2044 2045 0
-2041 2031 2032 2033 2034 2035 2036 2037 2038 2039 2040 2042 2043 2044 2045 0
-2042 2031 2032 2033 2034 2035 2036 2037 2038 2039 2040 2041 2043 2044 2045 0
-2043 2031 2032 2033 2034 2035 2036 2037 2038 2039 2040 2041 2042 2044 2045 0
-2044 2031 2032 2033 2034 2035 2036 2037 2038 2039 2040 2041 2042 2043 2045 0
-2045 2031 2032 2033 2034 2035 2036 2037 2038 2039 2040 2041 2042 2043 2044 0
2046 -2 -42 -70 -80 0
-2046 2 0
-2046 42 0
-2046 70 0
-2046 80 0
2047 -14 -38 -42 -70 0
-2047 14 0
-2047 38 0
-2047 42 0
-2047 70 0
2048 -20 -32 -42 -70 0
-2048 20 0
-2048 32 0
-2048 42 0
-2048 70 0
-2046 2047 2048 0
-2047 2046 2048 0
-2048 2046 2047 0
2049 -2 -42 -70 -81 0
-2049 2 0
-2049 42 0
-2049 70 0
-2049 81 0
2050 -2 -48 -66 -70 0
-2050 2 0
-2050 48 0
-2050 66 0
-2050 70 0
2051 -2 -54 -60 -70 0
-2051 2 0
-2051 54 0
-2051 60 0
-2051 70 0
-2049 2050 2051 0
-2050 2049 2051 0
-2051 2049 2050 0
2052 -2 -42 -71 -79 0
-2052 2 0
-2052 42 0
-2052 71 0
-2052 79 0
2053 -11 -35 -42 -79 0
-2053 11 0
-2053 35 0
-2053 42 0
-2053 79 0
2054 -17 -29 -42 -79 0
-2054 17 0
-2054 29 0
-2054 42 0
-2054 79 0
-2052 2053 2054 0
-2053 2052 2054 0
-2054 2052 2053 0
2055 -2 -42 -71 -81 0
-2055 2 0
-2055 42 0
-2055 71 0
-2055 81 0
2056 -2 -48 -66 -71 0
-2056 2 0
-2056 48 0
-2056 66 0
-2056 71 0
2057 -2 -54 -60 -71 0
-2057 2 0
-2057 54 0
-2057 60 0
-2057 71 0
2058 -11 -35 -42 -81 0
-2058 11 0
-2058 35 0
-2058 42 0
-2058 81 0
2059 -11 -35 -48 -66 0
-2059 11 0
-2059 35 0
-2059 48 0
-2059 66 0
2060 -11 -35 -54 -60 0
-2060 11 0
-2060 35 0
-2060 54 0
-2060 60 0
2061 -17 -29 -42 -81 0
-2061 17 0
-2061 29 0
-2061 42 0
-2061 81 0
2062 -17 -29 -48 -66 0
-2062 17 0
-2062 29 0
-2062 48 0
-2062 66 0
2063 -17 -29 -54 -60 0
-2063 17 0
-2063 29 0
-2063 54 0
-2063 60 0
-2055 2056 2057 2058 2059 2060 2061 2062 2063 0
-2056 2055 2057 2058 2059 2060 2061 2062 2063 0
-2057 2055 2056 2058 2059 2060 2061 2062 2063 0
-2058 2055 2056 2057 2059 2060 2061 2062 2063 0
-2059 2055 2056 2057 2058 2060 2061 2062 2063 0
-2060 2055 2056 2057 2058 2059 2061 2062 2063 0
-2061 2055 2056 2057 2058 2059 2060 2062 2063 0
-2062 2055 2056 2057 2058 2059 2060 2061 2063 0
-2063 2055 2056 2057 2058 2059 2060 2061 2062 0
2064 -2 -42 -72 -79 0
-2064 2 0
-2064 42 0
-2064 72 0
-2064 79 0
2065 -2 -45 -63 -79 0
-2065 2 0
-2065 45 0
-2065 63 0
-2065 79 0
2066 -2 -51 -57 -79 0
-2066 2 0
-2066 51 0
-2066 57 0
-2066 79 0
-2064 2065 2066 0
-2065 2064 2066 0
-2066 2064 2065 0
2067 -2 -42 -72 -80 0
-2067 2 0
-2067 42 0
-2067 72 0
-2067 80 0
2068 -2 -45 -63 -80 0
-2068 2 0
-2068 45 0
-2068 63 0
-2068 80 0
2069 -2 -51 -57 -80 0
-2069 2 0
-2069 51 0
-2069 57 0
-2069 80 0
2070 -14 -38 -42 -72 0
-2070 14 0
-2070 38 0
-2070 42 0
-2070 72 0
2071 -14 -38 -45 -63 0
-2071 14 0
-2071 38 0
-2071 45 0
-2071 63 0
2072 -14 -38 -51 -57 0
-2072 14 0
-2072 38 0
-2072 51 0
-2072 57 0
2073 -20 -32 -42 -72 0
-2073 20 0
-2073 32 0
-2073 42 0
-2073 72 0
2074 -20 -32 -45 -63 0
-2074 20 0
-2074 32 0
-2074 45 0
-2074 63 0
2075 -20 -32 -51 -57 0
-2075 20 0
-2075 32 0
-2075 51 0
-2075 57 0
-2067 2068 2069 2070 2071 2072 2073 2074 2075 0
-2068 2067 2069 2070 2071 2072 2073 2074 2075 0
-2069 2067 2068 2070 2071 2072 2073 2074 2075 0
-2070 2067 2068 2069 2071 2072 2073 2074 2075 0
-2071 2067 2068 2069 2070 2072 2073 2074 2075 0
-2072 2067 2068 2069 2070 2071 2073 2074 2075 0
-2073 2067 2068 2069 2070 2071 2072 2074 2075 0
-2074 2067 2068 2069 2070 2071 2072 2073 2075 0
-2075 2067 2068 2069 2070 2071 2072 2073 2074 0
2076 -3 -40 -70 -80 0
-2076 3 0
-2076 40 0
-2076 70 0
-2076 80 0
2077 -3 -43 -61 -80 0
-2077 3 0
-2077 43 0
-2077 61 0
-2077 80 0
2078 -3 -49 -55 -80 0
-2078 3 0
-2078 49 0
-2078 55 0
-2078 80 0
-2076 2077 2078 0
-2077 2076 2078 0
-2078 2076 2077 0
2079 -3 -40 -70 -81 0
-2079 3 0
-2079 40 0
-2079 70 0
-2079 81 0
2080 -3 -43 -61 -81 0
-2080 3 0
-2080 43 0
-2080 61 0
-2080 81 0
2081 -3 -49 -55 -81 0
-2081 3 0
-2081 49 0
-2081 55 0
-2081 81 0
2082 -15 -39 -40 -70 0
-2082 15 0
-2082 39 0
-2082 40 0
-2082 70 0
2083 -15 -39 -43 -61 0
-2083 15 0
-2083 39 0
-2083 43 0
-2083 61 0
2084 -15 -39 -49 -55 0
-2084 15 0
-2084 39 0
-2084 49 0
-2084 55 0
2085 -21 -33 -40 -70 0
-2085 21 0
-2085 33 0
-2085 40 0
-2085 70 0
2086 -21 -33 -43 -61 0
-2086 21 0
-2086 33 0
-2086 43 0
-2086 61 0
2087 -21 -33 -49 -55 0
-2087 21 0
-2087 33 0
-2087 49 0
-2087 55 0
-2079 2080 2081 2082 2083 2084 2085 2086 2087 0
-2080 2079 2081 2082 2083 2084 2085 2086 2087 0
-2081 2079 2080 2082 2083 2084 2085 2086 2087 0
-2082 2079 2080 2081 2083 2084 2085 2086 2087 0
-2083 2079 2080 2081 2082 2084 2085 2086 2087 0
-2084 2079 2080 2081 2082 2083 2085 2086 2087 0
-2085 2079 2080 2081 2082 2083 2084 2086 2087 0
-2086 2079 2080 2081 2082 2083 2084 2085 2087 0
-2087 2079 2080 2081 2082 2083 2084 2085 2086 0
2088 -3 -40 -71 -79 0
-2088 3 0
-2088 40 0
-2088 71 0
-2088 79 0
2089 -3 -46 -64 -71 0
-2089 3 0
-2089 46 0
-2089 64 0
-2089 71 0
2090 -3 -52 -58 -71 0
-2090 3 0
-2090 52 0
-2090 58 0
-2090 71 0
-2088 2089 2090 0
-2089 2088 2090 0
-2090 2088 2089 0
2091 -3 -40 -71 -81 0
-2091 3 0
-2091 40 0
-2091 71 0
-2091 81 0
2092 -15 -39 -40 -71 0
-2092 15 0
-2092 39 0
-2092 40 0
-2092 71 0
2093 -21 -33 -40 -71 0
-2093 21 0
-2093 33 0
-2093 40 0
-2093 71 0
-2091 2092 2093 0
-2092 2091 2093 0
-2093 2091 2092 0
2094 -3 -40 -72 -79 0
-2094 3 0
-2094 40 0
-2094 72 0
-2094 79 0
2095 -3 -46 -64 -72 0
-2095 3 0
-2095 46 0
-2095 64 0
-2095 72 0
2096 -3 -52 -58 -72 0
-2096 3 0
-2096 52 0
-2096 58 0
-2096 72 0
2097 -12 -36 -40 -79 0
-2097 12 0
-2097 36 0
-2097 40 0
-2097 79 0
2098 -12 -36 -46 -64 0
-2098 12 0
-2098 36 0
-2098 46 0
-2098 64 0
2099 -12 -36 -52 -58 0
-2099 12 0
-2099 36 0
-2099 52 0
-2099 58 0
2100 -18 -30 -40 -79 0
-2100 18 0
-2100 30 0
-2100 40 0
-2100 79 0
2101 -18 -30 -46 -64 0
-2101 18 0
-2101 30 0
-2101 46 0
-2101 64 0
2102 -18 -30 -52 -58 0
-2102 18 0
-2102 30 0
-2102 52 0
-2102 58 0
-2094 2095 2096 2097 2098 2099 2100 2101 2102 0
-2095 2094 2096 2097 2098 2099 2100 2101 2102 0
-2096 2094 2095 2097 2098 2099 2100 2101 2102 0
-2097 2094 2095 2096 2098 2099 2100 2101 2102 0
-2098 2094 2095 2096 2097 2099 2100 2101 2102 0
-2099 2094 2095 2096 2097 2098 2100 2101 2102 0
-2100 2094 2095 2096 2097 2098 2099 2101 2102 0
-2101 2094 2095 2096 2097 2098 2099 2100 2102 0
-2102 2094 2095 2096 2097 2098 2099 2100 2101 0
2103 -3 -40 -72 -80 0
-2103 3 0
-2103 40 0
-2103 72 0
-2103 80 0
2104 -12 -36 -40 -80 0
-2104 12 0
-2104 36 0
-2104 40 0
-2104 80 0
2105 -18 -30 -40 -80 0
-2105 18 0
-2105 30 0
-2105 40 0
-2105 80 0
-2103 2104 2105 0
-2104 2103 2105 0
-2105 2103 2104 0
2106 -3 -41 -70 -80 0
-2106 3 0
-2106 41 0
-2106 70 0
-2106 80 0
2107 -3 -47 -65 -70 0
-2107 3 0
-2107 47 0
-2107 65 0
-2107 70 0
2108 -3 -53 -59 -70 0
-2108 3 0
-2108 53 0
-2108 59 0
-2108 70 0
-2106 2107 2108 0
-2107 2106 2108 0
-2108 2106 2107 0
2109 -3 -41 -70 -81 0
-2109 3 0
-2109 41 0
-2109 70 0
-2109 81 0
2110 -15 -39 -41 -70 0
-2110 15 0
-2110 39 0
-2110 41 0
-2110 70 0
2111 -21 -33 -41 -70 0
-2111 21 0
-2111 33 0
-2111 41 0
-2111 70 0
-2109 2110 2111 0
-2110 2109 2111 0
-2111 2109 2110 0
2112 -3 -41 -71 -79 0
-2112 3 0
-2112 41 0
-2112 71 0
-2112 79 0
2113 -3 -44 -62 -79 0
-2113 3 0
-2113 44 0
-2113 62 0
-2113 79 0
2114 -3 -50 -56 -79 0
-2114 3 0
-2114 50 0
-2114 56 0
-2114 79 0
-2112 2113 2114 0
-2113 2112 2114 0
-2114 2112 2113 0
2115 -3 -41 -71 -81 0
-2115 3 0
-2115 41 0
-2115 71 0
-2115 81 0
2116 -3 -44 -62 -81 0
-2116 3 0
-2116 44 0
-2116 62 0
-2116 81 0
2117 -3 -50 -56 -81 0
-2117 3 0
-2117 50 0
-2117 56 0
-2117 81 0
2118 -15 -39 -41 -71 0
-2118 15 0
-2118 39 0
-2118 41 0
-2118 71 0
2119 -15 -39 -44 -62 0
-2119 15 0
-2119 39 0
-2119 44 0
-2119 62 0
2120 -15 -39 -50 -56 0
-2120 15 0
-2120 39 0
-2120 50 0
-2120 56 0
2121 -21 -33 -41 -71 0
-2121 21 0
-2121 33 0
-2121 41 0
-2121 71 0
2122 -21 -33 -44 -62 0
-2122 21 0
-2122 33 0
-2122 44 0
-2122 62 0
2123 -21 -33 -50 -56 0
-2123 21 0
-2123 33 0
-2123 50 0
-2123 56 0
-2115 2116 2117 2118 2119 2120 2121 2122 2123 0
-2116 2115 2117 2118 2119 2120 2121 2122 2123 0
-2117 2115 2116 2118 2119 2120 2121 2122 2123 0
-2118 2115 2116 2117 2119 2120 2121 2122 2123 0
-2119 2115 2116 2117 2118 2120 2121 2122 2123 0
-2120 2115 2116 2117 2118 2119 2121 2122 2123 0
-2121 2115 2116 2117 2118 2119 2120 2122 2123 0
-2122 2115 2116 2117 2118 2119 2120 2121 2123 0
-2123 2115 2116 2117 2118 2119 2120 2121 2122 0
2124 -3 -41 -72 -79 0
-2124 3 0
-2124 41 0
-2124 72 0
-2124 79 0
2125 -12 -36 -41 -79 0
-2125 12 0
-2125 36 0
-2125 41 0
-2125 79 0
2126 -18 -30 -41 -79 0
-2126 18 0
-2126 30 0
-2126 41 0
-2126 79 0
-2124 2125 2126 0
-2125 2124 2126 0
-2126 2124 2125 0
2127 -3 -41 -72 -80 0
-2127 3 0
-2127 41 0
-2127 72 0
-2127 80 0
2128 -3 -47 -65 -72 0
-2128 3 0
-2128 47 0
-2128 65 0
-2128 72 0
2129 -3 -53 -59 -72 0
-2129 3 0
-2129 53 0
-2129 59 0
-2129 72 0
2130 -12 -36 -41 -80 0
-2130 12 0
-2130 36 0
-2130 41 0
-2130 80 0
2131 -12 -36 -47 -65 0
-2131 12 0
-2131 36 0
-2131 47 0
-2131 65 0
2132 -12 -36 -53 -59 0
-2132 12 0
-2132 36 0
-2132 53 0
-2132 59 0
2133 -18 -30 -41 -80 0
-2133 18 0
-2133 30 0
-2133 41 0
-2133 80 0
2134 -18 -30 -47 -65 0
-2134 18 0
-2134 30 0
-2134 47 0
-2134 65 0
2135 -18 -30 -53 -59 0
-2135 18 0
-2135 30 0
-2135 53 0
-2135 59 0
-2127 2128 2129 2130 2131 2132 2133 2134 2135 0
-2128 2127 2129 2130 2131 2132 2133 2134 2135 0
-2129 2127 2128 2130 2131 2132 2133 2134 2135 0
-2130 2127 2128 2129 2131 2132 2133 2134 2135 0
-2131 2127 2128 2129 2130 2132 2133 2134 2135 0
-2132 2127 2128 2129 2130 2131 2133 2134 2135 0
-2133 2127 2128 2129 2130 2131 2132 2134 2135 0
-2134 2127 2128 2129 2130 2131 2132 2133 2135 0
-2135 2127 2128 2129 2130 2131 2132 2133 2134 0
2136 -3 -42 -70 -80 0
-2136 3 0
-2136 42 0
-2136 70 0
-2136 80 0
2137 -6 -27 -70 -80 0
-2137 6 0
-2137 27 0
-2137 70 0
-2137 80 0
2138 -9 -24 -70 -80 0
-2138 9 0
-2138 24 0
-2138 70 0
-2138 80 0
-2136 2137 2138 0
-2137 2136 2138 0
-2138 2136 2137 0
2139 -3 -42 -70 -81 0
-2139 3 0
-2139 42 0
-2139 70 0
-2139 81 0
2140 -3 -48 -66 -70 0
-2140 3 0
-2140 48 0
-2140 66 0
-2140 70 0
2141 -3 -54 -60 -70 0
-2141 3 0
-2141 54 0
-2141 60 0
-2141 70 0
2142 -6 -27 -70 -81 0
-2142 6 0
-2142 27 0
-2142 70 0
-2142 81 0
2143 -6 -33 -66 -70 0
-2143 6 0
-2143 33 0
-2143 66 0
-2143 70 0
2144 -6 -39 -60 -70 0
-2144 6 0
-2144 39 0
-2144 60 0
-2144 70 0
2145 -9 -24 -70 -81 0
-2145 9 0
-2145 24 0
-2145 70 0
-2145 81 0
2146 -9 -33 -54 -70 0
-2146 9 0
-2146 33 0
-2146 54 0
-2146 70 0
2147 -9 -39 -48 -70 0
-2147 9 0
-2147 39 0
-2147 48 0
-2147 70 0
2148 -15 -24 -66 -70 0
-2148 15 0
-2148 24 0
-2148 66 0
-2148 70 0
2149 -15 -27 -54 -70 0
-2149 15 0
-2149 27 0
-2149 54 0
-2149 70 0
2150 -15 -39 -42 -70 0
-2150 15 0
-2150 39 0
-2150 42 0
-2150 70 0
2151 -21 -24 -60 -70 0
-2151 21 0
-2151 24 0
-2151 60 0
-2151 70 0
2152 -21 -27 -48 -70 0
-2152 21 0
-2152 27 0
-2152 48 0
-2152 70 0
2153 -21 -33 -42 -70 0
-2153 21 0
-2153 33 0
-2153 42 0
-2153 70 0
-2139 2140 2141 2142 2143 2144 2145 2146 2147 2148 2149 2150 2151 2152 2153 0
-2140 2139 2141 2142 2143 2144 2145 2146 2147 2148 2149 2150 2151 2152 2153 0
-2141 2139 2140 2142 2143 2144 2145 2146 2147 2148 2149 2150 2151 2152 2153 0
-2142 2139 2140 2141 2143 2144 2145 2146 2147 2148 2149 2150 2151 2152 2153 0
-2143 2139 2140 2141 2142 2144 2145 2146 2147 2148 2149 2150 2151 2152 2153 0
-2144 2139 2140 2141 2142 2143 2145 2146 2147 2148 2149 2150 2151 2152 2153 0
-2145 2139 2140 2141 2142 2143 2144 2146 2147 2148 2149 2150 2151 2152 2153 0
-2146 2139 2140 2141 2142 2143 2144 2145 2147 2148 2149 2150 2151 2152 2153 0
-2147 2139 2140 2141 2142 2143 2144 2145 2146 2148 2149 2150 2151 2152 2153 0
-2148 2139 2140 2141 2142 2143 2144 2145 2146 2147 2149 2150 2151 2152 2153 0
-2149 2139 2140 2141 2142 2143 2144 2145 2146 2147 2148 2150 2151 2152 2153 0
-2150 2139 2140 2141 2142 2143 2144 2145 2146 2147 2148 2149 2151 2152 2153 0
-2151 2139 2140 2141 2142 2143 2144 2145 2146 2147 2148 2149 2150 2152 2153 0
-2152 2139 2140 2141 2142 2143 2144 2145 2146 2147 2148 2149 2150 2151 2153 0
-2153 2139 2140 2141 2142 2143 2144 2145 2146 2147 2148 2149 2150 2151 2152 0
2154 -3 -42 -71 -79 0
-2154 3 0
-2154 42 0
-2154 71 0
-2154 79 0
2155 -6 -27 -71 -79 0
-2155 6 0
-2155 27 0
-2155 71 0
-2155 79 0
2156 -9 -24 -71 -79 0
-2156 9 0
-2156 24 0
-2156 71 0
-2156 79 0
-2154 2155 2156 0
-2155 2154 2156 0
-2156 2154 2155 0
2157 -3 -42 -71 -81 0
-2157 3 0
-2157 42 0
-2157 71 0
-2157 81 0
2158 -3 -48 -66 -71 0
-2158 3 0
-2158 48 0
-2158 66 0
-2158 71 0
2159 -3 -54 -60 -71 0
-2159 3 0
-2159 54 0
-2159 60 0
-2159 71 0
2160 -6 -27 -71 -81 0
-2160 6 0
-2160 27 0
-2160 71 0
-2160 81 0
2161 -6 -33 -66 -71 0
-2161 6 0
-2161 33 0
-2161 66 0
-2161 71 0
2162 -6 -39 -60 -71 0
-2162 6 0
-2162 39 0
-2162 60 0
-2162 71 0
2163 -9 -24 -71 -81 0
-2163 9 0
-2163 24 0
-2163 71 0
-2163 81 0
2164 -9 -33 -54 -71 0
-2164 9 0
-2164 33 0
-2164 54 0
-2164 71 0
2165 -9 -39 -48 -71 0
-2165 9 0
-2165 39 0
-2165 48 0
-2165 71 0
2166 -15 -24 -66 -71 0
-2166 15 0
-2166 24 0
-2166 66 0
-2166 71 0
2167 -15 -27 -54 -71 0
-2167 15 0
-2167 27 0
-2167 54 0
-2167 71 0
2168 -15 -39 -42 -71 0
-2168 15 0
-2168 39 0
-2168 42 0
-2168 71 0
2169 -21 -24 -60 -71 0
-2169 21 0
-2169 24 0
-2169 60 0
-2169 71 0
2170 -21 -27 -48 -71 0
-2170 21 0
-2170 27 0
-2170 48 0
-2170 71 0
2171 -21 -33 -42 -71 0
-2171 21 0
-2171 33 0
-2171 42 0
-2171 71 0
-2157 2158 2159 2160 2161 2162 2163 2164 2165 2166 2167 2168 2169 2170 2171 0
-2158 2157 2159 2160 2161 2162 2163 2164 2165 2166 2167 2168 2169 2170 2171 0
-2159 2157 2158 2160 2161 2162 2163 2164 2165 2166 2167 2168 2169 2170 2171 0
-2160 2157 2158 2159 2161 2162 2163 2164 2165 2166 2167 2168 2169 2170 2171 0
-2161 2157 2158 2159 2160 2162 2163 2164 2165 2166 2167 2168 2169 2170 2171 0
-2162 2157 2158 2159 2160 2161 2163 2164 2165 2166 2167 2168 2169 2170 2171 0
-2163 2157 2158 2159 2160 2161 2162 2164 2165 2166 2167 2168 2169 2170 2171 0
-2164 2157 2158 2159 2160 2161 2162 2163 2165 2166 2167 2168 2169 2170 2171 0
-2165 2157 2158 2159 2160 2161 2162 2163 2164 2166 2167 2168 2169 2170 2171 0
-2166 2157 2158 2159 2160 2161 2162 2163 2164 2165 2167 2168 2169 2170 2171 0
-2167 2157 2158 2159 2160 2161 2162 2163 2164 2165 2166 2168 2169 2170 2171 0
-2168 2157 2158 2159 2160 2161 2162 2163 2164 2165 2166 2167 2169 2170 2171 0
-2169 2157 2158 2159 2160 2161 2162 2163 2164 2165 2166 2167 2168 2170 2171 0
-2170 2157 2158 2159 2160 2161 2162 2163 2164 2165 2166 2167 2168 2169 2171 0
-2171 2157 2158 2159 2160 2161 2162 2163 2164 2165 2166 2167 2168 2169 2170 0
2172 -3 -42 -72 -79 0
-2172 3 0
-2172 42 0
-2172 72 0
-2172 79 0
2173 -3 -45 -63 -79 0
-2173 3 0
-2173 45 0
-2173 63 0
-2173 79 0
2174 -3 -51 -57 -79 0
-2174 3 0
-2174 51 0
-2174 57 0
-2174 79 0
2175 -6 -27 -72 -79 0
-2175 6 0
-2175 27 0
-2175 72 0
-2175 79 0
2176 -6 -30 -63 -79 0
-2176 6 0
-2176 30 0
-2176 63 0
-2176 79 0
2177 -6 -36 -57 -79 0
-2177 6 0
-2177 36 0
-2177 57 0
-2177 79 0
2178 -9 -24 -72 -79 0
-2178 9 0
-2178 24 0
-2178 72 0
-2178 79 0
2179 -9 -30 -51 -79 0
-2179 9 0
-2179 30 0
-2179 51 0
-2179 79 0
2180 -9 -36 -45 -79 0
-2180 9 0
-2180 36 0
-2180 45 0
-2180 79 0
2181 -12 -24 -63 -79 0
-2181 12 0
-2181 24 0
-2181 63 0
-2181 79 0
2182 -12 -27 -51 -79 0
-2182 12 0
-2182 27 0
-2182 51 0
-2182 79 0
2183 -12 -36 -42 -79 0
-2183 12 0
-2183 36 0
-2183 42 0
-2183 79 0
2184 -18 -24 -57 -79 0
-2184 18 0
-2184 24 0
-2184 57 0
-2184 79 0
2185 -18 -27 -45 -79 0
-2185 18 0
-2185 27 0
-2185 45 0
-2185 79 0
2186 -18 -30 -42 -79 0
-2186 18 0
-2186 30 0
-2186 42 0
-2186 79 0
-2172 2173 2174 2175 2176 2177 2178 2179 2180 2181 2182 2183 2184 2185 2186 0
-2173 2172 2174 2175 2176 2177 2178 2179 2180 2181 2182 2183 2184 2185 2186 0
-2174 2172 2173 2175 2176 2177 2178 2179 2180 2181 2182 2183 2184 2185 2186 0
-2175 2172 2173 2174 2176 2177 2178 2179 2180 2181 2182 2183 2184 2185 2186 0
-2176 2172 2173 2174 2175 2177 2178 2179 2180 2181 2182 2183 2184 2185 2186 0
-2177 2172 2173 2174 2175 2176 2178 2179 2180 2181 2182 2183 2184 2185 2186 0
-2178 2172 2173 2174 2175 2176 2177 2179 2180 2181 2182 2183 2184 2185 2186 0
-2179 2172 2173 2174 2175 2176 2177 2178 2180 2181 2182 2183 2184 2185 2186 0
-2180 2172 2173 2174 2175 2176 2177 2178 2179 2181 2182 2183 2184 2185 2186 0
-2181 2172 2173 2174 2175 2176 2177 2178 2179 2180 2182 2183 2184 2185 2186 0
-2182 2172 2173 2174 2175 2176 2177 2178 2179 2180 2181 2183 2184 2185 2186 0
-2183 2172 2173 2174 2175 2176 2177 2178 2179 2180 2181 2182 2184 2185 2186 0
-2184 2172 2173 2174 2175 2176 2177 2178 2179 2180 2181 2182 2183 2185 2186 0
-2185 2172 2173 2174 2175 2176 2177 2178 2179 2180 2181 2182 2183 2184 2186 0
-2186 2172 2173 2174 2175 2176 2177 2178 2179 2180 2181 2182 2183 2184 2185 0
2187 -3 -42 -72 -80 0
-2187 3 0
-2187 42 0
-2187 72 0
-2187 80 0
2188 -3 -45 -63 -80 0
-2188 3 0
-2188 45 0
-2188 63 0
-2188 80 0
2189 -3 -51 -57 -80 0
-2189 3 0
-2189 51 0
-2189 57 0
-2189 80 0
2190 -6 -27 -72 -80 0
-2190 6 0
-2190 27 0
-2190 72 0
-2190 80 0
2191 -6 -30 -63 -80 0
-2191 6 0
-2191 30 0
-2191 63 0
-2191 80 0
2192 -6 -36 -57 -80 0
-2192 6 0
-2192 36 0
-2192 57 0
-2192 80 0
2193 -9 -24 -72 -80 0
-2193 9 0
-2193 24 0
-2193 72 0
-2193 80 0
2194 -9 -30 -51 -80 0
-2194 9 0
-2194 30 0
-2194 51 0
-2194 80 0
2195 -9 -36 -45 -80 0
-2195 9 0
-2195 36 0
-2195 45 0
-2195 80 0
2196 -12 -24 -63 -80 0
-2196 12 0
-2196 24 0
-2196 63 0
-2196 80 0
2197 -12 -27 -51 -80 0
-2197 12 0
-2197 27 0
-2197 51 0
-2197 80 0
2198 -12 -36 -42 -80 0
-2198 12 0
-2198 36 0
-2198 42 0
-2198 80 0
2199 -18 -24 -57 -80 0
-2199 18 0
-2199 24 0
-2199 57 0
-2199 80 0
2200 -18 -27 -45 -80 0
-2200 18 0
-2200 27 0
-2200 45 0
-2200 80 0
2201 -18 -30 -42 -80 0
-2201 18 0
-2201 30 0
-2201 42 0
-2201 80 0
-2187 2188 2189 2190 2191 2192 2193 2194 2195 2196 2197 2198 2199 2200 2201 0
-2188 2187 2189 2190 2191 2192 2193 2194 2195 2196 2197 2198 2199 2200 2201 0
-2189 2187 2188 2190 2191 2192 2193 2194 2195 2196 2197 2198 2199 2200 2201 0
-2190 2187 2188 2189 2191 2192 2193 2194 2195 2196 2197 2198 2199 2200 2201 0
-2191 2187 2188 2189 2190 2192 2193 2194 2195 2196 2197 2198 2199 2200 2201 0
-2192 2187 2188 2189 2190 2191 2193 2194 2195 2196 2197 2198 2199 2200 2201 0
-2193 2187 2188 2189 2190 2191 2192 2194 2195 2196 2197 2198 2199 2200 2201 0
-2194 2187 2188 2189 2190 2191 2192 2193 2195 2196 2197 2198 2199 2200 2201 0
-2195 2187 2188 2189 2190 2191 2192 2193 2194 2196 2197 2198 2199 2200 2201 0
-2196 2187 2188 2189 2190 2191 2192 2193 2194 2195 2197 2198 2199 2200 2201 0
-2197 2187 2188 2189 2190 2191 2192 2193 2194 2195 2196 2198 2199 2200 2201 0
-2198 2187 2188 2189 2190 2191 2192 2193 2194 2195 2196 2197 2199 2200 2201 0
-2199 2187 2188 2189 2190 2191 2192 2193 2194 2195 2196 2197 2198 2200 2201 0
-2200 2187 2188 2189 2190 2191 2192 2193 2194 2195 2196 2197 2198 2199 2201 0
-2201 2187 2188 2189 2190 2191 2192 2193 2194 2195 2196 2197 2198 2199 2200 0
2202 -1 -40 -73 -77 0
-2202 1 0
-2202 40 0
-2202 73 0
-2202 77 0
2203 -1 -43 -64 -77 0
-2203 1 0
-2203 43 0
-2203 64 0
-2203 77 0
2204 -1 -52 -55 -77 0
-2204 1 0
-2204 52 0
-2204 55 0
-2204 77 0
2205 -4 -25 -73 -77 0
-2205 4 0
-2205 25 0
-2205 73 0
-2205 77 0
2206 -4 -28 -64 -77 0
-2206 4 0
-2206 28 0
-2206 64 0
-2206 77 0
2207 -4 -37 -55 -77 0
-2207 4 0
-2207 37 0
-2207 55 0
-2207 77 0
2208 -7 -22 -73 -77 0
-2208 7 0
-2208 22 0
-2208 73 0
-2208 77 0
2209 -7 -28 -52 -77 0
-2209 7 0
-2209 28 0
-2209 52 0
-2209 77 0
2210 -7 -37 -43 -77 0
-2210 7 0
-2210 37 0
-2210 43 0
-2210 77 0
2211 -10 -22 -64 -77 0
-2211 10 0
-2211 22 0
-2211 64 0
-2211 77 0
2212 -10 -25 -52 -77 0
-2212 10 0
-2212 25 0
-2212 52 0
-2212 77 0
2213 -10 -37 -40 -77 0
-2213 10 0
-2213 37 0
-2213 40 0
-2213 77 0
2214 -19 -22 -55 -77 0
-2214 19 0
-2214 22 0
-2214 55 0
-2214 77 0
2215 -19 -25 -43 -77 0
-2215 19 0
-2215 25 0
-2215 43 0
-2215 77 0
2216 -19 -28 -40 -77 0
-2216 19 0
-2216 28 0
-2216 40 0
-2216 77 0
-2202 2203 2204 2205 2206 2207 2208 2209 2210 2211 2212 2213 2214 2215 2216 0
-2203 2202 2204 2205 2206 2207 2208 2209 2210 2211 2212 2213 2214 2215 2216 0
-2204 2202 2203 2205 2206 2207 2208 2209 2210 2211 2212 2213 2214 2215 2216 0
-2205 2202 2203 2204 2206 2207 2208 2209 2210 2211 2212 2213 2214 2215 2216 0
-2206 2202 2203 2204 2205 2207 2208 2209 2210 2211 2212 2213 2214 2215 2216 0
-2207 2202 2203 2204 2205 2206 2208 2209 2210 2211 2212 2213 2214 2215 2216 0
-2208 2202 2203 2204 2205 2206 2207 2209 2210 2211 2212 2213 2214 2215 2216 0
-2209 2202 2203 2204 2205 2206 2207 2208 2210 2211 2212 2213 2214 2215 2216 0
-2210 2202 2203 2204 2205 2206 2207 2208 2209 2211 2212 2213 2214 2215 2216 0
-2211 2202 2203 2204 2205 2206 2207 2208 2209 2210 2212 2213 2214 2215 2216 0
-2212 2202 2203 2204 2205 2206 2207 2208 2209 2210 2211 2213 2214 2215 2216 0
-2213 2202 2203 2204 2205 2206 2207 2208 2209 2210 2211 2212 2214 2215 2216 0
-2214 2202 2203 2204 2205 2206 2207 2208 2209 2210 2211 2212 2213 2215 2216 0
-2215 2202 2203 2204 2205 2206 2207 2208 2209 2210 2211 2212 2213 2214 2216 0
-2216 2202 2203 2204 2205 2206 2207 2208 2209 2210 2211 2212 2213 2214 2215 0
2217 -1 -40 -73 -78 0
-2217 1 0
-2217 40 0
-2217 73 0
-2217 78 0
2218 -1 -43 -64 -78 0
-2218 1 0
-2218 43 0
-2218 64 0
-2218 78 0
2219 -1 -52 -55 -78 0
-2219 1 0
-2219 52 0
-2219 55 0
-2219 78 0
2220 -4 -25 -73 -78 0
-2220 4 0
-2220 25 0
-2220 73 0
-2220 78 0
2221 -4 -28 -64 -78 0
-2221 4 0
-2221 28 0
-2221 64 0
-2221 78 0
2222 -4 -37 -55 -78 0
-2222 4 0
-2222 37 0
-2222 55 0
-2222 78 0
2223 -7 -22 -73 -78 0
-2223 7 0
-2223 22 0
-2223 73 0
-2223 78 0
2224 -7 -28 -52 -78 0
-2224 7 0
-2224 28 0
-2224 52 0
-2224 78 0
2225 -7 -37 -43 -78 0
-2225 7 0
-2225 37 0
-2225 43 0
-2225 78 0
2226 -10 -22 -64 -78 0
-2226 10 0
-2226 22 0
-2226 64 0
-2226 78 0
2227 -10 -25 -52 -78 0
-2227 10 0
-2227 25 0
-2227 52 0
-2227 78 0
2228 -10 -37 -40 -78 0
-2228 10 0
-2228 37 0
-2228 40 0
-2228 78 0
2229 -19 -22 -55 -78 0
-2229 19 0
-2229 22 0
-2229 55 0
-2229 78 0
2230 -19 -25 -43 -78 0
-2230 19 0
-2230 25 0
-2230 43 0
-2230 78 0
2231 -19 -28 -40 -78 0
-2231 19 0
-2231 28 0
-2231 40 0
-2231 78 0
-2217 2218 2219 2220 2221 2222 2223 2224 2225 2226 2227 2228 2229 2230 2231 0
-2218 2217 2219 2220 2221 2222 2223 2224 2225 2226 2227 2228 2229 2230 2231 0
-2219 2217 2218 2220 2221 2222 2223 2224 2225 2226 2227 2228 2229 2230 2231 0
-2220 2217 2218 2219 2221 2222 2223 2224 2225 2226 2227 2228 2229 2230 2231 0
-2221 2217 2218 2219 2220 2222 2223 2224 2225 2226 2227 2228 2229 2230 2231 0
-2222 2217 2218 2219 2220 2221 2223 2224 2225 2226 2227 2228 2229 2230 2231 0
-2223 2217 2218 2219 2220 2221 2222 2224 2225 2226 2227 2228 2229 2230 2231 0
-2224 2217 2218 2219 2220 2221 2222 2223 2225 2226 2227 2228 2229 2230 2231 0
-2225 2217 2218 2219 2220 2221 2222 2223 2224 2226 2227 2228 2229 2230 2231 0
-2226 2217 2218 2219 2220 2221 2222 2223 2224 2225 2227 2228 2229 2230 2231 0
-2227 2217 2218 2219 2220 2221 2222 2223 2224 2225 2226 2228 2229 2230 2231 0
-2228 2217 2218 2219 2220 2221 2222 2223 2224 2225 2226 2227 2229 2230 2231 0
-2229 2217 2218 2219 2220 2221 2222 2223 2224 2225 2226 2227 2228 2230 2231 0
-2230 2217 2218 2219 2220 2221 2222 2223 2224 2225 2226 2227 2228 2229 2231 0
-2231 2217 2218 2219 2220 2221 2222 2223 2224 2225 2226 2227 2228 2229 2230 0
2232 -1 -40 -74 -76 0
-2232 1 0
-2232 40 0
-2232 74 0
-2232 76 0
2233 -1 -46 -61 -74 0
-2233 1 0
-2233 46 0
-2233 61 0
-2233 74 0
2234 -1 -49 -58 -74 0
-2234 1 0
-2234 49 0
-2234 58 0
-2234 74 0
2235 -4 -25 -74 -76 0
-2235 4 0
-2235 25 0
-2235 74 0
-2235 76 0
2236 -4 -31 -61 -74 0
-2236 4 0
-2236 31 0
-2236 61 0
-2236 74 0
2237 -4 -34 -58 -74 0
-2237 4 0
-2237 34 0
-2237 58 0
-2237 74 0
2238 -7 -22 -74 -76 0
-2238 7 0
-2238 22 0
-2238 74 0
-2238 76 0
2239 -7 -31 -49 -74 0
-2239 7 0
-2239 31 0
-2239 49 0
-2239 74 0
2240 -7 -34 -46 -74 0
-2240 7 0
-2240 34 0
-2240 46 0
-2240 74 0
2241 -13 -22 -61 -74 0
-2241 13 0
-2241 22 0
-2241 61 0
-2241 74 0
2242 -13 -25 -49 -74 0
-2242 13 0
-2242 25 0
-2242 49 0
-2242 74 0
2243 -13 -34 -40 -74 0
-2243 13 0
-2243 34 0
-2243 40 0
-2243 74 0
2244 -16 -22 -58 -74 0
-2244 16 0
-2244 22 0
-2244 58 0
-2244 74 0
2245 -16 -25 -46 -74 0
-2245 16 0
-2245 25 0
-2245 46 0
-2245 74 0
2246 -16 -31 -40 -74 0
-2246 16 0
-2246 31 0
-2246 40 0
-2246 74 0
-2232 2233 2234 2235 2236 2237 2238 2239 2240 2241 2242 2243 2244 2245 2246 0
-2233 2232 2234 2235 2236 2237 2238 2239 2240 2241 2242 2243 2244 2245 2246 0
-2234 2232 2233 2235 2236 2237 2238 2239 2240 2241 2242 2243 2244 2245 2246 0
-2235 2232 2233 2234 2236 2237 2238 2239 2240 2241 2242 2243 2244 2245 2246 0
-2236 2232 2233 2234 2235 2237 2238 2239 2240 2241 2242 2243 2244 2245 2246 0
-2237 2232 2233 2234 2235 2236 2238 2239 2240 2241 2242 2243 2244 2245 2246 0
-2238 2232 2233 2234 2235 2236 2237 2239 2240 2241 2242 2243 2244 2245 2246 0
-2239 2232 2233 2234 2235 2236 2237 2238 2240 2241 2242 2243 2244 2245 2246 0
-2240 2232 2233 2234 2235 2236 2237 2238 2239 2241 2242 2243 2244 2245 2246 0
-2241 2232 2233 2234 2235 2236 2237 2238 2239 2240 2242 2243 2244 2245 2246 0
-2242 2232 2233 2234 2235 2236 2237 2238 2239 2240 2241 2243 2244 2245 2246 0
-2243 2232 2233 2234 2235 2236 2237 2238 2239 2240 2241 2242 2244 2245 2246 0
-2244 2232 2233 2234 2235 2236 2237 2238 2239 2240 2241 2242 2243 2245 2246 0
-2245 2232 2233 2234 2235 2236 2237 2238 2239 2240 2241 2242 2243 2244 2246 0
-2246 2232 2233 2234 2235 2236 2237 2238 2239 2240 2241 2242 2243 2244 2245 0
2247 -1 -40 -74 -78 0
-2247 1 0
-2247 40 0
-2247 74 0
-2247 78 0
2248 -4 -25 -74 -78 0
-2248 4 0
-2248 25 0
-2248 74 0
-2248 78 0
2249 -7 -22 -74 -78 0
-2249 7 0
-2249 22 0
-2249 74 0
-2249 78 0
-2247 2248 2249 0
-2248 2247 2249 0
-2249 2247 2248 0
2250 -1 -40 -75 -76 0
-2250 1 0
-2250 40 0
-2250 75 0
-2250 76 0
2251 -1 -46 -61 -75 0
-2251 1 0
-2251 46 0
-2251 61 0
-2251 75 0
2252 -1 -49 -58 -75 0
-2252 1 0
-2252 49 0
-2252 58 0
-2252 75 0
2253 -4 -25 -75 -76 0
-2253 4 0
-2253 25 0
-2253 75 0
-2253 76 0
2254 -4 -31 -61 -75 0
-2254 4 0
-2254 31 0
-2254 61 0
-2254 75 0
2255 -4 -34 -58 -75 0
-2255 4 0
-2255 34 0
-2255 58 0
-2255 75 0
2256 -7 -22 -75 -76 0
-2256 7 0
-2256 22 0
-2256 75 0
-2256 76 0
2257 -7 -31 -49 -75 0
-2257 7 0
-2257 31 0
-2257 49 0
-2257 75 0
2258 -7 -34 -46 -75 0
-2258 7 0
-2258 34 0
-2258 46 0
-2258 75 0
2259 -13 -22 -61 -75 0
-2259 13 0
-2259 22 0
-2259 61 0
-2259 75 0
2260 -13 -25 -49 -75 0
-2260 13 0
-2260 25 0
-2260 49 0
-2260 75 0
2261 -13 -34 -40 -75 0
-2261 13 0
-2261 34 0
-2261 40 0
-2261 75 0
2262 -16 -22 -58 -75 0
-2262 16 0
-2262 22 0
-2262 58 0
-2262 75 0
2263 -16 -25 -46 -75 0
-2263 16 0
-2263 25 0
-2263 46 0
-2263 75 0
2264 -16 -31 -40 -75 0
-2264 16 0
-2264 31 0
-2264 40 0
-2264 75 0
-2250 2251 2252 2253 2254 2255 2256 2257 2258 2259 2260 2261 2262 2263 2264 0
-2251 2250 2252 2253 2254 2255 2256 2257 2258 2259 2260 2261 2262 2263 2264 0
-2252 2250 2251 2253 2254 2255 2256 2257 2258 2259 2260 2261 2262 2263 2264 0
-2253 2250 2251 2252 2254 2255 2256 2257 2258 2259 2260 2261 2262 2263 2264 0
-2254 2250 2251 2252 2253 2255 2256 2257 2258 2259 2260 2261 2262 2263 2264 0
-2255 2250 2251 2252 2253 2254 2256 2257 2258 2259 2260 2261 2262 2263 2264 0
-2256 2250 2251 2252 2253 2254 2255 2257 2258 2259 2260 2261 2262 2263 2264 0
-2257 2250 2251 2252 2253 2254 2255 2256 2258 2259 2260 2261 2262 2263 2264 0
-2258 2250 2251 2252 2253 2254 2255 2256 2257 2259 2260 2261 2262 2263 2264 0
-2259 2250 2251 2252 2253 2254 2255 2256 2257 2258 2260 2261 2262 2263 2264 0
-2260 2250 2251 2252 2253 2254 2255 2256 2257 2258 2259 2261 2262 2263 2264 0
-2261 2250 2251 2252 2253 2254 2255 2256 2257 2258 2259 2260 2262 2263 2264 0
-2262 2250 2251 2252 2253 2254 2255 2256 2257 2258 2259 2260 2261 2263 2264 0
-2263 2250 2251 2252 2253 2254 2255 2256 2257 2258 2259 2260 2261 2262 2264 0
-2264 2250 2251 2252 2253 2254 2255 2256 2257 2258 2259 2260 2261 2262 2263 0
2265 -1 -40 -75 -77 0
-2265 1 0
-2265 40 0
-2265 75 0
-2265 77 0
2266 -4 -25 -75 -77 0
-2266 4 0
-2266 25 0
-2266 75 0
-2266 77 0
2267 -7 -22 -75 -77 0
-2267 7 0
-2267 22 0
-2267 75 0
-2267 77 0
-2265 2266 2267 0
-2266 2265 2267 0
-2267 2265 2266 0
2268 -1 -41 -73 -77 0
-2268 1 0
-2268 41 0
-2268 73 0
-2268 77 0
2269 -1 -47 -62 -73 0
-2269 1 0
-2269 47 0
-2269 62 0
-2269 73 0
2270 -1 -50 -59 -73 0
-2270 1 0
-2270 50 0
-2270 59 0
-2270 73 0
2271 -10 -37 -41 -77 0
-2271 10 0
-2271 37 0
-2271 41 0
-2271 77 0
2272 -10 -37 -47 -62 0
-2272 10 0
-2272 37 0
-2272 47 0
-2272 62 0
2273 -10 -37 -50 -59 0
-2273 10 0
-2273 37 0
-2273 50 0
-2273 59 0
2274 -19 -28 -41 -77 0
-2274 19 0
-2274 28 0
-2274 41 0
-2274 77 0
2275 -19 -28 -47 -62 0
-2275 19 0
-2275 28 0
-2275 47 0
-2275 62 0
2276 -19 -28 -50 -59 0
-2276 19 0
-2276 28 0
-2276 50 0
-2276 59 0
-2268 2269 2270 2271 2272 2273 2274 2275 2276 0
-2269 2268 2270 2271 2272 2273 2274 2275 2276 0
-2270 2268 2269 2271 2272 2273 2274 2275 2276 0
-2271 2268 2269 2270 2272 2273 2274 2275 2276 0
-2272 2268 2269 2270 2271 2273 2274 2275 2276 0
-2273 2268 2269 2270 2271 2272 2274 2275 2276 0
-2274 2268 2269 2270 2271 2272 2273 2275 2276 0
-2275 2268 2269 2270 2271 2272 2273 2274 2276 0
-2276 2268 2269 2270 2271 2272 2273 2274 2275 0
2277 -1 -41 -73 -78 0
-2277 1 0
-2277 41 0
-2277 73 0
-2277 78 0
2278 -10 -37 -41 -78 0
-2278 10 0
-2278 37 0
-2278 41 0
-2278 78 0
2279 -19 -28 -41 -78 0
-2279 19 0
-2279 28 0
-2279 41 0
-2279 78 0
-2277 2278 2279 0
-2278 2277 2279 0
-2279 2277 2278 0
2280 -1 -41 -74 -76 0
-2280 1 0
-2280 41 0
-2280 74 0
-2280 76 0
2281 -1 -44 -65 -76 0
-2281 1 0
-2281 44 0
-2281 65 0
-2281 76 0
2282 -1 -53 -56 -76 0
-2282 1 0
-2282 53 0
-2282 56 0
-2282 76 0
2283 -13 -34 -41 -74 0
-2283 13 0
-2283 34 0
-2283 41 0
-2283 74 0
2284 -13 -34 -44 -65 0
-2284 13 0
-2284 34 0
-2284 44 0
-2284 65 0
2285 -13 -34 -53 -56 0
-2285 13 0
-2285 34 0
-2285 53 0
-2285 56 0
2286 -16 -31 -41 -74 0
-2286 16 0
-2286 31 0
-2286 41 0
-2286 74 0
2287 -16 -31 -44 -65 0
-2287 16 0
-2287 31 0
-2287 44 0
-2287 65 0
2288 -16 -31 -53 -56 0
-2288 16 0
-2288 31 0
-2288 53 0
-2288 56 0
-2280 2281 2282 2283 2284 2285 2286 2287 2288 0
-2281 2280 2282 2283 2284 2285 2286 2287 2288 0
-2282 2280 2281 2283 2284 2285 2286 2287 2288 0
-2283 2280 2281 2282 2284 2285 2286 2287 2288 0
-2284 2280 2281 2282 2283 2285 2286 2287 2288 0
-2285 2280 2281 2282 2283 2284 2286 2287 2288 0
-2286 2280 2281 2282 2283 2284 2285 2287 2288 0
-2287 2280 2281 2282 2283 2284 2285 2286 2288 0
-2288 2280 2281 2282 2283 2284 2285 2286 2287 0
2289 -1 -41 -74 -78 0
-2289 1 0
-2289 41 0
-2289 74 0
-2289 78 0
2290 -1 -44 -65 -78 0
-2290 1 0
-2290 44 0
-2290 65 0
-2290 78 0
2291 -1 -53 -56 -78 0
-2291 1 0
-2291 53 0
-2291 56 0
-2291 78 0
-2289 2290 2291 0
-2290 2289 2291 0
-2291 2289 2290 0
2292 -1 -41 -75 -76 0
-2292 1 0
-2292 41 0
-2292 75 0
-2292 76 0
2293 -13 -34 -41 -75 0
-2293 13 0
-2293 34 0
-2293 41 0
-2293 75 0
2294 -16 -31 -41 -75 0
-2294 16 0
-2294 31 0
-2294 41 0
-2294 75 0
-2292 2293 2294 0
-2293 2292 2294 0
-2294 2292 2293 0
2295 -1 -41 -75 -77 0
-2295 1 0
-2295 41 0
-2295 75 0
-2295 77 0
2296 -1 -47 -62 -75 0
-2296 1 0
-2296 47 0
-2296 62 0
-2296 75 0
2297 -1 -50 -59 -75 0
-2297 1 0
-2297 50 0
-2297 59 0
-2297 75 0
-2295 2296 2297 0
-2296 2295 2297 0
-2297 2295 2296 0
2298 -1 -42 -73 -77 0
-2298 1 0
-2298 42 0
-2298 73 0
-2298 77 0
2299 -10 -37 -42 -77 0
-2299 10 0
-2299 37 0
-2299 42 0
-2299 77 0
2300 -19 -28 -42 -77 0
-2300 19 0
-2300 28 0
-2300 42 0
-2300 77 0
-2298 2299 2300 0
-2299 2298 2300 0
-2300 2298 2299 0
2301 -1 -42 -73 -78 0
-2301 1 0
-2301 42 0
-2301 73 0
-2301 78 0
2302 -1 -48 -63 -73 0
-2302 1 0
-2302 48 0
-2302 63 0
-2302 73 0
2303 -1 -51 -60 -73 0
-2303 1 0
-2303 51 0
-2303 60 0
-2303 73 0
2304 -10 -37 -42 -78 0
-2304 10 0
-2304 37 0
-2304 42 0
-2304 78 0
2305 -10 -37 -48 -63 0
-2305 10 0
-2305 37 0
-2305 48 0
-2305 63 0
2306 -10 -37 -51 -60 0
-2306 10 0
-2306 37 0
-2306 51 0
-2306 60 0
2307 -19 -28 -42 -78 0
-2307 19 0
-2307 28 0
-2307 42 0
-2307 78 0
2308 -19 -28 -48 -63 0
-2308 19 0
-2308 28 0
-2308 48 0
-2308 63 0
2309 -19 -28 -51 -60 0
-2309 19 0
-2309 28 0
-2309 51 0
-2309 60 0
-2301 2302 2303 2304 2305 2306 2307 2308 2309 0
-2302 2301 2303 2304 2305 2306 2307 2308 2309 0
-2303 2301 2302 2304 2305 2306 2307 2308 2309 0
-2304 2301 2302 2303 2305 2306 2307 2308 2309 0
-2305 2301 2302 2303 2304 2306 2307 2308 2309 0
-2306 2301 2302 2303 2304 2305 2307 2308 2309 0
-2307 2301 2302 2303 2304 2305 2306 2308 2309 0
-2308 2301 2302 2303 2304 2305 2306 2307 2309 0
-2309 2301 2302 2303 2304 2305 2306 2307 2308 0
2310 -1 -42 -74 -76 0
-2310 1 0
-2310 42 0
-2310 74 0
-2310 76 0
2311 -13 -34 -42 -74 0
-2311 13 0
-2311 34 0
-2311 42 0
-2311 74 0
2312 -16 -31 -42 -74 0
-2312 16 0
-2312 31 0
-2312 42 0
-2312 74 0
-2310 2311 2312 0
-2311 2310 2312 0
-2312 2310 2311 0
2313 -1 -42 -74 -78 0
-2313 1 0
-2313 42 0
-2313 74 0
-2313 78 0
2314 -1 -48 -63 -74 0
-2314 1 0
-2314 48 0
-2314 63 0
-2314 74 0
2315 -1 -51 -60 -74 0
-2315 1 0
-2315 51 0
-2315 60 0
-2315 74 0
-2313 2314 2315 0
-2314 2313 2315 0
-2315 2313 2314 0
2316 -1 -42 -75 -76 0
-2316 1 0
-2316 42 0
-2316 75 0
-2316 76 0
2317 -1 -45 -66 -76 0
-2317 1 0
-2317 45 0
-2317 66 0
-2317 76 0
2318 -1 -54 -57 -76 0
-2318 1 0
-2318 54 0
-2318 57 0
-2318 76 0
2319 -13 -34 -42 -75 0
-2319 13 0
-2319 34 0
-2319 42 0
-2319 75 0
2320 -13 -34 -45 -66 0
-2320 13 0
-2320 34 0
-2320 45 0
-2320 66 0
2321 -13 -34 -54 -57 0
-2321 13 0
-2321 34 0
-2321 54 0
-2321 57 0
2322 -16 -31 -42 -75 0
-2322 16 0
-2322 31 0
-2322 42 0
-2322 75 0
2323 -16 -31 -45 -66 0
-2323 16 0
-2323 31 0
-2323 45 0
-2323 66 0
2324 -16 -31 -54 -57 0
-2324 16 0
-2324 31 0
-2324 54 0
-2324 57 0
-2316 2317 2318 2319 2320 2321 2322 2323 2324 0
-2317 2316 2318 2319 2320 2321 2322 2323 2324 0
-2318 2316 2317 2319 2320 2321 2322 2323 2324 0
-2319 2316 2317 2318 2320 2321 2322 2323 2324 0
-2320 2316 2317 2318 2319 2321 2322 2323 2324 0
-2321 2316 2317 2318 2319 2320 2322 2323 2324 0
-2322 2316 2317 2318 2319 2320 2321 2323 2324 0
-2323 2316 2317 2318 2319 2320 2321 2322 2324 0
-2324 2316 2317 2318 2319 2320 2321 2322 2323 0
2325 -1 -42 -75 -77 0
-2325 1 0
-2325 42 0
-2325 75 0
-2325 77 0
2326 -1 -45 -66 -77 0
-2326 1 0
-2326 45 0
-2326 66 0
-2326 77 0
2327 -1 -54 -57 -77 0
-2327 1 0
-2327 54 0
-2327 57 0
-2327 77 0
-2325 2326 2327 0
-2326 2325 2327 0
-2327 2325 2326 0
2328 -2 -40 -73 -77 0
-2328 2 0
-2328 40 0
-2328 73 0
-2328 77 0
2329 -2 -43 -64 -77 0
-2329 2 0
-2329 43 0
-2329 64 0
-2329 77 0
2330 -2 -52 -55 -77 0
-2330 2 0
-2330 52 0
-2330 55 0
-2330 77 0
2331 -14 -35 -40 -73 0
-2331 14 0
-2331 35 0
-2331 40 0
-2331 73 0
2332 -14 -35 -43 -64 0
-2332 14 0
-2332 35 0
-2332 43 0
-2332 64 0
2333 -14 -35 -52 -55 0
-2333 14 0
-2333 35 0
-2333 52 0
-2333 55 0
2334 -17 -32 -40 -73 0
-2334 17 0
-2334 32 0
-2334 40 0
-2334 73 0
2335 -17 -32 -43 -64 0
-2335 17 0
-2335 32 0
-2335 43 0
-2335 64 0
2336 -17 -32 -52 -55 0
-2336 17 0
-2336 32 0
-2336 52 0
-2336 55 0
-2328 2329 2330 2331 2332 2333 2334 2335 2336 0
-2329 2328 2330 2331 2332 2333 2334 2335 2336 0
-2330 2328 2329 2331 2332 2333 2334 2335 2336 0
-2331 2328 2329 2330 2332 2333 2334 2335 2336 0
-2332 2328 2329 2330 2331 2333 2334 2335 2336 0
-2333 2328 2329 2330 2331 2332 2334 2335 2336 0
-2334 2328 2329 2330 2331 2332 2333 2335 2336 0
-2335 2328 2329 2330 2331 2332 2333 2334 2336 0
-2336 2328 2329 2330 2331 2332 2333 2334 2335 0
2337 -2 -40 -73 -78 0
-2337 2 0
-2337 40 0
-2337 73 0
-2337 78 0
2338 -2 -43 -64 -78 0
-2338 2 0
-2338 43 0
-2338 64 0
-2338 78 0
2339 -2 -52 -55 -78 0
-2339 2 0
-2339 52 0
-2339 55 0
-2339 78 0
-2337 2338 2339 0
-2338 2337 2339 0
-2339 2337 2338 0
2340 -2 -40 -74 -76 0
-2340 2 0
-2340 40 0
-2340 74 0
-2340 76 0
2341 -2 -46 -61 -74 0
-2341 2 0
-2341 46 0
-2341 61 0
-2341 74 0
2342 -2 -49 -58 -74 0
-2342 2 0
-2342 49 0
-2342 58 0
-2342 74 0
2343 -11 -38 -40 -76 0
-2343 11 0
-2343 38 0
-2343 40 0
-2343 76 0
2344 -11 -38 -46 -61 0
-2344 11 0
-2344 38 0
-2344 46 0
-2344 61 0
2345 -11 -38 -49 -58 0
-2345 11 0
-2345 38 0
-2345 49 0
-2345 58 0
2346 -20 -29 -40 -76 0
-2346 20 0
-2346 29 0
-2346 40 0
-2346 76 0
2347 -20 -29 -46 -61 0
-2347 20 0
-2347 29 0
-2347 46 0
-2347 61 0
2348 -20 -29 -49 -58 0
-2348 20 0
-2348 29 0
-2348 49 0
-2348 58 0
-2340 2341 2342 2343 2344 2345 2346 2347 2348 0
-2341 2340 2342 2343 2344 2345 2346 2347 2348 0
-2342 2340 2341 2343 2344 2345 2346 2347 2348 0
-2343 2340 2341 2342 2344 2345 2346 2347 2348 0
-2344 2340 2341 2342 2343 2345 2346 2347 2348 0
-2345 2340 2341 2342 2343 2344 2346 2347 2348 0
-2346 2340 2341 2342 2343 2344 2345 2347 2348 0
-2347 2340 2341 2342 2343 2344 2345 2346 2348 0
-2348 2340 2341 2342 2343 2344 2345 2346 2347 0
2349 -2 -40 -74 -78 0
-2349 2 0
-2349 40 0
-2349 74 0
-2349 78 0
2350 -11 -38 -40 -78 0
-2350 11 0
-2350 38 0
-2350 40 0
-2350 78 0
2351 -20 -29 -40 -78 0
-2351 20 0
-2351 29 0
-2351 40 0
-2351 78 0
-2349 2350 2351 0
-2350 2349 2351 0
-2351 2349 2350 0
2352 -2 -40 -75 -76 0
-2352 2 0
-2352 40 0
-2352 75 0
-2352 76 0
2353 -2 -46 -61 -75 0
-2353 2 0
-2353 46 0
-2353 61 0
-2353 75 0
2354 -2 -49 -58 -75 0
-2354 2 0
-2354 49 0
-2354 58 0
-2354 75 0
-2352 2353 2354 0
-2353 2352 2354 0
-2354 2352 2353 0
2355 -2 -40 -75 -77 0
-2355 2 0
-2355 40 0
-2355 75 0
-2355 77 0
2356 -14 -35 -40 -75 0
-2356 14 0
-2356 35 0
-2356 40 0
-2356 75 0
2357 -17 -32 -40 -75 0
-2357 17 0
-2357 32 0
-2357 40 0
-2357 75 0
-2355 2356 2357 0
-2356 2355 2357 0
-2357 2355 2356 0
2358 -2 -41 -73 -77 0
-2358 2 0
-2358 41 0
-2358 73 0
-2358 77 0
2359 -2 -47 -62 -73 0
-2359 2 0
-2359 47 0
-2359 62 0
-2359 73 0
2360 -2 -50 -59 -73 0
-2360 2 0
-2360 50 0
-2360 59 0
-2360 73 0
2361 -5 -26 -73 -77 0
-2361 5 0
-2361 26 0
-2361 73 0
-2361 77 0
2362 -5 -32 -62 -73 0
-2362 5 0
-2362 32 0
-2362 62 0
-2362 73 0
2363 -5 -35 -59 -73 0
-2363 5 0
-2363 35 0
-2363 59 0
-2363 73 0
2364 -8 -23 -73 -77 0
-2364 8 0
-2364 23 0
-2364 73 0
-2364 77 0
2365 -8 -32 -50 -73 0
-2365 8 0
-2365 32 0
-2365 50 0
-2365 73 0
2366 -8 -35 -47 -73 0
-2366 8 0
-2366 35 0
-2366 47 0
-2366 73 0
2367 -14 -23 -62 -73 0
-2367 14 0
-2367 23 0
-2367 62 0
-2367 73 0
2368 -14 -26 -50 -73 0
-2368 14 0
-2368 26 0
-2368 50 0
-2368 73 0
2369 -14 -35 -41 -73 0
-2369 14 0
-2369 35 0
-2369 41 0
-2369 73 0
2370 -17 -23 -59 -73 0
-2370 17 0
-2370 23 0
-2370 59 0
-2370 73 0
2371 -17 -26 -47 -73 0
-2371 17 0
-2371 26 0
-2371 47 0
-2371 73 0
2372 -17 -32 -41 -73 0
-2372 17 0
-2372 32 0
-2372 41 0
-2372 73 0
-2358 2359 2360 2361 2362 2363 2364 2365 2366 2367 2368 2369 2370 2371 2372 0
-2359 2358 2360 2361 2362 2363 2364 2365 2366 2367 2368 2369 2370 2371 2372 0
-2360 2358 2359 2361 2362 2363 2364 2365 2366 2367 2368 2369 2370 2371 2372 0
-2361 2358 2359 2360 2362 2363 2364 2365 2366 2367 2368 2369 2370 2371 2372 0
-2362 2358 2359 2360 2361 2363 2364 2365 2366 2367 2368 2369 2370 2371 2372 0
-2363 2358 2359 2360 2361 2362 2364 2365 2366 2367 2368 2369 2370 2371 2372 0
-2364 2358 2359 2360 2361 2362 2363 2365 2366 2367 2368 2369 2370 2371 2372 0
-2365 2358 2359 2360 2361 2362 2363 2364 2366 2367 2368 2369 2370 2371 2372 0
-2366 2358 2359 2360 2361 2362 2363 2364 2365 2367 2368 2369 2370 2371 2372 0
-2367 2358 2359 2360 2361 2362 2363 2364 2365 2366 2368 2369 2370 2371 2372 0
-2368 2358 2359 2360 2361 2362 2363 2364 2365 2366 2367 2369 2370 2371 2372 0
-2369 2358 2359 2360 2361 2362 2363 2364 2365 2366 2367 2368 2370 2371 2372 0
-2370 2358 2359 2360 2361 2362 2363 2364 2365 2366 2367 2368 2369 2371 2372 0
-2371 2358 2359 2360 2361 2362 2363 2364 2365 2366 2367 2368 2369 2370 2372 0
-2372 2358 2359 2360 2361 2362 2363 2364 2365 2366 2367 2368 2369 2370 2371 0
2373 -2 -41 -73 -78 0
-2373 2 0
-2373 41 0
-2373 73 0
-2373 78 0
2374 -5 -26 -73 -78 0
-2374 5 0
-2374 26 0
-2374 73 0
-2374 78 0
2375 -8 -23 -73 -78 0
-2375 8 0
-2375 23 0
-2375 73 0
-2375 78 0
-2373 2374 2375 0
-2374 2373 2375 0
-2375 2373 2374 0
2376 -2 -41 -74 -76 0
-2376 2 0
-2376 41 0
-2376 74 0
-2376 76 0
2377 -2 -44 -65 -76 0
-2377 2 0
-2377 44 0
-2377 65 0
-2377 76 0
2378 -2 -53 -56 -76 0
-2378 2 0
-2378 53 0
-2378 56 0
-2378 76 0
2379 -5 -26 -74 -76 0
-2379 5 0
-2379 26 0
-2379 74 0
-2379 76 0
2380 -5 -29 -65 -76 0
-2380 5 0
-2380 29 0
-2380 65 0
-2380 76 0
2381 -5 -38 -56 -76 0
-2381 5 0
-2381 38 0
-2381 56 0
-2381 76 0
2382 -8 -23 -74 -76 0
-2382 8 0
-2382 23 0
-2382 74 0
-2382 76 0
2383 -8 -29 -53 -76 0
-2383 8 0
-2383 29 0
-2383 53 0
-2383 76 0
2384 -8 -38 -44 -76 0
-2384 8 0
-2384 38 0
-2384 44 0
-2384 76 0
2385 -11 -23 -65 -76 0
-2385 11 0
-2385 23 0
-2385 65 0
-2385 76 0
2386 -11 -26 -53 -76 0
-2386 11 0
-2386 26 0
-2386 53 0
-2386 76 0
2387 -11 -38 -41 -76 0
-2387 11 0
-2387 38 0
-2387 41 0
-2387 76 0
2388 -20 -23 -56 -76 0
-2388 20 0
-2388 23 0
-2388 56 0
-2388 76 0
2389 -20 -26 -44 -76 0
-2389 20 0
-2389 26 0
-2389 44 0
-2389 76 0
2390 -20 -29 -41 -76 0
-2390 20 0
-2390 29 0
-2390 41 0
-2390 76 0
-2376 2377 2378 2379 2380 2381 2382 2383 2384 2385 2386 2387 2388 2389 2390 0
-2377 2376 2378 2379 2380 2381 2382 2383 2384 2385 2386 2387 2388 2389 2390 0
-2378 2376 2377 2379 2380 2381 2382 2383 2384 2385 2386 2387 2388 2389 2390 0
-2379 2376 2377 2378 2380 2381 2382 2383 2384 2385 2386 2387 2388 2389 2390 0
-2380 2376 2377 2378 2379 2381 2382 2383 2384 2385 2386 2387 2388 2389 2390 0
-2381 2376 2377 2378 2379 2380 2382 2383 2384 2385 2386 2387 2388 2389 2390 0
-2382 2376 2377 2378 2379 2380 2381 2383 2384 2385 2386 2387 2388 2389 2390 0
-2383 2376 2377 2378 2379 2380 2381 2382 2384 2385 2386 2387 2388 2389 2390 0
-2384 2376 2377 2378 2379 2380 2381 2382 2383 2385 2386 2387 2388 2389 2390 0
-2385 2376 2377 2378 2379 2380 2381 2382 2383 2384 2386 2387 2388 2389 2390 0
-2386 2376 2377 2378 2379 2380 2381 2382 2383 2384 2385 2387 2388 2389 2390 0
-2387 2376 2377 2378 2379 2380 2381 2382 2383 2384 2385 2386 2388 2389 2390 0
-2388 2376 2377 2378 2379 2380 2381 2382 2383 2384 2385 2386 2387 2389 2390 0
-2389 2376 2377 2378 2379 2380 2381 2382 2383 2384 2385 2386 2387 2388 2390 0
-2390 2376 2377 2378 2379 2380 2381 2382 2383 2384 2385 2386 2387 2388 2389 0
2391 -2 -41 -74 -78 0
-2391 2 0
-2391 41 0
-2391 74 0
-2391 78 0
2392 -2 -44 -65 -78 0
-2392 2 0
-2392 44 0
-2392 65 0
-2392 78 0
2393 -2 -53 -56 -78 0
-2393 2 0
-2393 53 0
-2393 56 0
-2393 78 0
2394 -5 -26 -74 -78 0
-2394 5 0
-2394 26 0
-2394 74 0
-2394 78 0
2395 -5 -29 -65 -78 0
-2395 5 0
-2395 29 0
-2395 65 0
-2395 78 0
2396 -5 -38 -56 -78 0
-2396 5 0
-2396 38 0
-2396 56 0
-2396 78 0
2397 -8 -23 -74 -78 0
-2397 8 0
-2397 23 0
-2397 74 0
-2397 78 0
2398 -8 -29 -53 -78 0
-2398 8 0
-2398 29 0
-2398 53 0
-2398 78 0
2399 -8 -38 -44 -78 0
-2399 8 0
-2399 38 0
-2399 44 0
-2399 78 0
2400 -11 -23 -65 -78 0
-2400 11 0
-2400 23 0
-2400 65 0
-2400 78 0
2401 -11 -26 -53 -78 0
-2401 11 0
-2401 26 0
-2401 53 0
-2401 78 0
2402 -11 -38 -41 -78 0
-2402 11 0
-2402 38 0
-2402 41 0
-2402 78 0
2403 -20 -23 -56 -78 0
-2403 20 0
-2403 23 0
-2403 56 0
-2403 78 0
2404 -20 -26 -44 -78 0
-2404 20 0
-2404 26 0
-2404 44 0
-2404 78 0
2405 -20 -29 -41 -78 0
-2405 20 0
-2405 29 0
-2405 41 0
-2405 78 0
-2391 2392 2393 2394 2395 2396 2397 2398 2399 2400 2401 2402 2403 2404 2405 0
-2392 2391 2393 2394 2395 2396 2397 2398 2399 2400 2401 2402 2403 2404 2405 0
-2393 2391 2392 2394 2395 2396 2397 2398 2399 2400 2401 2402 2403 2404 2405 0
-2394 2391 2392 2393 2395 2396 2397 2398 2399 2400 2401 2402 2403 2404 2405 0
-2395 2391 2392 2393 2394 2396 2397 2398 2399 2400 2401 2402 2403 2404 2405 0
-2396 2391 2392 2393 2394 2395 2397 2398 2399 2400 2401 2402 2403 2404 2405 0
-2397 2391 2392 2393 2394 2395 2396 2398 2399 2400 2401 2402 2403 2404 2405 0
-2398 2391 2392 2393 2394 2395 2396 2397 2399 2400 2401 2402 2403 2404 2405 0
-2399 2391 2392 2393 2394 2395 2396 2397 2398 2400 2401 2402 2403 2404 2405 0
-2400 2391 2392 2393 2394 2395 2396 2397 2398 2399 2401 2402 2403 2404 2405 0
-2401 2391 2392 2393 2394 2395 2396 2397 2398 2399 2400 2402 2403 2404 2405 0
-2402 2391 2392 2393 2394 2395 2396 2397 2398 2399 2400 2401 2403 2404 2405 0
-2403 2391 2392 2393 2394 2395 2396 2397 2398 2399 2400 2401 2402 2404 2405 0
-2404 2391 2392 2393 2394 2395 2396 2397 2398 2399 2400 2401 2402 2403 2405 0
-2405 2391 2392 2393 2394 2395 2396 2397 2398 2399 2400 2401 2402 2403 2404 0
2406 -2 -41 -75 -76 0
-2406 2 0
-2406 41 0
-2406 75 0
-2406 76 0
2407 -5 -26 -75 -76 0
-2407 5 0
-2407 26 0
-2407 75 0
-2407 76 0
2408 -8 -23 -75 -76 0
-2408 8 0
-2408 23 0
-2408 75 0
-2408 76 0
-2406 2407 2408 0
-2407 2406 2408 0
-2408 2406 2407 0
2409 -2 -41 -75 -77 0
-2409 2 0
-2409 41 0
-2409 75 0
-2409 77 0
2410 -2 -47 -62 -75 0
-2410 2 0
-2410 47 0
-2410 62 0
-2410 75 0
2411 -2 -50 -59 -75 0
-2411 2 0
-2411 50 0
-2411 59 0
-2411 75 0
2412 -5 -26 -75 -77 0
-2412 5 0
-2412 26 0
-2412 75 0
-2412 77 0
2413 -5 -32 -62 -75 0
-2413 5 0
-2413 32 0
-2413 62 0
-2413 75 0
2414 -5 -35 -59 -75 0
-2414 5 0
-2414 35 0
-2414 59 0
-2414 75 0
2415 -8 -23 -75 -77 0
-2415 8 0
-2415 23 0
-2415 75 0
-2415 77 0
2416 -8 -32 -50 -75 0
-2416 8 0
-2416 32 0
-2416 50 0
-2416 75 0
2417 -8 -35 -47 -75 0
-2417 8 0
-2417 35 0
-2417 47 0
-2417 75 0
2418 -14 -23 -62 -75 0
-2418 14 0
-2418 23 0
-2418 62 0
-2418 75 0
2419 -14 -26 -50 -75 0
-2419 14 0
-2419 26 0
-2419 50 0
-2419 75 0
2420 -14 -35 -41 -75 0
-2420 14 0
-2420 35 0
-2420 41 0
-2420 75 0
2421 -17 -23 -59 -75 0
-2421 17 0
-2421 23 0
-2421 59 0
-2421 75 0
2422 -17 -26 -47 -75 0
-2422 17 0
-2422 26 0
-2422 47 0
-2422 75 0
2423 -17 -32 -41 -75 0
-2423 17 0
-2423 32 0
-2423 41 0
-2423 75 0
-2409 2410 2411 2412 2413 2414 2415 2416 2417 2418 2419 2420 2421 2422 2423 0
-2410 2409 2411 2412 2413 2414 2415 2416 2417 2418 2419 2420 2421 2422 2423 0
-2411 2409 2410 2412 2413 2414 2415 2416 2417 2418 2419 2420 2421 2422 2423 0
-2412 2409 2410 2411 2413 2414 2415 2416 2417 2418 2419 2420 2421 2422 2423 0
-2413 2409 2410 2411 2412 2414 2415 2416 2417 2418 2419 2420 2421 2422 2423 0
-2414 2409 2410 2411 2412 2413 2415 2416 2417 2418 2419 2420 2421 2422 2423 0
-2415 2409 2410 2411 2412 2413 2414 2416 2417 2418 2419 2420 2421 2422 2423 0
-2416 2409 2410 2411 2412 2413 2414 2415 2417 2418 2419 2420 2421 2422 2423 0
-2417 2409 2410 2411 2412 2413 2414 2415 2416 2418 2419 2420 2421 2422 2423 0
-2418 2409 2410 2411 2412 2413 2414 2415 2416 2417 2419 2420 2421 2422 2423 0
-2419 2409 2410 2411 2412 2413 2414 2415 2416 2417 2418 2420 2421 2422 2423 0
-2420 2409 2410 2411 2412 2413 2414 2415 2416 2417 2418 2419 2421 2422 2423 0
-2421 2409 2410 2411 2412 2413 2414 2415 2416 2417 2418 2419 2420 2422 2423 0
-2422 2409 2410 2411 2412 2413 2414 2415 2416 2417 2418 2419 2420 2421 2423 0
-2423 2409 2410 2411 2412 2413 2414 2415 2416 2417 2418 2419 2420 2421 2422 0
2424 -2 -42 -73 -77 0
-2424 2 0
-2424 42 0
-2424 73 0
-2424 77 0
2425 -14 -35 -42 -73 0
-2425 14 0
-2425 35 0
-2425 42 0
-2425 73 0
2426 -17 -32 -42 -73 0
-2426 17 0
-2426 32 0
-2426 42 0
-2426 73 0
-2424 2425 2426 0
-2425 2424 2426 0
-2426 2424 2425 0
2427 -2 -42 -73 -78 0
-2427 2 0
-2427 42 0
-2427 73 0
-2427 78 0
2428 -2 -48 -63 -73 0
-2428 2 0
-2428 48 0
-2428 63 0
-2428 73 0
2429 -2 -51 -60 -73 0
-2429 2 0
-2429 51 0
-2429 60 0
-2429 73 0
-2427 2428 2429 0
-2428 2427 2429 0
-2429 2427 2428 0
2430 -2 -42 -74 -76 0
-2430 2 0
-2430 42 0
-2430 74 0
-2430 76 0
2431 -11 -38 -42 -76 0
-2431 11 0
-2431 38 0
-2431 42 0
-2431 76 0
2432 -20 -29 -42 -76 0
-2432 20 0
-2432 29 0
-2432 42 0
-2432 76 0
-2430 2431 2432 0
-2431 2430 2432 0
-2432 2430 2431 0
2433 -2 -42 -74 -78 0
-2433 2 0
-2433 42 0
-2433 74 0
-2433 78 0
2434 -2 -48 -63 -74 0
-2434 2 0
-2434 48 0
-2434 63 0
-2434 74 0
2435 -2 -51 -60 -74 0
-2435 2 0
-2435 51 0
-2435 60 0
-2435 74 0
2436 -11 -38 -42 -78 0
-2436 11 0
-2436 38 0
-2436 42 0
-2436 78 0
2437 -11 -38 -48 -63 0
-2437 11 0
-2437 38 0
-2437 48 0
-2437 63 0
2438 -11 -38 -51 -60 0
-2438 11 0
-2438 38 0
-2438 51 0
-2438 60 0
2439 -20 -29 -42 -78 0
-2439 20 0
-2439 29 0
-2439 42 0
-2439 78 0
2440 -20 -29 -48 -63 0
-2440 20 0
-2440 29 0
-2440 48 0
-2440 63 0
2441 -20 -29 -51 -60 0
-2441 20 0
-2441 29 0
-2441 51 0
-2441 60 0
-2433 2434 2435 2436 2437 2438 2439 2440 2441 0
-2434 2433 2435 2436 2437 2438 2439 2440 2441 0
-2435 2433 2434 2436 2437 2438 2439 2440 2441 0
-2436 2433 2434 2435 2437 2438 2439 2440 2441 0
-2437 2433 2434 2435 2436 2438 2439 2440 2441 0
-2438 2433 2434 2435 2436 2437 2439 2440 2441 0
-2439 2433 2434 2435 2436 2437 2438 2440 2441 0
-2440 2433 2434 2435 2436 2437 2438 2439 2441 0
-2441 2433 2434 2435 2436 2437 2438 2439 2440 0
2442 -2 -42 -75 -76 0
-2442 2 0
-2442 42 0
-2442 75 0
-2442 76 0
2443 -2 -45 -66 -76 0
-2443 2 0
-2443 45 0
-2443 66 0
-2443 76 0
2444 -2 -54 -57 -76 0
-2444 2 0
-2444 54 0
-2444 57 0
-2444 76 0
-2442 2443 2444 0
-2443 2442 2444 0
-2444 2442 2443 0
2445 -2 -42 -75 -77 0
-2445 2 0
-2445 42 0
-2445 75 0
-2445 77 0
2446 -2 -45 -66 -77 0
-2446 2 0
-2446 45 0
-2446 66 0
-2446 77 0
2447 -2 -54 -57 -77 0
-2447 2 0
-2447 54 0
-2447 57 0
-2447 77 0
2448 -14 -35 -42 -75 0
-2448 14 0
-2448 35 0
-2448 42 0
-2448 75 0
2449 -14 -35 -45 -66 0
-2449 14 0
-2449 35 0
-2449 45 0
-2449 66 0
2450 -14 -35 -54 -57 0
-2450 14 0
-2450 35 0
-2450 54 0
-2450 57 0
2451 -17 -32 -42 -75 0
-2451 17 0
-2451 32 0
-2451 42 0
-2451 75 0
2452 -17 -32 -45 -66 0
-2452 17 0
-2452 32 0
-2452 45 0
-2452 66 0
2453 -17 -32 -54 -57 0
-2453 17 0
-2453 32 0
-2453 54 0
-2453 57 0
-2445 2446 2447 2448 2449 2450 2451 2452 2453 0
-2446 2445 2447 2448 2449 2450 2451 2452 2453 0
-2447 2445 2446 2448 2449 2450 2451 2452 2453 0
-2448 2445 2446 2447 2449 2450 2451 2452 2453 0
-2449 2445 2446 2447 2448 2450 2451 2452 2453 0
-2450 2445 2446 2447 2448 2449 2451 2452 2453 0
-2451 2445 2446 2447 2448 2449 2450 2452 2453 0
-2452 2445 2446 2447 2448 2449 2450 2451 2453 0
-2453 2445 2446 2447 2448 2449 2450 2451 2452 0
2454 -3 -40 -73 -77 0
-2454 3 0
-2454 40 0
-2454 73 0
-2454 77 0
2455 -3 -43 -64 -77 0
-2455 3 0
-2455 43 0
-2455 64 0
-2455 77 0
2456 -3 -52 -55 -77 0
-2456 3 0
-2456 52 0
-2456 55 0
-2456 77 0
-2454 2455 2456 0
-2455 2454 2456 0
-2456 2454 2455 0
2457 -3 -40 -73 -78 0
-2457 3 0
-2457 40 0
-2457 73 0
-2457 78 0
2458 -3 -43 -64 -78 0
-2458 3 0
-2458 43 0
-2458 64 0
-2458 78 0
2459 -3 -52 -55 -78 0
-2459 3 0
-2459 52 0
-2459 55 0
-2459 78 0
2460 -15 -36 -40 -73 0
-2460 15 0
-2460 36 0
-2460 40 0
-2460 73 0
2461 -15 -36 -43 -64 0
-2461 15 0
-2461 36 0
-2461 43 0
-2461 64 0
2462 -15 -36 -52 -55 0
-2462 15 0
-2462 36 0
-2462 52 0
-2462 55 0
2463 -18 -33 -40 -73 0
-2463 18 0
-2463 33 0
-2463 40 0
-2463 73 0
2464 -18 -33 -43 -64 0
-2464 18 0
-2464 33 0
-2464 43 0
-2464 64 0
2465 -18 -33 -52 -55 0
-2465 18 0
-2465 33 0
-2465 52 0
-2465 55 0
-2457 2458 2459 2460 2461 2462 2463 2464 2465 0
-2458 2457 2459 2460 2461 2462 2463 2464 2465 0
-2459 2457 2458 2460 2461 2462 2463 2464 2465 0
-2460 2457 2458 2459 2461 2462 2463 2464 2465 0
-2461 2457 2458 2459 2460 2462 2463 2464 2465 0
-2462 2457 2458 2459 2460 2461 2463 2464 2465 0
-2463 2457 2458 2459 2460 2461 2462 2464 2465 0
-2464 2457 2458 2459 2460 2461 2462 2463 2465 0
-2465 2457 2458 2459 2460 2461 2462 2463 2464 0
2466 -3 -40 -74 -76 0
-2466 3 0
-2466 40 0
-2466 74 0
-2466 76 0
2467 -3 -46 -61 -74 0
-2467 3 0
-2467 46 0
-2467 61 0
-2467 74 0
2468 -3 -49 -58 -74 0
-2468 3 0
-2468 49 0
-2468 58 0
-2468 74 0
-2466 2467 2468 0
-2467 2466 2468 0
-2468 2466 2467 0
2469 -3 -40 -74 -78 0
-2469 3 0
-2469 40 0
-2469 74 0
-2469 78 0
2470 -15 -36 -40 -74 0
-2470 15 0
-2470 36 0
-2470 40 0
-2470 74 0
2471 -18 -33 -40 -74 0
-2471 18 0
-2471 33 0
-2471 40 0
-2471 74 0
-2469 2470 2471 0
-2470 2469 2471 0
-2471 2469 2470 0
2472 -3 -40 -75 -76 0
-2472 3 0
-2472 40 0
-2472 75 0
-2472 76 0
2473 -3 -46 -61 -75 0
-2473 3 0
-2473 46 0
-2473 61 0
-2473 75 0
2474 -3 -49 -58 -75 0
-2474 3 0
-2474 49 0
-2474 58 0
-2474 75 0
2475 -12 -39 -40 -76 0
-2475 12 0
-2475 39 0
-2475 40 0
-2475 76 0
2476 -12 -39 -46 -61 0
-2476 12 0
-2476 39 0
-2476 46 0
-2476 61 0
2477 -12 -39 -49 -58 0
-2477 12 0
-2477 39 0
-2477 49 0
-2477 58 0
2478 -21 -30 -40 -76 0
-2478 21 0
-2478 30 0
-2478 40 0
-2478 76 0
2479 -21 -30 -46 -61 0
-2479 21 0
-2479 30 0
-2479 46 0
-2479 61 0
2480 -21 -30 -49 -58 0
-2480 21 0
-2480 30 0
-2480 49 0
-2480 58 0
-2472 2473 2474 2475 2476 2477 2478 2479 2480 0
-2473 2472 2474 2475 2476 2477 2478 2479 2480 0
-2474 2472 2473 2475 2476 2477 2478 2479 2480 0
-2475 2472 2473 2474 2476 2477 2478 2479 2480 0
-2476 2472 2473 2474 2475 2477 2478 2479 2480 0
-2477 2472 2473 2474 2475 2476 2478 2479 2480 0
-2478 2472 2473 2474 2475 2476 2477 2479 2480 0
-2479 2472 2473 2474 2475 2476 2477 2478 2480 0
-2480 2472 2473 2474 2475 2476 2477 2478 2479 0
2481 -3 -40 -75 -77 0
-2481 3 0
-2481 40 0
-2481 75 0
-2481 77 0
2482 -12 -39 -40 -77 0
-2482 12 0
-2482 39 0
-2482 40 0
-2482 77 0
2483 -21 -30 -40 -77 0
-2483 21 0
-2483 30 0
-2483 40 0
-2483 77 0
-2481 2482 2483 0
-2482 2481 2483 0
-2483 2481 2482 0
2484 -3 -41 -73 -77 0
-2484 3 0
-2484 41 0
-2484 73 0
-2484 77 0
2485 -3 -47 -62 -73 0
-2485 3 0
-2485 47 0
-2485 62 0
-2485 73 0
2486 -3 -50 -59 -73 0
-2486 3 0
-2486 50 0
-2486 59 0
-2486 73 0
-2484 2485 2486 0
-2485 2484 2486 0
-2486 2484 2485 0
2487 -3 -41 -73 -78 0
-2487 3 0
-2487 41 0
-2487 73 0
-2487 78 0
2488 -15 -36 -41 -73 0
-2488 15 0
-2488 36 0
-2488 41 0
-2488 73 0
2489 -18 -33 -41 -73 0
-2489 18 0
-2489 33 0
-2489 41 0
-2489 73 0
-2487 2488 2489 0
-2488 2487 2489 0
-2489 2487 2488 0
2490 -3 -41 -74 -76 0
-2490 3 0
-2490 41 0
-2490 74 0
-2490 76 0
2491 -3 -44 -65 -76 0
-2491 3 0
-2491 44 0
-2491 65 0
-2491 76 0
2492 -3 -53 -56 -76 0
-2492 3 0
-2492 53 0
-2492 56 0
-2492 76 0
-2490 2491 2492 0
-2491 2490 2492 0
-2492 2490 2491 0
2493 -3 -41 -74 -78 0
-2493 3 0
-2493 41 0
-2493 74 0
-2493 78 0
2494 -3 -44 -65 -78 0
-2494 3 0
-2494 44 0
-2494 65 0
-2494 78 0
2495 -3 -53 -56 -78 0
-2495 3 0
-2495 53 0
-2495 56 0
-2495 78 0
2496 -15 -36 -41 -74 0
-2496 15 0
-2496 36 0
-2496 41 0
-2496 74 0
2497 -15 -36 -44 -65 0
-2497 15 0
-2497 36 0
-2497 44 0
-2497 65 0
2498 -15 -36 -53 -56 0
-2498 15 0
-2498 36 0
-2498 53 0
-2498 56 0
2499 -18 -33 -41 -74 0
-2499 18 0
-2499 33 0
-2499 41 0
-2499 74 0
2500 -18 -33 -44 -65 0
-2500 18 0
-2500 33 0
-2500 44 0
-2500 65 0
2501 -18 -33 -53 -56 0
-2501 18 0
-2501 33 0
-2501 53 0
-2501 56 0
-2493 2494 2495 2496 2497 2498 2499 2500 2501 0
-2494 2493 2495 2496 2497 2498 2499 2500 2501 0
-2495 2493 2494 2496 2497 2498 2499 2500 2501 0
-2496 2493 2494 2495 2497 2498 2499 2500 2501 0
-2497 2493 2494 2495 2496 2498 2499 2500 2501 0
-2498 2493 2494 2495 2496 2497 2499 2500 2501 0
-2499 2493 2494 2495 2496 2497 2498 2500 2501 0
-2500 2493 2494 2495 2496 2497 2498 2499 2501 0
-2501 2493 2494 2495 2496 2497 2498 2499 2500 0
2502 -3 -41 -75 -76 0
-2502 3 0
-2502 41 0
-2502 75 0
-2502 76 0
2503 -12 -39 -41 -76 0
-2503 12 0
-2503 39 0
-2503 41 0
-2503 76 0
2504 -21 -30 -41 -76 0
-2504 21 0
-2504 30 0
-2504 41 0
-2504 76 0
-2502 2503 2504 0
-2503 2502 2504 0
-2504 2502 2503 0
2505 -3 -41 -75 -77 0
-2505 3 0
-2505 41 0
-2505 75 0
-2505 77 0
2506 -3 -47 -62 -75 0
-2506 3 0
-2506 47 0
-2506 62 0
-2506 75 0
2507 -3 -50 -59 -75 0
-2507 3 0
-2507 50 0
-2507 59 0
-2507 75 0
2508 -12 -39 -41 -77 0
-2508 12 0
-2508 39 0
-2508 41 0
-2508 77 0
2509 -12 -39 -47 -62 0
-2509 12 0
-2509 39 0
-2509 47 0
-2509 62 0
2510 -12 -39 -50 -59 0
-2510 12 0
-2510 39 0
-2510 50 0
-2510 59 0
2511 -21 -30 -41 -77 0
-2511 21 0
-2511 30 0
-2511 41 0
-2511 77 0
2512 -21 -30 -47 -62 0
-2512 21 0
-2512 30 0
-2512 47 0
-2512 62 0
2513 -21 -30 -50 -59 0
-2513 21 0
-2513 30 0
-2513 50 0
-2513 59 0
-2505 2506 2507 2508 2509 2510 2511 2512 2513 0
-2506 2505 2507 2508 2509 2510 2511 2512 2513 0
-2507 2505 2506 2508 2509 2510 2511 2512 2513 0
-2508 2505 2506 2507 2509 2510 2511 2512 2513 0
-2509 2505 2506 2507 2508 2510 2511 2512 2513 0
-2510 2505 2506 2507 2508 2509 2511 2512 2513 0
-2511 2505 2506 2507 2508 2509 2510 2512 2513 0
-2512 2505 2506 2507 2508 2509 2510 2511 2513 0
-2513 2505 2506 2507 2508 2509 2510 2511 2512 0
2514 -3 -42 -73 -77 0
-2514 3 0
-2514 42 0
-2514 73 0
-2514 77 0
2515 -6 -27 -73 -77 0
-2515 6 0
-2515 27 0
-2515 73 0
-2515 77 0
2516 -9 -24 -73 -77 0
-2516 9 0
-2516 24 0
-2516 73 0
-2516 77 0
-2514 2515 2516 0
-2515 2514 2516 0
-2516 2514 2515 0
2517 -3 -42 -73 -78 0
-2517 3 0
-2517 42 0
-2517 73 0
-2517 78 0
2518 -3 -48 -63 -73 0
-2518 3 0
-2518 48 0
-2518 63 0
-2518 73 0
2519 -3 -51 -60 -73 0
-2519 3 0
-2519 51 0
-2519 60 0
-2519 73 0
2520 -6 -27 -73 -78 0
-2520 6 0
-2520 27 0
-2520 73 0
-2520 78 0
2521 -6 -33 -63 -73 0
-2521 6 0
-2521 33 0
-2521 63 0
-2521 73 0
2522 -6 -36 -60 -73 0
-2522 6 0
-2522 36 0
-2522 60 0
-2522 73 0
2523 -9 -24 -73 -78 0
-2523 9 0
-2523 24 0
-2523 73 0
-2523 78 0
2524 -9 -33 -51 -73 0
-2524 9 0
-2524 33 0
-2524 51 0
-2524 73 0
2525 -9 -36 -48 -73 0
-2525 9 0
-2525 36 0
-2525 48 0
-2525 73 0
2526 -15 -24 -63 -73 0
-2526 15 0
-2526 24 0
-2526 63 0
-2526 73 0
2527 -15 -27 -51 -73 0
-2527 15 0
-2527 27 0
-2527 51 0
-2527 73 0
2528 -15 -36 -42 -73 0
-2528 15 0
-2528 36 0
-2528 42 0
-2528 73 0
2529 -18 -24 -60 -73 0
-2529 18 0
-2529 24 0
-2529 60 0
-2529 73 0
2530 -18 -27 -48 -73 0
-2530 18 0
-2530 27 0
-2530 48 0
-2530 73 0
2531 -18 -33 -42 -73 0
-2531 18 0
-2531 33 0
-2531 42 0
-2531 73 0
-2517 2518 2519 2520 2521 2522 2523 2524 2525 2526 2527 2528 2529 2530 2531 0
-2518 2517 2519 2520 2521 2522 2523 2524 2525 2526 2527 2528 2529 2530 2531 0
-2519 2517 2518 2520 2521 2522 2523 2524 2525 2526 2527 2528 2529 2530 2531 0
-2520 2517 2518 2519 2521 2522 2523 2524 2525 2526 2527 2528 2529 2530 2531 0
-2521 2517 2518 2519 2520 2522 2523 2524 2525 2526 2527 2528 2529 2530 2531 0
-2522 2517 2518 2519 2520 2521 2523 2524 2525 2526 2527 2528 2529 2530 2531 0
-2523 2517 2518 2519 2520 2521 2522 2524 2525 2526 2527 2528 2529 2530 2531 0
-2524 2517 2518 2519 2520 2521 2522 2523 2525 2526 2527 2528 2529 2530 2531 0
-2525 2517 2518 2519 2520 2521 2522 2523 2524 2526 2527 2528 2529 2530 2531 0
-2526 2517 2518 2519 2520 2521 2522 2523 2524 2525 2527 2528 2529 2530 2531 0
-2527 2517 2518 2519 2520 2521 2522 2523 2524 2525 2526 2528 2529 2530 2531 0
-2528 2517 2518 2519 2520 2521 2522 2523 2524 2525 2526 2527 2529 2530 2531 0
-2529 2517 2518 2519 2520 2521 2522 2523 2524 2525 2526 2527 2528 2530 2531 0
-2530 2517 2518 2519 2520 2521 2522 2523 2524 2525 2526 2527 2528 2529 2531 0
-2531 2517 2518 2519 2520 2521 2522 2523 2524 2525 2526 2527 2528 2529 2530 0
2532 -3 -42 -74 -76 0
-2532 3 0
-2532 42 0
-2532 74 0
-2532 76 0
2533 -6 -27 -74 -76 0
-2533 6 0
-2533 27 0
-2533 74 0
-2533 76 0
2534 -9 -24 -74 -76 0
-2534 9 0
-2534 24 0
-2534 74 0
-2534 76 0
-2532 2533 2534 0
-2533 2532 2534 0
-2534 2532 2533 0
2535 -3 -42 -74 -78 0
-2535 3 0
-2535 42 0
-2535 74 0
-2535 78 0
2536 -3 -48 -63 -74 0
-2536 3 0
-2536 48 0
-2536 63 0
-2536 74 0
2537 -3 -51 -60 -74 0
-2537 3 0
-2537 51 0
-2537 60 0
-2537 74 0
2538 -6 -27 -74 -78 0
-2538 6 0
-2538 27 0
-2538 74 0
-2538 78 0
2539 -6 -33 -63 -74 0
-2539 6 0
-2539 33 0
-2539 63 0
-2539 74 0
2540 -6 -36 -60 -74 0
-2540 6 0
-2540 36 0
-2540 60 0
-2540 74 0
2541 -9 -24 -74 -78 0
-2541 9 0
-2541 24 0
-2541 74 0
-2541 78 0
2542 -9 -33 -51 -74 0
-2542 9 0
-2542 33 0
-2542 51 0
-2542 74 0
2543 -9 -36 -48 -74 0
-2543 9 0
-2543 36 0
-2543 48 0
-2543 74 0
2544 -15 -24 -63 -74 0
-2544 15 0
-2544 24 0
-2544 63 0
-2544 74 0
2545 -15 -27 -51 -74 0
-2545 15 0
-2545 27 0
-2545 51 0
-2545 74 0
2546 -15 -36 -42 -74 0
-2546 15 0
-2546 36 0
-2546 42 0
-2546 74 0
2547 -18 -24 -60 -74 0
-2547 18 0
-2547 24 0
-2547 60 0
-2547 74 0
2548 -18 -27 -48 -74 0
-2548 18 0
-2548 27 0
-2548 48 0
-2548 74 0
2549 -18 -33 -42 -74 0
-2549 18 0
-2549 33 0
-2549 42 0
-2549 74 0
-2535 2536 2537 2538 2539 2540 2541 2542 2543 2544 2545 2546 2547 2548 2549 0
-2536 2535 2537 2538 2539 2540 2541 2542 2543 2544 2545 2546 2547 2548 2549 0
-2537 2535 2536 2538 2539 2540 2541 2542 2543 2544 2545 2546 2547 2548 2549 0
-2538 2535 2536 2537 2539 2540 2541 2542 2543 2544 2545 2546 2547 2548 2549 0
-2539 2535 2536 2537 2538 2540 2541 2542 2543 2544 2545 2546 2547 2548 2549 0
-2540 2535 2536 2537 2538 2539 2541 2542 2543 2544 2545 2546 2547 2548 2549 0
-2541 2535 2536 2537 2538 2539 2540 2542 2543 2544 2545 2546 2547 2548 2549 0
-2542 2535 2536 2537 2538 2539 2540 2541 2543 2544 2545 2546 2547 2548 2549 0
-2543 2535 2536 2537 2538 2539 2540 2541 2542 2544 2545 2546 2547 2548 2549 0
-2544 2535 2536 2537 2538 2539 2540 2541 2542 2543 2545 2546 2547 2548 2549 0
-2545 2535 2536 2537 2538 2539 2540 2541 2542 2543 2544 2546 2547 2548 2549 0
-2546 2535 2536 2537 2538 2539 2540 2541 2542 2543 2544 2545 2547 2548 2549 0
-2547 2535 2536 2537 2538 2539 2540 2541 2542 2543 2544 2545 2546 2548 2549 0
-2548 2535 2536 2537 2538 2539 2540 2541 2542 2543 2544 2545 2546 2547 2549 0
-2549 2535 2536 2537 2538 2539 2540 2541 2542 2543 2544 2545 2546 2547 2548 0
2550 -3 -42 -75 -76 0
-2550 3 0
-2550 42 0
-2550 75 0
-2550 76 0
2551 -3 -45 -66 -76 0
-2551 3 0
-2551 45 0
-2551 66 0
-2551 76 0
2552 -3 -54 -57 -76 0
-2552 3 0
-2552 54 0
-2552 57 0
-2552 76 0
2553 -6 -27 -75 -76 0
-2553 6 0
-2553 27 0
-2553 75 0
-2553 76 0
2554 -6 -30 -66 -76 0
-2554 6 0
-2554 30 0
-2554 66 0
-2554 76 0
2555 -6 -39 -57 -76 0
-2555 6 0
-2555 39 0
-2555 57 0
-2555 76 0
2556 -9 -24 -75 -76 0
-2556 9 0
-2556 24 0
-2556 75 0
-2556 76 0
2557 -9 -30 -54 -76 0
-2557 9 0
-2557 30 0
-2557 54 0
-2557 76 0
2558 -9 -39 -45 -76 0
-2558 9 0
-2558 39 0
-2558 45 0
-2558 76 0
2559 -12 -24 -66 -76 0
-2559 12 0
-2559 24 0
-2559 66 0
-2559 76 0
2560 -12 -27 -54 -76 0
-2560 12 0
-2560 27 0
-2560 54 0
-2560 76 0
2561 -12 -39 -42 -76 0
-2561 12 0
-2561 39 0
-2561 42 0
-2561 76 0
2562 -21 -24 -57 -76 0
-2562 21 0
-2562 24 0
-2562 57 0
-2562 76 0
2563 -21 -27 -45 -76 0
-2563 21 0
-2563 27 0
-2563 45 0
-2563 76 0
2564 -21 -30 -42 -76 0
-2564 21 0
-2564 30 0
-2564 42 0
-2564 76 0
-2550 2551 2552 2553 2554 2555 2556 2557 2558 2559 2560 2561 2562 2563 2564 0
-2551 2550 2552 2553 2554 2555 2556 2557 2558 2559 2560 2561 2562 2563 2564 0
-2552 2550 2551 2553 2554 2555 2556 2557 2558 2559 2560 2561 2562 2563 2564 0
-2553 2550 2551 2552 2554 2555 2556 2557 2558 2559 2560 2561 2562 2563 2564 0
-2554 2550 2551 2552 2553 2555 2556 2557 2558 2559 2560 2561 2562 2563 2564 0
-2555 2550 2551 2552 2553 2554 2556 2557 2558 2559 2560 2561 2562 2563 2564 0
-2556 2550 2551 2552 2553 2554 2555 2557 2558 2559 2560 2561 2562 2563 2564 0
-2557 2550 2551 2552 2553 2554 2555 2556 2558 2559 2560 2561 2562 2563 2564 0
-2558 2550 2551 2552 2553 2554 2555 2556 2557 2559 2560 2561 2562 2563 2564 0
-2559 2550 2551 2552 2553 2554 2555 2556 2557 2558 2560 2561 2562 2563 2564 0
-2560 2550 2551 2552 2553 2554 2555 2556 2557 2558 2559 2561 2562 2563 2564 0
-2561 2550 2551 2552 2553 2554 2555 2556 2557 2558 2559 2560 2562 2563 2564 0
-2562 2550 2551 2552 2553 2554 2555 2556 2557 2558 2559 2560 2561 2563 2564 0
-2563 2550 2551 2552 2553 2554 2555 2556 2557 2558 2559 2560 2561 2562 2564 0
-2564 2550 2551 2552 2553 2554 2555 2556 2557 2558 2559 2560 2561 2562 2563 0
2565 -3 -42 -75 -77 0
-2565 3 0
-2565 42 0
-2565 75 0
-2565 77 0
2566 -3 -45 -66 -77 0
-2566 3 0
-2566 45 0
-2566 66 0
-2566 77 0
2567 -3 -54 -57 -77 0
-2567 3 0
-2567 54 0
-2567 57 0
-2567 77 0
2568 -6 -27 -75 -77 0
-2568 6 0
-2568 27 0
-2568 75 0
-2568 77 0
2569 -6 -30 -66 -77 0
-2569 6 0
-2569 30 0
-2569 66 0
-2569 77 0
2570 -6 -39 -57 -77 0
-2570 6 0
-2570 39 0
-2570 57 0
-2570 77 0
2571 -9 -24 -75 -77 0
-2571 9 0
-2571 24 0
-2571 75 0
-2571 77 0
2572 -9 -30 -54 -77 0
-2572 9 0
-2572 30 0
-2572 54 0
-2572 77 0
2573 -9 -39 -45 -77 0
-2573 9 0
-2573 39 0
-2573 45 0
-2573 77 0
2574 -12 -24 -66 -77 0
-2574 12 0
-2574 24 0
-2574 66 0
-2574 77 0
2575 -12 -27 -54 -77 0
-2575 12 0
-2575 27 0
-2575 54 0
-2575 77 0
2576 -12 -39 -42 -77 0
-2576 12 0
-2576 39 0
-2576 42 0
-2576 77 0
2577 -21 -24 -57 -77 0
-2577 21 0
-2577 24 0
-2577 57 0
-2577 77 0
2578 -21 -27 -45 -77 0
-2578 21 0
-2578 27 0
-2578 45 0
-2578 77 0
2579 -21 -30 -42 -77 0
-2579 21 0
-2579 30 0
-2579 42 0
-2579 77 0
-2565 2566 2567 2568 2569 2570 2571 2572 2573 2574 2575 2576 2577 2578 2579 0
-2566 2565 2567 2568 2569 2570 2571 2572 2573 2574 2575 2576 2577 2578 2579 0
-2567 2565 2566 2568 2569 2570 2571 2572 2573 2574 2575 2576 2577 2578 2579 0
-2568 2565 2566 2567 2569 2570 2571 2572 2573 2574 2575 2576 2577 2578 2579 0
-2569 2565 2566 2567 2568 2570 2571 2572 2573 2574 2575 2576 2577 2578 2579 0
-2570 2565 2566 2567 2568 2569 2571 2572 2573 2574 2575 2576 2577 2578 2579 0
-2571 2565 2566 2567 2568 2569 2570 2572 2573 2574 2575 2576 2577 2578 2579 0
-2572 2565 2566 2567 2568 2569 2570 2571 2573 2574 2575 2576 2577 2578 2579 0
-2573 2565 2566 2567 2568 2569 2570 2571 2572 2574 2575 2576 2577 2578 2579 0
-2574 2565 2566 2567 2568 2569 2570 2571 2572 2573 2575 2576 2577 2578 2579 0
-2575 2565 2566 2567 2568 2569 2570 2571 2572 2573 2574 2576 2577 2578 2579 0
-2576 2565 2566 2567 2568 2569 2570 2571 2572 2573 2574 2575 2577 2578 2579 0
-2577 2565 2566 2567 2568 2569 2570 2571 2572 2573 2574 2575 2576 2578 2579 0
-2578 2565 2566 2567 2568 2569 2570 2571 2572 2573 2574 2575 2576 2577 2579 0
-2579 2565 2566 2567 2568 2569 2570 2571 2572 2573 2574 2575 2576 2577 2578 0
2580 -1 -43 -59 -82 0
-2580 1 0
-2580 43 0
-2580 59 0
-2580 82 0
2581 -1 -49 -59 -73 0
-2581 1 0
-2581 49 0
-2581 59 0
-2581 73 0
2582 -1 -52 -59 -70 0
-2582 1 0
-2582 52 0
-2582 59 0
-2582 70 0
2583 -4 -28 -59 -82 0
-2583 4 0
-2583 28 0
-2583 59 0
-2583 82 0
2584 -4 -34 -59 -73 0
-2584 4 0
-2584 34 0
-2584 59 0
-2584 73 0
2585 -4 -37 -59 -70 0
-2585 4 0
-2585 37 0
-2585 59 0
-2585 70 0
2586 -10 -22 -59 -82 0
-2586 10 0
-2586 22 0
-2586 59 0
-2586 82 0
2587 -10 -34 -52 -59 0
-2587 10 0
-2587 34 0
-2587 52 0
-2587 59 0
2588 -10 -37 -49 -59 0
-2588 10 0
-2588 37 0
-2588 49 0
-2588 59 0
2589 -16 -22 -59 -73 0
-2589 16 0
-2589 22 0
-2589 59 0
-2589 73 0
2590 -16 -28 -52 -59 0
-2590 16 0
-2590 28 0
-2590 52 0
-2590 59 0
2591 -16 -37 -43 -59 0
-2591 16 0
-2591 37 0
-2591 43 0
-2591 59 0
2592 -19 -22 -59 -70 0
-2592 19 0
-2592 22 0
-2592 59 0
-2592 70 0
2593 -19 -28 -49 -59 0
-2593 19 0
-2593 28 0
-2593 49 0
-2593 59 0
2594 -19 -34 -43 -59 0
-2594 19 0
-2594 34 0
-2594 43 0
-2594 59 0
-2580 2581 2582 2583 2584 2585 2586 2587 2588 2589 2590 2591 2592 2593 2594 0
-2581 2580 2582 2583 2584 2585 2586 2587 2588 2589 2590 2591 2592 2593 2594 0
-2582 2580 2581 2583 2584 2585 2586 2587 2588 2589 2590 2591 2592 2593 2594 0
-2583 2580 2581 2582 2584 2585 2586 2587 2588 2589 2590 2591 2592 2593 2594 0
-2584 2580 2581 2582 2583 2585 2586 2587 2588 2589 2590 2591 2592 2593 2594 0
-2585 2580 2581 2582 2583 2584 2586 2587 2588 2589 2590 2591 2592 2593 2594 0
-2586 2580 2581 2582 2583 2584 2585 2587 2588 2589 2590 2591 2592 2593 2594 0
-2587 2580 2581 2582 2583 2584 2585 2586 2588 2589 2590 2591 2592 2593 2594 0
-2588 2580 2581 2582 2583 2584 2585 2586 2587 2589 2590 2591 2592 2593 2594 0
-2589 2580 2581 2582 2583 2584 2585 2586 2587 2588 2590 2591 2592 2593 2594 0
-2590 2580 2581 2582 2583 2584 2585 2586 2587 2588 2589 2591 2592 2593 2594 0
-2591 2580 2581 2582 2583 2584 2585 2586 2587 2588 2589 2590 2592 2593 2594 0
-2592 2580 2581 2582 2583 2584 2585 2586 2587 2588 2589 2590 2591 2593 2594 0
-2593 2580 2581 2582 2583 2584 2585 2586 2587 2588 2589 2590 2591 2592 2594 0
-2594 2580 2581 2582 2583 2584 2585 2586 2587 2588 2589 2590 2591 2592 2593 0
2595 -1 -43 -59 -83 0
-2595 1 0
-2595 43 0
-2595 59 0
-2595 83 0
2596 -1 -43 -62 -80 0
-2596 1 0
-2596 43 0
-2596 62 0
-2596 80 0
2597 -1 -43 -65 -77 0
-2597 1 0
-2597 43 0
-2597 65 0
-2597 77 0
2598 -4 -28 -59 -83 0
-2598 4 0
-2598 28 0
-2598 59 0
-2598 83 0
2599 -4 -28 -62 -80 0
-2599 4 0
-2599 28 0
-2599 62 0
-2599 80 0
2600 -4 -28 -65 -77 0
-2600 4 0
-2600 28 0
-2600 65 0
-2600 77 0
2601 -10 -22 -59 -83 0
-2601 10 0
-2601 22 0
-2601 59 0
-2601 83 0
2602 -10 -22 -62 -80 0
-2602 10 0
-2602 22 0
-2602 62 0
-2602 80 0
2603 -10 -22 -65 -77 0
-2603 10 0
-2603 22 0
-2603 65 0
-2603 77 0
-2595 2596 2597 2598 2599 2600 2601 2602 2603 0
-2596 2595 2597 2598 2599 2600 2601 2602 2603 0
-2597 2595 2596 2598 2599 2600 2601 2602 2603 0
-2598 2595 2596 2597 2599 2600 2601 2602 2603 0
-2599 2595 2596 2597 2598 2600 2601 2602 2603 0
-2600 2595 2596 2597 2598 2599 2601 2602 2603 0
-2601 2595 2596 2597 2598 2599 2600 2602 2603 0
-2602 2595 2596 2597 2598 2599 2600 2601 2603 0
-2603 2595 2596 2597 2598 2599 2600 2601 2602 0
2604 -1 -43 -59 -84 0
-2604 1 0
-2604 43 0
-2604 59 0
-2604 84 0
2605 -4 -28 -59 -84 0
-2605 4 0
-2605 28 0
-2605 59 0
-2605 84 0
2606 -10 -22 -59 -84 0
-2606 10 0
-2606 22 0
-2606 59 0
-2606 84 0
-2604 2605 2606 0
-2605 2604 2606 0
-2606 2604 2605 0
2607 -1 -43 -60 -82 0
-2607 1 0
-2607 43 0
-2607 60 0
-2607 82 0
2608 -1 -49 -60 -73 0
-2608 1 0
-2608 49 0
-2608 60 0
-2608 73 0
2609 -1 -52 -60 -70 0
-2609 1 0
-2609 52 0
-2609 60 0
-2609 70 0
2610 -4 -28 -60 -82 0
-2610 4 0
-2610 28 0
-2610 60 0
-2610 82 0
2611 -4 -34 -60 -73 0
-2611 4 0
-2611 34 0
-2611 60 0
-2611 73 0
2612 -4 -37 -60 -70 0
-2612 4 0
-2612 37 0
-2612 60 0
-2612 70 0
2613 -10 -22 -60 -82 0
-2613 10 0
-2613 22 0
-2613 60 0
-2613 82 0
2614 -10 -34 -52 -60 0
-2614 10 0
-2614 34 0
-2614 52 0
-2614 60 0
2615 -10 -37 -49 -60 0
-2615 10 0
-2615 37 0
-2615 49 0
-2615 60 0
2616 -16 -22 -60 -73 0
-2616 16 0
-2616 22 0
-2616 60 0
-2616 73 0
2617 -16 -28 -52 -60 0
-2617 16 0
-2617 28 0
-2617 52 0
-2617 60 0
2618 -16 -37 -43 -60 0
-2618 16 0
-2618 37 0
-2618 43 0
-2618 60 0
2619 -19 -22 -60 -70 0
-2619 19 0
-2619 22 0
-2619 60 0
-2619 70 0
2620 -19 -28 -49 -60 0
-2620 19 0
-2620 28 0
-2620 49 0
-2620 60 0
2621 -19 -34 -43 -60 0
-2621 19 0
-2621 34 0
-2621 43 0
-2621 60 0
-2607 2608 2609 2610 2611 2612 2613 2614 2615 2616 2617 2618 2619 2620 2621 0
-2608 2607 2609 2610 2611 2612 2613 2614 2615 2616 2617 2618 2619 2620 2621 0
-2609 2607 2608 2610 2611 2612 2613 2614 2615 2616 2617 2618 2619 2620 2621 0
-2610 2607 2608 2609 2611 2612 2613 2614 2615 2616 2617 2618 2619 2620 2621 0
-2611 2607 2608 2609 2610 2612 2613 2614 2615 2616 2617 2618 2619 2620 2621 0
-2612 2607 2608 2609 2610 2611 2613 2614 2615 2616 2617 2618 2619 2620 2621 0
-2613 2607 2608 2609 2610 2611 2612 2614 2615 2616 2617 2618 2619 2620 2621 0
-2614 2607 2608 2609 2610 2611 2612 2613 2615 2616 2617 2618 2619 2620 2621 0
-2615 2607 2608 2609 2610 2611 2612 2613 2614 2616 2617 2618 2619 2620 2621 0
-2616 2607 2608 2609 2610 2611 2612 2613 2614 2615 2617 2618 2619 2620 2621 0
-2617 2607 2608 2609 2610 2611 2612 2613 2614 2615 2616 2618 2619 2620 2621 0
-2618 2607 2608 2609 2610 2611 2612 2613 2614 2615 2616 2617 2619 2620 2621 0
-2619 2607 2608 2609 2610 2611 2612 2613 2614 2615 2616 2617 2618 2620 2621 0
-2620 2607 2608 2609 2610 2611 2612 2613 2614 2615 2616 2617 2618 2619 2621 0
-2621 2607 2608 2609 2610 2611 2612 2613 2614 2615 2616 2617 2618 2619 2620 0
2622 -1 -43 -60 -83 0
-2622 1 0
-2622 43 0
-2622 60 0
-2622 83 0
2623 -4 -28 -60 -83 0
-2623 4 0
-2623 28 0
-2623 60 0
-2623 83 0
2624 -10 -22 -60 -83 0
-2624 10 0
-2624 22 0
-2624 60 0
-2624 83 0
-2622 2623 2624 0
-2623 2622 2624 0
-2624 2622 2623 0
2625 -1 -43 -60 -84 0
-2625 1 0
-2625 43 0
-2625 60 0
-2625 84 0
2626 -1 -43 -63 -81 0
-2626 1 0
-2626 43 0
-2626 63 0
-2626 81 0
2627 -1 -43 -66 -78 0
-2627 1 0
-2627 43 0
-2627 66 0
-2627 78 0
2628 -4 -28 -60 -84 0
-2628 4 0
-2628 28 0
-2628 60 0
-2628 84 0
2629 -4 -28 -63 -81 0
-2629 4 0
-2629 28 0
-2629 63 0
-2629 81 0
2630 -4 -28 -66 -78 0
-2630 4 0
-2630 28 0
-2630 66 0
-2630 78 0
2631 -10 -22 -60 -84 0
-2631 10 0
-2631 22 0
-2631 60 0
-2631 84 0
2632 -10 -22 -63 -81 0
-2632 10 0
-2632 22 0
-2632 63 0
-2632 81 0
2633 -10 -22 -66 -78 0
-2633 10 0
-2633 22 0
-2633 66 0
-2633 78 0
-2625 2626 2627 2628 2629 2630 2631 2632 2633 0
-2626 2625 2627 2628 2629 2630 2631 2632 2633 0
-2627 2625 2626 2628 2629 2630 2631 2632 2633 0
-2628 2625 2626 2627 2629 2630 2631 2632 2633 0
-2629 2625 2626 2627 2628 2630 2631 2632 2633 0
-2630 2625 2626 2627 2628 2629 2631 2632 2633 0
-2631 2625 2626 2627 2628 2629 2630 2632 2633 0
-2632 2625 2626 2627 2628 2629 2630 2631 2633 0
-2633 2625 2626 2627 2628 2629 2630 2631 2632 0
2634 -1 -44 -58 -82 0
-2634 1 0
-2634 44 0
-2634 58 0
-2634 82 0
2635 -1 -44 -61 -79 0
-2635 1 0
-2635 44 0
-2635 61 0
-2635 79 0
2636 -1 -44 -64 -76 0
-2636 1 0
-2636 44 0
-2636 64 0
-2636 76 0
2637 -7 -31 -44 -82 0
-2637 7 0
-2637 31 0
-2637 44 0
-2637 82 0
2638 -7 -34 -44 -79 0
-2638 7 0
-2638 34 0
-2638 44 0
-2638 79 0
2639 -7 -37 -44 -76 0
-2639 7 0
-2639 37 0
-2639 44 0
-2639 76 0
2640 -13 -25 -44 -82 0
-2640 13 0
-2640 25 0
-2640 44 0
-2640 82 0
2641 -13 -34 -44 -64 0
-2641 13 0
-2641 34 0
-2641 44 0
-2641 64 0
2642 -13 -37 -44 -61 0
-2642 13 0
-2642 37 0
-2642 44 0
-2642 61 0
2643 -16 -25 -44 -79 0
-2643 16 0
-2643 25 0
-2643 44 0
-2643 79 0
2644 -16 -31 -44 -64 0
-2644 16 0
-2644 31 0
-2644 44 0
-2644 64 0
2645 -16 -37 -44 -58 0
-2645 16 0
-2645 37 0
-2645 44 0
-2645 58 0
2646 -19 -25 -44 -76 0
-2646 19 0
-2646 25 0
-2646 44 0
-2646 76 0
2647 -19 -31 -44 -61 0
-2647 19 0
-2647 31 0
-2647 44 0
-2647 61 0
2648 -19 -34 -44 -58 0
-2648 19 0
-2648 34 0
-2648 44 0
-2648 58 0
-2634 2635 2636 2637 2638 2639 2640 2641 2642 2643 2644 2645 2646 2647 2648 0
-2635 2634 2636 2637 2638 2639 2640 2641 2642 2643 2644 2645 2646 2647 2648 0
-2636 2634 2635 2637 2638 2639 2640 2641 2642 2643 2644 2645 2646 2647 2648 0
-2637 2634 2635 2636 2638 2639 2640 2641 2642 2643 2644 2645 2646 2647 2648 0
-2638 2634 2635 2636 2637 2639 2640 2641 2642 2643 2644 2645 2646 2647 2648 0
-2639 2634 2635 2636 2637 2638 2640 2641 2642 2643 2644 2645 2646 2647 2648 0
-2640 2634 2635 2636 2637 2638 2639 2641 2642 2643 2644 2645 2646 2647 2648 0
-2641 2634 2635 2636 2637 2638 2639 2640 2642 2643 2644 2645 2646 2647 2648 0
-2642 2634 2635 2636 2637 2638 2639 2640 2641 2643 2644 2645 2646 2647 2648 0
-2643 2634 2635 2636 2637 2638 2639 2640 2641 2642 2644 2645 2646 2647 2648 0
-2644 2634 2635 2636 2637 2638 2639 2640 2641 2642 2643 2645 2646 2647 2648 0
-2645 2634 2635 2636 2637 2638 2639 2640 2641 2642 2643 2644 2646 2647 2648 0
-2646 2634 2635 2636 2637 2638 2639 2640 2641 2642 2643 2644 2645 2647 2648 0
-2647 2634 2635 2636 2637 2638 2639 2640 2641 2642 2643 2644 2645 2646 2648 0
-2648 2634 2635 2636 2637 2638 2639 2640 2641 2642 2643 2644 2645 2646 2647 0
2649 -1 -44 -58 -83 0
-2649 1 0
-2649 44 0
-2649 58 0
-2649 83 0
2650 -1 -50 -58 -74 0
-2650 1 0
-2650 50 0
-2650 58 0
-2650 74 0
2651 -1 -53 -58 -71 0
-2651 1 0
-2651 53 0
-2651 58 0
-2651 71 0
2652 -7 -31 -44 -83 0
-2652 7 0
-2652 31 0
-2652 44 0
-2652 83 0
2653 -7 -31 -50 -74 0
-2653 7 0
-2653 31 0
-2653 50 0
-2653 74 0
2654 -7 -31 -53 -71 0
-2654 7 0
-2654 31 0
-2654 53 0
-2654 71 0
2655 -13 -25 -44 -83 0
-2655 13 0
-2655 25 0
-2655 44 0
-2655 83 0
2656 -13 -25 -50 -74 0
-2656 13 0
-2656 25 0
-2656 50 0
-2656 74 0
2657 -13 -25 -53 -71 0
-2657 13 0
-2657 25 0
-2657 53 0
-2657 71 0
-2649 2650 2651 2652 2653 2654 2655 2656 2657 0
-2650 2649 2651 2652 2653 2654 2655 2656 2657 0
-2651 2649 2650 2652 2653 2654 2655 2656 2657 0
-2652 2649 2650 2651 2653 2654 2655 2656 2657 0
-2653 2649 2650 2651 2652 2654 2655 2656 2657 0
-2654 2649 2650 2651 2652 2653 2655 2656 2657 0
-2655 2649 2650 2651 2652 2653 2654 2656 2657 0
-2656 2649 2650 2651 2652 2653 2654 2655 2657 0
-2657 2649 2650 2651 2652 2653 2654 2655 2656 0
2658 -1 -44 -58 -84 0
-2658 1 0
-2658 44 0
-2658 58 0
-2658 84 0
2659 -7 -31 -44 -84 0
-2659 7 0
-2659 31 0
-2659 44 0
-2659 84 0
2660 -13 -25 -44 -84 0
-2660 13 0
-2660 25 0
-2660 44 0
-2660 84 0
-2658 2659 2660 0
-2659 2658 2660 0
-2660 2658 2659 0
2661 -1 -44 -60 -82 0
-2661 1 0
-2661 44 0
-2661 60 0
-2661 82 0
2662 -16 -37 -44 -60 0
-2662 16 0
-2662 37 0
-2662 44 0
-2662 60 0
2663 -19 -34 -44 -60 0
-2663 19 0
-2663 34 0
-2663 44 0
-2663 60 0
-2661 2662 2663 0
-2662 2661 2663 0
-2663 2661 2662 0
2664 -1 -44 -60 -83 0
-2664 1 0
-2664 44 0
-2664 60 0
-2664 83 0
2665 -1 -50 -60 -74 0
-2665 1 0
-2665 50 0
-2665 60 0
-2665 74 0
2666 -1 -53 -60 -71 0
-2666 1 0
-2666 53 0
-2666 60 0
-2666 71 0
-2664 2665 2666 0
-2665 2664 2666 0
-2666 2664 2665 0
2667 -1 -44 -60 -84 0
-2667 1 0
-2667 44 0
-2667 60 0
-2667 84 0
2668 -1 -44 -63 -81 0
-2668 1 0
-2668 44 0
-2668 63 0
-2668 81 0
2669 -1 -44 -66 -78 0
-2669 1 0
-2669 44 0
-2669 66 0
-2669 78 0
-2667 2668 2669 0
-2668 2667 2669 0
-2669 2667 2668 0
2670 -1 -45 -58 -82 0
-2670 1 0
-2670 45 0
-2670 58 0
-2670 82 0
2671 -1 -45 -61 -79 0
-2671 1 0
-2671 45 0
-2671 61 0
-2671 79 0
2672 -1 -45 -64 -76 0
-2672 1 0
-2672 45 0
-2672 64 0
-2672 76 0
2673 -7 -31 -45 -82 0
-2673 7 0
-2673 31 0
-2673 45 0
-2673 82 0
2674 -7 -34 -45 -79 0
-2674 7 0
-2674 34 0
-2674 45 0
-2674 79 0
2675 -7 -37 -45 -76 0
-2675 7 0
-2675 37 0
-2675 45 0
-2675 76 0
2676 -13 -25 -45 -82 0
-2676 13 0
-2676 25 0
-2676 45 0
-2676 82 0
2677 -13 -34 -45 -64 0
-2677 13 0
-2677 34 0
-2677 45 0
-2677 64 0
2678 -13 -37 -45 -61 0
-2678 13 0
-2678 37 0
-2678 45 0
-2678 61 0
2679 -16 -25 -45 -79 0
-2679 16 0
-2679 25 0
-2679 45 0
-2679 79 0
2680 -16 -31 -45 -64 0
-2680 16 0
-2680 31 0
-2680 45 0
-2680 64 0
2681 -16 -37 -45 -58 0
-2681 16 0
-2681 37 0
-2681 45 0
-2681 58 0
2682 -19 -25 -45 -76 0
-2682 19 0
-2682 25 0
-2682 45 0
-2682 76 0
2683 -19 -31 -45 -61 0
-2683 19 0
-2683 31 0
-2683 45 0
-2683 61 0
2684 -19 -34 -45 -58 0
-2684 19 0
-2684 34 0
-2684 45 0
-2684 58 0
-2670 2671 2672 2673 2674 2675 2676 2677 2678 2679 2680 2681 2682 2683 2684 0
-2671 2670 2672 2673 2674 2675 2676 2677 2678 2679 2680 2681 2682 2683 2684 0
-2672 2670 2671 2673 2674 2675 2676 2677 2678 2679 2680 2681 2682 2683 2684 0
-2673 2670 2671 2672 2674 2675 2676 2677 2678 2679 2680 2681 2682 2683 2684 0
-2674 2670 2671 2672 2673 2675 2676 2677 2678 2679 2680 2681 2682 2683 2684 0
-2675 2670 2671 2672 2673 2674 2676 2677 2678 2679 2680 2681 2682 2683 2684 0
-2676 2670 2671 2672 2673 2674 2675 2677 2678 2679 2680 2681 2682 2683 2684 0
-2677 2670 2671 2672 2673 2674 2675 2676 2678 2679 2680 2681 2682 2683 2684 0
-2678 2670 2671 2672 2673 2674 2675 2676 2677 2679 2680 2681 2682 2683 2684 0
-2679 2670 2671 2672 2673 2674 2675 2676 2677 2678 2680 2681 2682 2683 2684 0
-2680 2670 2671 2672 2673 2674 2675 2676 2677 2678 2679 2681 2682 2683 2684 0
-2681 2670 2671 2672 2673 2674 2675 2676 2677 2678 2679 2680 2682 2683 2684 0
-2682 2670 2671 2672 2673 2674 2675 2676 2677 2678 2679 2680 2681 2683 2684 0
-2683 2670 2671 2672 2673 2674 2675 2676 2677 2678 2679 2680 2681 2682 2684 0
-2684 2670 2671 2672 2673 2674 2675 2676 2677 2678 2679 2680 2681 2682 2683 0
2685 -1 -45 -58 -83 0
-2685 1 0
-2685 45 0
-2685 58 0
-2685 83 0
2686 -7 -31 -45 -83 0
-2686 7 0
-2686 31 0
-2686 45 0
-2686 83 0
2687 -13 -25 -45 -83 0
-2687 13 0
-2687 25 0
-2687 45 0
-2687 83 0
-2685 2686 2687 0
-2686 2685 2687 0
-2687 2685 2686 0
2688 -1 -45 -58 -84 0
-2688 1 0
-2688 45 0
-2688 58 0
-2688 84 0
2689 -1 -51 -58 -75 0
-2689 1 0
-2689 51 0
-2689 58 0
-2689 75 0
2690 -1 -54 -58 -72 0
-2690 1 0
-2690 54 0
-2690 58 0
-2690 72 0
2691 -7 -31 -45 -84 0
-2691 7 0
-2691 31 0
-2691 45 0
-2691 84 0
2692 -7 -31 -51 -75 0
-2692 7 0
-2692 31 0
-2692 51 0
-2692 75 0
2693 -7 -31 -54 -72 0
-2693 7 0
-2693 31 0
-2693 54 0
-2693 72 0
2694 -13 -25 -45 -84 0
-2694 13 0
-2694 25 0
-2694 45 0
-2694 84 0
2695 -13 -25 -51 -75 0
-2695 13 0
-2695 25 0
-2695 51 0
-2695 75 0
2696 -13 -25 -54 -72 0
-2696 13 0
-2696 25 0
-2696 54 0
-2696 72 0
-2688 2689 2690 2691 2692 2693 2694 2695 2696 0
-2689 2688 2690 2691 2692 2693 2694 2695 2696 0
-2690 2688 2689 2691 2692 2693 2694 2695 2696 0
-2691 2688 2689 2690 2692 2693 2694 2695 2696 0
-2692 2688 2689 2690 2691 2693 2694 2695 2696 0
-2693 2688 2689 2690 2691 2692 2694 2695 2696 0
-2694 2688 2689 2690 2691 2692 2693 2695 2696 0
-2695 2688 2689 2690 2691 2692 2693 2694 2696 0
-2696 2688 2689 2690 2691 2692 2693 2694 2695 0
2697 -1 -45 -59 -82 0
-2697 1 0
-2697 45 0
-2697 59 0
-2697 82 0
2698 -16 -37 -45 -59 0
-2698 16 0
-2698 37 0
-2698 45 0
-2698 59 0
2699 -19 -34 -45 -59 0
-2699 19 0
-2699 34 0
-2699 45 0
-2699 59 0
-2697 2698 2699 0
-2698 2697 2699 0
-2699 2697 2698 0
2700 -1 -45 -59 -83 0
-2700 1 0
-2700 45 0
-2700 59 0
-2700 83 0
2701 -1 -45 -62 -80 0
-2701 1 0
-2701 45 0
-2701 62 0
-2701 80 0
2702 -1 -45 -65 -77 0
-2702 1 0
-2702 45 0
-2702 65 0
-2702 77 0
-2700 2701 2702 0
-2701 2700 2702 0
-2702 2700 2701 0
2703 -1 -45 -59 -84 0
-2703 1 0
-2703 45 0
-2703 59 0
-2703 84 0
2704 -1 -51 -59 -75 0
-2704 1 0
-2704 51 0
-2704 59 0
-2704 75 0
2705 -1 -54 -59 -72 0
-2705 1 0
-2705 54 0
-2705 59 0
-2705 72 0
-2703 2704 2705 0
-2704 2703 2705 0
-2705 2703 2704 0
2706 -2 -43 -59 -82 0
-2706 2 0
-2706 43 0
-2706 59 0
-2706 82 0
2707 -2 -49 -59 -73 0
-2707 2 0
-2707 49 0
-2707 59 0
-2707 73 0
2708 -2 -52 -59 -70 0
-2708 2 0
-2708 52 0
-2708 59 0
-2708 70 0
2709 -8 -32 -43 -82 0
-2709 8 0
-2709 32 0
-2709 43 0
-2709 82 0
2710 -8 -32 -49 -73 0
-2710 8 0
-2710 32 0
-2710 49 0
-2710 73 0
2711 -8 -32 -52 -70 0
-2711 8 0
-2711 32 0
-2711 52 0
-2711 70 0
2712 -14 -26 -43 -82 0
-2712 14 0
-2712 26 0
-2712 43 0
-2712 82 0
2713 -14 -26 -49 -73 0
-2713 14 0
-2713 26 0
-2713 49 0
-2713 73 0
2714 -14 -26 -52 -70 0
-2714 14 0
-2714 26 0
-2714 52 0
-2714 70 0
-2706 2707 2708 2709 2710 2711 2712 2713 2714 0
-2707 2706 2708 2709 2710 2711 2712 2713 2714 0
-2708 2706 2707 2709 2710 2711 2712 2713 2714 0
-2709 2706 2707 2708 2710 2711 2712 2713 2714 0
-2710 2706 2707 2708 2709 2711 2712 2713 2714 0
-2711 2706 2707 2708 2709 2710 2712 2713 2714 0
-2712 2706 2707 2708 2709 2710 2711 2713 2714 0
-2713 2706 2707 2708 2709 2710 2711 2712 2714 0
-2714 2706 2707 2708 2709 2710 2711 2712 2713 0
2715 -2 -43 -59 -83 0
-2715 2 0
-2715 43 0
-2715 59 0
-2715 83 0
2716 -2 -43 -62 -80 0
-2716 2 0
-2716 43 0
-2716 62 0
-2716 80 0
2717 -2 -43 -65 -77 0
-2717 2 0
-2717 43 0
-2717 65 0
-2717 77 0
2718 -8 -32 -43 -83 0
-2718 8 0
-2718 32 0
-2718 43 0
-2718 83 0
2719 -8 -35 -43 -80 0
-2719 8 0
-2719 35 0
-2719 43 0
-2719 80 0
2720 -8 -38 -43 -77 0
-2720 8 0
-2720 38 0
-2720 43 0
-2720 77 0
2721 -14 -26 -43 -83 0
-2721 14 0
-2721 26 0
-2721 43 0
-2721 83 0
2722 -14 -35 -43 -65 0
-2722 14 0
-2722 35 0
-2722 43 0
-2722 65 0
2723 -14 -38 -43 -62 0
-2723 14 0
-2723 38 0
-2723 43 0
-2723 62 0
2724 -17 -26 -43 -80 0
-2724 17 0
-2724 26 0
-2724 43 0
-2724 80 0
2725 -17 -32 -43 -65 0
-2725 17 0
-2725 32 0
-2725 43 0
-2725 65 0
2726 -17 -38 -43 -59 0
-2726 17 0
-2726 38 0
-2726 43 0
-2726 59 0
2727 -20 -26 -43 -77 0
-2727 20 0
-2727 26 0
-2727 43 0
-2727 77 0
2728 -20 -32 -43 -62 0
-2728 20 0
-2728 32 0
-2728 43 0
-2728 62 0
2729 -20 -35 -43 -59 0
-2729 20 0
-2729 35 0
-2729 43 0
-2729 59 0
-2715 2716 2717 2718 2719 2720 2721 2722 2723 2724 2725 2726 2727 2728 2729 0
-2716 2715 2717 2718 2719 2720 2721 2722 2723 2724 2725 2726 2727 2728 2729 0
-2717 2715 2716 2718 2719 2720 2721 2722 2723 2724 2725 2726 2727 2728 2729 0
-2718 2715 2716 2717 2719 2720 2721 2722 2723 2724 2725 2726 2727 2728 2729 0
-2719 2715 2716 2717 2718 2720 2721 2722 2723 2724 2725 2726 2727 2728 2729 0
-2720 2715 2716 2717 2718 2719 2721 2722 2723 2724 2725 2726 2727 2728 2729 0
-2721 2715 2716 2717 2718 2719 2720 2722 2723 2724 2725 2726 2727 2728 2729 0
-2722 2715 2716 2717 2718 2719 2720 2721 2723 2724 2725 2726 2727 2728 2729 0
-2723 2715 2716 2717 2718 2719 2720 2721 2722 2724 2725 2726 2727 2728 2729 0
-2724 2715 2716 2717 2718 2719 2720 2721 2722 2723 2725 2726 2727 2728 2729 0
-2725 2715 2716 2717 2718 2719 2720 2721 2722 2723 2724 2726 2727 2728 2729 0
-2726 2715 2716 2717 2718 2719 2720 2721 2722 2723 2724 2725 2727 2728 2729 0
-2727 2715 2716 2717 2718 2719 2720 2721 2722 2723 2724 2725 2726 2728 2729 0
-2728 2715 2716 2717 2718 2719 2720 2721 2722 2723 2724 2725 2726 2727 2729 0
-2729 2715 2716 2717 2718 2719 2720 2721 2722 2723 2724 2725 2726 2727 2728 0
2730 -2 -43 -59 -84 0
-2730 2 0
-2730 43 0
-2730 59 0
-2730 84 0
2731 -8 -32 -43 -84 0
-2731 8 0
-2731 32 0
-2731 43 0
-2731 84 0
2732 -14 -26 -43 -84 0
-2732 14 0
-2732 26 0
-2732 43 0
-2732 84 0
-2730 2731 2732 0
-2731 2730 2732 0
-2732 2730 2731 0
2733 -2 -43 -60 -82 0
-2733 2 0
-2733 43 0
-2733 60 0
-2733 82 0
2734 -2 -49 -60 -73 0
-2734 2 0
-2734 49 0
-2734 60 0
-2734 73 0
2735 -2 -52 -60 -70 0
-2735 2 0
-2735 52 0
-2735 60 0
-2735 70 0
-2733 2734 2735 0
-2734 2733 2735 0
-2735 2733 2734 0
2736 -2 -43 -60 -83 0
-2736 2 0
-2736 43 0
-2736 60 0
-2736 83 0
2737 -17 -38 -43 -60 0
-2737 17 0
-2737 38 0
-2737 43 0
-2737 60 0
2738 -20 -35 -43 -60 0
-2738 20 0
-2738 35 0
-2738 43 0
-2738 60 0
-2736 2737 2738 0
-2737 2736 2738 0
-2738 2736 2737 0
2739 -2 -43 -60 -84 0
-2739 2 0
-2739 43 0
-2739 60 0
-2739 84 0
2740 -2 -43 -63 -81 0
-2740 2 0
-2740 43 0
-2740 63 0
-2740 81 0
2741 -2 -43 -66 -78 0
-2741 2 0
-2741 43 0
-2741 66 0
-2741 78 0
-2739 2740 2741 0
-2740 2739 2741 0
-2741 2739 2740 0
2742 -2 -44 -58 -82 0
-2742 2 0
-2742 44 0
-2742 58 0
-2742 82 0
2743 -2 -44 -61 -79 0
-2743 2 0
-2743 44 0
-2743 61 0
-2743 79 0
2744 -2 -44 -64 -76 0
-2744 2 0
-2744 44 0
-2744 64 0
-2744 76 0
2745 -5 -29 -58 -82 0
-2745 5 0
-2745 29 0
-2745 58 0
-2745 82 0
2746 -5 -29 -61 -79 0
-2746 5 0
-2746 29 0
-2746 61 0
-2746 79 0
2747 -5 -29 -64 -76 0
-2747 5 0
-2747 29 0
-2747 64 0
-2747 76 0
2748 -11 -23 -58 -82 0
-2748 11 0
-2748 23 0
-2748 58 0
-2748 82 0
2749 -11 -23 -61 -79 0
-2749 11 0
-2749 23 0
-2749 61 0
-2749 79 0
2750 -11 -23 -64 -76 0
-2750 11 0
-2750 23 0
-2750 64 0
-2750 76 0
-2742 2743 2744 2745 2746 2747 2748 2749 2750 0
-2743 2742 2744 2745 2746 2747 2748 2749 2750 0
-2744 2742 2743 2745 2746 2747 2748 2749 2750 0
-2745 2742 2743 2744 2746 2747 2748 2749 2750 0
-2746 2742 2743 2744 2745 2747 2748 2749 2750 0
-2747 2742 2743 2744 2745 2746 2748 2749 2750 0
-2748 2742 2743 2744 2745 2746 2747 2749 2750 0
-2749 2742 2743 2744 2745 2746 2747 2748 2750 0
-2750 2742 2743 2744 2745 2746 2747 2748 2749 0
2751 -2 -44 -58 -83 0
-2751 2 0
-2751 44 0
-2751 58 0
-2751 83 0
2752 -2 -50 -58 -74 0
-2752 2 0
-2752 50 0
-2752 58 0
-2752 74 0
2753 -2 -53 -58 -71 0
-2753 2 0
-2753 53 0
-2753 58 0
-2753 71 0
2754 -5 -29 -58 -83 0
-2754 5 0
-2754 29 0
-2754 58 0
-2754 83 0
2755 -5 -35 -58 -74 0
-2755 5 0
-2755 35 0
-2755 58 0
-2755 74 0
2756 -5 -38 -58 -71 0
-2756 5 0
-2756 38 0
-2756 58 0
-2756 71 0
2757 -11 -23 -58 -83 0
-2757 11 0
-2757 23 0
-2757 58 0
-2757 83 0
2758 -11 -35 -53 -58 0
-2758 11 0
-2758 35 0
-2758 53 0
-2758 58 0
2759 -11 -38 -50 -58 0
-2759 11 0
-2759 38 0
-2759 50 0
-2759 58 0
2760 -17 -23 -58 -74 0
-2760 17 0
-2760 23 0
-2760 58 0
-2760 74 0
2761 -17 -29 -53 -58 0
-2761 17 0
-2761 29 0
-2761 53 0
-2761 58 0
2762 -17 -38 -44 -58 0
-2762 17 0
-2762 38 0
-2762 44 0
-2762 58 0
2763 -20 -23 -58 -71 0
-2763 20 0
-2763 23 0
-2763 58 0
-2763 71 0
2764 -20 -29 -50 -58 0
-2764 20 0
-2764 29 0
-2764 50 0
-2764 58 0
2765 -20 -35 -44 -58 0
-2765 20 0
-2765 35 0
-2765 44 0
-2765 58 0
-2751 2752 2753 2754 2755 2756 2757 2758 2759 2760 2761 2762 2763 2764 2765 0
-2752 2751 2753 2754 2755 2756 2757 2758 2759 2760 2761 2762 2763 2764 2765 0
-2753 2751 2752 2754 2755 2756 2757 2758 2759 2760 2761 2762 2763 2764 2765 0
-2754 2751 2752 2753 2755 2756 2757 2758 2759 2760 2761 2762 2763 2764 2765 0
-2755 2751 2752 2753 2754 2756 2757 2758 2759 2760 2761 2762 2763 2764 2765 0
-2756 2751 2752 2753 2754 2755 2757 2758 2759 2760 2761 2762 2763 2764 2765 0
-2757 2751 2752 2753 2754 2755 2756 2758 2759 2760 2761 2762 2763 2764 2765 0
-2758 2751 2752 2753 2754 2755 2756 2757 2759 2760 2761 2762 2763 2764 2765 0
-2759 2751 2752 2753 2754 2755 2756 2757 2758 2760 2761 2762 2763 2764 2765 0
-2760 2751 2752 2753 2754 2755 2756 2757 2758 2759 2761 2762 2763 2764 2765 0
-2761 2751 2752 2753 2754 2755 2756 2757 2758 2759 2760 2762 2763 2764 2765 0
-2762 2751 2752 2753 2754 2755 2756 2757 2758 2759 2760 2761 2763 2764 2765 0
-2763 2751 2752 2753 2754 2755 2756 2757 2758 2759 2760 2761 2762 2764 2765 0
-2764 2751 2752 2753 2754 2755 2756 2757 2758 2759 2760 2761 2762 2763 2765 0
-2765 2751 2752 2753 2754 2755 2756 2757 2758 2759 2760 2761 2762 2763 2764 0
2766 -2 -44 -58 -84 0
-2766 2 0
-2766 44 0
-2766 58 0
-2766 84 0
2767 -5 -29 -58 -84 0
-2767 5 0
-2767 29 0
-2767 58 0
-2767 84 0
2768 -11 -23 -58 -84 0
-2768 11 0
-2768 23 0
-2768 58 0
-2768 84 0
-2766 2767 2768 0
-2767 2766 2768 0
-2768 2766 2767 0
2769 -2 -44 -60 -82 0
-2769 2 0
-2769 44 0
-2769 60 0
-2769 82 0
2770 -5 -29 -60 -82 0
-2770 5 0
-2770 29 0
-2770 60 0
-2770 82 0
2771 -11 -23 -60 -82 0
-2771 11 0
-2771 23 0
-2771 60 0
-2771 82 0
-2769 2770 2771 0
-2770 2769 2771 0
-2771 2769 2770 0
2772 -2 -44 -60 -83 0
-2772 2 0
-2772 44 0
-2772 60 0
-2772 83 0
2773 -2 -50 -60 -74 0
-2773 2 0
-2773 50 0
-2773 60 0
-2773 74 0
2774 -2 -53 -60 -71 0
-2774 2 0
-2774 53 0
-2774 60 0
-2774 71 0
2775 -5 -29 -60 -83 0
-2775 5 0
-2775 29 0
-2775 60 0
-2775 83 0
2776 -5 -35 -60 -74 0
-2776 5 0
-2776 35 0
-2776 60 0
-2776 74 0
2777 -5 -38 -60 -71 0
-2777 5 0
-2777 38 0
-2777 60 0
-2777 71 0
2778 -11 -23 -60 -83 0
-2778 11 0
-2778 23 0
-2778 60 0
-2778 83 0
2779 -11 -35 -53 -60 0
-2779 11 0
-2779 35 0
-2779 53 0
-2779 60 0
2780 -11 -38 -50 -60 0
-2780 11 0
-2780 38 0
-2780 50 0
-2780 60 0
2781 -17 -23 -60 -74 0
-2781 17 0
-2781 23 0
-2781 60 0
-2781 74 0
2782 -17 -29 -53 -60 0
-2782 17 0
-2782 29 0
-2782 53 0
-2782 60 0
2783 -17 -38 -44 -60 0
-2783 17 0
-2783 38 0
-2783 44 0
-2783 60 0
2784 -20 -23 -60 -71 0
-2784 20 0
-2784 23 0
-2784 60 0
-2784 71 0
2785 -20 -29 -50 -60 0
-2785 20 0
-2785 29 0
-2785 50 0
-2785 60 0
2786 -20 -35 -44 -60 0
-2786 20 0
-2786 35 0
-2786 44 0
-2786 60 0
-2772 2773 2774 2775 2776 2777 2778 2779 2780 2781 2782 2783 2784 2785 2786 0
-2773 2772 2774 2775 2776 2777 2778 2779 2780 2781 2782 2783 2784 2785 2786 0
-2774 2772 2773 2775 2776 2777 2778 2779 2780 2781 2782 2783 2784 2785 2786 0
-2775 2772 2773 2774 2776 2777 2778 2779 2780 2781 2782 2783 2784 2785 2786 0
-2776 2772 2773 2774 2775 2777 2778 2779 2780 2781 2782 2783 2784 2785 2786 0
-2777 2772 2773 2774 2775 2776 2778 2779 2780 2781 2782 2783 2784 2785 2786 0
-2778 2772 2773 2774 2775 2776 2777 2779 2780 2781 2782 2783 2784 2785 2786 0
-2779 2772 2773 2774 2775 2776 2777 2778 2780 2781 2782 2783 2784 2785 2786 0
-2780 2772 2773 2774 2775 2776 2777 2778 2779 2781 2782 2783 2784 2785 2786 0
-2781 2772 2773 2774 2775 2776 2777 2778 2779 2780 2782 2783 2784 2785 2786 0
-2782 2772 2773 2774 2775 2776 2777 2778 2779 2780 2781 2783 2784 2785 2786 0
-2783 2772 2773 2774 2775 2776 2777 2778 2779 2780 2781 2782 2784 2785 2786 0
-2784 2772 2773 2774 2775 2776 2777 2778 2779 2780 2781 2782 2783 2785 2786 0
-2785 2772 2773 2774 2775 2776 2777 2778 2779 2780 2781 2782 2783 2784 2786 0
-2786 2772 2773 2774 2775 2776 2777 2778 2779 2780 2781 2782 2783 2784 2785 0
2787 -2 -44 -60 -84 0
-2787 2 0
-2787 44 0
-2787 60 0
-2787 84 0
2788 -2 -44 -63 -81 0
-2788 2 0
-2788 44 0
-2788 63 0
-2788 81 0
2789 -2 -44 -66 -78 0
-2789 2 0
-2789 44 0
-2789 66 0
-2789 78 0
2790 -5 -29 -60 -84 0
-2790 5 0
-2790 29 0
-2790 60 0
-2790 84 0
2791 -5 -29 -63 -81 0
-2791 5 0
-2791 29 0
-2791 63 0
-2791 81 0
2792 -5 -29 -66 -78 0
-2792 5 0
-2792 29 0
-2792 66 0
-2792 78 0
2793 -11 -23 -60 -84 0
-2793 11 0
-2793 23 0
-2793 60 0
-2793 84 0
2794 -11 -23 -63 -81 0
-2794 11 0
-2794 23 0
-2794 63 0
-2794 81 0
2795 -11 -23 -66 -78 0
-2795 11 0
-2795 23 0
-2795 66 0
-2795 78 0
-2787 2788 2789 2790 2791 2792 2793 2794 2795 0
-2788 2787 2789 2790 2791 2792 2793 2794 2795 0
-2789 2787 2788 2790 2791 2792 2793 2794 2795 0
-2790 2787 2788 2789 2791 2792 2793 2794 2795 0
-2791 2787 2788 2789 2790 2792 2793 2794 2795 0
-2792 2787 2788 2789 2790 2791 2793 2794 2795 0
-2793 2787 2788 2789 2790 2791 2792 2794 2795 0
-2794 2787 2788 2789 2790 2791 2792 2793 2795 0
-2795 2787 2788 2789 2790 2791 2792 2793 2794 0
2796 -2 -45 -58 -82 0
-2796 2 0
-2796 45 0
-2796 58 0
-2796 82 0
2797 -2 -45 -61 -79 0
-2797 2 0
-2797 45 0
-2797 61 0
-2797 79 0
2798 -2 -45 -64 -76 0
-2798 2 0
-2798 45 0
-2798 64 0
-2798 76 0
-2796 2797 2798 0
-2797 2796 2798 0
-2798 2796 2797 0
2799 -2 -45 -58 -83 0
-2799 2 0
-2799 45 0
-2799 58 0
-2799 83 0
2800 -17 -38 -45 -58 0
-2800 17 0
-2800 38 0
-2800 45 0
-2800 58 0
2801 -20 -35 -45 -58 0
-2801 20 0
-2801 35 0
-2801 45 0
-2801 58 0
-2799 2800 2801 0
-2800 2799 2801 0
-2801 2799 2800 0
2802 -2 -45 -58 -84 0
-2802 2 0
-2802 45 0
-2802 58 0
-2802 84 0
2803 -2 -51 -58 -75 0
-2803 2 0
-2803 51 0
-2803 58 0
-2803 75 0
2804 -2 -54 -58 -72 0
-2804 2 0
-2804 54 0
-2804 58 0
-2804 72 0
-2802 2803 2804 0
-2803 2802 2804 0
-2804 2802 2803 0
2805 -2 -45 -59 -82 0
-2805 2 0
-2805 45 0
-2805 59 0
-2805 82 0
2806 -8 -32 -45 -82 0
-2806 8 0
-2806 32 0
-2806 45 0
-2806 82 0
2807 -14 -26 -45 -82 0
-2807 14 0
-2807 26 0
-2807 45 0
-2807 82 0
-2805 2806 2807 0
-2806 2805 2807 0
-2807 2805 2806 0
2808 -2 -45 -59 -83 0
-2808 2 0
-2808 45 0
-2808 59 0
-2808 83 0
2809 -2 -45 -62 -80 0
-2809 2 0
-2809 45 0
-2809 62 0
-2809 80 0
2810 -2 -45 -65 -77 0
-2810 2 0
-2810 45 0
-2810 65 0
-2810 77 0
2811 -8 -32 -45 -83 0
-2811 8 0
-2811 32 0
-2811 45 0
-2811 83 0
2812 -8 -35 -45 -80 0
-2812 8 0
-2812 35 0
-2812 45 0
-2812 80 0
2813 -8 -38 -45 -77 0
-2813 8 0
-2813 38 0
-2813 45 0
-2813 77 0
2814 -14 -26 -45 -83 0
-2814 14 0
-2814 26 0
-2814 45 0
-2814 83 0
2815 -14 -35 -45 -65 0
-2815 14 0
-2815 35 0
-2815 45 0
-2815 65 0
2816 -14 -38 -45 -62 0
-2816 14 0
-2816 38 0
-2816 45 0
-2816 62 0
2817 -17 -26 -45 -80 0
-2817 17 0
-2817 26 0
-2817 45 0
-2817 80 0
2818 -17 -32 -45 -65 0
-2818 17 0
-2818 32 0
-2818 45 0
-2818 65 0
2819 -17 -38 -45 -59 0
-2819 17 0
-2819 38 0
-2819 45 0
-2819 59 0
2820 -20 -26 -45 -77 0
-2820 20 0
-2820 26 0
-2820 45 0
-2820 77 0
2821 -20 -32 -45 -62 0
-2821 20 0
-2821 32 0
-2821 45 0
-2821 62 0
2822 -20 -35 -45 -59 0
-2822 20 0
-2822 35 0
-2822 45 0
-2822 59 0
-2808 2809 2810 2811 2812 2813 2814 2815 2816 2817 2818 2819 2820 2821 2822 0
-2809 2808 2810 2811 2812 2813 2814 2815 2816 2817 2818 2819 2820 2821 2822 0
-2810 2808 2809 2811 2812 2813 2814 2815 2816 2817 2818 2819 2820 2821 2822 0
-2811 2808 2809 2810 2812 2813 2814 2815 2816 2817 2818 2819 2820 2821 2822 0
-2812 2808 2809 2810 2811 2813 2814 2815 2816 2817 2818 2819 2820 2821 2822 0
-2813 2808 2809 2810 2811 2812 2814 2815 2816 2817 2818 2819 2820 2821 2822 0
-2814 2808 2809 2810 2811 2812 2813 2815 2816 2817 2818 2819 2820 2821 2822 0
-2815 2808 2809 2810 2811 2812 2813 2814 2816 2817 2818 2819 2820 2821 2822 0
-2816 2808 2809 2810 2811 2812 2813 2814 2815 2817 2818 2819 2820 2821 2822 0
-2817 2808 2809 2810 2811 2812 2813 2814 2815 2816 2818 2819 2820 2821 2822 0
-2818 2808 2809 2810 2811 2812 2813 2814 2815 2816 2817 2819 2820 2821 2822 0
-2819 2808 2809 2810 2811 2812 2813 2814 2815 2816 2817 2818 2820 2821 2822 0
-2820 2808 2809 2810 2811 2812 2813 2814 2815 2816 2817 2818 2819 2821 2822 0
-2821 2808 2809 2810 2811 2812 2813 2814 2815 2816 2817 2818 2819 2820 2822 0
-2822 2808 2809 2810 2811 2812 2813 2814 2815 2816 2817 2818 2819 2820 2821 0
2823 -2 -45 -59 -84 0
-2823 2 0
-2823 45 0
-2823 59 0
-2823 84 0
2824 -2 -51 -59 -75 0
-2824 2 0
-2824 51 0
-2824 59 0
-2824 75 0
2825 -2 -54 -59 -72 0
-2825 2 0
-2825 54 0
-2825 59 0
-2825 72 0
2826 -8 -32 -45 -84 0
-2826 8 0
-2826 32 0
-2826 45 0
-2826 84 0
2827 -8 -32 -51 -75 0
-2827 8 0
-2827 32 0
-2827 51 0
-2827 75 0
2828 -8 -32 -54 -72 0
-2828 8 0
-2828 32 0
-2828 54 0
-2828 72 0
2829 -14 -26 -45 -84 0
-2829 14 0
-2829 26 0
-2829 45 0
-2829 84 0
2830 -14 -26 -51 -75 0
-2830 14 0
-2830 26 0
-2830 51 0
-2830 75 0
2831 -14 -26 -54 -72 0
-2831 14 0
-2831 26 0
-2831 54 0
-2831 72 0
-2823 2824 2825 2826 2827 2828 2829 2830 2831 0
-2824 2823 2825 2826 2827 2828 2829 2830 2831 0
-2825 2823 2824 2826 2827 2828 2829 2830 2831 0
-2826 2823 2824 2825 2827 2828 2829 2830 2831 0
-2827 2823 2824 2825 2826 2828 2829 2830 2831 0
-2828 2823 2824 2825 2826 2827 2829 2830 2831 0
-2829 2823 2824 2825 2826 2827 2828 2830 2831 0
-2830 2823 2824 2825 2826 2827 2828 2829 2831 0
-2831 2823 2824 2825 2826 2827 2828 2829 2830 0
2832 -3 -43 -59 -82 0
-2832 3 0
-2832 43 0
-2832 59 0
-2832 82 0
2833 -3 -49 -59 -73 0
-2833 3 0
-2833 49 0
-2833 59 0
-2833 73 0
2834 -3 -52 -59 -70 0
-2834 3 0
-2834 52 0
-2834 59 0
-2834 70 0
-2832 2833 2834 0
-2833 2832 2834 0
-2834 2832 2833 0
2835 -3 -43 -59 -83 0
-2835 3 0
-2835 43 0
-2835 59 0
-2835 83 0
2836 -3 -43 -62 -80 0
-2836 3 0
-2836 43 0
-2836 62 0
-2836 80 0
2837 -3 -43 -65 -77 0
-2837 3 0
-2837 43 0
-2837 65 0
-2837 77 0
-2835 2836 2837 0
-2836 2835 2837 0
-2837 2835 2836 0
2838 -3 -43 -59 -84 0
-2838 3 0
-2838 43 0
-2838 59 0
-2838 84 0
2839 -18 -39 -43 -59 0
-2839 18 0
-2839 39 0
-2839 43 0
-2839 59 0
2840 -21 -36 -43 -59 0
-2840 21 0
-2840 36 0
-2840 43 0
-2840 59 0
-2838 2839 2840 0
-2839 2838 2840 0
-2840 2838 2839 0
2841 -3 -43 -60 -82 0
-2841 3 0
-2841 43 0
-2841 60 0
-2841 82 0
2842 -3 -49 -60 -73 0
-2842 3 0
-2842 49 0
-2842 60 0
-2842 73 0
2843 -3 -52 -60 -70 0
-2843 3 0
-2843 52 0
-2843 60 0
-2843 70 0
2844 -9 -33 -43 -82 0
-2844 9 0
-2844 33 0
-2844 43 0
-2844 82 0
2845 -9 -33 -49 -73 0
-2845 9 0
-2845 33 0
-2845 49 0
-2845 73 0
2846 -9 -33 -52 -70 0
-2846 9 0
-2846 33 0
-2846 52 0
-2846 70 0
2847 -15 -27 -43 -82 0
-2847 15 0
-2847 27 0
-2847 43 0
-2847 82 0
2848 -15 -27 -49 -73 0
-2848 15 0
-2848 27 0
-2848 49 0
-2848 73 0
2849 -15 -27 -52 -70 0
-2849 15 0
-2849 27 0
-2849 52 0
-2849 70 0
-2841 2842 2843 2844 2845 2846 2847 2848 2849 0
-2842 2841 2843 2844 2845 2846 2847 2848 2849 0
-2843 2841 2842 2844 2845 2846 2847 2848 2849 0
-2844 2841 2842 2843 2845 2846 2847 2848 2849 0
-2845 2841 2842 2843 2844 2846 2847 2848 2849 0
-2846 2841 2842 2843 2844 2845 2847 2848 2849 0
-2847 2841 2842 2843 2844 2845 2846 2848 2849 0
-2848 2841 2842 2843 2844 2845 2846 2847 2849 0
-2849 2841 2842 2843 2844 2845 2846 2847 2848 0
2850 -3 -43 -60 -83 0
-2850 3 0
-2850 43 0
-2850 60 0
-2850 83 0
2851 -9 -33 -43 -83 0
-2851 9 0
-2851 33 0
-2851 43 0
-2851 83 0
2852 -15 -27 -43 -83 0
-2852 15 0
-2852 27 0
-2852 43 0
-2852 83 0
-2850 2851 2852 0
-2851 2850 2852 0
-2852 2850 2851 0
2853 -3 -43 -60 -84 0
-2853 3 0
-2853 43 0
-2853 60 0
-2853 84 0
2854 -3 -43 -63 -81 0
-2854 3 0
-2854 43 0
-2854 63 0
-2854 81 0
2855 -3 -43 -66 -78 0
-2855 3 0
-2855 43 0
-2855 66 0
-2855 78 0
2856 -9 -33 -43 -84 0
-2856 9 0
-2856 33 0
-2856 43 0
-2856 84 0
2857 -9 -36 -43 -81 0
-2857 9 0
-2857 36 0
-2857 43 0
-2857 81 0
2858 -9 -39 -43 -78 0
-2858 9 0
-2858 39 0
-2858 43 0
-2858 78 0
2859 -15 -27 -43 -84 0
-2859 15 0
-2859 27 0
-2859 43 0
-2859 84 0
2860 -15 -36 -43 -66 0
-2860 15 0
-2860 36 0
-2860 43 0
-2860 66 0
2861 -15 -39 -43 -63 0
-2861 15 0
-2861 39 0
-2861 43 0
-2861 63 0
2862 -18 -27 -43 -81 0
-2862 18 0
-2862 27 0
-2862 43 0
-2862 81 0
2863 -18 -33 -43 -66 0
-2863 18 0
-2863 33 0
-2863 43 0
-2863 66 0
2864 -18 -39 -43 -60 0
-2864 18 0
-2864 39 0
-2864 43 0
-2864 60 0
2865 -21 -27 -43 -78 0
-2865 21 0
-2865 27 0
-2865 43 0
-2865 78 0
2866 -21 -33 -43 -63 0
-2866 21 0
-2866 33 0
-2866 43 0
-2866 63 0
2867 -21 -36 -43 -60 0
-2867 21 0
-2867 36 0
-2867 43 0
-2867 60 0
-2853 2854 2855 2856 2857 2858 2859 2860 2861 2862 2863 2864 2865 2866 2867 0
-2854 2853 2855 2856 2857 2858 2859 2860 2861 2862 2863 2864 2865 2866 2867 0
-2855 2853 2854 2856 2857 2858 2859 2860 2861 2862 2863 2864 2865 2866 2867 0
-2856 2853 2854 2855 2857 2858 2859 2860 2861 2862 2863 2864 2865 2866 2867 0
-2857 2853 2854 2855 2856 2858 2859 2860 2861 2862 2863 2864 2865 2866 2867 0
-2858 2853 2854 2855 2856 2857 2859 2860 2861 2862 2863 2864 2865 2866 2867 0
-2859 2853 2854 2855 2856 2857 2858 2860 2861 2862 2863 2864 2865 2866 2867 0
-2860 2853 2854 2855 2856 2857 2858 2859 2861 2862 2863 2864 2865 2866 2867 0
-2861 2853 2854 2855 2856 2857 2858 2859 2860 2862 2863 2864 2865 2866 2867 0
-2862 2853 2854 2855 2856 2857 2858 2859 2860 2861 2863 2864 2865 2866 2867 0
-2863 2853 2854 2855 2856 2857 2858 2859 2860 2861 2862 2864 2865 2866 2867 0
-2864 2853 2854 2855 2856 2857 2858 2859 2860 2861 2862 2863 2865 2866 2867 0
-2865 2853 2854 2855 2856 2857 2858 2859 2860 2861 2862 2863 2864 2866 2867 0
-2866 2853 2854 2855 2856 2857 2858 2859 2860 2861 2862 2863 2864 2865 2867 0
-2867 2853 2854 2855 2856 2857 2858 2859 2860 2861 2862 2863 2864 2865 2866 0
2868 -3 -44 -58 -82 0
-2868 3 0
-2868 44 0
-2868 58 0
-2868 82 0
2869 -3 -44 -61 -79 0
-2869 3 0
-2869 44 0
-2869 61 0
-2869 79 0
2870 -3 -44 -64 -76 0
-2870 3 0
-2870 44 0
-2870 64 0
-2870 76 0
-2868 2869 2870 0
-2869 2868 2870 0
-2870 2868 2869 0
2871 -3 -44 -58 -83 0
-2871 3 0
-2871 44 0
-2871 58 0
-2871 83 0
2872 -3 -50 -58 -74 0
-2872 3 0
-2872 50 0
-2872 58 0
-2872 74 0
2873 -3 -53 -58 -71 0
-2873 3 0
-2873 53 0
-2873 58 0
-2873 71 0
-2871 2872 2873 0
-2872 2871 2873 0
-2873 2871 2872 0
2874 -3 -44 -58 -84 0
-2874 3 0
-2874 44 0
-2874 58 0
-2874 84 0
2875 -18 -39 -44 -58 0
-2875 18 0
-2875 39 0
-2875 44 0
-2875 58 0
2876 -21 -36 -44 -58 0
-2876 21 0
-2876 36 0
-2876 44 0
-2876 58 0
-2874 2875 2876 0
-2875 2874 2876 0
-2876 2874 2875 0
2877 -3 -44 -60 -82 0
-2877 3 0
-2877 44 0
-2877 60 0
-2877 82 0
2878 -9 -33 -44 -82 0
-2878 9 0
-2878 33 0
-2878 44 0
-2878 82 0
2879 -15 -27 -44 -82 0
-2879 15 0
-2879 27 0
-2879 44 0
-2879 82 0
-2877 2878 2879 0
-2878 2877 2879 0
-2879 2877 2878 0
2880 -3 -44 -60 -83 0
-2880 3 0
-2880 44 0
-2880 60 0
-2880 83 0
2881 -3 -50 -60 -74 0
-2881 3 0
-2881 50 0
-2881 60 0
-2881 74 0
2882 -3 -53 -60 -71 0
-2882 3 0
-2882 53 0
-2882 60 0
-2882 71 0
2883 -9 -33 -44 -83 0
-2883 9 0
-2883 33 0
-2883 44 0
-2883 83 0
2884 -9 -33 -50 -74 0
-2884 9 0
-2884 33 0
-2884 50 0
-2884 74 0
2885 -9 -33 -53 -71 0
-2885 9 0
-2885 33 0
-2885 53 0
-2885 71 0
2886 -15 -27 -44 -83 0
-2886 15 0
-2886 27 0
-2886 44 0
-2886 83 0
2887 -15 -27 -50 -74 0
-2887 15 0
-2887 27 0
-2887 50 0
-2887 74 0
2888 -15 -27 -53 -71 0
-2888 15 0
-2888 27 0
-2888 53 0
-2888 71 0
-2880 2881 2882 2883 2884 2885 2886 2887 2888 0
-2881 2880 2882 2883 2884 2885 2886 2887 2888 0
-2882 2880 2881 2883 2884 2885 2886 2887 2888 0
-2883 2880 2881 2882 2884 2885 2886 2887 2888 0
-2884 2880 2881 2882 2883 2885 2886 2887 2888 0
-2885 2880 2881 2882 2883 2884 2886 2887 2888 0
-2886 2880 2881 2882 2883 2884 2885 2887 2888 0
-2887 2880 2881 2882 2883 2884 2885 2886 2888 0
-2888 2880 2881 2882 2883 2884 2885 2886 2887 0
2889 -3 -44 -60 -84 0
-2889 3 0
-2889 44 0
-2889 60 0
-2889 84 0
2890 -3 -44 -63 -81 0
-2890 3 0
-2890 44 0
-2890 63 0
-2890 81 0
2891 -3 -44 -66 -78 0
-2891 3 0
-2891 44 0
-2891 66 0
-2891 78 0
2892 -9 -33 -44 -84 0
-2892 9 0
-2892 33 0
-2892 44 0
-2892 84 0
2893 -9 -36 -44 -81 0
-2893 9 0
-2893 36 0
-2893 44 0
-2893 81 0
2894 -9 -39 -44 -78 0
-2894 9 0
-2894 39 0
-2894 44 0
-2894 78 0
2895 -15 -27 -44 -84 0
-2895 15 0
-2895 27 0
-2895 44 0
-2895 84 0
2896 -15 -36 -44 -66 0
-2896 15 0
-2896 36 0
-2896 44 0
-2896 66 0
2897 -15 -39 -44 -63 0
-2897 15 0
-2897 39 0
-2897 44 0
-2897 63 0
2898 -18 -27 -44 -81 0
-2898 18 0
-2898 27 0
-2898 44 0
-2898 81 0
2899 -18 -33 -44 -66 0
-2899 18 0
-2899 33 0
-2899 44 0
-2899 66 0
2900 -18 -39 -44 -60 0
-2900 18 0
-2900 39 0
-2900 44 0
-2900 60 0
2901 -21 -27 -44 -78 0
-2901 21 0
-2901 27 0
-2901 44 0
-2901 78 0
2902 -21 -33 -44 -63 0
-2902 21 0
-2902 33 0
-2902 44 0
-2902 63 0
2903 -21 -36 -44 -60 0
-2903 21 0
-2903 36 0
-2903 44 0
-2903 60 0
-2889 2890 2891 2892 2893 2894 2895 2896 2897 2898 2899 2900 2901 2902 2903 0
-2890 2889 2891 2892 2893 2894 2895 2896 2897 2898 2899 2900 2901 2902 2903 0
-2891 2889 2890 2892 2893 2894 2895 2896 2897 2898 2899 2900 2901 2902 2903 0
-2892 2889 2890 2891 2893 2894 2895 2896 2897 2898 2899 2900 2901 2902 2903 0
-2893 2889 2890 2891 2892 2894 2895 2896 2897 2898 2899 2900 2901 2902 2903 0
-2894 2889 2890 2891 2892 2893 2895 2896 2897 2898 2899 2900 2901 2902 2903 0
-2895 2889 2890 2891 2892 2893 2894 2896 2897 2898 2899 2900 2901 2902 2903 0
-2896 2889 2890 2891 2892 2893 2894 2895 2897 2898 2899 2900 2901 2902 2903 0
-2897 2889 2890 2891 2892 2893 2894 2895 2896 2898 2899 2900 2901 2902 2903 0
-2898 2889 2890 2891 2892 2893 2894 2895 2896 2897 2899 2900 2901 2902 2903 0
-2899 2889 2890 2891 2892 2893 2894 2895 2896 2897 2898 2900 2901 2902 2903 0
-2900 2889 2890 2891 2892 2893 2894 2895 2896 2897 2898 2899 2901 2902 2903 0
-2901 2889 2890 2891 2892 2893 2894 2895 2896 2897 2898 2899 2900 2902 2903 0
-2902 2889 2890 2891 2892 2893 2894 2895 2896 2897 2898 2899 2900 2901 2903 0
-2903 2889 2890 2891 2892 2893 2894 2895 2896 2897 2898 2899 2900 2901 2902 0
2904 -3 -45 -58 -82 0
-2904 3 0
-2904 45 0
-2904 58 0
-2904 82 0
2905 -3 -45 -61 -79 0
-2905 3 0
-2905 45 0
-2905 61 0
-2905 79 0
2906 -3 -45 -64 -76 0
-2906 3 0
-2906 45 0
-2906 64 0
-2906 76 0
2907 -6 -30 -58 -82 0
-2907 6 0
-2907 30 0
-2907 58 0
-2907 82 0
2908 -6 -30 -61 -79 0
-2908 6 0
-2908 30 0
-2908 61 0
-2908 79 0
2909 -6 -30 -64 -76 0
-2909 6 0
-2909 30 0
-2909 64 0
-2909 76 0
2910 -12 -24 -58 -82 0
-2910 12 0
-2910 24 0
-2910 58 0
-2910 82 0
2911 -12 -24 -61 -79 0
-2911 12 0
-2911 24 0
-2911 61 0
-2911 79 0
2912 -12 -24 -64 -76 0
-2912 12 0
-2912 24 0
-2912 64 0
-2912 76 0
-2904 2905 2906 2907 2908 2909 2910 2911 2912 0
-2905 2904 2906 2907 2908 2909 2910 2911 2912 0
-2906 2904 2905 2907 2908 2909 2910 2911 2912 0
-2907 2904 2905 2906 2908 2909 2910 2911 2912 0
-2908 2904 2905 2906 2907 2909 2910 2911 2912 0
-2909 2904 2905 2906 2907 2908 2910 2911 2912 0
-2910 2904 2905 2906 2907 2908 2909 2911 2912 0
-2911 2904 2905 2906 2907 2908 2909 2910 2912 0
-2912 2904 2905 2906 2907 2908 2909 2910 2911 0
2913 -3 -45 -58 -83 0
-2913 3 0
-2913 45 0
-2913 58 0
-2913 83 0
2914 -6 -30 -58 -83 0
-2914 6 0
-2914 30 0
-2914 58 0
-2914 83 0
2915 -12 -24 -58 -83 0
-2915 12 0
-2915 24 0
-2915 58 0
-2915 83 0
-2913 2914 2915 0
-2914 2913 2915 0
-2915 2913 2914 0
2916 -3 -45 -58 -84 0
-2916 3 0
-2916 45 0
-2916 58 0
-2916 84 0
2917 -3 -51 -58 -75 0
-2917 3 0
-2917 51 0
-2917 58 0
-2917 75 0
2918 -3 -54 -58 -72 0
-2918 3 0
-2918 54 0
-2918 58 0
-2918 72 0
2919 -6 -30 -58 -84 0
-2919 6 0
-2919 30 0
-2919 58 0
-2919 84 0
2920 -6 -36 -58 -75 0
-2920 6 0
-2920 36 0
-2920 58 0
-2920 75 0
2921 -6 -39 -58 -72 0
-2921 6 0
-2921 39 0
-2921 58 0
-2921 72 0
2922 -12 -24 -58 -84 0
-2922 12 0
-2922 24 0
-2922 58 0
-2922 84 0
2923 -12 -36 -54 -58 0
-2923 12 0
-2923 36 0
-2923 54 0
-2923 58 0
2924 -12 -39 -51 -58 0
-2924 12 0
-2924 39 0
-2924 51 0
-2924 58 0
2925 -18 -24 -58 -75 0
-2925 18 0
-2925 24 0
-2925 58 0
-2925 75 0
2926 -18 -30 -54 -58 0
-2926 18 0
-2926 30 0
-2926 54 0
-2926 58 0
2927 -18 -39 -45 -58 0
-2927 18 0
-2927 39 0
-2927 45 0
-2927 58 0
2928 -21 -24 -58 -72 0
-2928 21 0
-2928 24 0
-2928 58 0
-2928 72 0
2929 -21 -30 -51 -58 0
-2929 21 0
-2929 30 0
-2929 51 0
-2929 58 0
2930 -21 -36 -45 -58 0
-2930 21 0
-2930 36 0
-2930 45 0
-2930 58 0
-2916 2917 2918 2919 2920 2921 2922 2923 2924 2925 2926 2927 2928 2929 2930 0
-2917 2916 2918 2919 2920 2921 2922 2923 2924 2925 2926 2927 2928 2929 2930 0
-2918 2916 2917 2919 2920 2921 2922 2923 2924 2925 2926 2927 2928 2929 2930 0
-2919 2916 2917 2918 2920 2921 2922 2923 2924 2925 2926 2927 2928 2929 2930 0
-2920 2916 2917 2918 2919 2921 2922 2923 2924 2925 2926 2927 2928 2929 2930 0
-2921 2916 2917 2918 2919 2920 2922 2923 2924 2925 2926 2927 2928 2929 2930 0
-2922 2916 2917 2918 2919 2920 2921 2923 2924 2925 2926 2927 2928 2929 2930 0
-2923 2916 2917 2918 2919 2920 2921 2922 2924 2925 2926 2927 2928 2929 2930 0
-2924 2916 2917 2918 2919 2920 2921 2922 2923 2925 2926 2927 2928 2929 2930 0
-2925 2916 2917 2918 2919 2920 2921 2922 2923 2924 2926 2927 2928 2929 2930 0
-2926 2916 2917 2918 2919 2920 2921 2922 2923 2924 2925 2927 2928 2929 2930 0
-2927 2916 2917 2918 2919 2920 2921 2922 2923 2924 2925 2926 2928 2929 2930 0
-2928 2916 2917 2918 2919 2920 2921 2922 2923 2924 2925 2926 2927 2929 2930 0
-2929 2916 2917 2918 2919 2920 2921 2922 2923 2924 2925 2926 2927 2928 2930 0
-2930 2916 2917 2918 2919 2920 2921 2922 2923 2924 2925 2926 2927 2928 2929 0
2931 -3 -45 -59 -82 0
-2931 3 0
-2931 45 0
-2931 59 0
-2931 82 0
2932 -6 -30 -59 -82 0
-2932 6 0
-2932 30 0
-2932 59 0
-2932 82 0
2933 -12 -24 -59 -82 0
-2933 12 0
-2933 24 0
-2933 59 0
-2933 82 0
-2931 2932 2933 0
-2932 2931 2933 0
-2933 2931 2932 0
2934 -3 -45 -59 -83 0
-2934 3 0
-2934 45 0
-2934 59 0
-2934 83 0
2935 -3 -45 -62 -80 0
-2935 3 0
-2935 45 0
-2935 62 0
-2935 80 0
2936 -3 -45 -65 -77 0
-2936 3 0
-2936 45 0
-2936 65 0
-2936 77 0
2937 -6 -30 -59 -83 0
-2937 6 0
-2937 30 0
-2937 59 0
-2937 83 0
2938 -6 -30 -62 -80 0
-2938 6 0
-2938 30 0
-2938 62 0
-2938 80 0
2939 -6 -30 -65 -77 0
-2939 6 0
-2939 30 0
-2939 65 0
-2939 77 0
2940 -12 -24 -59 -83 0
-2940 12 0
-2940 24 0
-2940 59 0
-2940 83 0
2941 -12 -24 -62 -80 0
-2941 12 0
-2941 24 0
-2941 62 0
-2941 80 0
2942 -12 -24 -65 -77 0
-2942 12 0
-2942 24 0
-2942 65 0
-2942 77 0
-2934 2935 2936 2937 2938 2939 2940 2941 2942 0
-2935 2934 2936 2937 2938 2939 2940 2941 2942 0
-2936 2934 2935 2937 2938 2939 2940 2941 2942 0
-2937 2934 2935 2936 2938 2939 2940 2941 2942 0
-2938 2934 2935 2936 2937 2939 2940 2941 2942 0
-2939 2934 2935 2936 2937 2938 2940 2941 2942 0
-2940 2934 2935 2936 2937 2938 2939 2941 2942 0
-2941 2934 2935 2936 2937 2938 2939 2940 2942 0
-2942 2934 2935 2936 2937 2938 2939 2940 2941 0
2943 -3 -45 -59 -84 0
-2943 3 0
-2943 45 0
-2943 59 0
-2943 84 0
2944 -3 -51 -59 -75 0
-2944 3 0
-2944 51 0
-2944 59 0
-2944 75 0
2945 -3 -54 -59 -72 0
-2945 3 0
-2945 54 0
-2945 59 0
-2945 72 0
2946 -6 -30 -59 -84 0
-2946 6 0
-2946 30 0
-2946 59 0
-2946 84 0
2947 -6 -36 -59 -75 0
-2947 6 0
-2947 36 0
-2947 59 0
-2947 75 0
2948 -6 -39 -59 -72 0
-2948 6 0
-2948 39 0
-2948 59 0
-2948 72 0
2949 -12 -24 -59 -84 0
-2949 12 0
-2949 24 0
-2949 59 0
-2949 84 0
2950 -12 -36 -54 -59 0
-2950 12 0
-2950 36 0
-2950 54 0
-2950 59 0
2951 -12 -39 -51 -59 0
-2951 12 0
-2951 39 0
-2951 51 0
-2951 59 0
2952 -18 -24 -59 -75 0
-2952 18 0
-2952 24 0
-2952 59 0
-2952 75 0
2953 -18 -30 -54 -59 0
-2953 18 0
-2953 30 0
-2953 54 0
-2953 59 0
2954 -18 -39 -45 -59 0
-2954 18 0
-2954 39 0
-2954 45 0
-2954 59 0
2955 -21 -24 -59 -72 0
-2955 21 0
-2955 24 0
-2955 59 0
-2955 72 0
2956 -21 -30 -51 -59 0
-2956 21 0
-2956 30 0
-2956 51 0
-2956 59 0
2957 -21 -36 -45 -59 0
-2957 21 0
-2957 36 0
-2957 45 0
-2957 59 0
-2943 2944 2945 2946 2947 2948 2949 2950 2951 2952 2953 2954 2955 2956 2957 0
-2944 2943 2945 2946 2947 2948 2949 2950 2951 2952 2953 2954 2955 2956 2957 0
-2945 2943 2944 2946 2947 2948 2949 2950 2951 2952 2953 2954 2955 2956 2957 0
-2946 2943 2944 2945 2947 2948 2949 2950 2951 2952 2953 2954 2955 2956 2957 0
-2947 2943 2944 2945 2946 2948 2949 2950 2951 2952 2953 2954 2955 2956 2957 0
-2948 2943 2944 2945 2946 2947 2949 2950 2951 2952 2953 2954 2955 2956 2957 0
-2949 2943 2944 2945 2946 2947 2948 2950 2951 2952 2953 2954 2955 2956 2957 0
-2950 2943 2944 2945 2946 2947 2948 2949 2951 2952 2953 2954 2955 2956 2957 0
-2951 2943 2944 2945 2946 2947 2948 2949 2950 2952 2953 2954 2955 2956 2957 0
-2952 2943 2944 2945 2946 2947 2948 2949 2950 2951 2953 2954 2955 2956 2957 0
-2953 2943 2944 2945 2946 2947 2948 2949 2950 2951 2952 2954 2955 2956 2957 0
-2954 2943 2944 2945 2946 2947 2948 2949 2950 2951 2952 2953 2955 2956 2957 0
-2955 2943 2944 2945 2946 2947 2948 2949 2950 2951 2952 2953 2954 2956 2957 0
-2956 2943 2944 2945 2946 2947 2948 2949 2950 2951 2952 2953 2954 2955 2957 0
-2957 2943 2944 2945 2946 2947 2948 2949 2950 2951 2952 2953 2954 2955 2956 0
2958 -1 -43 -62 -79 0
-2958 1 0
-2958 43 0
-2958 62 0
-2958 79 0
2959 -1 -46 -62 -73 0
-2959 1 0
-2959 46 0
-2959 62 0
-2959 73 0
2960 -1 -52 -62 -67 0
-2960 1 0
-2960 52 0
-2960 62 0
-2960 67 0
2961 -4 -28 -62 -79 0
-2961 4 0
-2961 28 0
-2961 62 0
-2961 79 0
2962 -4 -31 -62 -73 0
-2962 4 0
-2962 31 0
-2962 62 0
-2962 73 0
2963 -4 -37 -62 -67 0
-2963 4 0
-2963 37 0
-2963 62 0
-2963 67 0
2964 -10 -22 -62 -79 0
-2964 10 0
-2964 22 0
-2964 62 0
-2964 79 0
2965 -10 -31 -52 -62 0
-2965 10 0
-2965 31 0
-2965 52 0
-2965 62 0
2966 -10 -37 -46 -62 0
-2966 10 0
-2966 37 0
-2966 46 0
-2966 62 0
2967 -13 -22 -62 -73 0
-2967 13 0
-2967 22 0
-2967 62 0
-2967 73 0
2968 -13 -28 -52 -62 0
-2968 13 0
-2968 28 0
-2968 52 0
-2968 62 0
2969 -13 -37 -43 -62 0
-2969 13 0
-2969 37 0
-2969 43 0
-2969 62 0
2970 -19 -22 -62 -67 0
-2970 19 0
-2970 22 0
-2970 62 0
-2970 67 0
2971 -19 -28 -46 -62 0
-2971 19 0
-2971 28 0
-2971 46 0
-2971 62 0
2972 -19 -31 -43 -62 0
-2972 19 0
-2972 31 0
-2972 43 0
-2972 62 0
-2958 2959 2960 2961 2962 2963 2964 2965 2966 2967 2968 2969 2970 2971 2972 0
-2959 2958 2960 2961 2962 2963 2964 2965 2966 2967 2968 2969 2970 2971 2972 0
-2960 2958 2959 2961 2962 2963 2964 2965 2966 2967 2968 2969 2970 2971 2972 0
-2961 2958 2959 2960 2962 2963 2964 2965 2966 2967 2968 2969 2970 2971 2972 0
-2962 2958 2959 2960 2961 2963 2964 2965 2966 2967 2968 2969 2970 2971 2972 0
-2963 2958 2959 2960 2961 2962 2964 2965 2966 2967 2968 2969 2970 2971 2972 0
-2964 2958 2959 2960 2961 2962 2963 2965 2966 2967 2968 2969 2970 2971 2972 0
-2965 2958 2959 2960 2961 2962 2963 2964 2966 2967 2968 2969 2970 2971 2972 0
-2966 2958 2959 2960 2961 2962 2963 2964 2965 2967 2968 2969 2970 2971 2972 0
-2967 2958 2959 2960 2961 2962 2963 2964 2965 2966 2968 2969 2970 2971 2972 0
-2968 2958 2959 2960 2961 2962 2963 2964 2965 2966 2967 2969 2970 2971 2972 0
-2969 2958 2959 2960 2961 2962 2963 2964 2965 2966 2967 2968 2970 2971 2972 0
-2970 2958 2959 2960 2961 2962 2963 2964 2965 2966 2967 2968 2969 2971 2972 0
-2971 2958 2959 2960 2961 2962 2963 2964 2965 2966 2967 2968 2969 2970 2972 0
-2972 2958 2959 2960 2961 2962 2963 2964 2965 2966 2967 2968 2969 2970 2971 0
2973 -1 -43 -62 -81 0
-2973 1 0
-2973 43 0
-2973 62 0
-2973 81 0
2974 -4 -28 -62 -81 0
-2974 4 0
-2974 28 0
-2974 62 0
-2974 81 0
2975 -10 -22 -62 -81 0
-2975 10 0
-2975 22 0
-2975 62 0
-2975 81 0
-2973 2974 2975 0
-2974 2973 2975 0
-2975 2973 2974 0
2976 -1 -43 -63 -79 0
-2976 1 0
-2976 43 0
-2976 63 0
-2976 79 0
2977 -1 -46 -63 -73 0
-2977 1 0
-2977 46 0
-2977 63 0
-2977 73 0
2978 -1 -52 -63 -67 0
-2978 1 0
-2978 52 0
-2978 63 0
-2978 67 0
2979 -4 -28 -63 -79 0
-2979 4 0
-2979 28 0
-2979 63 0
-2979 79 0
2980 -4 -31 -63 -73 0
-2980 4 0
-2980 31 0
-2980 63 0
-2980 73 0
2981 -4 -37 -63 -67 0
-2981 4 0
-2981 37 0
-2981 63 0
-2981 67 0
2982 -10 -22 -63 -79 0
-2982 10 0
-2982 22 0
-2982 63 0
-2982 79 0
2983 -10 -31 -52 -63 0
-2983 10 0
-2983 31 0
-2983 52 0
-2983 63 0
2984 -10 -37 -46 -63 0
-2984 10 0
-2984 37 0
-2984 46 0
-2984 63 0
2985 -13 -22 -63 -73 0
-2985 13 0
-2985 22 0
-2985 63 0
-2985 73 0
2986 -13 -28 -52 -63 0
-2986 13 0
-2986 28 0
-2986 52 0
-2986 63 0
2987 -13 -37 -43 -63 0
-2987 13 0
-2987 37 0
-2987 43 0
-2987 63 0
2988 -19 -22 -63 -67 0
-2988 19 0
-2988 22 0
-2988 63 0
-2988 67 0
2989 -19 -28 -46 -63 0
-2989 19 0
-2989 28 0
-2989 46 0
-2989 63 0
2990 -19 -31 -43 -63 0
-2990 19 0
-2990 31 0
-2990 43 0
-2990 63 0
-2976 2977 2978 2979 2980 2981 2982 2983 2984 2985 2986 2987 2988 2989 2990 0
-2977 2976 2978 2979 2980 2981 2982 2983 2984 2985 2986 2987 2988 2989 2990 0
-2978 2976 2977 2979 2980 2981 2982 2983 2984 2985 2986 2987 2988 2989 2990 0
-2979 2976 2977 2978 2980 2981 2982 2983 2984 2985 2986 2987 2988 2989 2990 0
-2980 2976 2977 2978 2979 2981 2982 2983 2984 2985 2986 2987 2988 2989 2990 0
-2981 2976 2977 2978 2979 2980 2982 2983 2984 2985 2986 2987 2988 2989 2990 0
-2982 2976 2977 2978 2979 2980 2981 2983 2984 2985 2986 2987 2988 2989 2990 0
-2983 2976 2977 2978 2979 2980 2981 2982 2984 2985 2986 2987 2988 2989 2990 0
-2984 2976 2977 2978 2979 2980 2981 2982 2983 2985 2986 2987 2988 2989 2990 0
-2985 2976 2977 2978 2979 2980 2981 2982 2983 2984 2986 2987 2988 2989 2990 0
-2986 2976 2977 2978 2979 2980 2981 2982 2983 2984 2985 2987 2988 2989 2990 0
-2987 2976 2977 2978 2979 2980 2981 2982 2983 2984 2985 2986 2988 2989 2990 0
-2988 2976 2977 2978 2979 2980 2981 2982 2983 2984 2985 2986 2987 2989 2990 0
-2989 2976 2977 2978 2979 2980 2981 2982 2983 2984 2985 2986 2987 2988 2990 0
-2990 2976 2977 2978 2979 2980 2981 2982 2983 2984 2985 2986 2987 2988 2989 0
2991 -1 -43 -63 -80 0
-2991 1 0
-2991 43 0
-2991 63 0
-2991 80 0
2992 -4 -28 -63 -80 0
-2992 4 0
-2992 28 0
-2992 63 0
-2992 80 0
2993 -10 -22 -63 -80 0
-2993 10 0
-2993 22 0
-2993 63 0
-2993 80 0
-2991 2992 2993 0
-2992 2991 2993 0
-2993 2991 2992 0
2994 -1 -44 -61 -80 0
-2994 1 0
-2994 44 0
-2994 61 0
-2994 80 0
2995 -1 -47 -61 -74 0
-2995 1 0
-2995 47 0
-2995 61 0
-2995 74 0
2996 -1 -53 -61 -68 0
-2996 1 0
-2996 53 0
-2996 61 0
-2996 68 0
2997 -7 -34 -44 -80 0
-2997 7 0
-2997 34 0
-2997 44 0
-2997 80 0
2998 -7 -34 -47 -74 0
-2998 7 0
-2998 34 0
-2998 47 0
-2998 74 0
2999 -7 -34 -53 -68 0
-2999 7 0
-2999 34 0
-2999 53 0
-2999 68 0
3000 -16 -25 -44 -80 0
-3000 16 0
-3000 25 0
-3000 44 0
-3000 80 0
3001 -16 -25 -47 -74 0
-3001 16 0
-3001 25 0
-3001 47 0
-3001 74 0
3002 -16 -25 -53 -68 0
-3002 16 0
-3002 25 0
-3002 53 0
-3002 68 0
-2994 2995 2996 2997 2998 2999 3000 3001 3002 0
-2995 2994 2996 2997 2998 2999 3000 3001 3002 0
-2996 2994 2995 2997 2998 2999 3000 3001 3002 0
-2997 2994 2995 2996 2998 2999 3000 3001 3002 0
-2998 2994 2995 2996 2997 2999 3000 3001 3002 0
-2999 2994 2995 2996 2997 2998 3000 3001 3002 0
-3000 2994 2995 2996 2997 2998 2999 3001 3002 0
-3001 2994 2995 2996 2997 2998 2999 3000 3002 0
-3002 2994 2995 2996 2997 2998 2999 3000 3001 0
3003 -1 -44 -61 -81 0
-3003 1 0
-3003 44 0
-3003 61 0
-3003 81 0
3004 -7 -34 -44 -81 0
-3004 7 0
-3004 34 0
-3004 44 0
-3004 81 0
3005 -16 -25 -44 -81 0
-3005 16 0
-3005 25 0
-3005 44 0
-3005 81 0
-3003 3004 3005 0
-3004 3003 3005 0
-3005 3003 3004 0
3006 -1 -44 -63 -79 0
-3006 1 0
-3006 44 0
-3006 63 0
-3006 79 0
3007 -13 -37 -44 -63 0
-3007 13 0
-3007 37 0
-3007 44 0
-3007 63 0
3008 -19 -31 -44 -63 0
-3008 19 0
-3008 31 0
-3008 44 0
-3008 63 0
-3006 3007 3008 0
-3007 3006 3008 0
-3008 3006 3007 0
3009 -1 -44 -63 -80 0
-3009 1 0
-3009 44 0
-3009 63 0
-3009 80 0
3010 -1 -47 -63 -74 0
-3010 1 0
-3010 47 0
-3010 63 0
-3010 74 0
3011 -1 -53 -63 -68 0
-3011 1 0
-3011 53 0
-3011 63 0
-3011 68 0
-3009 3010 3011 0
-3010 3009 3011 0
-3011 3009 3010 0
3012 -1 -45 -61 -80 0
-3012 1 0
-3012 45 0
-3012 61 0
-3012 80 0
3013 -7 -34 -45 -80 0
-3013 7 0
-3013 34 0
-3013 45 0
-3013 80 0
3014 -16 -25 -45 -80 0
-3014 16 0
-3014 25 0
-3014 45 0
-3014 80 0
-3012 3013 3014 0
-3013 3012 3014 0
-3014 3012 3013 0
3015 -1 -45 -61 -81 0
-3015 1 0
-3015 45 0
-3015 61 0
-3015 81 0
3016 -1 -48 -61 -75 0
-3016 1 0
-3016 48 0
-3016 61 0
-3016 75 0
3017 -1 -54 -61 -69 0
-3017 1 0
-3017 54 0
-3017 61 0
-3017 69 0
3018 -7 -34 -45 -81 0
-3018 7 0
-3018 34 0
-3018 45 0
-3018 81 0
3019 -7 -34 -48 -75 0
-3019 7 0
-3019 34 0
-3019 48 0
-3019 75 0
3020 -7 -34 -54 -69 0
-3020 7 0
-3020 34 0
-3020 54 0
-3020 69 0
3021 -16 -25 -45 -81 0
-3021 16 0
-3021 25 0
-3021 45 0
-3021 81 0
3022 -16 -25 -48 -75 0
-3022 16 0
-3022 25 0
-3022 48 0
-3022 75 0
3023 -16 -25 -54 -69 0
-3023 16 0
-3023 25 0
-3023 54 0
-3023 69 0
-3015 3016 3017 3018 3019 3020 3021 3022 3023 0
-3016 3015 3017 3018 3019 3020 3021 3022 3023 0
-3017 3015 3016 3018 3019 3020 3021 3022 3023 0
-3018 3015 3016 3017 3019 3020 3021 3022 3023 0
-3019 3015 3016 3017 3018 3020 3021 3022 3023 0
-3020 3015 3016 3017 3018 3019 3021 3022 3023 0
-3021 3015 3016 3017 3018 3019 3020 3022 3023 0
-3022 3015 3016 3017 3018 3019 3020 3021 3023 0
-3023 3015 3016 3017 3018 3019 3020 3021 3022 0
3024 -1 -45 -62 -79 0
-3024 1 0
-3024 45 0
-3024 62 0
-3024 79 0
3025 -13 -37 -45 -62 0
-3025 13 0
-3025 37 0
-3025 45 0
-3025 62 0
3026 -19 -31 -45 -62 0
-3026 19 0
-3026 31 0
-3026 45 0
-3026 62 0
-3024 3025 3026 0
-3025 3024 3026 0
-3026 3024 3025 0
3027 -1 -45 -62 -81 0
-3027 1 0
-3027 45 0
-3027 62 0
-3027 81 0
3028 -1 -48 -62 -75 0
-3028 1 0
-3028 48 0
-3028 62 0
-3028 75 0
3029 -1 -54 -62 -69 0
-3029 1 0
-3029 54 0
-3029 62 0
-3029 69 0
-3027 3028 3029 0
-3028 3027 3029 0
-3029 3027 3028 0
3030 -2 -43 -62 -79 0
-3030 2 0
-3030 43 0
-3030 62 0
-3030 79 0
3031 -2 -46 -62 -73 0
-3031 2 0
-3031 46 0
-3031 62 0
-3031 73 0
3032 -2 -52 -62 -67 0
-3032 2 0
-3032 52 0
-3032 62 0
-3032 67 0
3033 -8 -35 -43 -79 0
-3033 8 0
-3033 35 0
-3033 43 0
-3033 79 0
3034 -8 -35 -46 -73 0
-3034 8 0
-3034 35 0
-3034 46 0
-3034 73 0
3035 -8 -35 -52 -67 0
-3035 8 0
-3035 35 0
-3035 52 0
-3035 67 0
3036 -17 -26 -43 -79 0
-3036 17 0
-3036 26 0
-3036 43 0
-3036 79 0
3037 -17 -26 -46 -73 0
-3037 17 0
-3037 26 0
-3037 46 0
-3037 73 0
3038 -17 -26 -52 -67 0
-3038 17 0
-3038 26 0
-3038 52 0
-3038 67 0
-3030 3031 3032 3033 3034 3035 3036 3037 3038 0
-3031 3030 3032 3033 3034 3035 3036 3037 3038 0
-3032 3030 3031 3033 3034 3035 3036 3037 3038 0
-3033 3030 3031 3032 3034 3035 3036 3037 3038 0
-3034 3030 3031 3032 3033 3035 3036 3037 3038 0
-3035 3030 3031 3032 3033 3034 3036 3037 3038 0
-3036 3030 3031 3032 3033 3034 3035 3037 3038 0
-3037 3030 3031 3032 3033 3034 3035 3036 3038 0
-3038 3030 3031 3032 3033 3034 3035 3036 3037 0
3039 -2 -43 -62 -81 0
-3039 2 0
-3039 43 0
-3039 62 0
-3039 81 0
3040 -8 -35 -43 -81 0
-3040 8 0
-3040 35 0
-3040 43 0
-3040 81 0
3041 -17 -26 -43 -81 0
-3041 17 0
-3041 26 0
-3041 43 0
-3041 81 0
-3039 3040 3041 0
-3040 3039 3041 0
-3041 3039 3040 0
3042 -2 -43 -63 -79 0
-3042 2 0
-3042 43 0
-3042 63 0
-3042 79 0
3043 -2 -46 -63 -73 0
-3043 2 0
-3043 46 0
-3043 63 0
-3043 73 0
3044 -2 -52 -63 -67 0
-3044 2 0
-3044 52 0
-3044 63 0
-3044 67 0
-3042 3043 3044 0
-3043 3042 3044 0
-3044 3042 3043 0
3045 -2 -43 -63 -80 0
-3045 2 0
-3045 43 0
-3045 63 0
-3045 80 0
3046 -14 -38 -43 -63 0
-3046 14 0
-3046 38 0
-3046 43 0
-3046 63 0
3047 -20 -32 -43 -63 0
-3047 20 0
-3047 32 0
-3047 43 0
-3047 63 0
-3045 3046 3047 0
-3046 3045 3047 0
-3047 3045 3046 0
3048 -2 -44 -61 -80 0
-3048 2 0
-3048 44 0
-3048 61 0
-3048 80 0
3049 -2 -47 -61 -74 0
-3049 2 0
-3049 47 0
-3049 61 0
-3049 74 0
3050 -2 -53 -61 -68 0
-3050 2 0
-3050 53 0
-3050 61 0
-3050 68 0
3051 -5 -29 -61 -80 0
-3051 5 0
-3051 29 0
-3051 61 0
-3051 80 0
3052 -5 -32 -61 -74 0
-3052 5 0
-3052 32 0
-3052 61 0
-3052 74 0
3053 -5 -38 -61 -68 0
-3053 5 0
-3053 38 0
-3053 61 0
-3053 68 0
3054 -11 -23 -61 -80 0
-3054 11 0
-3054 23 0
-3054 61 0
-3054 80 0
3055 -11 -32 -53 -61 0
-3055 11 0
-3055 32 0
-3055 53 0
-3055 61 0
3056 -11 -38 -47 -61 0
-3056 11 0
-3056 38 0
-3056 47 0
-3056 61 0
3057 -14 -23 -61 -74 0
-3057 14 0
-3057 23 0
-3057 61 0
-3057 74 0
3058 -14 -29 -53 -61 0
-3058 14 0
-3058 29 0
-3058 53 0
-3058 61 0
3059 -14 -38 -44 -61 0
-3059 14 0
-3059 38 0
-3059 44 0
-3059 61 0
3060 -20 -23 -61 -68 0
-3060 20 0
-3060 23 0
-3060 61 0
-3060 68 0
3061 -20 -29 -47 -61 0
-3061 20 0
-3061 29 0
-3061 47 0
-3061 61 0
3062 -20 -32 -44 -61 0
-3062 20 0
-3062 32 0
-3062 44 0
-3062 61 0
-3048 3049 3050 3051 3052 3053 3054 3055 3056 3057 3058 3059 3060 3061 3062 0
-3049 3048 3050 3051 3052 3053 3054 3055 3056 3057 3058 3059 3060 3061 3062 0
-3050 3048 3049 3051 3052 3053 3054 3055 3056 3057 3058 3059 3060 3061 3062 0
-3051 3048 3049 3050 3052 3053 3054 3055 3056 3057 3058 3059 3060 3061 3062 0
-3052 3048 3049 3050 3051 3053 3054 3055 3056 3057 3058 3059 3060 3061 3062 0
-3053 3048 3049 3050 3051 3052 3054 3055 3056 3057 3058 3059 3060 3061 3062 0
-3054 3048 3049 3050 3051 3052 3053 3055 3056 3057 3058 3059 3060 3061 3062 0
-3055 3048 3049 3050 3051 3052 3053 3054 3056 3057 3058 3059 3060 3061 3062 0
-3056 3048 3049 3050 3051 3052 3053 3054 3055 3057 3058 3059 3060 3061 3062 0
-3057 3048 3049 3050 3051 3052 3053 3054 3055 3056 3058 3059 3060 3061 3062 0
-3058 3048 3049 3050 3051 3052 3053 3054 3055 3056 3057 3059 3060 3061 3062 0
-3059 3048 3049 3050 3051 3052 3053 3054 3055 3056 3057 3058 3060 3061 3062 0
-3060 3048 3049 3050 3051 3052 3053 3054 3055 3056 3057 3058 3059 3061 3062 0
-3061 3048 3049 3050 3051 3052 3053 3054 3055 3056 3057 3058 3059 3060 3062 0
-3062 3048 3049 3050 3051 3052 3053 3054 3055 3056 3057 3058 3059 3060 3061 0
3063 -2 -44 -61 -81 0
-3063 2 0
-3063 44 0
-3063 61 0
-3063 81 0
3064 -5 -29 -61 -81 0
-3064 5 0
-3064 29 0
-3064 61 0
-3064 81 0
3065 -11 -23 -61 -81 0
-3065 11 0
-3065 23 0
-3065 61 0
-3065 81 0
-3063 3064 3065 0
-3064 3063 3065 0
-3065 3063 3064 0
3066 -2 -44 -63 -79 0
-3066 2 0
-3066 44 0
-3066 63 0
-3066 79 0
3067 -5 -29 -63 -79 0
-3067 5 0
-3067 29 0
-3067 63 0
-3067 79 0
3068 -11 -23 -63 -79 0
-3068 11 0
-3068 23 0
-3068 63 0
-3068 79 0
-3066 3067 3068 0
-3067 3066 3068 0
-3068 3066 3067 0
3069 -2 -44 -63 -80 0
-3069 2 0
-3069 44 0
-3069 63 0
-3069 80 0
3070 -2 -47 -63 -74 0
-3070 2 0
-3070 47 0
-3070 63 0
-3070 74 0
3071 -2 -53 -63 -68 0
-3071 2 0
-3071 53 0
-3071 63 0
-3071 68 0
3072 -5 -29 -63 -80 0
-3072 5 0
-3072 29 0
-3072 63 0
-3072 80 0
3073 -5 -32 -63 -74 0
-3073 5 0
-3073 32 0
-3073 63 0
-3073 74 0
3074 -5 -38 -63 -68 0
-3074 5 0
-3074 38 0
-3074 63 0
-3074 68 0
3075 -11 -23 -63 -80 0
-3075 11 0
-3075 23 0
-3075 63 0
-3075 80 0
3076 -11 -32 -53 -63 0
-3076 11 0
-3076 32 0
-3076 53 0
-3076 63 0
3077 -11 -38 -47 -63 0
-3077 11 0
-3077 38 0
-3077 47 0
-3077 63 0
3078 -14 -23 -63 -74 0
-3078 14 0
-3078 23 0
-3078 63 0
-3078 74 0
3079 -14 -29 -53 -63 0
-3079 14 0
-3079 29 0
-3079 53 0
-3079 63 0
3080 -14 -38 -44 -63 0
-3080 14 0
-3080 38 0
-3080 44 0
-3080 63 0
3081 -20 -23 -63 -68 0
-3081 20 0
-3081 23 0
-3081 63 0
-3081 68 0
3082 -20 -29 -47 -63 0
-3082 20 0
-3082 29 0
-3082 47 0
-3082 63 0
3083 -20 -32 -44 -63 0
-3083 20 0
-3083 32 0
-3083 44 0
-3083 63 0
-3069 3070 3071 3072 3073 3074 3075 3076 3077 3078 3079 3080 3081 3082 3083 0
-3070 3069 3071 3072 3073 3074 3075 3076 3077 3078 3079 3080 3081 3082 3083 0
-3071 3069 3070 3072 3073 3074 3075 3076 3077 3078 3079 3080 3081 3082 3083 0
-3072 3069 3070 3071 3073 3074 3075 3076 3077 3078 3079 3080 3081 3082 3083 0
-3073 3069 3070 3071 3072 3074 3075 3076 3077 3078 3079 3080 3081 3082 3083 0
-3074 3069 3070 3071 3072 3073 3075 3076 3077 3078 3079 3080 3081 3082 3083 0
-3075 3069 3070 3071 3072 3073 3074 3076 3077 3078 3079 3080 3081 3082 3083 0
-3076 3069 3070 3071 3072 3073 3074 3075 3077 3078 3079 3080 3081 3082 3083 0
-3077 3069 3070 3071 3072 3073 3074 3075 3076 3078 3079 3080 3081 3082 3083 0
-3078 3069 3070 3071 3072 3073 3074 3075 3076 3077 3079 3080 3081 3082 3083 0
-3079 3069 3070 3071 3072 3073 3074 3075 3076 3077 3078 3080 3081 3082 3083 0
-3080 3069 3070 3071 3072 3073 3074 3075 3076 3077 3078 3079 3081 3082 3083 0
-3081 3069 3070 3071 3072 3073 3074 3075 3076 3077 3078 3079 3080 3082 3083 0
-3082 3069 3070 3071 3072 3073 3074 3075 3076 3077 3078 3079 3080 3081 3083 0
-3083 3069 3070 3071 3072 3073 3074 3075 3076 3077 3078 3079 3080 3081 3082 0
3084 -2 -45 -61 -80 0
-3084 2 0
-3084 45 0
-3084 61 0
-3084 80 0
3085 -14 -38 -45 -61 0
-3085 14 0
-3085 38 0
-3085 45 0
-3085 61 0
3086 -20 -32 -45 -61 0
-3086 20 0
-3086 32 0
-3086 45 0
-3086 61 0
-3084 3085 3086 0
-3085 3084 3086 0
-3086 3084 3085 0
3087 -2 -45 -61 -81 0
-3087 2 0
-3087 45 0
-3087 61 0
-3087 81 0
3088 -2 -48 -61 -75 0
-3088 2 0
-3088 48 0
-3088 61 0
-3088 75 0
3089 -2 -54 -61 -69 0
-3089 2 0
-3089 54 0
-3089 61 0
-3089 69 0
-3087 3088 3089 0
-3088 3087 3089 0
-3089 3087 3088 0
3090 -2 -45 -62 -79 0
-3090 2 0
-3090 45 0
-3090 62 0
-3090 79 0
3091 -8 -35 -45 -79 0
-3091 8 0
-3091 35 0
-3091 45 0
-3091 79 0
3092 -17 -26 -45 -79 0
-3092 17 0
-3092 26 0
-3092 45 0
-3092 79 0
-3090 3091 3092 0
-3091 3090 3092 0
-3092 3090 3091 0
3093 -2 -45 -62 -81 0
-3093 2 0
-3093 45 0
-3093 62 0
-3093 81 0
3094 -2 -48 -62 -75 0
-3094 2 0
-3094 48 0
-3094 62 0
-3094 75 0
3095 -2 -54 -62 -69 0
-3095 2 0
-3095 54 0
-3095 62 0
-3095 69 0
3096 -8 -35 -45 -81 0
-3096 8 0
-3096 35 0
-3096 45 0
-3096 81 0
3097 -8 -35 -48 -75 0
-3097 8 0
-3097 35 0
-3097 48 0
-3097 75 0
3098 -8 -35 -54 -69 0
-3098 8 0
-3098 35 0
-3098 54 0
-3098 69 0
3099 -17 -26 -45 -81 0
-3099 17 0
-3099 26 0
-3099 45 0
-3099 81 0
3100 -17 -26 -48 -75 0
-3100 17 0
-3100 26 0
-3100 48 0
-3100 75 0
3101 -17 -26 -54 -69 0
-3101 17 0
-3101 26 0
-3101 54 0
-3101 69 0
-3093 3094 3095 3096 3097 3098 3099 3100 3101 0
-3094 3093 3095 3096 3097 3098 3099 3100 3101 0
-3095 3093 3094 3096 3097 3098 3099 3100 3101 0
-3096 3093 3094 3095 3097 3098 3099 3100 3101 0
-3097 3093 3094 3095 3096 3098 3099 3100 3101 0
-3098 3093 3094 3095 3096 3097 3099 3100 3101 0
-3099 3093 3094 3095 3096 3097 3098 3100 3101 0
-3100 3093 3094 3095 3096 3097 3098 3099 3101 0
-3101 3093 3094 3095 3096 3097 3098 3099 3100 0
3102 -3 -43 -62 -79 0
-3102 3 0
-3102 43 0
-3102 62 0
-3102 79 0
3103 -3 -46 -62 -73 0
-3103 3 0
-3103 46 0
-3103 62 0
-3103 73 0
3104 -3 -52 -62 -67 0
-3104 3 0
-3104 52 0
-3104 62 0
-3104 67 0
-3102 3103 3104 0
-3103 3102 3104 0
-3104 3102 3103 0
3105 -3 -43 -62 -81 0
-3105 3 0
-3105 43 0
-3105 62 0
-3105 81 0
3106 -15 -39 -43 -62 0
-3106 15 0
-3106 39 0
-3106 43 0
-3106 62 0
3107 -21 -33 -43 -62 0
-3107 21 0
-3107 33 0
-3107 43 0
-3107 62 0
-3105 3106 3107 0
-3106 3105 3107 0
-3107 3105 3106 0
3108 -3 -43 -63 -79 0
-3108 3 0
-3108 43 0
-3108 63 0
-3108 79 0
3109 -3 -46 -63 -73 0
-3109 3 0
-3109 46 0
-3109 63 0
-3109 73 0
3110 -3 -52 -63 -67 0
-3110 3 0
-3110 52 0
-3110 63 0
-3110 67 0
3111 -9 -36 -43 -79 0
-3111 9 0
-3111 36 0
-3111 43 0
-3111 79 0
3112 -9 -36 -46 -73 0
-3112 9 0
-3112 36 0
-3112 46 0
-3112 73 0
3113 -9 -36 -52 -67 0
-3113 9 0
-3113 36 0
-3113 52 0
-3113 67 0
3114 -18 -27 -43 -79 0
-3114 18 0
-3114 27 0
-3114 43 0
-3114 79 0
3115 -18 -27 -46 -73 0
-3115 18 0
-3115 27 0
-3115 46 0
-3115 73 0
3116 -18 -27 -52 -67 0
-3116 18 0
-3116 27 0
-3116 52 0
-3116 67 0
-3108 3109 3110 3111 3112 3113 3114 3115 3116 0
-3109 3108 3110 3111 3112 3113 3114 3115 3116 0
-3110 3108 3109 3111 3112 3113 3114 3115 3116 0
-3111 3108 3109 3110 3112 3113 3114 3115 3116 0
-3112 3108 3109 3110 3111 3113 3114 3115 3116 0
-3113 3108 3109 3110 3111 3112 3114 3115 3116 0
-3114 3108 3109 3110 3111 3112 3113 3115 3116 0
-3115 3108 3109 3110 3111 3112 3113 3114 3116 0
-3116 3108 3109 3110 3111 3112 3113 3114 3115 0
3117 -3 -43 -63 -80 0
-3117 3 0
-3117 43 0
-3117 63 0
-3117 80 0
3118 -9 -36 -43 -80 0
-3118 9 0
-3118 36 0
-3118 43 0
-3118 80 0
3119 -18 -27 -43 -80 0
-3119 18 0
-3119 27 0
-3119 43 0
-3119 80 0
-3117 3118 3119 0
-3118 3117 3119 0
-3119 3117 3118 0
3120 -3 -44 -61 -80 0
-3120 3 0
-3120 44 0
-3120 61 0
-3120 80 0
3121 -3 -47 -61 -74 0
-3121 3 0
-3121 47 0
-3121 61 0
-3121 74 0
3122 -3 -53 -61 -68 0
-3122 3 0
-3122 53 0
-3122 61 0
-3122 68 0
-3120 3121 3122 0
-3121 3120 3122 0
-3122 3120 3121 0
3123 -3 -44 -61 -81 0
-3123 3 0
-3123 44 0
-3123 61 0
-3123 81 0
3124 -15 -39 -44 -61 0
-3124 15 0
-3124 39 0
-3124 44 0
-3124 61 0
3125 -21 -33 -44 -61 0
-3125 21 0
-3125 33 0
-3125 44 0
-3125 61 0
-3123 3124 3125 0
-3124 3123 3125 0
-3125 3123 3124 0
3126 -3 -44 -63 -79 0
-3126 3 0
-3126 44 0
-3126 63 0
-3126 79 0
3127 -9 -36 -44 -79 0
-3127 9 0
-3127 36 0
-3127 44 0
-3127 79 0
3128 -18 -27 -44 -79 0
-3128 18 0
-3128 27 0
-3128 44 0
-3128 79 0
-3126 3127 3128 0
-3127 3126 3128 0
-3128 3126 3127 0
3129 -3 -44 -63 -80 0
-3129 3 0
-3129 44 0
-3129 63 0
-3129 80 0
3130 -3 -47 -63 -74 0
-3130 3 0
-3130 47 0
-3130 63 0
-3130 74 0
3131 -3 -53 -63 -68 0
-3131 3 0
-3131 53 0
-3131 63 0
-3131 68 0
3132 -9 -36 -44 -80 0
-3132 9 0
-3132 36 0
-3132 44 0
-3132 80 0
3133 -9 -36 -47 -74 0
-3133 9 0
-3133 36 0
-3133 47 0
-3133 74 0
3134 -9 -36 -53 -68 0
-3134 9 0
-3134 36 0
-3134 53 0
-3134 68 0
3135 -18 -27 -44 -80 0
-3135 18 0
-3135 27 0
-3135 44 0
-3135 80 0
3136 -18 -27 -47 -74 0
-3136 18 0
-3136 27 0
-3136 47 0
-3136 74 0
3137 -18 -27 -53 -68 0
-3137 18 0
-3137 27 0
-3137 53 0
-3137 68 0
-3129 3130 3131 3132 3133 3134 3135 3136 3137 0
-3130 3129 3131 3132 3133 3134 3135 3136 3137 0
-3131 3129 3130 3132 3133 3134 3135 3136 3137 0
-3132 3129 3130 3131 3133 3134 3135 3136 3137 0
-3133 3129 3130 3131 3132 3134 3135 3136 3137 0
-3134 3129 3130 3131 3132 3133 3135 3136 3137 0
-3135 3129 3130 3131 3132 3133 3134 3136 3137 0
-3136 3129 3130 3131 3132 3133 3134 3135 3137 0
-3137 3129 3130 3131 3132 3133 3134 3135 3136 0
3138 -3 -45 -61 -80 0
-3138 3 0
-3138 45 0
-3138 61 0
-3138 80 0
3139 -6 -30 -61 -80 0
-3139 6 0
-3139 30 0
-3139 61 0
-3139 80 0
3140 -12 -24 -61 -80 0
-3140 12 0
-3140 24 0
-3140 61 0
-3140 80 0
-3138 3139 3140 0
-3139 3138 3140 0
-3140 3138 3139 0
3141 -3 -45 -61 -81 0
-3141 3 0
-3141 45 0
-3141 61 0
-3141 81 0
3142 -3 -48 -61 -75 0
-3142 3 0
-3142 48 0
-3142 61 0
-3142 75 0
3143 -3 -54 -61 -69 0
-3143 3 0
-3143 54 0
-3143 61 0
-3143 69 0
3144 -6 -30 -61 -81 0
-3144 6 0
-3144 30 0
-3144 61 0
-3144 81 0
3145 -6 -33 -61 -75 0
-3145 6 0
-3145 33 0
-3145 61 0
-3145 75 0
3146 -6 -39 -61 -69 0
-3146 6 0
-3146 39 0
-3146 61 0
-3146 69 0
3147 -12 -24 -61 -81 0
-3147 12 0
-3147 24 0
-3147 61 0
-3147 81 0
3148 -12 -33 -54 -61 0
-3148 12 0
-3148 33 0
-3148 54 0
-3148 61 0
3149 -12 -39 -48 -61 0
-3149 12 0
-3149 39 0
-3149 48 0
-3149 61 0
3150 -15 -24 -61 -75 0
-3150 15 0
-3150 24 0
-3150 61 0
-3150 75 0
3151 -15 -30 -54 -61 0
-3151 15 0
-3151 30 0
-3151 54 0
-3151 61 0
3152 -15 -39 -45 -61 0
-3152 15 0
-3152 39 0
-3152 45 0
-3152 61 0
3153 -21 -24 -61 -69 0
-3153 21 0
-3153 24 0
-3153 61 0
-3153 69 0
3154 -21 -30 -48 -61 0
-3154 21 0
-3154 30 0
-3154 48 0
-3154 61 0
3155 -21 -33 -45 -61 0
-3155 21 0
-3155 33 0
-3155 45 0
-3155 61 0
-3141 3142 3143 3144 3145 3146 3147 3148 3149 3150 3151 3152 3153 3154 3155 0
-3142 3141 3143 3144 3145 3146 3147 3148 3149 3150 3151 3152 3153 3154 3155 0
-3143 3141 3142 3144 3145 3146 3147 3148 3149 3150 3151 3152 3153 3154 3155 0
-3144 3141 3142 3143 3145 3146 3147 3148 3149 3150 3151 3152 3153 3154 3155 0
-3145 3141 3142 3143 3144 3146 3147 3148 3149 3150 3151 3152 3153 3154 3155 0
-3146 3141 3142 3143 3144 3145 3147 3148 3149 3150 3151 3152 3153 3154 3155 0
-3147 3141 3142 3143 3144 3145 3146 3148 3149 3150 3151 3152 3153 3154 3155 0
-3148 3141 3142 3143 3144 3145 3146 3147 3149 3150 3151 3152 3153 3154 3155 0
-3149 3141 3142 3143 3144 3145 3146 3147 3148 3150 3151 3152 3153 3154 3155 0
-3150 3141 3142 3143 3144 3145 3146 3147 3148 3149 3151 3152 3153 3154 3155 0
-3151 3141 3142 3143 3144 3145 3146 3147 3148 3149 3150 3152 3153 3154 3155 0
-3152 3141 3142 3143 3144 3145 3146 3147 3148 3149 3150 3151 3153 3154 3155 0
-3153 3141 3142 3143 3144 3145 3146 3147 3148 3149 3150 3151 3152 3154 3155 0
-3154 3141 3142 3143 3144 3145 3146 3147 3148 3149 3150 3151 3152 3153 3155 0
-3155 3141 3142 3143 3144 3145 3146 3147 3148 3149 3150 3151 3152 3153 3154 0
3156 -3 -45 -62 -79 0
-3156 3 0
-3156 45 0
-3156 62 0
-3156 79 0
3157 -6 -30 -62 -79 0
-3157 6 0
-3157 30 0
-3157 62 0
-3157 79 0
3158 -12 -24 -62 -79 0
-3158 12 0
-3158 24 0
-3158 62 0
-3158 79 0
-3156 3157 3158 0
-3157 3156 3158 0
-3158 3156 3157 0
3159 -3 -45 -62 -81 0
-3159 3 0
-3159 45 0
-3159 62 0
-3159 81 0
3160 -3 -48 -62 -75 0
-3160 3 0
-3160 48 0
-3160 62 0
-3160 75 0
3161 -3 -54 -62 -69 0
-3161 3 0
-3161 54 0
-3161 62 0
-3161 69 0
3162 -6 -30 -62 -81 0
-3162 6 0
-3162 30 0
-3162 62 0
-3162 81 0
3163 -6 -33 -62 -75 0
-3163 6 0
-3163 33 0
-3163 62 0
-3163 75 0
3164 -6 -39 -62 -69 0
-3164 6 0
-3164 39 0
-3164 62 0
-3164 69 0
3165 -12 -24 -62 -81 0
-3165 12 0
-3165 24 0
-3165 62 0
-3165 81 0
3166 -12 -33 -54 -62 0
-3166 12 0
-3166 33 0
-3166 54 0
-3166 62 0
3167 -12 -39 -48 -62 0
-3167 12 0
-3167 39 0
-3167 48 0
-3167 62 0
3168 -15 -24 -62 -75 0
-3168 15 0
-3168 24 0
-3168 62 0
-3168 75 0
3169 -15 -30 -54 -62 0
-3169 15 0
-3169 30 0
-3169 54 0
-3169 62 0
3170 -15 -39 -45 -62 0
-3170 15 0
-3170 39 0
-3170 45 0
-3170 62 0
3171 -21 -24 -62 -69 0
-3171 21 0
-3171 24 0
-3171 62 0
-3171 69 0
3172 -21 -30 -48 -62 0
-3172 21 0
-3172 30 0
-3172 48 0
-3172 62 0
3173 -21 -33 -45 -62 0
-3173 21 0
-3173 33 0
-3173 45 0
-3173 62 0
-3159 3160 3161 3162 3163 3164 3165 3166 3167 3168 3169 3170 3171 3172 3173 0
-3160 3159 3161 3162 3163 3164 3165 3166 3167 3168 3169 3170 3171 3172 3173 0
-3161 3159 3160 3162 3163 3164 3165 3166 3167 3168 3169 3170 3171 3172 3173 0
-3162 3159 3160 3161 3163 3164 3165 3166 3167 3168 3169 3170 3171 3172 3173 0
-3163 3159 3160 3161 3162 3164 3165 3166 3167 3168 3169 3170 3171 3172 3173 0
-3164 3159 3160 3161 3162 3163 3165 3166 3167 3168 3169 3170 3171 3172 3173 0
-3165 3159 3160 3161 3162 3163 3164 3166 3167 3168 3169 3170 3171 3172 3173 0
-3166 3159 3160 3161 3162 3163 3164 3165 3167 3168 3169 3170 3171 3172 3173 0
-3167 3159 3160 3161 3162 3163 3164 3165 3166 3168 3169 3170 3171 3172 3173 0
-3168 3159 3160 3161 3162 3163 3164 3165 3166 3167 3169 3170 3171 3172 3173 0
-3169 3159 3160 3161 3162 3163 3164 3165 3166 3167 3168 3170 3171 3172 3173 0
-3170 3159 3160 3161 3162 3163 3164 3165 3166 3167 3168 3169 3171 3172 3173 0
-3171 3159 3160 3161 3162 3163 3164 3165 3166 3167 3168 3169 3170 3172 3173 0
-3172 3159 3160 3161 3162 3163 3164 3165 3166 3167 3168 3169 3170 3171 3173 0
-3173 3159 3160 3161 3162 3163 3164 3165 3166 3167 3168 3169 3170 3171 3172 0
3174 -1 -43 -65 -76 0
-3174 1 0
-3174 43 0
-3174 65 0
-3174 76 0
3175 -1 -46 -65 -70 0
-3175 1 0
-3175 46 0
-3175 65 0
-3175 70 0
3176 -1 -49 -65 -67 0
-3176 1 0
-3176 49 0
-3176 65 0
-3176 67 0
3177 -4 -28 -65 -76 0
-3177 4 0
-3177 28 0
-3177 65 0
-3177 76 0
3178 -4 -31 -65 -70 0
-3178 4 0
-3178 31 0
-3178 65 0
-3178 70 0
3179 -4 -34 -65 -67 0
-3179 4 0
-3179 34 0
-3179 65 0
-3179 67 0
3180 -10 -22 -65 -76 0
-3180 10 0
-3180 22 0
-3180 65 0
-3180 76 0
3181 -10 -31 -49 -65 0
-3181 10 0
-3181 31 0
-3181 49 0
-3181 65 0
3182 -10 -34 -46 -65 0
-3182 10 0
-3182 34 0
-3182 46 0
-3182 65 0
3183 -13 -22 -65 -70 0
-3183 13 0
-3183 22 0
-3183 65 0
-3183 70 0
3184 -13 -28 -49 -65 0
-3184 13 0
-3184 28 0
-3184 49 0
-3184 65 0
3185 -13 -34 -43 -65 0
-3185 13 0
-3185 34 0
-3185 43 0
-3185 65 0
3186 -16 -22 -65 -67 0
-3186 16 0
-3186 22 0
-3186 65 0
-3186 67 0
3187 -16 -28 -46 -65 0
-3187 16 0
-3187 28 0
-3187 46 0
-3187 65 0
3188 -16 -31 -43 -65 0
-3188 16 0
-3188 31 0
-3188 43 0
-3188 65 0
-3174 3175 3176 3177 3178 3179 3180 3181 3182 3183 3184 3185 3186 3187 3188 0
-3175 3174 3176 3177 3178 3179 3180 3181 3182 3183 3184 3185 3186 3187 3188 0
-3176 3174 3175 3177 3178 3179 3180 3181 3182 3183 3184 3185 3186 3187 3188 0
-3177 3174 3175 3176 3178 3179 3180 3181 3182 3183 3184 3185 3186 3187 3188 0
-3178 3174 3175 3176 3177 3179 3180 3181 3182 3183 3184 3185 3186 3187 3188 0
-3179 3174 3175 3176 3177 3178 3180 3181 3182 3183 3184 3185 3186 3187 3188 0
-3180 3174 3175 3176 3177 3178 3179 3181 3182 3183 3184 3185 3186 3187 3188 0
-3181 3174 3175 3176 3177 3178 3179 3180 3182 3183 3184 3185 3186 3187 3188 0
-3182 3174 3175 3176 3177 3178 3179 3180 3181 3183 3184 3185 3186 3187 3188 0
-3183 3174 3175 3176 3177 3178 3179 3180 3181 3182 3184 3185 3186 3187 3188 0
-3184 3174 3175 3176 3177 3178 3179 3180 3181 3182 3183 3185 3186 3187 3188 0
-3185 3174 3175 3176 3177 3178 3179 3180 3181 3182 3183 3184 3186 3187 3188 0
-3186 3174 3175 3176 3177 3178 3179 3180 3181 3182 3183 3184 3185 3187 3188 0
-3187 3174 3175 3176 3177 3178 3179 3180 3181 3182 3183 3184 3185 3186 3188 0
-3188 3174 3175 3176 3177 3178 3179 3180 3181 3182 3183 3184 3185 3186 3187 0
3189 -1 -43 -65 -78 0
-3189 1 0
-3189 43 0
-3189 65 0
-3189 78 0
3190 -4 -28 -65 -78 0
-3190 4 0
-3190 28 0
-3190 65 0
-3190 78 0
3191 -10 -22 -65 -78 0
-3191 10 0
-3191 22 0
-3191 65 0
-3191 78 0
-3189 3190 3191 0
-3190 3189 3191 0
-3191 3189 3190 0
3192 -1 -43 -66 -76 0
-3192 1 0
-3192 43 0
-3192 66 0
-3192 76 0
3193 -1 -46 -66 -70 0
-3193 1 0
-3193 46 0
-3193 66 0
-3193 70 0
3194 -1 -49 -66 -67 0
-3194 1 0
-3194 49 0
-3194 66 0
-3194 67 0
3195 -4 -28 -66 -76 0
-3195 4 0
-3195 28 0
-3195 66 0
-3195 76 0
3196 -4 -31 -66 -70 0
-3196 4 0
-3196 31 0
-3196 66 0
-3196 70 0
3197 -4 -34 -66 -67 0
-3197 4 0
-3197 34 0
-3197 66 0
-3197 67 0
3198 -10 -22 -66 -76 0
-3198 10 0
-3198 22 0
-3198 66 0
-3198 76 0
3199 -10 -31 -49 -66 0
-3199 10 0
-3199 31 0
-3199 49 0
-3199 66 0
3200 -10 -34 -46 -66 0
-3200 10 0
-3200 34 0
-3200 46 0
-3200 66 0
3201 -13 -22 -66 -70 0
-3201 13 0
-3201 22 0
-3201 66 0
-3201 70 0
3202 -13 -28 -49 -66 0
-3202 13 0
-3202 28 0
-3202 49 0
-3202 66 0
3203 -13 -34 -43 -66 0
-3203 13 0
-3203 34 0
-3203 43 0
-3203 66 0
3204 -16 -22 -66 -67 0
-3204 16 0
-3204 22 0
-3204 66 0
-3204 67 0
3205 -16 -28 -46 -66 0
-3205 16 0
-3205 28 0
-3205 46 0
-3205 66 0
3206 -16 -31 -43 -66 0
-3206 16 0
-3206 31 0
-3206 43 0
-3206 66 0
-3192 3193 3194 3195 3196 3197 3198 3199 3200 3201 3202 3203 3204 3205 3206 0
-3193 3192 3194 3195 3196 3197 3198 3199 3200 3201 3202 3203 3204 3205 3206 0
-3194 3192 3193 3195 3196 3197 3198 3199 3200 3201 3202 3203 3204 3205 3206 0
-3195 3192 3193 3194 3196 3197 3198 3199 3200 3201 3202 3203 3204 3205 3206 0
-3196 3192 3193 3194 3195 3197 3198 3199 3200 3201 3202 3203 3204 3205 3206 0
-3197 3192 3193 3194 3195 3196 3198 3199 3200 3201 3202 3203 3204 3205 3206 0
-3198 3192 3193 3194 3195 3196 3197 3199 3200 3201 3202 3203 3204 3205 3206 0
-3199 3192 3193 3194 3195 3196 3197 3198 3200 3201 3202 3203 3204 3205 3206 0
-3200 3192 3193 3194 3195 3196 3197 3198 3199 3201 3202 3203 3204 3205 3206 0
-3201 3192 3193 3194 3195 3196 3197 3198 3199 3200 3202 3203 3204 3205 3206 0
-3202 3192 3193 3194 3195 3196 3197 3198 3199 3200 3201 3203 3204 3205 3206 0
-3203 3192 3193 3194 3195 3196 3197 3198 3199 3200 3201 3202 3204 3205 3206 0
-3204 3192 3193 3194 3195 3196 3197 3198 3199 3200 3201 3202 3203 3205 3206 0
-3205 3192 3193 3194 3195 3196 3197 3198 3199 3200 3201 3202 3203 3204 3206 0
-3206 3192 3193 3194 3195 3196 3197 3198 3199 3200 3201 3202 3203 3204 3205 0
3207 -1 -43 -66 -77 0
-3207 1 0
-3207 43 0
-3207 66 0
-3207 77 0
3208 -4 -28 -66 -77 0
-3208 4 0
-3208 28 0
-3208 66 0
-3208 77 0
3209 -10 -22 -66 -77 0
-3209 10 0
-3209 22 0
-3209 66 0
-3209 77 0
-3207 3208 3209 0
-3208 3207 3209 0
-3209 3207 3208 0
3210 -1 -44 -64 -77 0
-3210 1 0
-3210 44 0
-3210 64 0
-3210 77 0
3211 -1 -47 -64 -71 0
-3211 1 0
-3211 47 0
-3211 64 0
-3211 71 0
3212 -1 -50 -64 -68 0
-3212 1 0
-3212 50 0
-3212 64 0
-3212 68 0
3213 -7 -37 -44 -77 0
-3213 7 0
-3213 37 0
-3213 44 0
-3213 77 0
3214 -7 -37 -47 -71 0
-3214 7 0
-3214 37 0
-3214 47 0
-3214 71 0
3215 -7 -37 -50 -68 0
-3215 7 0
-3215 37 0
-3215 50 0
-3215 68 0
3216 -19 -25 -44 -77 0
-3216 19 0
-3216 25 0
-3216 44 0
-3216 77 0
3217 -19 -25 -47 -71 0
-3217 19 0
-3217 25 0
-3217 47 0
-3217 71 0
3218 -19 -25 -50 -68 0
-3218 19 0
-3218 25 0
-3218 50 0
-3218 68 0
-3210 3211 3212 3213 3214 3215 3216 3217 3218 0
-3211 3210 3212 3213 3214 3215 3216 3217 3218 0
-3212 3210 3211 3213 3214 3215 3216 3217 3218 0
-3213 3210 3211 3212 3214 3215 3216 3217 3218 0
-3214 3210 3211 3212 3213 3215 3216 3217 3218 0
-3215 3210 3211 3212 3213 3214 3216 3217 3218 0
-3216 3210 3211 3212 3213 3214 3215 3217 3218 0
-3217 3210 3211 3212 3213 3214 3215 3216 3218 0
-3218 3210 3211 3212 3213 3214 3215 3216 3217 0
3219 -1 -44 -64 -78 0
-3219 1 0
-3219 44 0
-3219 64 0
-3219 78 0
3220 -7 -37 -44 -78 0
-3220 7 0
-3220 37 0
-3220 44 0
-3220 78 0
3221 -19 -25 -44 -78 0
-3221 19 0
-3221 25 0
-3221 44 0
-3221 78 0
-3219 3220 3221 0
-3220 3219 3221 0
-3221 3219 3220 0
3222 -1 -44 -66 -76 0
-3222 1 0
-3222 44 0
-3222 66 0
-3222 76 0
3223 -13 -34 -44 -66 0
-3223 13 0
-3223 34 0
-3223 44 0
-3223 66 0
3224 -16 -31 -44 -66 0
-3224 16 0
-3224 31 0
-3224 44 0
-3224 66 0
-3222 3223 3224 0
-3223 3222 3224 0
-3224 3222 3223 0
3225 -1 -44 -66 -77 0
-3225 1 0
-3225 44 0
-3225 66 0
-3225 77 0
3226 -1 -47 -66 -71 0
-3226 1 0
-3226 47 0
-3226 66 0
-3226 71 0
3227 -1 -50 -66 -68 0
-3227 1 0
-3227 50 0
-3227 66 0
-3227 68 0
-3225 3226 3227 0
-3226 3225 3227 0
-3227 3225 3226 0
3228 -1 -45 -64 -77 0
-3228 1 0
-3228 45 0
-3228 64 0
-3228 77 0
3229 -7 -37 -45 -77 0
-3229 7 0
-3229 37 0
-3229 45 0
-3229 77 0
3230 -19 -25 -45 -77 0
-3230 19 0
-3230 25 0
-3230 45 0
-3230 77 0
-3228 3229 3230 0
-3229 3228 3230 0
-3230 3228 3229 0
3231 -1 -45 -64 -78 0
-3231 1 0
-3231 45 0
-3231 64 0
-3231 78 0
3232 -1 -48 -64 -72 0
-3232 1 0
-3232 48 0
-3232 64 0
-3232 72 0
3233 -1 -51 -64 -69 0
-3233 1 0
-3233 51 0
-3233 64 0
-3233 69 0
3234 -7 -37 -45 -78 0
-3234 7 0
-3234 37 0
-3234 45 0
-3234 78 0
3235 -7 -37 -48 -72 0
-3235 7 0
-3235 37 0
-3235 48 0
-3235 72 0
3236 -7 -37 -51 -69 0
-3236 7 0
-3236 37 0
-3236 51 0
-3236 69 0
3237 -19 -25 -45 -78 0
-3237 19 0
-3237 25 0
-3237 45 0
-3237 78 0
3238 -19 -25 -48 -72 0
-3238 19 0
-3238 25 0
-3238 48 0
-3238 72 0
3239 -19 -25 -51 -69 0
-3239 19 0
-3239 25 0
-3239 51 0
-3239 69 0
-3231 3232 3233 3234 3235 3236 3237 3238 3239 0
-3232 3231 3233 3234 3235 3236 3237 3238 3239 0
-3233 3231 3232 3234 3235 3236 3237 3238 3239 0
-3234 3231 3232 3233 3235 3236 3237 3238 3239 0
-3235 3231 3232 3233 3234 3236 3237 3238 3239 0
-3236 3231 3232 3233 3234 3235 3237 3238 3239 0
-3237 3231 3232 3233 3234 3235 3236 3238 3239 0
-3238 3231 3232 3233 3234 3235 3236 3237 3239 0
-3239 3231 3232 3233 3234 3235 3236 3237 3238 0
3240 -1 -45 -65 -76 0
-3240 1 0
-3240 45 0
-3240 65 0
-3240 76 0
3241 -13 -34 -45 -65 0
-3241 13 0
-3241 34 0
-3241 45 0
-3241 65 0
3242 -16 -31 -45 -65 0
-3242 16 0
-3242 31 0
-3242 45 0
-3242 65 0
-3240 3241 3242 0
-3241 3240 3242 0
-3242 3240 3241 0
3243 -1 -45 -65 -78 0
-3243 1 0
-3243 45 0
-3243 65 0
-3243 78 0
3244 -1 -48 -65 -72 0
-3244 1 0
-3244 48 0
-3244 65 0
-3244 72 0
3245 -1 -51 -65 -69 0
-3245 1 0
-3245 51 0
-3245 65 0
-3245 69 0
-3243 3244 3245 0
-3244 3243 3245 0
-3245 3243 3244 0
3246 -2 -43 -65 -76 0
-3246 2 0
-3246 43 0
-3246 65 0
-3246 76 0
3247 -2 -46 -65 -70 0
-3247 2 0
-3247 46 0
-3247 65 0
-3247 70 0
3248 -2 -49 -65 -67 0
-3248 2 0
-3248 49 0
-3248 65 0
-3248 67 0
3249 -8 -38 -43 -76 0
-3249 8 0
-3249 38 0
-3249 43 0
-3249 76 0
3250 -8 -38 -46 -70 0
-3250 8 0
-3250 38 0
-3250 46 0
-3250 70 0
3251 -8 -38 -49 -67 0
-3251 8 0
-3251 38 0
-3251 49 0
-3251 67 0
3252 -20 -26 -43 -76 0
-3252 20 0
-3252 26 0
-3252 43 0
-3252 76 0
3253 -20 -26 -46 -70 0
-3253 20 0
-3253 26 0
-3253 46 0
-3253 70 0
3254 -20 -26 -49 -67 0
-3254 20 0
-3254 26 0
-3254 49 0
-3254 67 0
-3246 3247 3248 3249 3250 3251 3252 3253 3254 0
-3247 3246 3248 3249 3250 3251 3252 3253 3254 0
-3248 3246 3247 3249 3250 3251 3252 3253 3254 0
-3249 3246 3247 3248 3250 3251 3252 3253 3254 0
-3250 3246 3247 3248 3249 3251 3252 3253 3254 0
-3251 3246 3247 3248 3249 3250 3252 3253 3254 0
-3252 3246 3247 3248 3249 3250 3251 3253 3254 0
-3253 3246 3247 3248 3249 3250 3251 3252 3254 0
-3254 3246 3247 3248 3249 3250 3251 3252 3253 0
3255 -2 -43 -65 -78 0
-3255 2 0
-3255 43 0
-3255 65 0
-3255 78 0
3256 -8 -38 -43 -78 0
-3256 8 0
-3256 38 0
-3256 43 0
-3256 78 0
3257 -20 -26 -43 -78 0
-3257 20 0
-3257 26 0
-3257 43 0
-3257 78 0
-3255 3256 3257 0
-3256 3255 3257 0
-3257 3255 3256 0
3258 -2 -43 -66 -76 0
-3258 2 0
-3258 43 0
-3258 66 0
-3258 76 0
3259 -2 -46 -66 -70 0
-3259 2 0
-3259 46 0
-3259 66 0
-3259 70 0
3260 -2 -49 -66 -67 0
-3260 2 0
-3260 49 0
-3260 66 0
-3260 67 0
-3258 3259 3260 0
-3259 3258 3260 0
-3260 3258 3259 0
3261 -2 -43 -66 -77 0
-3261 2 0
-3261 43 0
-3261 66 0
-3261 77 0
3262 -14 -35 -43 -66 0
-3262 14 0
-3262 35 0
-3262 43 0
-3262 66 0
3263 -17 -32 -43 -66 0
-3263 17 0
-3263 32 0
-3263 43 0
-3263 66 0
-3261 3262 3263 0
-3262 3261 3263 0
-3263 3261 3262 0
3264 -2 -44 -64 -77 0
-3264 2 0
-3264 44 0
-3264 64 0
-3264 77 0
3265 -2 -47 -64 -71 0
-3265 2 0
-3265 47 0
-3265 64 0
-3265 71 0
3266 -2 -50 -64 -68 0
-3266 2 0
-3266 50 0
-3266 64 0
-3266 68 0
3267 -5 -29 -64 -77 0
-3267 5 0
-3267 29 0
-3267 64 0
-3267 77 0
3268 -5 -32 -64 -71 0
-3268 5 0
-3268 32 0
-3268 64 0
-3268 71 0
3269 -5 -35 -64 -68 0
-3269 5 0
-3269 35 0
-3269 64 0
-3269 68 0
3270 -11 -23 -64 -77 0
-3270 11 0
-3270 23 0
-3270 64 0
-3270 77 0
3271 -11 -32 -50 -64 0
-3271 11 0
-3271 32 0
-3271 50 0
-3271 64 0
3272 -11 -35 -47 -64 0
-3272 11 0
-3272 35 0
-3272 47 0
-3272 64 0
3273 -14 -23 -64 -71 0
-3273 14 0
-3273 23 0
-3273 64 0
-3273 71 0
3274 -14 -29 -50 -64 0
-3274 14 0
-3274 29 0
-3274 50 0
-3274 64 0
3275 -14 -35 -44 -64 0
-3275 14 0
-3275 35 0
-3275 44 0
-3275 64 0
3276 -17 -23 -64 -68 0
-3276 17 0
-3276 23 0
-3276 64 0
-3276 68 0
3277 -17 -29 -47 -64 0
-3277 17 0
-3277 29 0
-3277 47 0
-3277 64 0
3278 -17 -32 -44 -64 0
-3278 17 0
-3278 32 0
-3278 44 0
-3278 64 0
-3264 3265 3266 3267 3268 3269 3270 3271 3272 3273 3274 3275 3276 3277 3278 0
-3265 3264 3266 3267 3268 3269 3270 3271 3272 3273 3274 3275 3276 3277 3278 0
-3266 3264 3265 3267 3268 3269 3270 3271 3272 3273 3274 3275 3276 3277 3278 0
-3267 3264 3265 3266 3268 3269 3270 3271 3272 3273 3274 3275 3276 3277 3278 0
-3268 3264 3265 3266 3267 3269 3270 3271 3272 3273 3274 3275 3276 3277 3278 0
-3269 3264 3265 3266 3267 3268 3270 3271 3272 3273 3274 3275 3276 3277 3278 0
-3270 3264 3265 3266 3267 3268 3269 3271 3272 3273 3274 3275 3276 3277 3278 0
-3271 3264 3265 3266 3267 3268 3269 3270 3272 3273 3274 3275 3276 3277 3278 0
-3272 3264 3265 3266 3267 3268 3269 3270 3271 3273 3274 3275 3276 3277 3278 0
-3273 3264 3265 3266 3267 3268 3269 3270 3271 3272 3274 3275 3276 3277 3278 0
-3274 3264 3265 3266 3267 3268 3269 3270 3271 3272 3273 3275 3276 3277 3278 0
-3275 3264 3265 3266 3267 3268 3269 3270 3271 3272 3273 3274 3276 3277 3278 0
-3276 3264 3265 3266 3267 3268 3269 3270 3271 3272 3273 3274 3275 3277 3278 0
-3277 3264 3265 3266 3267 3268 3269 3270 3271 3272 3273 3274 3275 3276 3278 0
-3278 3264 3265 3266 3267 3268 3269 3270 3271 3272 3273 3274 3275 3276 3277 0
3279 -2 -44 -64 -78 0
-3279 2 0
-3279 44 0
-3279 64 0
-3279 78 0
3280 -5 -29 -64 -78 0
-3280 5 0
-3280 29 0
-3280 64 0
-3280 78 0
3281 -11 -23 -64 -78 0
-3281 11 0
-3281 23 0
-3281 64 0
-3281 78 0
-3279 3280 3281 0
-3280 3279 3281 0
-3281 3279 3280 0
3282 -2 -44 -66 -76 0
-3282 2 0
-3282 44 0
-3282 66 0
-3282 76 0
3283 -5 -29 -66 -76 0
-3283 5 0
-3283 29 0
-3283 66 0
-3283 76 0
3284 -11 -23 -66 -76 0
-3284 11 0
-3284 23 0
-3284 66 0
-3284 76 0
-3282 3283 3284 0
-3283 3282 3284 0
-3284 3282 3283 0
3285 -2 -44 -66 -77 0
-3285 2 0
-3285 44 0
-3285 66 0
-3285 77 0
3286 -2 -47 -66 -71 0
-3286 2 0
-3286 47 0
-3286 66 0
-3286 71 0
3287 -2 -50 -66 -68 0
-3287 2 0
-3287 50 0
-3287 66 0
-3287 68 0
3288 -5 -29 -66 -77 0
-3288 5 0
-3288 29 0
-3288 66 0
-3288 77 0
3289 -5 -32 -66 -71 0
-3289 5 0
-3289 32 0
-3289 66 0
-3289 71 0
3290 -5 -35 -66 -68 0
-3290 5 0
-3290 35 0
-3290 66 0
-3290 68 0
3291 -11 -23 -66 -77 0
-3291 11 0
-3291 23 0
-3291 66 0
-3291 77 0
3292 -11 -32 -50 -66 0
-3292 11 0
-3292 32 0
-3292 50 0
-3292 66 0
3293 -11 -35 -47 -66 0
-3293 11 0
-3293 35 0
-3293 47 0
-3293 66 0
3294 -14 -23 -66 -71 0
-3294 14 0
-3294 23 0
-3294 66 0
-3294 71 0
3295 -14 -29 -50 -66 0
-3295 14 0
-3295 29 0
-3295 50 0
-3295 66 0
3296 -14 -35 -44 -66 0
-3296 14 0
-3296 35 0
-3296 44 0
-3296 66 0
3297 -17 -23 -66 -68 0
-3297 17 0
-3297 23 0
-3297 66 0
-3297 68 0
3298 -17 -29 -47 -66 0
-3298 17 0
-3298 29 0
-3298 47 0
-3298 66 0
3299 -17 -32 -44 -66 0
-3299 17 0
-3299 32 0
-3299 44 0
-3299 66 0
-3285 3286 3287 3288 3289 3290 3291 3292 3293 3294 3295 3296 3297 3298 3299 0
-3286 3285 3287 3288 3289 3290 3291 3292 3293 3294 3295 3296 3297 3298 3299 0
-3287 3285 3286 3288 3289 3290 3291 3292 3293 3294 3295 3296 3297 3298 3299 0
-3288 3285 3286 3287 3289 3290 3291 3292 3293 3294 3295 3296 3297 3298 3299 0
-3289 3285 3286 3287 3288 3290 3291 3292 3293 3294 3295 3296 3297 3298 3299 0
-3290 3285 3286 3287 3288 3289 3291 3292 3293 3294 3295 3296 3297 3298 3299 0
-3291 3285 3286 3287 3288 3289 3290 3292 3293 3294 3295 3296 3297 3298 3299 0
-3292 3285 3286 3287 3288 3289 3290 3291 3293 3294 3295 3296 3297 3298 3299 0
-3293 3285 3286 3287 3288 3289 3290 3291 3292 3294 3295 3296 3297 3298 3299 0
-3294 3285 3286 3287 3288 3289 3290 3291 3292 3293 3295 3296 3297 3298 3299 0
-3295 3285 3286 3287 3288 3289 3290 3291 3292 3293 3294 3296 3297 3298 3299 0
-3296 3285 3286 3287 3288 3289 3290 3291 3292 3293 3294 3295 3297 3298 3299 0
-3297 3285 3286 3287 3288 3289 3290 3291 3292 3293 3294 3295 3296 3298 3299 0
-3298 3285 3286 3287 3288 3289 3290 3291 3292 3293 3294 3295 3296 3297 3299 0
-3299 3285 3286 3287 3288 3289 3290 3291 3292 3293 3294 3295 3296 3297 3298 0
3300 -2 -45 -64 -77 0
-3300 2 0
-3300 45 0
-3300 64 0
-3300 77 0
3301 -14 -35 -45 -64 0
-3301 14 0
-3301 35 0
-3301 45 0
-3301 64 0
3302 -17 -32 -45 -64 0
-3302 17 0
-3302 32 0
-3302 45 0
-3302 64 0
-3300 3301 3302 0
-3301 3300 3302 0
-3302 3300 3301 0
3303 -2 -45 -64 -78 0
-3303 2 0
-3303 45 0
-3303 64 0
-3303 78 0
3304 -2 -48 -64 -72 0
-3304 2 0
-3304 48 0
-3304 64 0
-3304 72 0
3305 -2 -51 -64 -69 0
-3305 2 0
-3305 51 0
-3305 64 0
-3305 69 0
-3303 3304 3305 0
-3304 3303 3305 0
-3305 3303 3304 0
3306 -2 -45 -65 -76 0
-3306 2 0
-3306 45 0
-3306 65 0
-3306 76 0
3307 -8 -38 -45 -76 0
-3307 8 0
-3307 38 0
-3307 45 0
-3307 76 0
3308 -20 -26 -45 -76 0
-3308 20 0
-3308 26 0
-3308 45 0
-3308 76 0
-3306 3307 3308 0
-3307 3306 3308 0
-3308 3306 3307 0
3309 -2 -45 -65 -78 0
-3309 2 0
-3309 45 0
-3309 65 0
-3309 78 0
3310 -2 -48 -65 -72 0
-3310 2 0
-3310 48 0
-3310 65 0
-3310 72 0
3311 -2 -51 -65 -69 0
-3311 2 0
-3311 51 0
-3311 65 0
-3311 69 0
3312 -8 -38 -45 -78 0
-3312 8 0
-3312 38 0
-3312 45 0
-3312 78 0
3313 -8 -38 -48 -72 0
-3313 8 0
-3313 38 0
-3313 48 0
-3313 72 0
3314 -8 -38 -51 -69 0
-3314 8 0
-3314 38 0
-3314 51 0
-3314 69 0
3315 -20 -26 -45 -78 0
-3315 20 0
-3315 26 0
-3315 45 0
-3315 78 0
3316 -20 -26 -48 -72 0
-3316 20 0
-3316 26 0
-3316 48 0
-3316 72 0
3317 -20 -26 -51 -69 0
-3317 20 0
-3317 26 0
-3317 51 0
-3317 69 0
-3309 3310 3311 3312 3313 3314 3315 3316 3317 0
-3310 3309 3311 3312 3313 3314 3315 3316 3317 0
-3311 3309 3310 3312 3313 3314 3315 3316 3317 0
-3312 3309 3310 3311 3313 3314 3315 3316 3317 0
-3313 3309 3310 3311 3312 3314 3315 3316 3317 0
-3314 3309 3310 3311 3312 3313 3315 3316 3317 0
-3315 3309 3310 3311 3312 3313 3314 3316 3317 0
-3316 3309 3310 3311 3312 3313 3314 3315 3317 0
-3317 3309 3310 3311 3312 3313 3314 3315 3316 0
3318 -3 -43 -65 -76 0
-3318 3 0
-3318 43 0
-3318 65 0
-3318 76 0
3319 -3 -46 -65 -70 0
-3319 3 0
-3319 46 0
-3319 65 0
-3319 70 0
3320 -3 -49 -65 -67 0
-3320 3 0
-3320 49 0
-3320 65 0
-3320 67 0
-3318 3319 3320 0
-3319 3318 3320 0
-3320 3318 3319 0
3321 -3 -43 -65 -78 0
-3321 3 0
-3321 43 0
-3321 65 0
-3321 78 0
3322 -15 -36 -43 -65 0
-3322 15 0
-3322 36 0
-3322 43 0
-3322 65 0
3323 -18 -33 -43 -65 0
-3323 18 0
-3323 33 0
-3323 43 0
-3323 65 0
-3321 3322 3323 0
-3322 3321 3323 0
-3323 3321 3322 0
3324 -3 -43 -66 -76 0
-3324 3 0
-3324 43 0
-3324 66 0
-3324 76 0
3325 -3 -46 -66 -70 0
-3325 3 0
-3325 46 0
-3325 66 0
-3325 70 0
3326 -3 -49 -66 -67 0
-3326 3 0
-3326 49 0
-3326 66 0
-3326 67 0
3327 -9 -39 -43 -76 0
-3327 9 0
-3327 39 0
-3327 43 0
-3327 76 0
3328 -9 -39 -46 -70 0
-3328 9 0
-3328 39 0
-3328 46 0
-3328 70 0
3329 -9 -39 -49 -67 0
-3329 9 0
-3329 39 0
-3329 49 0
-3329 67 0
3330 -21 -27 -43 -76 0
-3330 21 0
-3330 27 0
-3330 43 0
-3330 76 0
3331 -21 -27 -46 -70 0
-3331 21 0
-3331 27 0
-3331 46 0
-3331 70 0
3332 -21 -27 -49 -67 0
-3332 21 0
-3332 27 0
-3332 49 0
-3332 67 0
-3324 3325 3326 3327 3328 3329 3330 3331 3332 0
-3325 3324 3326 3327 3328 3329 3330 3331 3332 0
-3326 3324 3325 3327 3328 3329 3330 3331 3332 0
-3327 3324 3325 3326 3328 3329 3330 3331 3332 0
-3328 3324 3325 3326 3327 3329 3330 3331 3332 0
-3329 3324 3325 3326 3327 3328 3330 3331 3332 0
-3330 3324 3325 3326 3327 3328 3329 3331 3332 0
-3331 3324 3325 3326 3327 3328 3329 3330 3332 0
-3332 3324 3325 3326 3327 3328 3329 3330 3331 0
3333 -3 -43 -66 -77 0
-3333 3 0
-3333 43 0
-3333 66 0
-3333 77 0
3334 -9 -39 -43 -77 0
-3334 9 0
-3334 39 0
-3334 43 0
-3334 77 0
3335 -21 -27 -43 -77 0
-3335 21 0
-3335 27 0
-3335 43 0
-3335 77 0
-3333 3334 3335 0
-3334 3333 3335 0
-3335 3333 3334 0
3336 -3 -44 -64 -77 0
-3336 3 0
-3336 44 0
-3336 64 0
-3336 77 0
3337 -3 -47 -64 -71 0
-3337 3 0
-3337 47 0
-3337 64 0
-3337 71 0
3338 -3 -50 -64 -68 0
-3338 3 0
-3338 50 0
-3338 64 0
-3338 68 0
-3336 3337 3338 0
-3337 3336 3338 0
-3338 3336 3337 0
3339 -3 -44 -64 -78 0
-3339 3 0
-3339 44 0
-3339 64 0
-3339 78 0
3340 -15 -36 -44 -64 0
-3340 15 0
-3340 36 0
-3340 44 0
-3340 64 0
3341 -18 -33 -44 -64 0
-3341 18 0
-3341 33 0
-3341 44 0
-3341 64 0
-3339 3340 3341 0
-3340 3339 3341 0
-3341 3339 3340 0
3342 -3 -44 -66 -76 0
-3342 3 0
-3342 44 0
-3342 66 0
-3342 76 0
3343 -9 -39 -44 -76 0
-3343 9 0
-3343 39 0
-3343 44 0
-3343 76 0
3344 -21 -27 -44 -76 0
-3344 21 0
-3344 27 0
-3344 44 0
-3344 76 0
-3342 3343 3344 0
-3343 3342 3344 0
-3344 3342 3343 0
3345 -3 -44 -66 -77 0
-3345 3 0
-3345 44 0
-3345 66 0
-3345 77 0
3346 -3 -47 -66 -71 0
-3346 3 0
-3346 47 0
-3346 66 0
-3346 71 0
3347 -3 -50 -66 -68 0
-3347 3 0
-3347 50 0
-3347 66 0
-3347 68 0
3348 -9 -39 -44 -77 0
-3348 9 0
-3348 39 0
-3348 44 0
-3348 77 0
3349 -9 -39 -47 -71 0
-3349 9 0
-3349 39 0
-3349 47 0
-3349 71 0
3350 -9 -39 -50 -68 0
-3350 9 0
-3350 39 0
-3350 50 0
-3350 68 0
3351 -21 -27 -44 -77 0
-3351 21 0
-3351 27 0
-3351 44 0
-3351 77 0
3352 -21 -27 -47 -71 0
-3352 21 0
-3352 27 0
-3352 47 0
-3352 71 0
3353 -21 -27 -50 -68 0
-3353 21 0
-3353 27 0
-3353 50 0
-3353 68 0
-3345 3346 3347 3348 3349 3350 3351 3352 3353 0
-3346 3345 3347 3348 3349 3350 3351 3352 3353 0
-3347 3345 3346 3348 3349 3350 3351 3352 3353 0
-3348 3345 3346 3347 3349 3350 3351 3352 3353 0
-3349 3345 3346 3347 3348 3350 3351 3352 3353 0
-3350 3345 3346 3347 3348 3349 3351 3352 3353 0
-3351 3345 3346 3347 3348 3349 3350 3352 3353 0
-3352 3345 3346 3347 3348 3349 3350 3351 3353 0
-3353 3345 3346 3347 3348 3349 3350 3351 3352 0
3354 -3 -45 -64 -77 0
-3354 3 0
-3354 45 0
-3354 64 0
-3354 77 0
3355 -6 -30 -64 -77 0
-3355 6 0
-3355 30 0
-3355 64 0
-3355 77 0
3356 -12 -24 -64 -77 0
-3356 12 0
-3356 24 0
-3356 64 0
-3356 77 0
-3354 3355 3356 0
-3355 3354 3356 0
-3356 3354 3355 0
3357 -3 -45 -64 -78 0
-3357 3 0
-3357 45 0
-3357 64 0
-3357 78 0
3358 -3 -48 -64 -72 0
-3358 3 0
-3358 48 0
-3358 64 0
-3358 72 0
3359 -3 -51 -64 -69 0
-3359 3 0
-3359 51 0
-3359 64 0
-3359 69 0
3360 -6 -30 -64 -78 0
-3360 6 0
-3360 30 0
-3360 64 0
-3360 78 0
3361 -6 -33 -64 -72 0
-3361 6 0
-3361 33 0
-3361 64 0
-3361 72 0
3362 -6 -36 -64 -69 0
-3362 6 0
-3362 36 0
-3362 64 0
-3362 69 0
3363 -12 -24 -64 -78 0
-3363 12 0
-3363 24 0
-3363 64 0
-3363 78 0
3364 -12 -33 -51 -64 0
-3364 12 0
-3364 33 0
-3364 51 0
-3364 64 0
3365 -12 -36 -48 -64 0
-3365 12 0
-3365 36 0
-3365 48 0
-3365 64 0
3366 -15 -24 -64 -72 0
-3366 15 0
-3366 24 0
-3366 64 0
-3366 72 0
3367 -15 -30 -51 -64 0
-3367 15 0
-3367 30 0
-3367 51 0
-3367 64 0
3368 -15 -36 -45 -64 0
-3368 15 0
-3368 36 0
-3368 45 0
-3368 64 0
3369 -18 -24 -64 -69 0
-3369 18 0
-3369 24 0
-3369 64 0
-3369 69 0
3370 -18 -30 -48 -64 0
-3370 18 0
-3370 30 0
-3370 48 0
-3370 64 0
3371 -18 -33 -45 -64 0
-3371 18 0
-3371 33 0
-3371 45 0
-3371 64 0
-3357 3358 3359 3360 3361 3362 3363 3364 3365 3366 3367 3368 3369 3370 3371 0
-3358 3357 3359 3360 3361 3362 3363 3364 3365 3366 3367 3368 3369 3370 3371 0
-3359 3357 3358 3360 3361 3362 3363 3364 3365 3366 3367 3368 3369 3370 3371 0
-3360 3357 3358 3359 3361 3362 3363 3364 3365 3366 3367 3368 3369 3370 3371 0
-3361 3357 3358 3359 3360 3362 3363 3364 3365 3366 3367 3368 3369 3370 3371 0
-3362 3357 3358 3359 3360 3361 3363 3364 3365 3366 3367 3368 3369 3370 3371 0
-3363 3357 3358 3359 3360 3361 3362 3364 3365 3366 3367 3368 3369 3370 3371 0
-3364 3357 3358 3359 3360 3361 3362 3363 3365 3366 3367 3368 3369 3370 3371 0
-3365 3357 3358 3359 3360 3361 3362 3363 3364 3366 3367 3368 3369 3370 3371 0
-3366 3357 3358 3359 3360 3361 3362 3363 3364 3365 3367 3368 3369 3370 3371 0
-3367 3357 3358 3359 3360 3361 3362 3363 3364 3365 3366 3368 3369 3370 3371 0
-3368 3357 3358 3359 3360 3361 3362 3363 3364 3365 3366 3367 3369 3370 3371 0
-3369 3357 3358 3359 3360 3361 3362 3363 3364 3365 3366 3367 3368 3370 3371 0
-3370 3357 3358 3359 3360 3361 3362 3363 3364 3365 3366 3367 3368 3369 3371 0
-3371 3357 3358 3359 3360 3361 3362 3363 3364 3365 3366 3367 3368 3369 3370 0
3372 -3 -45 -65 -76 0
-3372 3 0
-3372 45 0
-3372 65 0
-3372 76 0
3373 -6 -30 -65 -76 0
-3373 6 0
-3373 30 0
-3373 65 0
-3373 76 0
3374 -12 -24 -65 -76 0
-3374 12 0
-3374 24 0
-3374 65 0
-3374 76 0
-3372 3373 3374 0
-3373 3372 3374 0
-3374 3372 3373 0
3375 -3 -45 -65 -78 0
-3375 3 0
-3375 45 0
-3375 65 0
-3375 78 0
3376 -3 -48 -65 -72 0
-3376 3 0
-3376 48 0
-3376 65 0
-3376 72 0
3377 -3 -51 -65 -69 0
-3377 3 0
-3377 51 0
-3377 65 0
-3377 69 0
3378 -6 -30 -65 -78 0
-3378 6 0
-3378 30 0
-3378 65 0
-3378 78 0
3379 -6 -33 -65 -72 0
-3379 6 0
-3379 33 0
-3379 65 0
-3379 72 0
3380 -6 -36 -65 -69 0
-3380 6 0
-3380 36 0
-3380 65 0
-3380 69 0
3381 -12 -24 -65 -78 0
-3381 12 0
-3381 24 0
-3381 65 0
-3381 78 0
3382 -12 -33 -51 -65 0
-3382 12 0
-3382 33 0
-3382 51 0
-3382 65 0
3383 -12 -36 -48 -65 0
-3383 12 0
-3383 36 0
-3383 48 0
-3383 65 0
3384 -15 -24 -65 -72 0
-3384 15 0
-3384 24 0
-3384 65 0
-3384 72 0
3385 -15 -30 -51 -65 0
-3385 15 0
-3385 30 0
-3385 51 0
-3385 65 0
3386 -15 -36 -45 -65 0
-3386 15 0
-3386 36 0
-3386 45 0
-3386 65 0
3387 -18 -24 -65 -69 0
-3387 18 0
-3387 24 0
-3387 65 0
-3387 69 0
3388 -18 -30 -48 -65 0
-3388 18 0
-3388 30 0
-3388 48 0
-3388 65 0
3389 -18 -33 -45 -65 0
-3389 18 0
-3389 33 0
-3389 45 0
-3389 65 0
-3375 3376 3377 3378 3379 3380 3381 3382 3383 3384 3385 3386 3387 3388 3389 0
-3376 3375 3377 3378 3379 3380 3381 3382 3383 3384 3385 3386 3387 3388 3389 0
-3377 3375 3376 3378 3379 3380 3381 3382 3383 3384 3385 3386 3387 3388 3389 0
-3378 3375 3376 3377 3379 3380 3381 3382 3383 3384 3385 3386 3387 3388 3389 0
-3379 3375 3376 3377 3378 3380 3381 3382 3383 3384 3385 3386 3387 3388 3389 0
-3380 3375 3376 3377 3378 3379 3381 3382 3383 3384 3385 3386 3387 3388 3389 0
-3381 3375 3376 3377 3378 3379 3380 3382 3383 3384 3385 3386 3387 3388 3389 0
-3382 3375 3376 3377 3378 3379 3380 3381 3383 3384 3385 3386 3387 3388 3389 0
-3383 3375 3376 3377 3378 3379 3380 3381 3382 3384 3385 3386 3387 3388 3389 0
-3384 3375 3376 3377 3378 3379 3380 3381 3382 3383 3385 3386 3387 3388 3389 0
-3385 3375 3376 3377 3378 3379 3380 3381 3382 3383 3384 3386 3387 3388 3389 0
-3386 3375 3376 3377 3378 3379 3380 3381 3382 3383 3384 3385 3387 3388 3389 0
-3387 3375 3376 3377 3378 3379 3380 3381 3382 3383 3384 3385 3386 3388 3389 0
-3388 3375 3376 3377 3378 3379 3380 3381 3382 3383 3384 3385 3386 3387 3389 0
-3389 3375 3376 3377 3378 3379 3380 3381 3382 3383 3384 3385 3386 3387 3388 0
3390 -1 -46 -56 -82 0
-3390 1 0
-3390 46 0
-3390 56 0
-3390 82 0
3391 -1 -49 -56 -79 0
-3391 1 0
-3391 49 0
-3391 56 0
-3391 79 0
3392 -1 -52 -56 -76 0
-3392 1 0
-3392 52 0
-3392 56 0
-3392 76 0
3393 -4 -31 -56 -82 0
-3393 4 0
-3393 31 0
-3393 56 0
-3393 82 0
3394 -4 -34 -56 -79 0
-3394 4 0
-3394 34 0
-3394 56 0
-3394 79 0
3395 -4 -37 -56 -76 0
-3395 4 0
-3395 37 0
-3395 56 0
-3395 76 0
3396 -13 -22 -56 -82 0
-3396 13 0
-3396 22 0
-3396 56 0
-3396 82 0
3397 -13 -34 -52 -56 0
-3397 13 0
-3397 34 0
-3397 52 0
-3397 56 0
3398 -13 -37 -49 -56 0
-3398 13 0
-3398 37 0
-3398 49 0
-3398 56 0
3399 -16 -22 -56 -79 0
-3399 16 0
-3399 22 0
-3399 56 0
-3399 79 0
3400 -16 -31 -52 -56 0
-3400 16 0
-3400 31 0
-3400 52 0
-3400 56 0
3401 -16 -37 -46 -56 0
-3401 16 0
-3401 37 0
-3401 46 0
-3401 56 0
3402 -19 -22 -56 -76 0
-3402 19 0
-3402 22 0
-3402 56 0
-3402 76 0
3403 -19 -31 -49 -56 0
-3403 19 0
-3403 31 0
-3403 49 0
-3403 56 0
3404 -19 -34 -46 -56 0
-3404 19 0
-3404 34 0
-3404 46 0
-3404 56 0
-3390 3391 3392 3393 3394 3395 3396 3397 3398 3399 3400 3401 3402 3403 3404 0
-3391 3390 3392 3393 3394 3395 3396 3397 3398 3399 3400 3401 3402 3403 3404 0
-3392 3390 3391 3393 3394 3395 3396 3397 3398 3399 3400 3401 3402 3403 3404 0
-3393 3390 3391 3392 3394 3395 3396 3397 3398 3399 3400 3401 3402 3403 3404 0
-3394 3390 3391 3392 3393 3395 3396 3397 3398 3399 3400 3401 3402 3403 3404 0
-3395 3390 3391 3392 3393 3394 3396 3397 3398 3399 3400 3401 3402 3403 3404 0
-3396 3390 3391 3392 3393 3394 3395 3397 3398 3399 3400 3401 3402 3403 3404 0
-3397 3390 3391 3392 3393 3394 3395 3396 3398 3399 3400 3401 3402 3403 3404 0
-3398 3390 3391 3392 3393 3394 3395 3396 3397 3399 3400 3401 3402 3403 3404 0
-3399 3390 3391 3392 3393 3394 3395 3396 3397 3398 3400 3401 3402 3403 3404 0
-3400 3390 3391 3392 3393 3394 3395 3396 3397 3398 3399 3401 3402 3403 3404 0
-3401 3390 3391 3392 3393 3394 3395 3396 3397 3398 3399 3400 3402 3403 3404 0
-3402 3390 3391 3392 3393 3394 3395 3396 3397 3398 3399 3400 3401 3403 3404 0
-3403 3390 3391 3392 3393 3394 3395 3396 3397 3398 3399 3400 3401 3402 3404 0
-3404 3390 3391 3392 3393 3394 3395 3396 3397 3398 3399 3400 3401 3402 3403 0
3405 -1 -46 -56 -83 0
-3405 1 0
-3405 46 0
-3405 56 0
-3405 83 0
3406 -1 -46 -62 -74 0
-3406 1 0
-3406 46 0
-3406 62 0
-3406 74 0
3407 -1 -46 -65 -71 0
-3407 1 0
-3407 46 0
-3407 65 0
-3407 71 0
3408 -4 -31 -56 -83 0
-3408 4 0
-3408 31 0
-3408 56 0
-3408 83 0
3409 -4 -31 -62 -74 0
-3409 4 0
-3409 31 0
-3409 62 0
-3409 74 0
3410 -4 -31 -65 -71 0
-3410 4 0
-3410 31 0
-3410 65 0
-3410 71 0
3411 -13 -22 -56 -83 0
-3411 13 0
-3411 22 0
-3411 56 0
-3411 83 0
3412 -13 -22 -62 -74 0
-3412 13 0
-3412 22 0
-3412 62 0
-3412 74 0
3413 -13 -22 -65 -71 0
-3413 13 0
-3413 22 0
-3413 65 0
-3413 71 0
-3405 3406 3407 3408 3409 3410 3411 3412 3413 0
-3406 3405 3407 3408 3409 3410 3411 3412 3413 0
-3407 3405 3406 3408 3409 3410 3411 3412 3413 0
-3408 3405 3406 3407 3409 3410 3411 3412 3413 0
-3409 3405 3406 3407 3408 3410 3411 3412 3413 0
-3410 3405 3406 3407 3408 3409 3411 3412 3413 0
-3411 3405 3406 3407 3408 3409 3410 3412 3413 0
-3412 3405 3406 3407 3408 3409 3410 3411 3413 0
-3413 3405 3406 3407 3408 3409 3410 3411 3412 0
3414 -1 -46 -56 -84 0
-3414 1 0
-3414 46 0
-3414 56 0
-3414 84 0
3415 -4 -31 -56 -84 0
-3415 4 0
-3415 31 0
-3415 56 0
-3415 84 0
3416 -13 -22 -56 -84 0
-3416 13 0
-3416 22 0
-3416 56 0
-3416 84 0
-3414 3415 3416 0
-3415 3414 3416 0
-3416 3414 3415 0
3417 -1 -46 -57 -82 0
-3417 1 0
-3417 46 0
-3417 57 0
-3417 82 0
3418 -1 -49 -57 -79 0
-3418 1 0
-3418 49 0
-3418 57 0
-3418 79 0
3419 -1 -52 -57 -76 0
-3419 1 0
-3419 52 0
-3419 57 0
-3419 76 0
3420 -4 -31 -57 -82 0
-3420 4 0
-3420 31 0
-3420 57 0
-3420 82 0
3421 -4 -34 -57 -79 0
-3421 4 0
-3421 34 0
-3421 57 0
-3421 79 0
3422 -4 -37 -57 -76 0
-3422 4 0
-3422 37 0
-3422 57 0
-3422 76 0
3423 -13 -22 -57 -82 0
-3423 13 0
-3423 22 0
-3423 57 0
-3423 82 0
3424 -13 -34 -52 -57 0
-3424 13 0
-3424 34 0
-3424 52 0
-3424 57 0
3425 -13 -37 -49 -57 0
-3425 13 0
-3425 37 0
-3425 49 0
-3425 57 0
3426 -16 -22 -57 -79 0
-3426 16 0
-3426 22 0
-3426 57 0
-3426 79 0
3427 -16 -31 -52 -57 0
-3427 16 0
-3427 31 0
-3427 52 0
-3427 57 0
3428 -16 -37 -46 -57 0
-3428 16 0
-3428 37 0
-3428 46 0
-3428 57 0
3429 -19 -22 -57 -76 0
-3429 19 0
-3429 22 0
-3429 57 0
-3429 76 0
3430 -19 -31 -49 -57 0
-3430 19 0
-3430 31 0
-3430 49 0
-3430 57 0
3431 -19 -34 -46 -57 0
-3431 19 0
-3431 34 0
-3431 46 0
-3431 57 0
-3417 3418 3419 3420 3421 3422 3423 3424 3425 3426 3427 3428 3429 3430 3431 0
-3418 3417 3419 3420 3421 3422 3423 3424 3425 3426 3427 3428 3429 3430 3431 0
-3419 3417 3418 3420 3421 3422 3423 3424 3425 3426 3427 3428 3429 3430 3431 0
-3420 3417 3418 3419 3421 3422 3423 3424 3425 3426 3427 3428 3429 3430 3431 0
-3421 3417 3418 3419 3420 3422 3423 3424 3425 3426 3427 3428 3429 3430 3431 0
-3422 3417 3418 3419 3420 3421 3423 3424 3425 3426 3427 3428 3429 3430 3431 0
-3423 3417 3418 3419 3420 3421 3422 3424 3425 3426 3427 3428 3429 3430 3431 0
-3424 3417 3418 3419 3420 3421 3422 3423 3425 3426 3427 3428 3429 3430 3431 0
-3425 3417 3418 3419 3420 3421 3422 3423 3424 3426 3427 3428 3429 3430 3431 0
-3426 3417 3418 3419 3420 3421 3422 3423 3424 3425 3427 3428 3429 3430 3431 0
-3427 3417 3418 3419 3420 3421 3422 3423 3424 3425 3426 3428 3429 3430 3431 0
-3428 3417 3418 3419 3420 3421 3422 3423 3424 3425 3426 3427 3429 3430 3431 0
-3429 3417 3418 3419 3420 3421 3422 3423 3424 3425 3426 3427 3428 3430 3431 0
-3430 3417 3418 3419 3420 3421 3422 3423 3424 3425 3426 3427 3428 3429 3431 0
-3431 3417 3418 3419 3420 3421 3422 3423 3424 3425 3426 3427 3428 3429 3430 0
3432 -1 -46 -57 -83 0
-3432 1 0
-3432 46 0
-3432 57 0
-3432 83 0
3433 -4 -31 -57 -83 0
-3433 4 0
-3433 31 0
-3433 57 0
-3433 83 0
3434 -13 -22 -57 -83 0
-3434 13 0
-3434 22 0
-3434 57 0
-3434 83 0
-3432 3433 3434 0
-3433 3432 3434 0
-3434 3432 3433 0
3435 -1 -46 -57 -84 0
-3435 1 0
-3435 46 0
-3435 57 0
-3435 84 0
3436 -1 -46 -63 -75 0
-3436 1 0
-3436 46 0
-3436 63 0
-3436 75 0
3437 -1 -46 -66 -72 0
-3437 1 0
-3437 46 0
-3437 66 0
-3437 72 0
3438 -4 -31 -57 -84 0
-3438 4 0
-3438 31 0
-3438 57 0
-3438 84 0
3439 -4 -31 -63 -75 0
-3439 4 0
-3439 31 0
-3439 63 0
-3439 75 0
3440 -4 -31 -66 -72 0
-3440 4 0
-3440 31 0
-3440 66 0
-3440 72 0
3441 -13 -22 -57 -84 0
-3441 13 0
-3441 22 0
-3441 57 0
-3441 84 0
3442 -13 -22 -63 -75 0
-3442 13 0
-3442 22 0
-3442 63 0
-3442 75 0
3443 -13 -22 -66 -72 0
-3443 13 0
-3443 22 0
-3443 66 0
-3443 72 0
-3435 3436 3437 3438 3439 3440 3441 3442 3443 0
-3436 3435 3437 3438 3439 3440 3441 3442 3443 0
-3437 3435 3436 3438 3439 3440 3441 3442 3443 0
-3438 3435 3436 3437 3439 3440 3441 3442 3443 0
-3439 3435 3436 3437 3438 3440 3441 3442 3443 0
-3440 3435 3436 3437 3438 3439 3441 3442 3443 0
-3441 3435 3436 3437 3438 3439 3440 3442 3443 0
-3442 3435 3436 3437 3438 3439 3440 3441 3443 0
-3443 3435 3436 3437 3438 3439 3440 3441 3442 0
3444 -1 -47 -55 -82 0
-3444 1 0
-3444 47 0
-3444 55 0
-3444 82 0
3445 -1 -47 -61 -73 0
-3445 1 0
-3445 47 0
-3445 61 0
-3445 73 0
3446 -1 -47 -64 -70 0
-3446 1 0
-3446 47 0
-3446 64 0
-3446 70 0
3447 -7 -28 -47 -82 0
-3447 7 0
-3447 28 0
-3447 47 0
-3447 82 0
3448 -7 -34 -47 -73 0
-3448 7 0
-3448 34 0
-3448 47 0
-3448 73 0
3449 -7 -37 -47 -70 0
-3449 7 0
-3449 37 0
-3449 47 0
-3449 70 0
3450 -10 -25 -47 -82 0
-3450 10 0
-3450 25 0
-3450 47 0
-3450 82 0
3451 -10 -34 -47 -64 0
-3451 10 0
-3451 34 0
-3451 47 0
-3451 64 0
3452 -10 -37 -47 -61 0
-3452 10 0
-3452 37 0
-3452 47 0
-3452 61 0
3453 -16 -25 -47 -73 0
-3453 16 0
-3453 25 0
-3453 47 0
-3453 73 0
3454 -16 -28 -47 -64 0
-3454 16 0
-3454 28 0
-3454 47 0
-3454 64 0
3455 -16 -37 -47 -55 0
-3455 16 0
-3455 37 0
-3455 47 0
-3455 55 0
3456 -19 -25 -47 -70 0
-3456 19 0
-3456 25 0
-3456 47 0
-3456 70 0
3457 -19 -28 -47 -61 0
-3457 19 0
-3457 28 0
-3457 47 0
-3457 61 0
3458 -19 -34 -47 -55 0
-3458 19 0
-3458 34 0
-3458 47 0
-3458 55 0
-3444 3445 3446 3447 3448 3449 3450 3451 3452 3453 3454 3455 3456 3457 3458 0
-3445 3444 3446 3447 3448 3449 3450 3451 3452 3453 3454 3455 3456 3457 3458 0
-3446 3444 3445 3447 3448 3449 3450 3451 3452 3453 3454 3455 3456 3457 3458 0
-3447 3444 3445 3446 3448 3449 3450 3451 3452 3453 3454 3455 3456 3457 3458 0
-3448 3444 3445 3446 3447 3449 3450 3451 3452 3453 3454 3455 3456 3457 3458 0
-3449 3444 3445 3446 3447 3448 3450 3451 3452 3453 3454 3455 3456 3457 3458 0
-3450 3444 3445 3446 3447 3448 3449 3451 3452 3453 3454 3455 3456 3457 3458 0
-3451 3444 3445 3446 3447 3448 3449 3450 3452 3453 3454 3455 3456 3457 3458 0
-3452 3444 3445 3446 3447 3448 3449 3450 3451 3453 3454 3455 3456 3457 3458 0
-3453 3444 3445 3446 3447 3448 3449 3450 3451 3452 3454 3455 3456 3457 3458 0
-3454 3444 3445 3446 3447 3448 3449 3450 3451 3452 3453 3455 3456 3457 3458 0
-3455 3444 3445 3446 3447 3448 3449 3450 3451 3452 3453 3454 3456 3457 3458 0
-3456 3444 3445 3446 3447 3448 3449 3450 3451 3452 3453 3454 3455 3457 3458 0
-3457 3444 3445 3446 3447 3448 3449 3450 3451 3452 3453 3454 3455 3456 3458 0
-3458 3444 3445 3446 3447 3448 3449 3450 3451 3452 3453 3454 3455 3456 3457 0
3459 -1 -47 -55 -83 0
-3459 1 0
-3459 47 0
-3459 55 0
-3459 83 0
3460 -1 -50 -55 -80 0
-3460 1 0
-3460 50 0
-3460 55 0
-3460 80 0
3461 -1 -53 -55 -77 0
-3461 1 0
-3461 53 0
-3461 55 0
-3461 77 0
3462 -7 -28 -47 -83 0
-3462 7 0
-3462 28 0
-3462 47 0
-3462 83 0
3463 -7 -28 -50 -80 0
-3463 7 0
-3463 28 0
-3463 50 0
-3463 80 0
3464 -7 -28 -53 -77 0
-3464 7 0
-3464 28 0
-3464 53 0
-3464 77 0
3465 -10 -25 -47 -83 0
-3465 10 0
-3465 25 0
-3465 47 0
-3465 83 0
3466 -10 -25 -50 -80 0
-3466 10 0
-3466 25 0
-3466 50 0
-3466 80 0
3467 -10 -25 -53 -77 0
-3467 10 0
-3467 25 0
-3467 53 0
-3467 77 0
-3459 3460 3461 3462 3463 3464 3465 3466 3467 0
-3460 3459 3461 3462 3463 3464 3465 3466 3467 0
-3461 3459 3460 3462 3463 3464 3465 3466 3467 0
-3462 3459 3460 3461 3463 3464 3465 3466 3467 0
-3463 3459 3460 3461 3462 3464 3465 3466 3467 0
-3464 3459 3460 3461 3462 3463 3465 3466 3467 0
-3465 3459 3460 3461 3462 3463 3464 3466 3467 0
-3466 3459 3460 3461 3462 3463 3464 3465 3467 0
-3467 3459 3460 3461 3462 3463 3464 3465 3466 0
3468 -1 -47 -55 -84 0
-3468 1 0
-3468 47 0
-3468 55 0
-3468 84 0
3469 -7 -28 -47 -84 0
-3469 7 0
-3469 28 0
-3469 47 0
-3469 84 0
3470 -10 -25 -47 -84 0
-3470 10 0
-3470 25 0
-3470 47 0
-3470 84 0
-3468 3469 3470 0
-3469 3468 3470 0
-3470 3468 3469 0
3471 -1 -47 -57 -82 0
-3471 1 0
-3471 47 0
-3471 57 0
-3471 82 0
3472 -16 -37 -47 -57 0
-3472 16 0
-3472 37 0
-3472 47 0
-3472 57 0
3473 -19 -34 -47 -57 0
-3473 19 0
-3473 34 0
-3473 47 0
-3473 57 0
-3471 3472 3473 0
-3472 3471 3473 0
-3473 3471 3472 0
3474 -1 -47 -57 -83 0
-3474 1 0
-3474 47 0
-3474 57 0
-3474 83 0
3475 -1 -50 -57 -80 0
-3475 1 0
-3475 50 0
-3475 57 0
-3475 80 0
3476 -1 -53 -57 -77 0
-3476 1 0
-3476 53 0
-3476 57 0
-3476 77 0
-3474 3475 3476 0
-3475 3474 3476 0
-3476 3474 3475 0
3477 -1 -47 -57 -84 0
-3477 1 0
-3477 47 0
-3477 57 0
-3477 84 0
3478 -1 -47 -63 -75 0
-3478 1 0
-3478 47 0
-3478 63 0
-3478 75 0
3479 -1 -47 -66 -72 0
-3479 1 0
-3479 47 0
-3479 66 0
-3479 72 0
-3477 3478 3479 0
-3478 3477 3479 0
-3479 3477 3478 0
3480 -1 -48 -55 -82 0
-3480 1 0
-3480 48 0
-3480 55 0
-3480 82 0
3481 -1 -48 -61 -73 0
-3481 1 0
-3481 48 0
-3481 61 0
-3481 73 0
3482 -1 -48 -64 -70 0
-3482 1 0
-3482 48 0
-3482 64 0
-3482 70 0
3483 -7 -28 -48 -82 0
-3483 7 0
-3483 28 0
-3483 48 0
-3483 82 0
3484 -7 -34 -48 -73 0
-3484 7 0
-3484 34 0
-3484 48 0
-3484 73 0
3485 -7 -37 -48 -70 0
-3485 7 0
-3485 37 0
-3485 48 0
-3485 70 0
3486 -10 -25 -48 -82 0
-3486 10 0
-3486 25 0
-3486 48 0
-3486 82 0
3487 -10 -34 -48 -64 0
-3487 10 0
-3487 34 0
-3487 48 0
-3487 64 0
3488 -10 -37 -48 -61 0
-3488 10 0
-3488 37 0
-3488 48 0
-3488 61 0
3489 -16 -25 -48 -73 0
-3489 16 0
-3489 25 0
-3489 48 0
-3489 73 0
3490 -16 -28 -48 -64 0
-3490 16 0
-3490 28 0
-3490 48 0
-3490 64 0
3491 -16 -37 -48 -55 0
-3491 16 0
-3491 37 0
-3491 48 0
-3491 55 0
3492 -19 -25 -48 -70 0
-3492 19 0
-3492 25 0
-3492 48 0
-3492 70 0
3493 -19 -28 -48 -61 0
-3493 19 0
-3493 28 0
-3493 48 0
-3493 61 0
3494 -19 -34 -48 -55 0
-3494 19 0
-3494 34 0
-3494 48 0
-3494 55 0
-3480 3481 3482 3483 3484 3485 3486 3487 3488 3489 3490 3491 3492 3493 3494 0
-3481 3480 3482 3483 3484 3485 3486 3487 3488 3489 3490 3491 3492 3493 3494 0
-3482 3480 3481 3483 3484 3485 3486 3487 3488 3489 3490 3491 3492 3493 3494 0
-3483 3480 3481 3482 3484 3485 3486 3487 3488 3489 3490 3491 3492 3493 3494 0
-3484 3480 3481 3482 3483 3485 3486 3487 3488 3489 3490 3491 3492 3493 3494 0
-3485 3480 3481 3482 3483 3484 3486 3487 3488 3489 3490 3491 3492 3493 3494 0
-3486 3480 3481 3482 3483 3484 3485 3487 3488 3489 3490 3491 3492 3493 3494 0
-3487 3480 3481 3482 3483 3484 3485 3486 3488 3489 3490 3491 3492 3493 3494 0
-3488 3480 3481 3482 3483 3484 3485 3486 3487 3489 3490 3491 3492 3493 3494 0
-3489 3480 3481 3482 3483 3484 3485 3486 3487 3488 3490 3491 3492 3493 3494 0
-3490 3480 3481 3482 3483 3484 3485 3486 3487 3488 3489 3491 3492 3493 3494 0
-3491 3480 3481 3482 3483 3484 3485 3486 3487 3488 3489 3490 3492 3493 3494 0
-3492 3480 3481 3482 3483 3484 3485 3486 3487 3488 3489 3490 3491 3493 3494 0
-3493 3480 3481 3482 3483 3484 3485 3486 3487 3488 3489 3490 3491 3492 3494 0
-3494 3480 3481 3482 3483 3484 3485 3486 3487 3488 3489 3490 3491 3492 3493 0
3495 -1 -48 -55 -83 0
-3495 1 0
-3495 48 0
-3495 55 0
-3495 83 0
3496 -7 -28 -48 -83 0
-3496 7 0
-3496 28 0
-3496 48 0
-3496 83 0
3497 -10 -25 -48 -83 0
-3497 10 0
-3497 25 0
-3497 48 0
-3497 83 0
-3495 3496 3497 0
-3496 3495 3497 0
-3497 3495 3496 0
3498 -1 -48 -55 -84 0
-3498 1 0
-3498 48 0
-3498 55 0
-3498 84 0
3499 -1 -51 -55 -81 0
-3499 1 0
-3499 51 0
-3499 55 0
-3499 81 0
3500 -1 -54 -55 -78 0
-3500 1 0
-3500 54 0
-3500 55 0
-3500 78 0
3501 -7 -28 -48 -84 0
-3501 7 0
-3501 28 0
-3501 48 0
-3501 84 0
3502 -7 -28 -51 -81 0
-3502 7 0
-3502 28 0
-3502 51 0
-3502 81 0
3503 -7 -28 -54 -78 0
-3503 7 0
-3503 28 0
-3503 54 0
-3503 78 0
3504 -10 -25 -48 -84 0
-3504 10 0
-3504 25 0
-3504 48 0
-3504 84 0
3505 -10 -25 -51 -81 0
-3505 10 0
-3505 25 0
-3505 51 0
-3505 81 0
3506 -10 -25 -54 -78 0
-3506 10 0
-3506 25 0
-3506 54 0
-3506 78 0
-3498 3499 3500 3501 3502 3503 3504 3505 3506 0
-3499 3498 3500 3501 3502 3503 3504 3505 3506 0
-3500 3498 3499 3501 3502 3503 3504 3505 3506 0
-3501 3498 3499 3500 3502 3503 3504 3505 3506 0
-3502 3498 3499 3500 3501 3503 3504 3505 3506 0
-3503 3498 3499 3500 3501 3502 3504 3505 3506 0
-3504 3498 3499 3500 3501 3502 3503 3505 3506 0
-3505 3498 3499 3500 3501 3502 3503 3504 3506 0
-3506 3498 3499 3500 3501 3502 3503 3504 3505 0
3507 -1 -48 -56 -82 0
-3507 1 0
-3507 48 0
-3507 56 0
-3507 82 0
3508 -16 -37 -48 -56 0
-3508 16 0
-3508 37 0
-3508 48 0
-3508 56 0
3509 -19 -34 -48 -56 0
-3509 19 0
-3509 34 0
-3509 48 0
-3509 56 0
-3507 3508 3509 0
-3508 3507 3509 0
-3509 3507 3508 0
3510 -1 -48 -56 -83 0
-3510 1 0
-3510 48 0
-3510 56 0
-3510 83 0
3511 -1 -48 -62 -74 0
-3511 1 0
-3511 48 0
-3511 62 0
-3511 74 0
3512 -1 -48 -65 -71 0
-3512 1 0
-3512 48 0
-3512 65 0
-3512 71 0
-3510 3511 3512 0
-3511 3510 3512 0
-3512 3510 3511 0
3513 -1 -48 -56 -84 0
-3513 1 0
-3513 48 0
-3513 56 0
-3513 84 0
3514 -1 -51 -56 -81 0
-3514 1 0
-3514 51 0
-3514 56 0
-3514 81 0
3515 -1 -54 -56 -78 0
-3515 1 0
-3515 54 0
-3515 56 0
-3515 78 0
-3513 3514 3515 0
-3514 3513 3515 0
-3515 3513 3514 0
3516 -2 -46 -56 -82 0
-3516 2 0
-3516 46 0
-3516 56 0
-3516 82 0
3517 -2 -49 -56 -79 0
-3517 2 0
-3517 49 0
-3517 56 0
-3517 79 0
3518 -2 -52 -56 -76 0
-3518 2 0
-3518 52 0
-3518 56 0
-3518 76 0
3519 -8 -29 -46 -82 0
-3519 8 0
-3519 29 0
-3519 46 0
-3519 82 0
3520 -8 -29 -49 -79 0
-3520 8 0
-3520 29 0
-3520 49 0
-3520 79 0
3521 -8 -29 -52 -76 0
-3521 8 0
-3521 29 0
-3521 52 0
-3521 76 0
3522 -11 -26 -46 -82 0
-3522 11 0
-3522 26 0
-3522 46 0
-3522 82 0
3523 -11 -26 -49 -79 0
-3523 11 0
-3523 26 0
-3523 49 0
-3523 79 0
3524 -11 -26 -52 -76 0
-3524 11 0
-3524 26 0
-3524 52 0
-3524 76 0
-3516 3517 3518 3519 3520 3521 3522 3523 3524 0
-3517 3516 3518 3519 3520 3521 3522 3523 3524 0
-3518 3516 3517 3519 3520 3521 3522 3523 3524 0
-3519 3516 3517 3518 3520 3521 3522 3523 3524 0
-3520 3516 3517 3518 3519 3521 3522 3523 3524 0
-3521 3516 3517 3518 3519 3520 3522 3523 3524 0
-3522 3516 3517 3518 3519 3520 3521 3523 3524 0
-3523 3516 3517 3518 3519 3520 3521 3522 3524 0
-3524 3516 3517 3518 3519 3520 3521 3522 3523 0
3525 -2 -46 -56 -83 0
-3525 2 0
-3525 46 0
-3525 56 0
-3525 83 0
3526 -2 -46 -62 -74 0
-3526 2 0
-3526 46 0
-3526 62 0
-3526 74 0
3527 -2 -46 -65 -71 0
-3527 2 0
-3527 46 0
-3527 65 0
-3527 71 0
3528 -8 -29 -46 -83 0
-3528 8 0
-3528 29 0
-3528 46 0
-3528 83 0
3529 -8 -35 -46 -74 0
-3529 8 0
-3529 35 0
-3529 46 0
-3529 74 0
3530 -8 -38 -46 -71 0
-3530 8 0
-3530 38 0
-3530 46 0
-3530 71 0
3531 -11 -26 -46 -83 0
-3531 11 0
-3531 26 0
-3531 46 0
-3531 83 0
3532 -11 -35 -46 -65 0
-3532 11 0
-3532 35 0
-3532 46 0
-3532 65 0
3533 -11 -38 -46 -62 0
-3533 11 0
-3533 38 0
-3533 46 0
-3533 62 0
3534 -17 -26 -46 -74 0
-3534 17 0
-3534 26 0
-3534 46 0
-3534 74 0
3535 -17 -29 -46 -65 0
-3535 17 0
-3535 29 0
-3535 46 0
-3535 65 0
3536 -17 -38 -46 -56 0
-3536 17 0
-3536 38 0
-3536 46 0
-3536 56 0
3537 -20 -26 -46 -71 0
-3537 20 0
-3537 26 0
-3537 46 0
-3537 71 0
3538 -20 -29 -46 -62 0
-3538 20 0
-3538 29 0
-3538 46 0
-3538 62 0
3539 -20 -35 -46 -56 0
-3539 20 0
-3539 35 0
-3539 46 0
-3539 56 0
-3525 3526 3527 3528 3529 3530 3531 3532 3533 3534 3535 3536 3537 3538 3539 0
-3526 3525 3527 3528 3529 3530 3531 3532 3533 3534 3535 3536 3537 3538 3539 0
-3527 3525 3526 3528 3529 3530 3531 3532 3533 3534 3535 3536 3537 3538 3539 0
-3528 3525 3526 3527 3529 3530 3531 3532 3533 3534 3535 3536 3537 3538 3539 0
-3529 3525 3526 3527 3528 3530 3531 3532 3533 3534 3535 3536 3537 3538 3539 0
-3530 3525 3526 3527 3528 3529 3531 3532 3533 3534 3535 3536 3537 3538 3539 0
-3531 3525 3526 3527 3528 3529 3530 3532 3533 3534 3535 3536 3537 3538 3539 0
-3532 3525 3526 3527 3528 3529 3530 3531 3533 3534 3535 3536 3537 3538 3539 0
-3533 3525 3526 3527 3528 3529 3530 3531 3532 3534 3535 3536 3537 3538 3539 0
-3534 3525 3526 3527 3528 3529 3530 3531 3532 3533 3535 3536 3537 3538 3539 0
-3535 3525 3526 3527 3528 3529 3530 3531 3532 3533 3534 3536 3537 3538 3539 0
-3536 3525 3526 3527 3528 3529 3530 3531 3532 3533 3534 3535 3537 3538 3539 0
-3537 3525 3526 3527 3528 3529 3530 3531 3532 3533 3534 3535 3536 3538 3539 0
-3538 3525 3526 3527 3528 3529 3530 3531 3532 3533 3534 3535 3536 3537 3539 0
-3539 3525 3526 3527 3528 3529 3530 3531 3532 3533 3534 3535 3536 3537 3538 0
3540 -2 -46 -56 -84 0
-3540 2 0
-3540 46 0
-3540 56 0
-3540 84 0
3541 -8 -29 -46 -84 0
-3541 8 0
-3541 29 0
-3541 46 0
-3541 84 0
3542 -11 -26 -46 -84 0
-3542 11 0
-3542 26 0
-3542 46 0
-3542 84 0
-3540 3541 3542 0
-3541 3540 3542 0
-3542 3540 3541 0
3543 -2 -46 -57 -82 0
-3543 2 0
-3543 46 0
-3543 57 0
-3543 82 0
3544 -2 -49 -57 -79 0
-3544 2 0
-3544 49 0
-3544 57 0
-3544 79 0
3545 -2 -52 -57 -76 0
-3545 2 0
-3545 52 0
-3545 57 0
-3545 76 0
-3543 3544 3545 0
-3544 3543 3545 0
-3545 3543 3544 0
3546 -2 -46 -57 -83 0
-3546 2 0
-3546 46 0
-3546 57 0
-3546 83 0
3547 -17 -38 -46 -57 0
-3547 17 0
-3547 38 0
-3547 46 0
-3547 57 0
3548 -20 -35 -46 -57 0
-3548 20 0
-3548 35 0
-3548 46 0
-3548 57 0
-3546 3547 3548 0
-3547 3546 3548 0
-3548 3546 3547 0
3549 -2 -46 -57 -84 0
-3549 2 0
-3549 46 0
-3549 57 0
-3549 84 0
3550 -2 -46 -63 -75 0
-3550 2 0
-3550 46 0
-3550 63 0
-3550 75 0
3551 -2 -46 -66 -72 0
-3551 2 0
-3551 46 0
-3551 66 0
-3551 72 0
-3549 3550 3551 0
-3550 3549 3551 0
-3551 3549 3550 0
3552 -2 -47 -55 -82 0
-3552 2 0
-3552 47 0
-3552 55 0
-3552 82 0
3553 -2 -47 -61 -73 0
-3553 2 0
-3553 47 0
-3553 61 0
-3553 73 0
3554 -2 -47 -64 -70 0
-3554 2 0
-3554 47 0
-3554 64 0
-3554 70 0
3555 -5 -32 -55 -82 0
-3555 5 0
-3555 32 0
-3555 55 0
-3555 82 0
3556 -5 -32 -61 -73 0
-3556 5 0
-3556 32 0
-3556 61 0
-3556 73 0
3557 -5 -32 -64 -70 0
-3557 5 0
-3557 32 0
-3557 64 0
-3557 70 0
3558 -14 -23 -55 -82 0
-3558 14 0
-3558 23 0
-3558 55 0
-3558 82 0
3559 -14 -23 -61 -73 0
-3559 14 0
-3559 23 0
-3559 61 0
-3559 73 0
3560 -14 -23 -64 -70 0
-3560 14 0
-3560 23 0
-3560 64 0
-3560 70 0
-3552 3553 3554 3555 3556 3557 3558 3559 3560 0
-3553 3552 3554 3555 3556 3557 3558 3559 3560 0
-3554 3552 3553 3555 3556 3557 3558 3559 3560 0
-3555 3552 3553 3554 3556 3557 3558 3559 3560 0
-3556 3552 3553 3554 3555 3557 3558 3559 3560 0
-3557 3552 3553 3554 3555 3556 3558 3559 3560 0
-3558 3552 3553 3554 3555 3556 3557 3559 3560 0
-3559 3552 3553 3554 3555 3556 3557 3558 3560 0
-3560 3552 3553 3554 3555 3556 3557 3558 3559 0
3561 -2 -47 -55 -83 0
-3561 2 0
-3561 47 0
-3561 55 0
-3561 83 0
3562 -2 -50 -55 -80 0
-3562 2 0
-3562 50 0
-3562 55 0
-3562 80 0
3563 -2 -53 -55 -77 0
-3563 2 0
-3563 53 0
-3563 55 0
-3563 77 0
3564 -5 -32 -55 -83 0
-3564 5 0
-3564 32 0
-3564 55 0
-3564 83 0
3565 -5 -35 -55 -80 0
-3565 5 0
-3565 35 0
-3565 55 0
-3565 80 0
3566 -5 -38 -55 -77 0
-3566 5 0
-3566 38 0
-3566 55 0
-3566 77 0
3567 -14 -23 -55 -83 0
-3567 14 0
-3567 23 0
-3567 55 0
-3567 83 0
3568 -14 -35 -53 -55 0
-3568 14 0
-3568 35 0
-3568 53 0
-3568 55 0
3569 -14 -38 -50 -55 0
-3569 14 0
-3569 38 0
-3569 50 0
-3569 55 0
3570 -17 -23 -55 -80 0
-3570 17 0
-3570 23 0
-3570 55 0
-3570 80 0
3571 -17 -32 -53 -55 0
-3571 17 0
-3571 32 0
-3571 53 0
-3571 55 0
3572 -17 -38 -47 -55 0
-3572 17 0
-3572 38 0
-3572 47 0
-3572 55 0
3573 -20 -23 -55 -77 0
-3573 20 0
-3573 23 0
-3573 55 0
-3573 77 0
3574 -20 -32 -50 -55 0
-3574 20 0
-3574 32 0
-3574 50 0
-3574 55 0
3575 -20 -35 -47 -55 0
-3575 20 0
-3575 35 0
-3575 47 0
-3575 55 0
-3561 3562 3563 3564 3565 3566 3567 3568 3569 3570 3571 3572 3573 3574 3575 0
-3562 3561 3563 3564 3565 3566 3567 3568 3569 3570 3571 3572 3573 3574 3575 0
-3563 3561 3562 3564 3565 3566 3567 3568 3569 3570 3571 3572 3573 3574 3575 0
-3564 3561 3562 3563 3565 3566 3567 3568 3569 3570 3571 3572 3573 3574 3575 0
-3565 3561 3562 3563 3564 3566 3567 3568 3569 3570 3571 3572 3573 3574 3575 0
-3566 3561 3562 3563 3564 3565 3567 3568 3569 3570 3571 3572 3573 3574 3575 0
-3567 3561 3562 3563 3564 3565 3566 3568 3569 3570 3571 3572 3573 3574 3575 0
-3568 3561 3562 3563 3564 3565 3566 3567 3569 3570 3571 3572 3573 3574 3575 0
-3569 3561 3562 3563 3564 3565 3566 3567 3568 3570 3571 3572 3573 3574 3575 0
-3570 3561 3562 3563 3564 3565 3566 3567 3568 3569 3571 3572 3573 3574 3575 0
-3571 3561 3562 3563 3564 3565 3566 3567 3568 3569 3570 3572 3573 3574 3575 0
-3572 3561 3562 3563 3564 3565 3566 3567 3568 3569 3570 3571 3573 3574 3575 0
-3573 3561 3562 3563 3564 3565 3566 3567 3568 3569 3570 3571 3572 3574 3575 0
-3574 3561 3562 3563 3564 3565 3566 3567 3568 3569 3570 3571 3572 3573 3575 0
-3575 3561 3562 3563 3564 3565 3566 3567 3568 3569 3570 3571 3572 3573 3574 0
3576 -2 -47 -55 -84 0
-3576 2 0
-3576 47 0
-3576 55 0
-3576 84 0
3577 -5 -32 -55 -84 0
-3577 5 0
-3577 32 0
-3577 55 0
-3577 84 0
3578 -14 -23 -55 -84 0
-3578 14 0
-3578 23 0
-3578 55 0
-3578 84 0
-3576 3577 3578 0
-3577 3576 3578 0
-3578 3576 3577 0
3579 -2 -47 -57 -82 0
-3579 2 0
-3579 47 0
-3579 57 0
-3579 82 0
3580 -5 -32 -57 -82 0
-3580 5 0
-3580 32 0
-3580 57 0
-3580 82 0
3581 -14 -23 -57 -82 0
-3581 14 0
-3581 23 0
-3581 57 0
-3581 82 0
-3579 3580 3581 0
-3580 3579 3581 0
-3581 3579 3580 0
3582 -2 -47 -57 -83 0
-3582 2 0
-3582 47 0
-3582 57 0
-3582 83 0
3583 -2 -50 -57 -80 0
-3583 2 0
-3583 50 0
-3583 57 0
-3583 80 0
3584 -2 -53 -57 -77 0
-3584 2 0
-3584 53 0
-3584 57 0
-3584 77 0
3585 -5 -32 -57 -83 0
-3585 5 0
-3585 32 0
-3585 57 0
-3585 83 0
3586 -5 -35 -57 -80 0
-3586 5 0
-3586 35 0
-3586 57 0
-3586 80 0
3587 -5 -38 -57 -77 0
-3587 5 0
-3587 38 0
-3587 57 0
-3587 77 0
3588 -14 -23 -57 -83 0
-3588 14 0
-3588 23 0
-3588 57 0
-3588 83 0
3589 -14 -35 -53 -57 0
-3589 14 0
-3589 35 0
-3589 53 0
-3589 57 0
3590 -14 -38 -50 -57 0
-3590 14 0
-3590 38 0
-3590 50 0
-3590 57 0
3591 -17 -23 -57 -80 0
-3591 17 0
-3591 23 0
-3591 57 0
-3591 80 0
3592 -17 -32 -53 -57 0
-3592 17 0
-3592 32 0
-3592 53 0
-3592 57 0
3593 -17 -38 -47 -57 0
-3593 17 0
-3593 38 0
-3593 47 0
-3593 57 0
3594 -20 -23 -57 -77 0
-3594 20 0
-3594 23 0
-3594 57 0
-3594 77 0
3595 -20 -32 -50 -57 0
-3595 20 0
-3595 32 0
-3595 50 0
-3595 57 0
3596 -20 -35 -47 -57 0
-3596 20 0
-3596 35 0
-3596 47 0
-3596 57 0
-3582 3583 3584 3585 3586 3587 3588 3589 3590 3591 3592 3593 3594 3595 3596 0
-3583 3582 3584 3585 3586 3587 3588 3589 3590 3591 3592 3593 3594 3595 3596 0
-3584 3582 3583 3585 3586 3587 3588 3589 3590 3591 3592 3593 3594 3595 3596 0
-3585 3582 3583 3584 3586 3587 3588 3589 3590 3591 3592 3593 3594 3595 3596 0
-3586 3582 3583 3584 3585 3587 3588 3589 3590 3591 3592 3593 3594 3595 3596 0
-3587 3582 3583 3584 3585 3586 3588 3589 3590 3591 3592 3593 3594 3595 3596 0
-3588 3582 3583 3584 3585 3586 3587 3589 3590 3591 3592 3593 3594 3595 3596 0
-3589 3582 3583 3584 3585 3586 3587 3588 3590 3591 3592 3593 3594 3595 3596 0
-3590 3582 3583 3584 3585 3586 3587 3588 3589 3591 3592 3593 3594 3595 3596 0
-3591 3582 3583 3584 3585 3586 3587 3588 3589 3590 3592 3593 3594 3595 3596 0
-3592 3582 3583 3584 3585 3586 3587 3588 3589 3590 3591 3593 3594 3595 3596 0
-3593 3582 3583 3584 3585 3586 3587 3588 3589 3590 3591 3592 3594 3595 3596 0
-3594 3582 3583 3584 3585 3586 3587 3588 3589 3590 3591 3592 3593 3595 3596 0
-3595 3582 3583 3584 3585 3586 3587 3588 3589 3590 3591 3592 3593 3594 3596 0
-3596 3582 3583 3584 3585 3586 3587 3588 3589 3590 3591 3592 3593 3594 3595 0
3597 -2 -47 -57 -84 0
-3597 2 0
-3597 47 0
-3597 57 0
-3597 84 0
3598 -2 -47 -63 -75 0
-3598 2 0
-3598 47 0
-3598 63 0
-3598 75 0
3599 -2 -47 -66 -72 0
-3599 2 0
-3599 47 0
-3599 66 0
-3599 72 0
3600 -5 -32 -57 -84 0
-3600 5 0
-3600 32 0
-3600 57 0
-3600 84 0
3601 -5 -32 -63 -75 0
-3601 5 0
-3601 32 0
-3601 63 0
-3601 75 0
3602 -5 -32 -66 -72 0
-3602 5 0
-3602 32 0
-3602 66 0
-3602 72 0
3603 -14 -23 -57 -84 0
-3603 14 0
-3603 23 0
-3603 57 0
-3603 84 0
3604 -14 -23 -63 -75 0
-3604 14 0
-3604 23 0
-3604 63 0
-3604 75 0
3605 -14 -23 -66 -72 0
-3605 14 0
-3605 23 0
-3605 66 0
-3605 72 0
-3597 3598 3599 3600 3601 3602 3603 3604 3605 0
-3598 3597 3599 3600 3601 3602 3603 3604 3605 0
-3599 3597 3598 3600 3601 3602 3603 3604 3605 0
-3600 3597 3598 3599 3601 3602 3603 3604 3605 0
-3601 3597 3598 3599 3600 3602 3603 3604 3605 0
-3602 3597 3598 3599 3600 3601 3603 3604 3605 0
-3603 3597 3598 3599 3600 3601 3602 3604 3605 0
-3604 3597 3598 3599 3600 3601 3602 3603 3605 0
-3605 3597 3598 3599 3600 3601 3602 3603 3604 0
3606 -2 -48 -55 -82 0
-3606 2 0
-3606 48 0
-3606 55 0
-3606 82 0
3607 -2 -48 -61 -73 0
-3607 2 0
-3607 48 0
-3607 61 0
-3607 73 0
3608 -2 -48 -64 -70 0
-3608 2 0
-3608 48 0
-3608 64 0
-3608 70 0
-3606 3607 3608 0
-3607 3606 3608 0
-3608 3606 3607 0
3609 -2 -48 -55 -83 0
-3609 2 0
-3609 48 0
-3609 55 0
-3609 83 0
3610 -17 -38 -48 -55 0
-3610 17 0
-3610 38 0
-3610 48 0
-3610 55 0
3611 -20 -35 -48 -55 0
-3611 20 0
-3611 35 0
-3611 48 0
-3611 55 0
-3609 3610 3611 0
-3610 3609 3611 0
-3611 3609 3610 0
3612 -2 -48 -55 -84 0
-3612 2 0
-3612 48 0
-3612 55 0
-3612 84 0
3613 -2 -51 -55 -81 0
-3613 2 0
-3613 51 0
-3613 55 0
-3613 81 0
3614 -2 -54 -55 -78 0
-3614 2 0
-3614 54 0
-3614 55 0
-3614 78 0
-3612 3613 3614 0
-3613 3612 3614 0
-3614 3612 3613 0
3615 -2 -48 -56 -82 0
-3615 2 0
-3615 48 0
-3615 56 0
-3615 82 0
3616 -8 -29 -48 -82 0
-3616 8 0
-3616 29 0
-3616 48 0
-3616 82 0
3617 -11 -26 -48 -82 0
-3617 11 0
-3617 26 0
-3617 48 0
-3617 82 0
-3615 3616 3617 0
-3616 3615 3617 0
-3617 3615 3616 0
3618 -2 -48 -56 -83 0
-3618 2 0
-3618 48 0
-3618 56 0
-3618 83 0
3619 -2 -48 -62 -74 0
-3619 2 0
-3619 48 0
-3619 62 0
-3619 74 0
3620 -2 -48 -65 -71 0
-3620 2 0
-3620 48 0
-3620 65 0
-3620 71 0
3621 -8 -29 -48 -83 0
-3621 8 0
-3621 29 0
-3621 48 0
-3621 83 0
3622 -8 -35 -48 -74 0
-3622 8 0
-3622 35 0
-3622 48 0
-3622 74 0
3623 -8 -38 -48 -71 0
-3623 8 0
-3623 38 0
-3623 48 0
-3623 71 0
3624 -11 -26 -48 -83 0
-3624 11 0
-3624 26 0
-3624 48 0
-3624 83 0
3625 -11 -35 -48 -65 0
-3625 11 0
-3625 35 0
-3625 48 0
-3625 65 0
3626 -11 -38 -48 -62 0
-3626 11 0
-3626 38 0
-3626 48 0
-3626 62 0
3627 -17 -26 -48 -74 0
-3627 17 0
-3627 26 0
-3627 48 0
-3627 74 0
3628 -17 -29 -48 -65 0
-3628 17 0
-3628 29 0
-3628 48 0
-3628 65 0
3629 -17 -38 -48 -56 0
-3629 17 0
-3629 38 0
-3629 48 0
-3629 56 0
3630 -20 -26 -48 -71 0
-3630 20 0
-3630 26 0
-3630 48 0
-3630 71 0
3631 -20 -29 -48 -62 0
-3631 20 0
-3631 29 0
-3631 48 0
-3631 62 0
3632 -20 -35 -48 -56 0
-3632 20 0
-3632 35 0
-3632 48 0
-3632 56 0
-3618 3619 3620 3621 3622 3623 3624 3625 3626 3627 3628 3629 3630 3631 3632 0
-3619 3618 3620 3621 3622 3623 3624 3625 3626 3627 3628 3629 3630 3631 3632 0
-3620 3618 3619 3621 3622 3623 3624 3625 3626 3627 3628 3629 3630 3631 3632 0
-3621 3618 3619 3620 3622 3623 3624 3625 3626 3627 3628 3629 3630 3631 3632 0
-3622 3618 3619 3620 3621 3623 3624 3625 3626 3627 3628 3629 3630 3631 3632 0
-3623 3618 3619 3620 3621 3622 3624 3625 3626 3627 3628 3629 3630 3631 3632 0
-3624 3618 3619 3620 3621 3622 3623 3625 3626 3627 3628 3629 3630 3631 3632 0
-3625 3618 3619 3620 3621 3622 3623 3624 3626 3627 3628 3629 3630 3631 3632 0
-3626 3618 3619 3620 3621 3622 3623 3624 3625 3627 3628 3629 3630 3631 3632 0
-3627 3618 3619 3620 3621 3622 3623 3624 3625 3626 3628 3629 3630 3631 3632 0
-3628 3618 3619 3620 3621 3622 3623 3624 3625 3626 3627 3629 3630 3631 3632 0
-3629 3618 3619 3620 3621 3622 3623 3624 3625 3626 3627 3628 3630 3631 3632 0
-3630 3618 3619 3620 3621 3622 3623 3624 3625 3626 3627 3628 3629 3631 3632 0
-3631 3618 3619 3620 3621 3622 3623 3624 3625 3626 3627 3628 3629 3630 3632 0
-3632 3618 3619 3620 3621 3622 3623 3624 3625 3626 3627 3628 3629 3630 3631 0
3633 -2 -48 -56 -84 0
-3633 2 0
-3633 48 0
-3633 56 0
-3633 84 0
3634 -2 -51 -56 -81 0
-3634 2 0
-3634 51 0
-3634 56 0
-3634 81 0
3635 -2 -54 -56 -78 0
-3635 2 0
-3635 54 0
-3635 56 0
-3635 78 0
3636 -8 -29 -48 -84 0
-3636 8 0
-3636 29 0
-3636 48 0
-3636 84 0
3637 -8 -29 -51 -81 0
-3637 8 0
-3637 29 0
-3637 51 0
-3637 81 0
3638 -8 -29 -54 -78 0
-3638 8 0
-3638 29 0
-3638 54 0
-3638 78 0
3639 -11 -26 -48 -84 0
-3639 11 0
-3639 26 0
-3639 48 0
-3639 84 0
3640 -11 -26 -51 -81 0
-3640 11 0
-3640 26 0
-3640 51 0
-3640 81 0
3641 -11 -26 -54 -78 0
-3641 11 0
-3641 26 0
-3641 54 0
-3641 78 0
-3633 3634 3635 3636 3637 3638 3639 3640 3641 0
-3634 3633 3635 3636 3637 3638 3639 3640 3641 0
-3635 3633 3634 3636 3637 3638 3639 3640 3641 0
-3636 3633 3634 3635 3637 3638 3639 3640 3641 0
-3637 3633 3634 3635 3636 3638 3639 3640 3641 0
-3638 3633 3634 3635 3636 3637 3639 3640 3641 0
-3639 3633 3634 3635 3636 3637 3638 3640 3641 0
-3640 3633 3634 3635 3636 3637 3638 3639 3641 0
-3641 3633 3634 3635 3636 3637 3638 3639 3640 0
3642 -3 -46 -56 -82 0
-3642 3 0
-3642 46 0
-3642 56 0
-3642 82 0
3643 -3 -49 -56 -79 0
-3643 3 0
-3643 49 0
-3643 56 0
-3643 79 0
3644 -3 -52 -56 -76 0
-3644 3 0
-3644 52 0
-3644 56 0
-3644 76 0
-3642 3643 3644 0
-3643 3642 3644 0
-3644 3642 3643 0
3645 -3 -46 -56 -83 0
-3645 3 0
-3645 46 0
-3645 56 0
-3645 83 0
3646 -3 -46 -62 -74 0
-3646 3 0
-3646 46 0
-3646 62 0
-3646 74 0
3647 -3 -46 -65 -71 0
-3647 3 0
-3647 46 0
-3647 65 0
-3647 71 0
-3645 3646 3647 0
-3646 3645 3647 0
-3647 3645 3646 0
3648 -3 -46 -56 -84 0
-3648 3 0
-3648 46 0
-3648 56 0
-3648 84 0
3649 -18 -39 -46 -56 0
-3649 18 0
-3649 39 0
-3649 46 0
-3649 56 0
3650 -21 -36 -46 -56 0
-3650 21 0
-3650 36 0
-3650 46 0
-3650 56 0
-3648 3649 3650 0
-3649 3648 3650 0
-3650 3648 3649 0
3651 -3 -46 -57 -82 0
-3651 3 0
-3651 46 0
-3651 57 0
-3651 82 0
3652 -3 -49 -57 -79 0
-3652 3 0
-3652 49 0
-3652 57 0
-3652 79 0
3653 -3 -52 -57 -76 0
-3653 3 0
-3653 52 0
-3653 57 0
-3653 76 0
3654 -9 -30 -46 -82 0
-3654 9 0
-3654 30 0
-3654 46 0
-3654 82 0
3655 -9 -30 -49 -79 0
-3655 9 0
-3655 30 0
-3655 49 0
-3655 79 0
3656 -9 -30 -52 -76 0
-3656 9 0
-3656 30 0
-3656 52 0
-3656 76 0
3657 -12 -27 -46 -82 0
-3657 12 0
-3657 27 0
-3657 46 0
-3657 82 0
3658 -12 -27 -49 -79 0
-3658 12 0
-3658 27 0
-3658 49 0
-3658 79 0
3659 -12 -27 -52 -76 0
-3659 12 0
-3659 27 0
-3659 52 0
-3659 76 0
-3651 3652 3653 3654 3655 3656 3657 3658 3659 0
-3652 3651 3653 3654 3655 3656 3657 3658 3659 0
-3653 3651 3652 3654 3655 3656 3657 3658 3659 0
-3654 3651 3652 3653 3655 3656 3657 3658 3659 0
-3655 3651 3652 3653 3654 3656 3657 3658 3659 0
-3656 3651 3652 3653 3654 3655 3657 3658 3659 0
-3657 3651 3652 3653 3654 3655 3656 3658 3659 0
-3658 3651 3652 3653 3654 3655 3656 3657 3659 0
-3659 3651 3652 3653 3654 3655 3656 3657 3658 0
3660 -3 -46 -57 -83 0
-3660 3 0
-3660 46 0
-3660 57 0
-3660 83 0
3661 -9 -30 -46 -83 0
-3661 9 0
-3661 30 0
-3661 46 0
-3661 83 0
3662 -12 -27 -46 -83 0
-3662 12 0
-3662 27 0
-3662 46 0
-3662 83 0
-3660 3661 3662 0
-3661 3660 3662 0
-3662 3660 3661 0
3663 -3 -46 -57 -84 0
-3663 3 0
-3663 46 0
-3663 57 0
-3663 84 0
3664 -3 -46 -63 -75 0
-3664 3 0
-3664 46 0
-3664 63 0
-3664 75 0
3665 -3 -46 -66 -72 0
-3665 3 0
-3665 46 0
-3665 66 0
-3665 72 0
3666 -9 -30 -46 -84 0
-3666 9 0
-3666 30 0
-3666 46 0
-3666 84 0
3667 -9 -36 -46 -75 0
-3667 9 0
-3667 36 0
-3667 46 0
-3667 75 0
3668 -9 -39 -46 -72 0
-3668 9 0
-3668 39 0
-3668 46 0
-3668 72 0
3669 -12 -27 -46 -84 0
-3669 12 0
-3669 27 0
-3669 46 0
-3669 84 0
3670 -12 -36 -46 -66 0
-3670 12 0
-3670 36 0
-3670 46 0
-3670 66 0
3671 -12 -39 -46 -63 0
-3671 12 0
-3671 39 0
-3671 46 0
-3671 63 0
3672 -18 -27 -46 -75 0
-3672 18 0
-3672 27 0
-3672 46 0
-3672 75 0
3673 -18 -30 -46 -66 0
-3673 18 0
-3673 30 0
-3673 46 0
-3673 66 0
3674 -18 -39 -46 -57 0
-3674 18 0
-3674 39 0
-3674 46 0
-3674 57 0
3675 -21 -27 -46 -72 0
-3675 21 0
-3675 27 0
-3675 46 0
-3675 72 0
3676 -21 -30 -46 -63 0
-3676 21 0
-3676 30 0
-3676 46 0
-3676 63 0
3677 -21 -36 -46 -57 0
-3677 21 0
-3677 36 0
-3677 46 0
-3677 57 0
-3663 3664 3665 3666 3667 3668 3669 3670 3671 3672 3673 3674 3675 3676 3677 0
-3664 3663 3665 3666 3667 3668 3669 3670 3671 3672 3673 3674 3675 3676 3677 0
-3665 3663 3664 3666 3667 3668 3669 3670 3671 3672 3673 3674 3675 3676 3677 0
-3666 3663 3664 3665 3667 3668 3669 3670 3671 3672 3673 3674 3675 3676 3677 0
-3667 3663 3664 3665 3666 3668 3669 3670 3671 3672 3673 3674 3675 3676 3677 0
-3668 3663 3664 3665 3666 3667 3669 3670 3671 3672 3673 3674 3675 3676 3677 0
-3669 3663 3664 3665 3666 3667 3668 3670 3671 3672 3673 3674 3675 3676 3677 0
-3670 3663 3664 3665 3666 3667 3668 3669 3671 3672 3673 3674 3675 3676 3677 0
-3671 3663 3664 3665 3666 3667 3668 3669 3670 3672 3673 3674 3675 3676 3677 0
-3672 3663 3664 3665 3666 3667 3668 3669 3670 3671 3673 3674 3675 3676 3677 0
-3673 3663 3664 3665 3666 3667 3668 3669 3670 3671 3672 3674 3675 3676 3677 0
-3674 3663 3664 3665 3666 3667 3668 3669 3670 3671 3672 3673 3675 3676 3677 0
-3675 3663 3664 3665 3666 3667 3668 3669 3670 3671 3672 3673 3674 3676 3677 0
-3676 3663 3664 3665 3666 3667 3668 3669 3670 3671 3672 3673 3674 3675 3677 0
-3677 3663 3664 3665 3666 3667 3668 3669 3670 3671 3672 3673 3674 3675 3676 0
3678 -3 -47 -55 -82 0
-3678 3 0
-3678 47 0
-3678 55 0
-3678 82 0
3679 -3 -47 -61 -73 0
-3679 3 0
-3679 47 0
-3679 61 0
-3679 73 0
3680 -3 -47 -64 -70 0
-3680 3 0
-3680 47 0
-3680 64 0
-3680 70 0
-3678 3679 3680 0
-3679 3678 3680 0
-3680 3678 3679 0
3681 -3 -47 -55 -83 0
-3681 3 0
-3681 47 0
-3681 55 0
-3681 83 0
3682 -3 -50 -55 -80 0
-3682 3 0
-3682 50 0
-3682 55 0
-3682 80 0
3683 -3 -53 -55 -77 0
-3683 3 0
-3683 53 0
-3683 55 0
-3683 77 0
-3681 3682 3683 0
-3682 3681 3683 0
-3683 3681 3682 0
3684 -3 -47 -55 -84 0
-3684 3 0
-3684 47 0
-3684 55 0
-3684 84 0
3685 -18 -39 -47 -55 0
-3685 18 0
-3685 39 0
-3685 47 0
-3685 55 0
3686 -21 -36 -47 -55 0
-3686 21 0
-3686 36 0
-3686 47 0
-3686 55 0
-3684 3685 3686 0
-3685 3684 3686 0
-3686 3684 3685 0
3687 -3 -47 -57 -82 0
-3687 3 0
-3687 47 0
-3687 57 0
-3687 82 0
3688 -9 -30 -47 -82 0
-3688 9 0
-3688 30 0
-3688 47 0
-3688 82 0
3689 -12 -27 -47 -82 0
-3689 12 0
-3689 27 0
-3689 47 0
-3689 82 0
-3687 3688 3689 0
-3688 3687 3689 0
-3689 3687 3688 0
3690 -3 -47 -57 -83 0
-3690 3 0
-3690 47 0
-3690 57 0
-3690 83 0
3691 -3 -50 -57 -80 0
-3691 3 0
-3691 50 0
-3691 57 0
-3691 80 0
3692 -3 -53 -57 -77 0
-3692 3 0
-3692 53 0
-3692 57 0
-3692 77 0
3693 -9 -30 -47 -83 0
-3693 9 0
-3693 30 0
-3693 47 0
-3693 83 0
3694 -9 -30 -50 -80 0
-3694 9 0
-3694 30 0
-3694 50 0
-3694 80 0
3695 -9 -30 -53 -77 0
-3695 9 0
-3695 30 0
-3695 53 0
-3695 77 0
3696 -12 -27 -47 -83 0
-3696 12 0
-3696 27 0
-3696 47 0
-3696 83 0
3697 -12 -27 -50 -80 0
-3697 12 0
-3697 27 0
-3697 50 0
-3697 80 0
3698 -12 -27 -53 -77 0
-3698 12 0
-3698 27 0
-3698 53 0
-3698 77 0
-3690 3691 3692 3693 3694 3695 3696 3697 3698 0
-3691 3690 3692 3693 3694 3695 3696 3697 3698 0
-3692 3690 3691 3693 3694 3695 3696 3697 3698 0
-3693 3690 3691 3692 3694 3695 3696 3697 3698 0
-3694 3690 3691 3692 3693 3695 3696 3697 3698 0
-3695 3690 3691 3692 3693 3694 3696 3697 3698 0
-3696 3690 3691 3692 3693 3694 3695 3697 3698 0
-3697 3690 3691 3692 3693 3694 3695 3696 3698 0
-3698 3690 3691 3692 3693 3694 3695 3696 3697 0
3699 -3 -47 -57 -84 0
-3699 3 0
-3699 47 0
-3699 57 0
-3699 84 0
3700 -3 -47 -63 -75 0
-3700 3 0
-3700 47 0
-3700 63 0
-3700 75 0
3701 -3 -47 -66 -72 0
-3701 3 0
-3701 47 0
-3701 66 0
-3701 72 0
3702 -9 -30 -47 -84 0
-3702 9 0
-3702 30 0
-3702 47 0
-3702 84 0
3703 -9 -36 -47 -75 0
-3703 9 0
-3703 36 0
-3703 47 0
-3703 75 0
3704 -9 -39 -47 -72 0
-3704 9 0
-3704 39 0
-3704 47 0
-3704 72 0
3705 -12 -27 -47 -84 0
-3705 12 0
-3705 27 0
-3705 47 0
-3705 84 0
3706 -12 -36 -47 -66 0
-3706 12 0
-3706 36 0
-3706 47 0
-3706 66 0
3707 -12 -39 -47 -63 0
-3707 12 0
-3707 39 0
-3707 47 0
-3707 63 0
3708 -18 -27 -47 -75 0
-3708 18 0
-3708 27 0
-3708 47 0
-3708 75 0
3709 -18 -30 -47 -66 0
-3709 18 0
-3709 30 0
-3709 47 0
-3709 66 0
3710 -18 -39 -47 -57 0
-3710 18 0
-3710 39 0
-3710 47 0
-3710 57 0
3711 -21 -27 -47 -72 0
-3711 21 0
-3711 27 0
-3711 47 0
-3711 72 0
3712 -21 -30 -47 -63 0
-3712 21 0
-3712 30 0
-3712 47 0
-3712 63 0
3713 -21 -36 -47 -57 0
-3713 21 0
-3713 36 0
-3713 47 0
-3713 57 0
-3699 3700 3701 3702 3703 3704 3705 3706 3707 3708 3709 3710 3711 3712 3713 0
-3700 3699 3701 3702 3703 3704 3705 3706 3707 3708 3709 3710 3711 3712 3713 0
-3701 3699 3700 3702 3703 3704 3705 3706 3707 3708 3709 3710 3711 3712 3713 0
-3702 3699 3700 3701 3703 3704 3705 3706 3707 3708 3709 3710 3711 3712 3713 0
-3703 3699 3700 3701 3702 3704 3705 3706 3707 3708 3709 3710 3711 3712 3713 0
-3704 3699 3700 3701 3702 3703 3705 3706 3707 3708 3709 3710 3711 3712 3713 0
-3705 3699 3700 3701 3702 3703 3704 3706 3707 3708 3709 3710 3711 3712 3713 0
-3706 3699 3700 3701 3702 3703 3704 3705 3707 3708 3709 3710 3711 3712 3713 0
-3707 3699 3700 3701 3702 3703 3704 3705 3706 3708 3709 3710 3711 3712 3713 0
-3708 3699 3700 3701 3702 3703 3704 3705 3706 3707 3709 3710 3711 3712 3713 0
-3709 3699 3700 3701 3702 3703 3704 3705 3706 3707 3708 3710 3711 3712 3713 0
-3710 3699 3700 3701 3702 3703 3704 3705 3706 3707 3708 3709 3711 3712 3713 0
-3711 3699 3700 3701 3702 3703 3704 3705 3706 3707 3708 3709 3710 3712 3713 0
-3712 3699 3700 3701 3702 3703 3704 3705 3706 3707 3708 3709 3710 3711 3713 0
-3713 3699 3700 3701 3702 3703 3704 3705 3706 3707 3708 3709 3710 3711 3712 0
3714 -3 -48 -55 -82 0
-3714 3 0
-3714 48 0
-3714 55 0
-3714 82 0
3715 -3 -48 -61 -73 0
-3715 3 0
-3715 48 0
-3715 61 0
-3715 73 0
3716 -3 -48 -64 -70 0
-3716 3 0
-3716 48 0
-3716 64 0
-3716 70 0
3717 -6 -33 -55 -82 0
-3717 6 0
-3717 33 0
-3717 55 0
-3717 82 0
3718 -6 -33 -61 -73 0
-3718 6 0
-3718 33 0
-3718 61 0
-3718 73 0
3719 -6 -33 -64 -70 0
-3719 6 0
-3719 33 0
-3719 64 0
-3719 70 0
3720 -15 -24 -55 -82 0
-3720 15 0
-3720 24 0
-3720 55 0
-3720 82 0
3721 -15 -24 -61 -73 0
-3721 15 0
-3721 24 0
-3721 61 0
-3721 73 0
3722 -15 -24 -64 -70 0
-3722 15 0
-3722 24 0
-3722 64 0
-3722 70 0
-3714 3715 3716 3717 3718 3719 3720 3721 3722 0
-3715 3714 3716 3717 3718 3719 3720 3721 3722 0
-3716 3714 3715 3717 3718 3719 3720 3721 3722 0
-3717 3714 3715 3716 3718 3719 3720 3721 3722 0
-3718 3714 3715 3716 3717 3719 3720 3721 3722 0
-3719 3714 3715 3716 3717 3718 3720 3721 3722 0
-3720 3714 3715 3716 3717 3718 3719 3721 3722 0
-3721 3714 3715 3716 3717 3718 3719 3720 3722 0
-3722 3714 3715 3716 3717 3718 3719 3720 3721 0
3723 -3 -48 -55 -83 0
-3723 3 0
-3723 48 0
-3723 55 0
-3723 83 0
3724 -6 -33 -55 -83 0
-3724 6 0
-3724 33 0
-3724 55 0
-3724 83 0
3725 -15 -24 -55 -83 0
-3725 15 0
-3725 24 0
-3725 55 0
-3725 83 0
-3723 3724 3725 0
-3724 3723 3725 0
-3725 3723 3724 0
3726 -3 -48 -55 -84 0
-3726 3 0
-3726 48 0
-3726 55 0
-3726 84 0
3727 -3 -51 -55 -81 0
-3727 3 0
-3727 51 0
-3727 55 0
-3727 81 0
3728 -3 -54 -55 -78 0
-3728 3 0
-3728 54 0
-3728 55 0
-3728 78 0
3729 -6 -33 -55 -84 0
-3729 6 0
-3729 33 0
-3729 55 0
-3729 84 0
3730 -6 -36 -55 -81 0
-3730 6 0
-3730 36 0
-3730 55 0
-3730 81 0
3731 -6 -39 -55 -78 0
-3731 6 0
-3731 39 0
-3731 55 0
-3731 78 0
3732 -15 -24 -55 -84 0
-3732 15 0
-3732 24 0
-3732 55 0
-3732 84 0
3733 -15 -36 -54 -55 0
-3733 15 0
-3733 36 0
-3733 54 0
-3733 55 0
3734 -15 -39 -51 -55 0
-3734 15 0
-3734 39 0
-3734 51 0
-3734 55 0
3735 -18 -24 -55 -81 0
-3735 18 0
-3735 24 0
-3735 55 0
-3735 81 0
3736 -18 -33 -54 -55 0
-3736 18 0
-3736 33 0
-3736 54 0
-3736 55 0
3737 -18 -39 -48 -55 0
-3737 18 0
-3737 39 0
-3737 48 0
-3737 55 0
3738 -21 -24 -55 -78 0
-3738 21 0
-3738 24 0
-3738 55 0
-3738 78 0
3739 -21 -33 -51 -55 0
-3739 21 0
-3739 33 0
-3739 51 0
-3739 55 0
3740 -21 -36 -48 -55 0
-3740 21 0
-3740 36 0
-3740 48 0
-3740 55 0
-3726 3727 3728 3729 3730 3731 3732 3733 3734 3735 3736 3737 3738 3739 3740 0
-3727 3726 3728 3729 3730 3731 3732 3733 3734 3735 3736 3737 3738 3739 3740 0
-3728 3726 3727 3729 3730 3731 3732 3733 3734 3735 3736 3737 3738 3739 3740 0
-3729 3726 3727 3728 3730 3731 3732 3733 3734 3735 3736 3737 3738 3739 3740 0
-3730 3726 3727 3728 3729 3731 3732 3733 3734 3735 3736 3737 3738 3739 3740 0
-3731 3726 3727 3728 3729 3730 3732 3733 3734 3735 3736 3737 3738 3739 3740 0
-3732 3726 3727 3728 3729 3730 3731 3733 3734 3735 3736 3737 3738 3739 3740 0
-3733 3726 3727 3728 3729 3730 3731 3732 3734 3735 3736 3737 3738 3739 3740 0
-3734 3726 3727 3728 3729 3730 3731 3732 3733 3735 3736 3737 3738 3739 3740 0
-3735 3726 3727 3728 3729 3730 3731 3732 3733 3734 3736 3737 3738 3739 3740 0
-3736 3726 3727 3728 3729 3730 3731 3732 3733 3734 3735 3737 3738 3739 3740 0
-3737 3726 3727 3728 3729 3730 3731 3732 3733 3734 3735 3736 3738 3739 3740 0
-3738 3726 3727 3728 3729 3730 3731 3732 3733 3734 3735 3736 3737 3739 3740 0
-3739 3726 3727 3728 3729 3730 3731 3732 3733 3734 3735 3736 3737 3738 3740 0
-3740 3726 3727 3728 3729 3730 3731 3732 3733 3734 3735 3736 3737 3738 3739 0
3741 -3 -48 -56 -82 0
-3741 3 0
-3741 48 0
-3741 56 0
-3741 82 0
3742 -6 -33 -56 -82 0
-3742 6 0
-3742 33 0
-3742 56 0
-3742 82 0
3743 -15 -24 -56 -82 0
-3743 15 0
-3743 24 0
-3743 56 0
-3743 82 0
-3741 3742 3743 0
-3742 3741 3743 0
-3743 3741 3742 0
3744 -3 -48 -56 -83 0
-3744 3 0
-3744 48 0
-3744 56 0
-3744 83 0
3745 -3 -48 -62 -74 0
-3745 3 0
-3745 48 0
-3745 62 0
-3745 74 0
3746 -3 -48 -65 -71 0
-3746 3 0
-3746 48 0
-3746 65 0
-3746 71 0
3747 -6 -33 -56 -83 0
-3747 6 0
-3747 33 0
-3747 56 0
-3747 83 0
3748 -6 -33 -62 -74 0
-3748 6 0
-3748 33 0
-3748 62 0
-3748 74 0
3749 -6 -33 -65 -71 0
-3749 6 0
-3749 33 0
-3749 65 0
-3749 71 0
3750 -15 -24 -56 -83 0
-3750 15 0
-3750 24 0
-3750 56 0
-3750 83 0
3751 -15 -24 -62 -74 0
-3751 15 0
-3751 24 0
-3751 62 0
-3751 74 0
3752 -15 -24 -65 -71 0
-3752 15 0
-3752 24 0
-3752 65 0
-3752 71 0
-3744 3745 3746 3747 3748 3749 3750 3751 3752 0
-3745 3744 3746 3747 3748 3749 3750 3751 3752 0
-3746 3744 3745 3747 3748 3749 3750 3751 3752 0
-3747 3744 3745 3746 3748 3749 3750 3751 3752 0
-3748 3744 3745 3746 3747 3749 3750 3751 3752 0
-3749 3744 3745 3746 3747 3748 3750 3751 3752 0
-3750 3744 3745 3746 3747 3748 3749 3751 3752 0
-3751 3744 3745 3746 3747 3748 3749 3750 3752 0
-3752 3744 3745 3746 3747 3748 3749 3750 3751 0
3753 -3 -48 -56 -84 0
-3753 3 0
-3753 48 0
-3753 56 0
-3753 84 0
3754 -3 -51 -56 -81 0
-3754 3 0
-3754 51 0
-3754 56 0
-3754 81 0
3755 -3 -54 -56 -78 0
-3755 3 0
-3755 54 0
-3755 56 0
-3755 78 0
3756 -6 -33 -56 -84 0
-3756 6 0
-3756 33 0
-3756 56 0
-3756 84 0
3757 -6 -36 -56 -81 0
-3757 6 0
-3757 36 0
-3757 56 0
-3757 81 0
3758 -6 -39 -56 -78 0
-3758 6 0
-3758 39 0
-3758 56 0
-3758 78 0
3759 -15 -24 -56 -84 0
-3759 15 0
-3759 24 0
-3759 56 0
-3759 84 0
3760 -15 -36 -54 -56 0
-3760 15 0
-3760 36 0
-3760 54 0
-3760 56 0
3761 -15 -39 -51 -56 0
-3761 15 0
-3761 39 0
-3761 51 0
-3761 56 0
3762 -18 -24 -56 -81 0
-3762 18 0
-3762 24 0
-3762 56 0
-3762 81 0
3763 -18 -33 -54 -56 0
-3763 18 0
-3763 33 0
-3763 54 0
-3763 56 0
3764 -18 -39 -48 -56 0
-3764 18 0
-3764 39 0
-3764 48 0
-3764 56 0
3765 -21 -24 -56 -78 0
-3765 21 0
-3765 24 0
-3765 56 0
-3765 78 0
3766 -21 -33 -51 -56 0
-3766 21 0
-3766 33 0
-3766 51 0
-3766 56 0
3767 -21 -36 -48 -56 0
-3767 21 0
-3767 36 0
-3767 48 0
-3767 56 0
-3753 3754 3755 3756 3757 3758 3759 3760 3761 3762 3763 3764 3765 3766 3767 0
-3754 3753 3755 3756 3757 3758 3759 3760 3761 3762 3763 3764 3765 3766 3767 0
-3755 3753 3754 3756 3757 3758 3759 3760 3761 3762 3763 3764 3765 3766 3767 0
-3756 3753 3754 3755 3757 3758 3759 3760 3761 3762 3763 3764 3765 3766 3767 0
-3757 3753 3754 3755 3756 3758 3759 3760 3761 3762 3763 3764 3765 3766 3767 0
-3758 3753 3754 3755 3756 3757 3759 3760 3761 3762 3763 3764 3765 3766 3767 0
-3759 3753 3754 3755 3756 3757 3758 3760 3761 3762 3763 3764 3765 3766 3767 0
-3760 3753 3754 3755 3756 3757 3758 3759 3761 3762 3763 3764 3765 3766 3767 0
-3761 3753 3754 3755 3756 3757 3758 3759 3760 3762 3763 3764 3765 3766 3767 0
-3762 3753 3754 3755 3756 3757 3758 3759 3760 3761 3763 3764 3765 3766 3767 0
-3763 3753 3754 3755 3756 3757 3758 3759 3760 3761 3762 3764 3765 3766 3767 0
-3764 3753 3754 3755 3756 3757 3758 3759 3760 3761 3762 3763 3765 3766 3767 0
-3765 3753 3754 3755 3756 3757 3758 3759 3760 3761 3762 3763 3764 3766 3767 0
-3766 3753 3754 3755 3756 3757 3758 3759 3760 3761 3762 3763 3764 3765 3767 0
-3767 3753 3754 3755 3756 3757 3758 3759 3760 3761 3762 3763 3764 3765 3766 0
3768 -1 -46 -62 -75 0
-3768 1 0
-3768 46 0
-3768 62 0
-3768 75 0
3769 -4 -31 -62 -75 0
-3769 4 0
-3769 31 0
-3769 62 0
-3769 75 0
3770 -13 -22 -62 -75 0
-3770 13 0
-3770 22 0
-3770 62 0
-3770 75 0
-3768 3769 3770 0
-3769 3768 3770 0
-3770 3768 3769 0
3771 -1 -46 -63 -74 0
-3771 1 0
-3771 46 0
-3771 63 0
-3771 74 0
3772 -4 -31 -63 -74 0
-3772 4 0
-3772 31 0
-3772 63 0
-3772 74 0
3773 -13 -22 -63 -74 0
-3773 13 0
-3773 22 0
-3773 63 0
-3773 74 0
-3771 3772 3773 0
-3772 3771 3773 0
-3773 3771 3772 0
3774 -1 -47 -61 -75 0
-3774 1 0
-3774 47 0
-3774 61 0
-3774 75 0
3775 -7 -34 -47 -75 0
-3775 7 0
-3775 34 0
-3775 47 0
-3775 75 0
3776 -16 -25 -47 -75 0
-3776 16 0
-3776 25 0
-3776 47 0
-3776 75 0
-3774 3775 3776 0
-3775 3774 3776 0
-3776 3774 3775 0
3777 -1 -47 -63 -73 0
-3777 1 0
-3777 47 0
-3777 63 0
-3777 73 0
3778 -10 -37 -47 -63 0
-3778 10 0
-3778 37 0
-3778 47 0
-3778 63 0
3779 -19 -28 -47 -63 0
-3779 19 0
-3779 28 0
-3779 47 0
-3779 63 0
-3777 3778 3779 0
-3778 3777 3779 0
-3779 3777 3778 0
3780 -1 -48 -61 -74 0
-3780 1 0
-3780 48 0
-3780 61 0
-3780 74 0
3781 -7 -34 -48 -74 0
-3781 7 0
-3781 34 0
-3781 48 0
-3781 74 0
3782 -16 -25 -48 -74 0
-3782 16 0
-3782 25 0
-3782 48 0
-3782 74 0
-3780 3781 3782 0
-3781 3780 3782 0
-3782 3780 3781 0
3783 -1 -48 -62 -73 0
-3783 1 0
-3783 48 0
-3783 62 0
-3783 73 0
3784 -10 -37 -48 -62 0
-3784 10 0
-3784 37 0
-3784 48 0
-3784 62 0
3785 -19 -28 -48 -62 0
-3785 19 0
-3785 28 0
-3785 48 0
-3785 62 0
-3783 3784 3785 0
-3784 3783 3785 0
-3785 3783 3784 0
3786 -2 -46 -62 -75 0
-3786 2 0
-3786 46 0
-3786 62 0
-3786 75 0
3787 -8 -35 -46 -75 0
-3787 8 0
-3787 35 0
-3787 46 0
-3787 75 0
3788 -17 -26 -46 -75 0
-3788 17 0
-3788 26 0
-3788 46 0
-3788 75 0
-3786 3787 3788 0
-3787 3786 3788 0
-3788 3786 3787 0
3789 -2 -46 -63 -74 0
-3789 2 0
-3789 46 0
-3789 63 0
-3789 74 0
3790 -11 -38 -46 -63 0
-3790 11 0
-3790 38 0
-3790 46 0
-3790 63 0
3791 -20 -29 -46 -63 0
-3791 20 0
-3791 29 0
-3791 46 0
-3791 63 0
-3789 3790 3791 0
-3790 3789 3791 0
-3791 3789 3790 0
3792 -2 -47 -61 -75 0
-3792 2 0
-3792 47 0
-3792 61 0
-3792 75 0
3793 -5 -32 -61 -75 0
-3793 5 0
-3793 32 0
-3793 61 0
-3793 75 0
3794 -14 -23 -61 -75 0
-3794 14 0
-3794 23 0
-3794 61 0
-3794 75 0
-3792 3793 3794 0
-3793 3792 3794 0
-3794 3792 3793 0
3795 -2 -47 -63 -73 0
-3795 2 0
-3795 47 0
-3795 63 0
-3795 73 0
3796 -5 -32 -63 -73 0
-3796 5 0
-3796 32 0
-3796 63 0
-3796 73 0
3797 -14 -23 -63 -73 0
-3797 14 0
-3797 23 0
-3797 63 0
-3797 73 0
-3795 3796 3797 0
-3796 3795 3797 0
-3797 3795 3796 0
3798 -2 -48 -61 -74 0
-3798 2 0
-3798 48 0
-3798 61 0
-3798 74 0
3799 -11 -38 -48 -61 0
-3799 11 0
-3799 38 0
-3799 48 0
-3799 61 0
3800 -20 -29 -48 -61 0
-3800 20 0
-3800 29 0
-3800 48 0
-3800 61 0
-3798 3799 3800 0
-3799 3798 3800 0
-3800 3798 3799 0
3801 -2 -48 -62 -73 0
-3801 2 0
-3801 48 0
-3801 62 0
-3801 73 0
3802 -8 -35 -48 -73 0
-3802 8 0
-3802 35 0
-3802 48 0
-3802 73 0
3803 -17 -26 -48 -73 0
-3803 17 0
-3803 26 0
-3803 48 0
-3803 73 0
-3801 3802 3803 0
-3802 3801 3803 0
-3803 3801 3802 0
3804 -3 -46 -62 -75 0
-3804 3 0
-3804 46 0
-3804 62 0
-3804 75 0
3805 -12 -39 -46 -62 0
-3805 12 0
-3805 39 0
-3805 46 0
-3805 62 0
3806 -21 -30 -46 -62 0
-3806 21 0
-3806 30 0
-3806 46 0
-3806 62 0
-3804 3805 3806 0
-3805 3804 3806 0
-3806 3804 3805 0
3807 -3 -46 -63 -74 0
-3807 3 0
-3807 46 0
-3807 63 0
-3807 74 0
3808 -9 -36 -46 -74 0
-3808 9 0
-3808 36 0
-3808 46 0
-3808 74 0
3809 -18 -27 -46 -74 0
-3809 18 0
-3809 27 0
-3809 46 0
-3809 74 0
-3807 3808 3809 0
-3808 3807 3809 0
-3809 3807 3808 0
3810 -3 -47 -61 -75 0
-3810 3 0
-3810 47 0
-3810 61 0
-3810 75 0
3811 -12 -39 -47 -61 0
-3811 12 0
-3811 39 0
-3811 47 0
-3811 61 0
3812 -21 -30 -47 -61 0
-3812 21 0
-3812 30 0
-3812 47 0
-3812 61 0
-3810 3811 3812 0
-3811 3810 3812 0
-3812 3810 3811 0
3813 -3 -47 -63 -73 0
-3813 3 0
-3813 47 0
-3813 63 0
-3813 73 0
3814 -9 -36 -47 -73 0
-3814 9 0
-3814 36 0
-3814 47 0
-3814 73 0
3815 -18 -27 -47 -73 0
-3815 18 0
-3815 27 0
-3815 47 0
-3815 73 0
-3813 3814 3815 0
-3814 3813 3815 0
-3815 3813 3814 0
3816 -3 -48 -61 -74 0
-3816 3 0
-3816 48 0
-3816 61 0
-3816 74 0
3817 -6 -33 -61 -74 0
-3817 6 0
-3817 33 0
-3817 61 0
-3817 74 0
3818 -15 -24 -61 -74 0
-3818 15 0
-3818 24 0
-3818 61 0
-3818 74 0
-3816 3817 3818 0
-3817 3816 3818 0
-3818 3816 3817 0
3819 -3 -48 -62 -73 0
-3819 3 0
-3819 48 0
-3819 62 0
-3819 73 0
3820 -6 -33 -62 -73 0
-3820 6 0
-3820 33 0
-3820 62 0
-3820 73 0
3821 -15 -24 -62 -73 0
-3821 15 0
-3821 24 0
-3821 62 0
-3821 73 0
-3819 3820 3821 0
-3820 3819 3821 0
-3821 3819 3820 0
3822 -1 -46 -65 -72 0
-3822 1 0
-3822 46 0
-3822 65 0
-3822 72 0
3823 -4 -31 -65 -72 0
-3823 4 0
-3823 31 0
-3823 65 0
-3823 72 0
3824 -13 -22 -65 -72 0
-3824 13 0
-3824 22 0
-3824 65 0
-3824 72 0
-3822 3823 3824 0
-3823 3822 3824 0
-3824 3822 3823 0
3825 -1 -46 -66 -71 0
-3825 1 0
-3825 46 0
-3825 66 0
-3825 71 0
3826 -4 -31 -66 -71 0
-3826 4 0
-3826 31 0
-3826 66 0
-3826 71 0
3827 -13 -22 -66 -71 0
-3827 13 0
-3827 22 0
-3827 66 0
-3827 71 0
-3825 3826 3827 0
-3826 3825 3827 0
-3827 3825 3826 0
3828 -1 -47 -64 -72 0
-3828 1 0
-3828 47 0
-3828 64 0
-3828 72 0
3829 -7 -37 -47 -72 0
-3829 7 0
-3829 37 0
-3829 47 0
-3829 72 0
3830 -19 -25 -47 -72 0
-3830 19 0
-3830 25 0
-3830 47 0
-3830 72 0
-3828 3829 3830 0
-3829 3828 3830 0
-3830 3828 3829 0
3831 -1 -47 -66 -70 0
-3831 1 0
-3831 47 0
-3831 66 0
-3831 70 0
3832 -10 -34 -47 -66 0
-3832 10 0
-3832 34 0
-3832 47 0
-3832 66 0
3833 -16 -28 -47 -66 0
-3833 16 0
-3833 28 0
-3833 47 0
-3833 66 0
-3831 3832 3833 0
-3832 3831 3833 0
-3833 3831 3832 0
3834 -1 -48 -64 -71 0
-3834 1 0
-3834 48 0
-3834 64 0
-3834 71 0
3835 -7 -37 -48 -71 0
-3835 7 0
-3835 37 0
-3835 48 0
-3835 71 0
3836 -19 -25 -48 -71 0
-3836 19 0
-3836 25 0
-3836 48 0
-3836 71 0
-3834 3835 3836 0
-3835 3834 3836 0
-3836 3834 3835 0
3837 -1 -48 -65 -70 0
-3837 1 0
-3837 48 0
-3837 65 0
-3837 70 0
3838 -10 -34 -48 -65 0
-3838 10 0
-3838 34 0
-3838 48 0
-3838 65 0
3839 -16 -28 -48 -65 0
-3839 16 0
-3839 28 0
-3839 48 0
-3839 65 0
-3837 3838 3839 0
-3838 3837 3839 0
-3839 3837 3838 0
3840 -2 -46 -65 -72 0
-3840 2 0
-3840 46 0
-3840 65 0
-3840 72 0
3841 -8 -38 -46 -72 0
-3841 8 0
-3841 38 0
-3841 46 0
-3841 72 0
3842 -20 -26 -46 -72 0
-3842 20 0
-3842 26 0
-3842 46 0
-3842 72 0
-3840 3841 3842 0
-3841 3840 3842 0
-3842 3840 3841 0
3843 -2 -46 -66 -71 0
-3843 2 0
-3843 46 0
-3843 66 0
-3843 71 0
3844 -11 -35 -46 -66 0
-3844 11 0
-3844 35 0
-3844 46 0
-3844 66 0
3845 -17 -29 -46 -66 0
-3845 17 0
-3845 29 0
-3845 46 0
-3845 66 0
-3843 3844 3845 0
-3844 3843 3845 0
-3845 3843 3844 0
3846 -2 -47 -64 -72 0
-3846 2 0
-3846 47 0
-3846 64 0
-3846 72 0
3847 -5 -32 -64 -72 0
-3847 5 0
-3847 32 0
-3847 64 0
-3847 72 0
3848 -14 -23 -64 -72 0
-3848 14 0
-3848 23 0
-3848 64 0
-3848 72 0
-3846 3847 3848 0
-3847 3846 3848 0
-3848 3846 3847 0
3849 -2 -47 -66 -70 0
-3849 2 0
-3849 47 0
-3849 66 0
-3849 70 0
3850 -5 -32 -66 -70 0
-3850 5 0
-3850 32 0
-3850 66 0
-3850 70 0
3851 -14 -23 -66 -70 0
-3851 14 0
-3851 23 0
-3851 66 0
-3851 70 0
-3849 3850 3851 0
-3850 3849 3851 0
-3851 3849 3850 0
3852 -2 -48 -64 -71 0
-3852 2 0
-3852 48 0
-3852 64 0
-3852 71 0
3853 -11 -35 -48 -64 0
-3853 11 0
-3853 35 0
-3853 48 0
-3853 64 0
3854 -17 -29 -48 -64 0
-3854 17 0
-3854 29 0
-3854 48 0
-3854 64 0
-3852 3853 3854 0
-3853 3852 3854 0
-3854 3852 3853 0
3855 -2 -48 -65 -70 0
-3855 2 0
-3855 48 0
-3855 65 0
-3855 70 0
3856 -8 -38 -48 -70 0
-3856 8 0
-3856 38 0
-3856 48 0
-3856 70 0
3857 -20 -26 -48 -70 0
-3857 20 0
-3857 26 0
-3857 48 0
-3857 70 0
-3855 3856 3857 0
-3856 3855 3857 0
-3857 3855 3856 0
3858 -3 -46 -65 -72 0
-3858 3 0
-3858 46 0
-3858 65 0
-3858 72 0
3859 -12 -36 -46 -65 0
-3859 12 0
-3859 36 0
-3859 46 0
-3859 65 0
3860 -18 -30 -46 -65 0
-3860 18 0
-3860 30 0
-3860 46 0
-3860 65 0
-3858 3859 3860 0
-3859 3858 3860 0
-3860 3858 3859 0
3861 -3 -46 -66 -71 0
-3861 3 0
-3861 46 0
-3861 66 0
-3861 71 0
3862 -9 -39 -46 -71 0
-3862 9 0
-3862 39 0
-3862 46 0
-3862 71 0
3863 -21 -27 -46 -71 0
-3863 21 0
-3863 27 0
-3863 46 0
-3863 71 0
-3861 3862 3863 0
-3862 3861 3863 0
-3863 3861 3862 0
3864 -3 -47 -64 -72 0
-3864 3 0
-3864 47 0
-3864 64 0
-3864 72 0
3865 -12 -36 -47 -64 0
-3865 12 0
-3865 36 0
-3865 47 0
-3865 64 0
3866 -18 -30 -47 -64 0
-3866 18 0
-3866 30 0
-3866 47 0
-3866 64 0
-3864 3865 3866 0
-3865 3864 3866 0
-3866 3864 3865 0
3867 -3 -47 -66 -70 0
-3867 3 0
-3867 47 0
-3867 66 0
-3867 70 0
3868 -9 -39 -47 -70 0
-3868 9 0
-3868 39 0
-3868 47 0
-3868 70 0
3869 -21 -27 -47 -70 0
-3869 21 0
-3869 27 0
-3869 47 0
-3869 70 0
-3867 3868 3869 0
-3868 3867 3869 0
-3869 3867 3868 0
3870 -3 -48 -64 -71 0
-3870 3 0
-3870 48 0
-3870 64 0
-3870 71 0
3871 -6 -33 -64 -71 0
-3871 6 0
-3871 33 0
-3871 64 0
-3871 71 0
3872 -15 -24 -64 -71 0
-3872 15 0
-3872 24 0
-3872 64 0
-3872 71 0
-3870 3871 3872 0
-3871 3870 3872 0
-3872 3870 3871 0
3873 -3 -48 -65 -70 0
-3873 3 0
-3873 48 0
-3873 65 0
-3873 70 0
3874 -6 -33 -65 -70 0
-3874 6 0
-3874 33 0
-3874 65 0
-3874 70 0
3875 -15 -24 -65 -70 0
-3875 15 0
-3875 24 0
-3875 65 0
-3875 70 0
-3873 3874 3875 0
-3874 3873 3875 0
-3875 3873 3874 0
3876 -1 -49 -56 -80 0
-3876 1 0
-3876 49 0
-3876 56 0
-3876 80 0
3877 -1 -49 -59 -74 0
-3877 1 0
-3877 49 0
-3877 59 0
-3877 74 0
3878 -1 -49 -65 -68 0
-3878 1 0
-3878 49 0
-3878 65 0
-3878 68 0
3879 -4 -34 -56 -80 0
-3879 4 0
-3879 34 0
-3879 56 0
-3879 80 0
3880 -4 -34 -59 -74 0
-3880 4 0
-3880 34 0
-3880 59 0
-3880 74 0
3881 -4 -34 -65 -68 0
-3881 4 0
-3881 34 0
-3881 65 0
-3881 68 0
3882 -16 -22 -56 -80 0
-3882 16 0
-3882 22 0
-3882 56 0
-3882 80 0
3883 -16 -22 -59 -74 0
-3883 16 0
-3883 22 0
-3883 59 0
-3883 74 0
3884 -16 -22 -65 -68 0
-3884 16 0
-3884 22 0
-3884 65 0
-3884 68 0
-3876 3877 3878 3879 3880 3881 3882 3883 3884 0
-3877 3876 3878 3879 3880 3881 3882 3883 3884 0
-3878 3876 3877 3879 3880 3881 3882 3883 3884 0
-3879 3876 3877 3878 3880 3881 3882 3883 3884 0
-3880 3876 3877 3878 3879 3881 3882 3883 3884 0
-3881 3876 3877 3878 3879 3880 3882 3883 3884 0
-3882 3876 3877 3878 3879 3880 3881 3883 3884 0
-3883 3876 3877 3878 3879 3880 3881 3882 3884 0
-3884 3876 3877 3878 3879 3880 3881 3882 3883 0
3885 -1 -49 -56 -81 0
-3885 1 0
-3885 49 0
-3885 56 0
-3885 81 0
3886 -4 -34 -56 -81 0
-3886 4 0
-3886 34 0
-3886 56 0
-3886 81 0
3887 -16 -22 -56 -81 0
-3887 16 0
-3887 22 0
-3887 56 0
-3887 81 0
-3885 3886 3887 0
-3886 3885 3887 0
-3887 3885 3886 0
3888 -1 -49 -57 -80 0
-3888 1 0
-3888 49 0
-3888 57 0
-3888 80 0
3889 -4 -34 -57 -80 0
-3889 4 0
-3889 34 0
-3889 57 0
-3889 80 0
3890 -16 -22 -57 -80 0
-3890 16 0
-3890 22 0
-3890 57 0
-3890 80 0
-3888 3889 3890 0
-3889 3888 3890 0
-3890 3888 3889 0
3891 -1 -49 -57 -81 0
-3891 1 0
-3891 49 0
-3891 57 0
-3891 81 0
3892 -1 -49 -60 -75 0
-3892 1 0
-3892 49 0
-3892 60 0
-3892 75 0
3893 -1 -49 -66 -69 0
-3893 1 0
-3893 49 0
-3893 66 0
-3893 69 0
3894 -4 -34 -57 -81 0
-3894 4 0
-3894 34 0
-3894 57 0
-3894 81 0
3895 -4 -34 -60 -75 0
-3895 4 0
-3895 34 0
-3895 60 0
-3895 75 0
3896 -4 -34 -66 -69 0
-3896 4 0
-3896 34 0
-3896 66 0
-3896 69 0
3897 -16 -22 -57 -81 0
-3897 16 0
-3897 22 0
-3897 57 0
-3897 81 0
3898 -16 -22 -60 -75 0
-3898 16 0
-3898 22 0
-3898 60 0
-3898 75 0
3899 -16 -22 -66 -69 0
-3899 16 0
-3899 22 0
-3899 66 0
-3899 69 0
-3891 3892 3893 3894 3895 3896 3897 3898 3899 0
-3892 3891 3893 3894 3895 3896 3897 3898 3899 0
-3893 3891 3892 3894 3895 3896 3897 3898 3899 0
-3894 3891 3892 3893 3895 3896 3897 3898 3899 0
-3895 3891 3892 3893 3894 3896 3897 3898 3899 0
-3896 3891 3892 3893 3894 3895 3897 3898 3899 0
-3897 3891 3892 3893 3894 3895 3896 3898 3899 0
-3898 3891 3892 3893 3894 3895 3896 3897 3899 0
-3899 3891 3892 3893 3894 3895 3896 3897 3898 0
3900 -1 -50 -55 -79 0
-3900 1 0
-3900 50 0
-3900 55 0
-3900 79 0
3901 -1 -50 -58 -73 0
-3901 1 0
-3901 50 0
-3901 58 0
-3901 73 0
3902 -1 -50 -64 -67 0
-3902 1 0
-3902 50 0
-3902 64 0
-3902 67 0
3903 -7 -28 -50 -79 0
-3903 7 0
-3903 28 0
-3903 50 0
-3903 79 0
3904 -7 -31 -50 -73 0
-3904 7 0
-3904 31 0
-3904 50 0
-3904 73 0
3905 -7 -37 -50 -67 0
-3905 7 0
-3905 37 0
-3905 50 0
-3905 67 0
3906 -10 -25 -50 -79 0
-3906 10 0
-3906 25 0
-3906 50 0
-3906 79 0
3907 -10 -31 -50 -64 0
-3907 10 0
-3907 31 0
-3907 50 0
-3907 64 0
3908 -10 -37 -50 -58 0
-3908 10 0
-3908 37 0
-3908 50 0
-3908 58 0
3909 -13 -25 -50 -73 0
-3909 13 0
-3909 25 0
-3909 50 0
-3909 73 0
3910 -13 -28 -50 -64 0
-3910 13 0
-3910 28 0
-3910 50 0
-3910 64 0
3911 -13 -37 -50 -55 0
-3911 13 0
-3911 37 0
-3911 50 0
-3911 55 0
3912 -19 -25 -50 -67 0
-3912 19 0
-3912 25 0
-3912 50 0
-3912 67 0
3913 -19 -28 -50 -58 0
-3913 19 0
-3913 28 0
-3913 50 0
-3913 58 0
3914 -19 -31 -50 -55 0
-3914 19 0
-3914 31 0
-3914 50 0
-3914 55 0
-3900 3901 3902 3903 3904 3905 3906 3907 3908 3909 3910 3911 3912 3913 3914 0
-3901 3900 3902 3903 3904 3905 3906 3907 3908 3909 3910 3911 3912 3913 3914 0
-3902 3900 3901 3903 3904 3905 3906 3907 3908 3909 3910 3911 3912 3913 3914 0
-3903 3900 3901 3902 3904 3905 3906 3907 3908 3909 3910 3911 3912 3913 3914 0
-3904 3900 3901 3902 3903 3905 3906 3907 3908 3909 3910 3911 3912 3913 3914 0
-3905 3900 3901 3902 3903 3904 3906 3907 3908 3909 3910 3911 3912 3913 3914 0
-3906 3900 3901 3902 3903 3904 3905 3907 3908 3909 3910 3911 3912 3913 3914 0
-3907 3900 3901 3902 3903 3904 3905 3906 3908 3909 3910 3911 3912 3913 3914 0
-3908 3900 3901 3902 3903 3904 3905 3906 3907 3909 3910 3911 3912 3913 3914 0
-3909 3900 3901 3902 3903 3904 3905 3906 3907 3908 3910 3911 3912 3913 3914 0
-3910 3900 3901 3902 3903 3904 3905 3906 3907 3908 3909 3911 3912 3913 3914 0
-3911 3900 3901 3902 3903 3904 3905 3906 3907 3908 3909 3910 3912 3913 3914 0
-3912 3900 3901 3902 3903 3904 3905 3906 3907 3908 3909 3910 3911 3913 3914 0
-3913 3900 3901 3902 3903 3904 3905 3906 3907 3908 3909 3910 3911 3912 3914 0
-3914 3900 3901 3902 3903 3904 3905 3906 3907 3908 3909 3910 3911 3912 3913 0
3915 -1 -50 -55 -81 0
-3915 1 0
-3915 50 0
-3915 55 0
-3915 81 0
3916 -7 -28 -50 -81 0
-3916 7 0
-3916 28 0
-3916 50 0
-3916 81 0
3917 -10 -25 -50 -81 0
-3917 10 0
-3917 25 0
-3917 50 0
-3917 81 0
-3915 3916 3917 0
-3916 3915 3917 0
-3917 3915 3916 0
3918 -1 -50 -57 -79 0
-3918 1 0
-3918 50 0
-3918 57 0
-3918 79 0
3919 -13 -37 -50 -57 0
-3919 13 0
-3919 37 0
-3919 50 0
-3919 57 0
3920 -19 -31 -50 -57 0
-3920 19 0
-3920 31 0
-3920 50 0
-3920 57 0
-3918 3919 3920 0
-3919 3918 3920 0
-3920 3918 3919 0
3921 -1 -50 -57 -81 0
-3921 1 0
-3921 50 0
-3921 57 0
-3921 81 0
3922 -1 -50 -60 -75 0
-3922 1 0
-3922 50 0
-3922 60 0
-3922 75 0
3923 -1 -50 -66 -69 0
-3923 1 0
-3923 50 0
-3923 66 0
-3923 69 0
-3921 3922 3923 0
-3922 3921 3923 0
-3923 3921 3922 0
3924 -1 -51 -55 -79 0
-3924 1 0
-3924 51 0
-3924 55 0
-3924 79 0
3925 -1 -51 -58 -73 0
-3925 1 0
-3925 51 0
-3925 58 0
-3925 73 0
3926 -1 -51 -64 -67 0
-3926 1 0
-3926 51 0
-3926 64 0
-3926 67 0
3927 -7 -28 -51 -79 0
-3927 7 0
-3927 28 0
-3927 51 0
-3927 79 0
3928 -7 -31 -51 -73 0
-3928 7 0
-3928 31 0
-3928 51 0
-3928 73 0
3929 -7 -37 -51 -67 0
-3929 7 0
-3929 37 0
-3929 51 0
-3929 67 0
3930 -10 -25 -51 -79 0
-3930 10 0
-3930 25 0
-3930 51 0
-3930 79 0
3931 -10 -31 -51 -64 0
-3931 10 0
-3931 31 0
-3931 51 0
-3931 64 0
3932 -10 -37 -51 -58 0
-3932 10 0
-3932 37 0
-3932 51 0
-3932 58 0
3933 -13 -25 -51 -73 0
-3933 13 0
-3933 25 0
-3933 51 0
-3933 73 0
3934 -13 -28 -51 -64 0
-3934 13 0
-3934 28 0
-3934 51 0
-3934 64 0
3935 -13 -37 -51 -55 0
-3935 13 0
-3935 37 0
-3935 51 0
-3935 55 0
3936 -19 -25 -51 -67 0
-3936 19 0
-3936 25 0
-3936 51 0
-3936 67 0
3937 -19 -28 -51 -58 0
-3937 19 0
-3937 28 0
-3937 51 0
-3937 58 0
3938 -19 -31 -51 -55 0
-3938 19 0
-3938 31 0
-3938 51 0
-3938 55 0
-3924 3925 3926 3927 3928 3929 3930 3931 3932 3933 3934 3935 3936 3937 3938 0
-3925 3924 3926 3927 3928 3929 3930 3931 3932 3933 3934 3935 3936 3937 3938 0
-3926 3924 3925 3927 3928 3929 3930 3931 3932 3933 3934 3935 3936 3937 3938 0
-3927 3924 3925 3926 3928 3929 3930 3931 3932 3933 3934 3935 3936 3937 3938 0
-3928 3924 3925 3926 3927 3929 3930 3931 3932 3933 3934 3935 3936 3937 3938 0
-3929 3924 3925 3926 3927 3928 3930 3931 3932 3933 3934 3935 3936 3937 3938 0
-3930 3924 3925 3926 3927 3928 3929 3931 3932 3933 3934 3935 3936 3937 3938 0
-3931 3924 3925 3926 3927 3928 3929 3930 3932 3933 3934 3935 3936 3937 3938 0
-3932 3924 3925 3926 3927 3928 3929 3930 3931 3933 3934 3935 3936 3937 3938 0
-3933 3924 3925 3926 3927 3928 3929 3930 3931 3932 3934 3935 3936 3937 3938 0
-3934 3924 3925 3926 3927 3928 3929 3930 3931 3932 3933 3935 3936 3937 3938 0
-3935 3924 3925 3926 3927 3928 3929 3930 3931 3932 3933 3934 3936 3937 3938 0
-3936 3924 3925 3926 3927 3928 3929 3930 3931 3932 3933 3934 3935 3937 3938 0
-3937 3924 3925 3926 3927 3928 3929 3930 3931 3932 3933 3934 3935 3936 3938 0
-3938 3924 3925 3926 3927 3928 3929 3930 3931 3932 3933 3934 3935 3936 3937 0
3939 -1 -51 -55 -80 0
-3939 1 0
-3939 51 0
-3939 55 0
-3939 80 0
3940 -7 -28 -51 -80 0
-3940 7 0
-3940 28 0
-3940 51 0
-3940 80 0
3941 -10 -25 -51 -80 0
-3941 10 0
-3941 25 0
-3941 51 0
-3941 80 0
-3939 3940 3941 0
-3940 3939 3941 0
-3941 3939 3940 0
3942 -1 -51 -56 -79 0
-3942 1 0
-3942 51 0
-3942 56 0
-3942 79 0
3943 -13 -37 -51 -56 0
-3943 13 0
-3943 37 0
-3943 51 0
-3943 56 0
3944 -19 -31 -51 -56 0
-3944 19 0
-3944 31 0
-3944 51 0
-3944 56 0
-3942 3943 3944 0
-3943 3942 3944 0
-3944 3942 3943 0
3945 -1 -51 -56 -80 0
-3945 1 0
-3945 51 0
-3945 56 0
-3945 80 0
3946 -1 -51 -59 -74 0
-3946 1 0
-3946 51 0
-3946 59 0
-3946 74 0
3947 -1 -51 -65 -68 0
-3947 1 0
-3947 51 0
-3947 65 0
-3947 68 0
-3945 3946 3947 0
-3946 3945 3947 0
-3947 3945 3946 0
3948 -2 -49 -56 -80 0
-3948 2 0
-3948 49 0
-3948 56 0
-3948 80 0
3949 -2 -49 -59 -74 0
-3949 2 0
-3949 49 0
-3949 59 0
-3949 74 0
3950 -2 -49 -65 -68 0
-3950 2 0
-3950 49 0
-3950 65 0
-3950 68 0
3951 -8 -29 -49 -80 0
-3951 8 0
-3951 29 0
-3951 49 0
-3951 80 0
3952 -8 -32 -49 -74 0
-3952 8 0
-3952 32 0
-3952 49 0
-3952 74 0
3953 -8 -38 -49 -68 0
-3953 8 0
-3953 38 0
-3953 49 0
-3953 68 0
3954 -11 -26 -49 -80 0
-3954 11 0
-3954 26 0
-3954 49 0
-3954 80 0
3955 -11 -32 -49 -65 0
-3955 11 0
-3955 32 0
-3955 49 0
-3955 65 0
3956 -11 -38 -49 -59 0
-3956 11 0
-3956 38 0
-3956 49 0
-3956 59 0
3957 -14 -26 -49 -74 0
-3957 14 0
-3957 26 0
-3957 49 0
-3957 74 0
3958 -14 -29 -49 -65 0
-3958 14 0
-3958 29 0
-3958 49 0
-3958 65 0
3959 -14 -38 -49 -56 0
-3959 14 0
-3959 38 0
-3959 49 0
-3959 56 0
3960 -20 -26 -49 -68 0
-3960 20 0
-3960 26 0
-3960 49 0
-3960 68 0
3961 -20 -29 -49 -59 0
-3961 20 0
-3961 29 0
-3961 49 0
-3961 59 0
3962 -20 -32 -49 -56 0
-3962 20 0
-3962 32 0
-3962 49 0
-3962 56 0
-3948 3949 3950 3951 3952 3953 3954 3955 3956 3957 3958 3959 3960 3961 3962 0
-3949 3948 3950 3951 3952 3953 3954 3955 3956 3957 3958 3959 3960 3961 3962 0
-3950 3948 3949 3951 3952 3953 3954 3955 3956 3957 3958 3959 3960 3961 3962 0
-3951 3948 3949 3950 3952 3953 3954 3955 3956 3957 3958 3959 3960 3961 3962 0
-3952 3948 3949 3950 3951 3953 3954 3955 3956 3957 3958 3959 3960 3961 3962 0
-3953 3948 3949 3950 3951 3952 3954 3955 3956 3957 3958 3959 3960 3961 3962 0
-3954 3948 3949 3950 3951 3952 3953 3955 3956 3957 3958 3959 3960 3961 3962 0
-3955 3948 3949 3950 3951 3952 3953 3954 3956 3957 3958 3959 3960 3961 3962 0
-3956 3948 3949 3950 3951 3952 3953 3954 3955 3957 3958 3959 3960 3961 3962 0
-3957 3948 3949 3950 3951 3952 3953 3954 3955 3956 3958 3959 3960 3961 3962 0
-3958 3948 3949 3950 3951 3952 3953 3954 3955 3956 3957 3959 3960 3961 3962 0
-3959 3948 3949 3950 3951 3952 3953 3954 3955 3956 3957 3958 3960 3961 3962 0
-3960 3948 3949 3950 3951 3952 3953 3954 3955 3956 3957 3958 3959 3961 3962 0
-3961 3948 3949 3950 3951 3952 3953 3954 3955 3956 3957 3958 3959 3960 3962 0
-3962 3948 3949 3950 3951 3952 3953 3954 3955 3956 3957 3958 3959 3960 3961 0
3963 -2 -49 -56 -81 0
-3963 2 0
-3963 49 0
-3963 56 0
-3963 81 0
3964 -8 -29 -49 -81 0
-3964 8 0
-3964 29 0
-3964 49 0
-3964 81 0
3965 -11 -26 -49 -81 0
-3965 11 0
-3965 26 0
-3965 49 0
-3965 81 0
-3963 3964 3965 0
-3964 3963 3965 0
-3965 3963 3964 0
3966 -2 -49 -57 -80 0
-3966 2 0
-3966 49 0
-3966 57 0
-3966 80 0
3967 -14 -38 -49 -57 0
-3967 14 0
-3967 38 0
-3967 49 0
-3967 57 0
3968 -20 -32 -49 -57 0
-3968 20 0
-3968 32 0
-3968 49 0
-3968 57 0
-3966 3967 3968 0
-3967 3966 3968 0
-3968 3966 3967 0
3969 -2 -49 -57 -81 0
-3969 2 0
-3969 49 0
-3969 57 0
-3969 81 0
3970 -2 -49 -60 -75 0
-3970 2 0
-3970 49 0
-3970 60 0
-3970 75 0
3971 -2 -49 -66 -69 0
-3971 2 0
-3971 49 0
-3971 66 0
-3971 69 0
-3969 3970 3971 0
-3970 3969 3971 0
-3971 3969 3970 0
3972 -2 -50 -55 -79 0
-3972 2 0
-3972 50 0
-3972 55 0
-3972 79 0
3973 -2 -50 -58 -73 0
-3973 2 0
-3973 50 0
-3973 58 0
-3973 73 0
3974 -2 -50 -64 -67 0
-3974 2 0
-3974 50 0
-3974 64 0
-3974 67 0
3975 -5 -35 -55 -79 0
-3975 5 0
-3975 35 0
-3975 55 0
-3975 79 0
3976 -5 -35 -58 -73 0
-3976 5 0
-3976 35 0
-3976 58 0
-3976 73 0
3977 -5 -35 -64 -67 0
-3977 5 0
-3977 35 0
-3977 64 0
-3977 67 0
3978 -17 -23 -55 -79 0
-3978 17 0
-3978 23 0
-3978 55 0
-3978 79 0
3979 -17 -23 -58 -73 0
-3979 17 0
-3979 23 0
-3979 58 0
-3979 73 0
3980 -17 -23 -64 -67 0
-3980 17 0
-3980 23 0
-3980 64 0
-3980 67 0
-3972 3973 3974 3975 3976 3977 3978 3979 3980 0
-3973 3972 3974 3975 3976 3977 3978 3979 3980 0
-3974 3972 3973 3975 3976 3977 3978 3979 3980 0
-3975 3972 3973 3974 3976 3977 3978 3979 3980 0
-3976 3972 3973 3974 3975 3977 3978 3979 3980 0
-3977 3972 3973 3974 3975 3976 3978 3979 3980 0
-3978 3972 3973 3974 3975 3976 3977 3979 3980 0
-3979 3972 3973 3974 3975 3976 3977 3978 3980 0
-3980 3972 3973 3974 3975 3976 3977 3978 3979 0
3981 -2 -50 -55 -81 0
-3981 2 0
-3981 50 0
-3981 55 0
-3981 81 0
3982 -5 -35 -55 -81 0
-3982 5 0
-3982 35 0
-3982 55 0
-3982 81 0
3983 -17 -23 -55 -81 0
-3983 17 0
-3983 23 0
-3983 55 0
-3983 81 0
-3981 3982 3983 0
-3982 3981 3983 0
-3983 3981 3982 0
3984 -2 -50 -57 -79 0
-3984 2 0
-3984 50 0
-3984 57 0
-3984 79 0
3985 -5 -35 -57 -79 0
-3985 5 0
-3985 35 0
-3985 57 0
-3985 79 0
3986 -17 -23 -57 -79 0
-3986 17 0
-3986 23 0
-3986 57 0
-3986 79 0
-3984 3985 3986 0
-3985 3984 3986 0
-3986 3984 3985 0
3987 -2 -50 -57 -81 0
-3987 2 0
-3987 50 0
-3987 57 0
-3987 81 0
3988 -2 -50 -60 -75 0
-3988 2 0
-3988 50 0
-3988 60 0
-3988 75 0
3989 -2 -50 -66 -69 0
-3989 2 0
-3989 50 0
-3989 66 0
-3989 69 0
3990 -5 -35 -57 -81 0
-3990 5 0
-3990 35 0
-3990 57 0
-3990 81 0
3991 -5 -35 -60 -75 0
-3991 5 0
-3991 35 0
-3991 60 0
-3991 75 0
3992 -5 -35 -66 -69 0
-3992 5 0
-3992 35 0
-3992 66 0
-3992 69 0
3993 -17 -23 -57 -81 0
-3993 17 0
-3993 23 0
-3993 57 0
-3993 81 0
3994 -17 -23 -60 -75 0
-3994 17 0
-3994 23 0
-3994 60 0
-3994 75 0
3995 -17 -23 -66 -69 0
-3995 17 0
-3995 23 0
-3995 66 0
-3995 69 0
-3987 3988 3989 3990 3991 3992 3993 3994 3995 0
-3988 3987 3989 3990 3991 3992 3993 3994 3995 0
-3989 3987 3988 3990 3991 3992 3993 3994 3995 0
-3990 3987 3988 3989 3991 3992 3993 3994 3995 0
-3991 3987 3988 3989 3990 3992 3993 3994 3995 0
-3992 3987 3988 3989 3990 3991 3993 3994 3995 0
-3993 3987 3988 3989 3990 3991 3992 3994 3995 0
-3994 3987 3988 3989 3990 3991 3992 3993 3995 0
-3995 3987 3988 3989 3990 3991 3992 3993 3994 0
3996 -2 -51 -55 -79 0
-3996 2 0
-3996 51 0
-3996 55 0
-3996 79 0
3997 -2 -51 -58 -73 0
-3997 2 0
-3997 51 0
-3997 58 0
-3997 73 0
3998 -2 -51 -64 -67 0
-3998 2 0
-3998 51 0
-3998 64 0
-3998 67 0
-3996 3997 3998 0
-3997 3996 3998 0
-3998 3996 3997 0
3999 -2 -51 -55 -80 0
-3999 2 0
-3999 51 0
-3999 55 0
-3999 80 0
4000 -14 -38 -51 -55 0
-4000 14 0
-4000 38 0
-4000 51 0
-4000 55 0
4001 -20 -32 -51 -55 0
-4001 20 0
-4001 32 0
-4001 51 0
-4001 55 0
-3999 4000 4001 0
-4000 3999 4001 0
-4001 3999 4000 0
4002 -2 -51 -56 -79 0
-4002 2 0
-4002 51 0
-4002 56 0
-4002 79 0
4003 -8 -29 -51 -79 0
-4003 8 0
-4003 29 0
-4003 51 0
-4003 79 0
4004 -11 -26 -51 -79 0
-4004 11 0
-4004 26 0
-4004 51 0
-4004 79 0
-4002 4003 4004 0
-4003 4002 4004 0
-4004 4002 4003 0
4005 -2 -51 -56 -80 0
-4005 2 0
-4005 51 0
-4005 56 0
-4005 80 0
4006 -2 -51 -59 -74 0
-4006 2 0
-4006 51 0
-4006 59 0
-4006 74 0
4007 -2 -51 -65 -68 0
-4007 2 0
-4007 51 0
-4007 65 0
-4007 68 0
4008 -8 -29 -51 -80 0
-4008 8 0
-4008 29 0
-4008 51 0
-4008 80 0
4009 -8 -32 -51 -74 0
-4009 8 0
-4009 32 0
-4009 51 0
-4009 74 0
4010 -8 -38 -51 -68 0
-4010 8 0
-4010 38 0
-4010 51 0
-4010 68 0
4011 -11 -26 -51 -80 0
-4011 11 0
-4011 26 0
-4011 51 0
-4011 80 0
4012 -11 -32 -51 -65 0
-4012 11 0
-4012 32 0
-4012 51 0
-4012 65 0
4013 -11 -38 -51 -59 0
-4013 11 0
-4013 38 0
-4013 51 0
-4013 59 0
4014 -14 -26 -51 -74 0
-4014 14 0
-4014 26 0
-4014 51 0
-4014 74 0
4015 -14 -29 -51 -65 0
-4015 14 0
-4015 29 0
-4015 51 0
-4015 65 0
4016 -14 -38 -51 -56 0
-4016 14 0
-4016 38 0
-4016 51 0
-4016 56 0
4017 -20 -26 -51 -68 0
-4017 20 0
-4017 26 0
-4017 51 0
-4017 68 0
4018 -20 -29 -51 -59 0
-4018 20 0
-4018 29 0
-4018 51 0
-4018 59 0
4019 -20 -32 -51 -56 0
-4019 20 0
-4019 32 0
-4019 51 0
-4019 56 0
-4005 4006 4007 4008 4009 4010 4011 4012 4013 4014 4015 4016 4017 4018 4019 0
-4006 4005 4007 4008 4009 4010 4011 4012 4013 4014 4015 4016 4017 4018 4019 0
-4007 4005 4006 4008 4009 4010 4011 4012 4013 4014 4015 4016 4017 4018 4019 0
-4008 4005 4006 4007 4009 4010 4011 4012 4013 4014 4015 4016 4017 4018 4019 0
-4009 4005 4006 4007 4008 4010 4011 4012 4013 4014 4015 4016 4017 4018 4019 0
-4010 4005 4006 4007 4008 4009 4011 4012 4013 4014 4015 4016 4017 4018 4019 0
-4011 4005 4006 4007 4008 4009 4010 4012 4013 4014 4015 4016 4017 4018 4019 0
-4012 4005 4006 4007 4008 4009 4010 4011 4013 4014 4015 4016 4017 4018 4019 0
-4013 4005 4006 4007 4008 4009 4010 4011 4012 4014 4015 4016 4017 4018 4019 0
-4014 4005 4006 4007 4008 4009 4010 4011 4012 4013 4015 4016 4017 4018 4019 0
-4015 4005 4006 4007 4008 4009 4010 4011 4012 4013 4014 4016 4017 4018 4019 0
-4016 4005 4006 4007 4008 4009 4010 4011 4012 4013 4014 4015 4017 4018 4019 0
-4017 4005 4006 4007 4008 4009 4010 4011 4012 4013 4014 4015 4016 4018 4019 0
-4018 4005 4006 4007 4008 4009 4010 4011 4012 4013 4014 4015 4016 4017 4019 0
-4019 4005 4006 4007 4008 4009 4010 4011 4012 4013 4014 4015 4016 4017 4018 0
4020 -3 -49 -56 -80 0
-4020 3 0
-4020 49 0
-4020 56 0
-4020 80 0
4021 -3 -49 -59 -74 0
-4021 3 0
-4021 49 0
-4021 59 0
-4021 74 0
4022 -3 -49 -65 -68 0
-4022 3 0
-4022 49 0
-4022 65 0
-4022 68 0
-4020 4021 4022 0
-4021 4020 4022 0
-4022 4020 4021 0
4023 -3 -49 -56 -81 0
-4023 3 0
-4023 49 0
-4023 56 0
-4023 81 0
4024 -15 -39 -49 -56 0
-4024 15 0
-4024 39 0
-4024 49 0
-4024 56 0
4025 -21 -33 -49 -56 0
-4025 21 0
-4025 33 0
-4025 49 0
-4025 56 0
-4023 4024 4025 0
-4024 4023 4025 0
-4025 4023 4024 0
4026 -3 -49 -57 -80 0
-4026 3 0
-4026 49 0
-4026 57 0
-4026 80 0
4027 -9 -30 -49 -80 0
-4027 9 0
-4027 30 0
-4027 49 0
-4027 80 0
4028 -12 -27 -49 -80 0
-4028 12 0
-4028 27 0
-4028 49 0
-4028 80 0
-4026 4027 4028 0
-4027 4026 4028 0
-4028 4026 4027 0
4029 -3 -49 -57 -81 0
-4029 3 0
-4029 49 0
-4029 57 0
-4029 81 0
4030 -3 -49 -60 -75 0
-4030 3 0
-4030 49 0
-4030 60 0
-4030 75 0
4031 -3 -49 -66 -69 0
-4031 3 0
-4031 49 0
-4031 66 0
-4031 69 0
4032 -9 -30 -49 -81 0
-4032 9 0
-4032 30 0
-4032 49 0
-4032 81 0
4033 -9 -33 -49 -75 0
-4033 9 0
-4033 33 0
-4033 49 0
-4033 75 0
4034 -9 -39 -49 -69 0
-4034 9 0
-4034 39 0
-4034 49 0
-4034 69 0
4035 -12 -27 -49 -81 0
-4035 12 0
-4035 27 0
-4035 49 0
-4035 81 0
4036 -12 -33 -49 -66 0
-4036 12 0
-4036 33 0
-4036 49 0
-4036 66 0
4037 -12 -39 -49 -60 0
-4037 12 0
-4037 39 0
-4037 49 0
-4037 60 0
4038 -15 -27 -49 -75 0
-4038 15 0
-4038 27 0
-4038 49 0
-4038 75 0
4039 -15 -30 -49 -66 0
-4039 15 0
-4039 30 0
-4039 49 0
-4039 66 0
4040 -15 -39 -49 -57 0
-4040 15 0
-4040 39 0
-4040 49 0
-4040 57 0
4041 -21 -27 -49 -69 0
-4041 21 0
-4041 27 0
-4041 49 0
-4041 69 0
4042 -21 -30 -49 -60 0
-4042 21 0
-4042 30 0
-4042 49 0
-4042 60 0
4043 -21 -33 -49 -57 0
-4043 21 0
-4043 33 0
-4043 49 0
-4043 57 0
-4029 4030 4031 4032 4033 4034 4035 4036 4037 4038 4039 4040 4041 4042 4043 0
-4030 4029 4031 4032 4033 4034 4035 4036 4037 4038 4039 4040 4041 4042 4043 0
-4031 4029 4030 4032 4033 4034 4035 4036 4037 4038 4039 4040 4041 4042 4043 0
-4032 4029 4030 4031 4033 4034 4035 4036 4037 4038 4039 4040 4041 4042 4043 0
-4033 4029 4030 4031 4032 4034 4035 4036 4037 4038 4039 4040 4041 4042 4043 0
-4034 4029 4030 4031 4032 4033 4035 4036 4037 4038 4039 4040 4041 4042 4043 0
-4035 4029 4030 4031 4032 4033 4034 4036 4037 4038 4039 4040 4041 4042 4043 0
-4036 4029 4030 4031 4032 4033 4034 4035 4037 4038 4039 4040 4041 4042 4043 0
-4037 4029 4030 4031 4032 4033 4034 4035 4036 4038 4039 4040 4041 4042 4043 0
-4038 4029 4030 4031 4032 4033 4034 4035 4036 4037 4039 4040 4041 4042 4043 0
-4039 4029 4030 4031 4032 4033 4034 4035 4036 4037 4038 4040 4041 4042 4043 0
-4040 4029 4030 4031 4032 4033 4034 4035 4036 4037 4038 4039 4041 4042 4043 0
-4041 4029 4030 4031 4032 4033 4034 4035 4036 4037 4038 4039 4040 4042 4043 0
-4042 4029 4030 4031 4032 4033 4034 4035 4036 4037 4038 4039 4040 4041 4043 0
-4043 4029 4030 4031 4032 4033 4034 4035 4036 4037 4038 4039 4040 4041 4042 0
4044 -3 -50 -55 -79 0
-4044 3 0
-4044 50 0
-4044 55 0
-4044 79 0
4045 -3 -50 -58 -73 0
-4045 3 0
-4045 50 0
-4045 58 0
-4045 73 0
4046 -3 -50 -64 -67 0
-4046 3 0
-4046 50 0
-4046 64 0
-4046 67 0
-4044 4045 4046 0
-4045 4044 4046 0
-4046 4044 4045 0
4047 -3 -50 -55 -81 0
-4047 3 0
-4047 50 0
-4047 55 0
-4047 81 0
4048 -15 -39 -50 -55 0
-4048 15 0
-4048 39 0
-4048 50 0
-4048 55 0
4049 -21 -33 -50 -55 0
-4049 21 0
-4049 33 0
-4049 50 0
-4049 55 0
-4047 4048 4049 0
-4048 4047 4049 0
-4049 4047 4048 0
4050 -3 -50 -57 -79 0
-4050 3 0
-4050 50 0
-4050 57 0
-4050 79 0
4051 -9 -30 -50 -79 0
-4051 9 0
-4051 30 0
-4051 50 0
-4051 79 0
4052 -12 -27 -50 -79 0
-4052 12 0
-4052 27 0
-4052 50 0
-4052 79 0
-4050 4051 4052 0
-4051 4050 4052 0
-4052 4050 4051 0
4053 -3 -50 -57 -81 0
-4053 3 0
-4053 50 0
-4053 57 0
-4053 81 0
4054 -3 -50 -60 -75 0
-4054 3 0
-4054 50 0
-4054 60 0
-4054 75 0
4055 -3 -50 -66 -69 0
-4055 3 0
-4055 50 0
-4055 66 0
-4055 69 0
4056 -9 -30 -50 -81 0
-4056 9 0
-4056 30 0
-4056 50 0
-4056 81 0
4057 -9 -33 -50 -75 0
-4057 9 0
-4057 33 0
-4057 50 0
-4057 75 0
4058 -9 -39 -50 -69 0
-4058 9 0
-4058 39 0
-4058 50 0
-4058 69 0
4059 -12 -27 -50 -81 0
-4059 12 0
-4059 27 0
-4059 50 0
-4059 81 0
4060 -12 -33 -50 -66 0
-4060 12 0
-4060 33 0
-4060 50 0
-4060 66 0
4061 -12 -39 -50 -60 0
-4061 12 0
-4061 39 0
-4061 50 0
-4061 60 0
4062 -15 -27 -50 -75 0
-4062 15 0
-4062 27 0
-4062 50 0
-4062 75 0
4063 -15 -30 -50 -66 0
-4063 15 0
-4063 30 0
-4063 50 0
-4063 66 0
4064 -15 -39 -50 -57 0
-4064 15 0
-4064 39 0
-4064 50 0
-4064 57 0
4065 -21 -27 -50 -69 0
-4065 21 0
-4065 27 0
-4065 50 0
-4065 69 0
4066 -21 -30 -50 -60 0
-4066 21 0
-4066 30 0
-4066 50 0
-4066 60 0
4067 -21 -33 -50 -57 0
-4067 21 0
-4067 33 0
-4067 50 0
-4067 57 0
-4053 4054 4055 4056 4057 4058 4059 4060 4061 4062 4063 4064 4065 4066 4067 0
-4054 4053 4055 4056 4057 4058 4059 4060 4061 4062 4063 4064 4065 4066 4067 0
-4055 4053 4054 4056 4057 4058 4059 4060 4061 4062 4063 4064 4065 4066 4067 0
-4056 4053 4054 4055 4057 4058 4059 4060 4061 4062 4063 4064 4065 4066 4067 0
-4057 4053 4054 4055 4056 4058 4059 4060 4061 4062 4063 4064 4065 4066 4067 0
-4058 4053 4054 4055 4056 4057 4059 4060 4061 4062 4063 4064 4065 4066 4067 0
-4059 4053 4054 4055 4056 4057 4058 4060 4061 4062 4063 4064 4065 4066 4067 0
-4060 4053 4054 4055 4056 4057 4058 4059 4061 4062 4063 4064 4065 4066 4067 0
-4061 4053 4054 4055 4056 4057 4058 4059 4060 4062 4063 4064 4065 4066 4067 0
-4062 4053 4054 4055 4056 4057 4058 4059 4060 4061 4063 4064 4065 4066 4067 0
-4063 4053 4054 4055 4056 4057 4058 4059 4060 4061 4062 4064 4065 4066 4067 0
-4064 4053 4054 4055 4056 4057 4058 4059 4060 4061 4062 4063 4065 4066 4067 0
-4065 4053 4054 4055 4056 4057 4058 4059 4060 4061 4062 4063 4064 4066 4067 0
-4066 4053 4054 4055 4056 4057 4058 4059 4060 4061 4062 4063 4064 4065 4067 0
-4067 4053 4054 4055 4056 4057 4058 4059 4060 4061 4062 4063 4064 4065 4066 0
4068 -3 -51 -55 -79 0
-4068 3 0
-4068 51 0
-4068 55 0
-4068 79 0
4069 -3 -51 -58 -73 0
-4069 3 0
-4069 51 0
-4069 58 0
-4069 73 0
4070 -3 -51 -64 -67 0
-4070 3 0
-4070 51 0
-4070 64 0
-4070 67 0
4071 -6 -36 -55 -79 0
-4071 6 0
-4071 36 0
-4071 55 0
-4071 79 0
4072 -6 -36 -58 -73 0
-4072 6 0
-4072 36 0
-4072 58 0
-4072 73 0
4073 -6 -36 -64 -67 0
-4073 6 0
-4073 36 0
-4073 64 0
-4073 67 0
4074 -18 -24 -55 -79 0
-4074 18 0
-4074 24 0
-4074 55 0
-4074 79 0
4075 -18 -24 -58 -73 0
-4075 18 0
-4075 24 0
-4075 58 0
-4075 73 0
4076 -18 -24 -64 -67 0
-4076 18 0
-4076 24 0
-4076 64 0
-4076 67 0
-4068 4069 4070 4071 4072 4073 4074 4075 4076 0
-4069 4068 4070 4071 4072 4073 4074 4075 4076 0
-4070 4068 4069 4071 4072 4073 4074 4075 4076 0
-4071 4068 4069 4070 4072 4073 4074 4075 4076 0
-4072 4068 4069 4070 4071 4073 4074 4075 4076 0
-4073 4068 4069 4070 4071 4072 4074 4075 4076 0
-4074 4068 4069 4070 4071 4072 4073 4075 4076 0
-4075 4068 4069 4070 4071 4072 4073 4074 4076 0
-4076 4068 4069 4070 4071 4072 4073 4074 4075 0
4077 -3 -51 -55 -80 0
-4077 3 0
-4077 51 0
-4077 55 0
-4077 80 0
4078 -6 -36 -55 -80 0
-4078 6 0
-4078 36 0
-4078 55 0
-4078 80 0
4079 -18 -24 -55 -80 0
-4079 18 0
-4079 24 0
-4079 55 0
-4079 80 0
-4077 4078 4079 0
-4078 4077 4079 0
-4079 4077 4078 0
4080 -3 -51 -56 -79 0
-4080 3 0
-4080 51 0
-4080 56 0
-4080 79 0
4081 -6 -36 -56 -79 0
-4081 6 0
-4081 36 0
-4081 56 0
-4081 79 0
4082 -18 -24 -56 -79 0
-4082 18 0
-4082 24 0
-4082 56 0
-4082 79 0
-4080 4081 4082 0
-4081 4080 4082 0
-4082 4080 4081 0
4083 -3 -51 -56 -80 0
-4083 3 0
-4083 51 0
-4083 56 0
-4083 80 0
4084 -3 -51 -59 -74 0
-4084 3 0
-4084 51 0
-4084 59 0
-4084 74 0
4085 -3 -51 -65 -68 0
-4085 3 0
-4085 51 0
-4085 65 0
-4085 68 0
4086 -6 -36 -56 -80 0
-4086 6 0
-4086 36 0
-4086 56 0
-4086 80 0
4087 -6 -36 -59 -74 0
-4087 6 0
-4087 36 0
-4087 59 0
-4087 74 0
4088 -6 -36 -65 -68 0
-4088 6 0
-4088 36 0
-4088 65 0
-4088 68 0
4089 -18 -24 -56 -80 0
-4089 18 0
-4089 24 0
-4089 56 0
-4089 80 0
4090 -18 -24 -59 -74 0
-4090 18 0
-4090 24 0
-4090 59 0
-4090 74 0
4091 -18 -24 -65 -68 0
-4091 18 0
-4091 24 0
-4091 65 0
-4091 68 0
-4083 4084 4085 4086 4087 4088 4089 4090 4091 0
-4084 4083 4085 4086 4087 4088 4089 4090 4091 0
-4085 4083 4084 4086 4087 4088 4089 4090 4091 0
-4086 4083 4084 4085 4087 4088 4089 4090 4091 0
-4087 4083 4084 4085 4086 4088 4089 4090 4091 0
-4088 4083 4084 4085 4086 4087 4089 4090 4091 0
-4089 4083 4084 4085 4086 4087 4088 4090 4091 0
-4090 4083 4084 4085 4086 4087 4088 4089 4091 0
-4091 4083 4084 4085 4086 4087 4088 4089 4090 0
4092 -1 -49 -59 -75 0
-4092 1 0
-4092 49 0
-4092 59 0
-4092 75 0
4093 -4 -34 -59 -75 0
-4093 4 0
-4093 34 0
-4093 59 0
-4093 75 0
4094 -16 -22 -59 -75 0
-4094 16 0
-4094 22 0
-4094 59 0
-4094 75 0
-4092 4093 4094 0
-4093 4092 4094 0
-4094 4092 4093 0
4095 -1 -49 -60 -74 0
-4095 1 0
-4095 49 0
-4095 60 0
-4095 74 0
4096 -4 -34 -60 -74 0
-4096 4 0
-4096 34 0
-4096 60 0
-4096 74 0
4097 -16 -22 -60 -74 0
-4097 16 0
-4097 22 0
-4097 60 0
-4097 74 0
-4095 4096 4097 0
-4096 4095 4097 0
-4097 4095 4096 0
4098 -1 -50 -58 -75 0
-4098 1 0
-4098 50 0
-4098 58 0
-4098 75 0
4099 -7 -31 -50 -75 0
-4099 7 0
-4099 31 0
-4099 50 0
-4099 75 0
4100 -13 -25 -50 -75 0
-4100 13 0
-4100 25 0
-4100 50 0
-4100 75 0
-4098 4099 4100 0
-4099 4098 4100 0
-4100 4098 4099 0
4101 -1 -50 -60 -73 0
-4101 1 0
-4101 50 0
-4101 60 0
-4101 73 0
4102 -10 -37 -50 -60 0
-4102 10 0
-4102 37 0
-4102 50 0
-4102 60 0
4103 -19 -28 -50 -60 0
-4103 19 0
-4103 28 0
-4103 50 0
-4103 60 0
-4101 4102 4103 0
-4102 4101 4103 0
-4103 4101 4102 0
4104 -1 -51 -58 -74 0
-4104 1 0
-4104 51 0
-4104 58 0
-4104 74 0
4105 -7 -31 -51 -74 0
-4105 7 0
-4105 31 0
-4105 51 0
-4105 74 0
4106 -13 -25 -51 -74 0
-4106 13 0
-4106 25 0
-4106 51 0
-4106 74 0
-4104 4105 4106 0
-4105 4104 4106 0
-4106 4104 4105 0
4107 -1 -51 -59 -73 0
-4107 1 0
-4107 51 0
-4107 59 0
-4107 73 0
4108 -10 -37 -51 -59 0
-4108 10 0
-4108 37 0
-4108 51 0
-4108 59 0
4109 -19 -28 -51 -59 0
-4109 19 0
-4109 28 0
-4109 51 0
-4109 59 0
-4107 4108 4109 0
-4108 4107 4109 0
-4109 4107 4108 0
4110 -2 -49 -59 -75 0
-4110 2 0
-4110 49 0
-4110 59 0
-4110 75 0
4111 -8 -32 -49 -75 0
-4111 8 0
-4111 32 0
-4111 49 0
-4111 75 0
4112 -14 -26 -49 -75 0
-4112 14 0
-4112 26 0
-4112 49 0
-4112 75 0
-4110 4111 4112 0
-4111 4110 4112 0
-4112 4110 4111 0
4113 -2 -49 -60 -74 0
-4113 2 0
-4113 49 0
-4113 60 0
-4113 74 0
4114 -11 -38 -49 -60 0
-4114 11 0
-4114 38 0
-4114 49 0
-4114 60 0
4115 -20 -29 -49 -60 0
-4115 20 0
-4115 29 0
-4115 49 0
-4115 60 0
-4113 4114 4115 0
-4114 4113 4115 0
-4115 4113 4114 0
4116 -2 -50 -58 -75 0
-4116 2 0
-4116 50 0
-4116 58 0
-4116 75 0
4117 -5 -35 -58 -75 0
-4117 5 0
-4117 35 0
-4117 58 0
-4117 75 0
4118 -17 -23 -58 -75 0
-4118 17 0
-4118 23 0
-4118 58 0
-4118 75 0
-4116 4117 4118 0
-4117 4116 4118 0
-4118 4116 4117 0
4119 -2 -50 -60 -73 0
-4119 2 0
-4119 50 0
-4119 60 0
-4119 73 0
4120 -5 -35 -60 -73 0
-4120 5 0
-4120 35 0
-4120 60 0
-4120 73 0
4121 -17 -23 -60 -73 0
-4121 17 0
-4121 23 0
-4121 60 0
-4121 73 0
-4119 4120 4121 0
-4120 4119 4121 0
-4121 4119 4120 0
4122 -2 -51 -58 -74 0
-4122 2 0
-4122 51 0
-4122 58 0
-4122 74 0
4123 -11 -38 -51 -58 0
-4123 11 0
-4123 38 0
-4123 51 0
-4123 58 0
4124 -20 -29 -51 -58 0
-4124 20 0
-4124 29 0
-4124 51 0
-4124 58 0
-4122 4123 4124 0
-4123 4122 4124 0
-4124 4122 4123 0
4125 -2 -51 -59 -73 0
-4125 2 0
-4125 51 0
-4125 59 0
-4125 73 0
4126 -8 -32 -51 -73 0
-4126 8 0
-4126 32 0
-4126 51 0
-4126 73 0
4127 -14 -26 -51 -73 0
-4127 14 0
-4127 26 0
-4127 51 0
-4127 73 0
-4125 4126 4127 0
-4126 4125 4127 0
-4127 4125 4126 0
4128 -3 -49 -59 -75 0
-4128 3 0
-4128 49 0
-4128 59 0
-4128 75 0
4129 -12 -39 -49 -59 0
-4129 12 0
-4129 39 0
-4129 49 0
-4129 59 0
4130 -21 -30 -49 -59 0
-4130 21 0
-4130 30 0
-4130 49 0
-4130 59 0
-4128 4129 4130 0
-4129 4128 4130 0
-4130 4128 4129 0
4131 -3 -49 -60 -74 0
-4131 3 0
-4131 49 0
-4131 60 0
-4131 74 0
4132 -9 -33 -49 -74 0
-4132 9 0
-4132 33 0
-4132 49 0
-4132 74 0
4133 -15 -27 -49 -74 0
-4133 15 0
-4133 27 0
-4133 49 0
-4133 74 0
-4131 4132 4133 0
-4132 4131 4133 0
-4133 4131 4132 0
4134 -3 -50 -58 -75 0
-4134 3 0
-4134 50 0
-4134 58 0
-4134 75 0
4135 -12 -39 -50 -58 0
-4135 12 0
-4135 39 0
-4135 50 0
-4135 58 0
4136 -21 -30 -50 -58 0
-4136 21 0
-4136 30 0
-4136 50 0
-4136 58 0
-4134 4135 4136 0
-4135 4134 4136 0
-4136 4134 4135 0
4137 -3 -50 -60 -73 0
-4137 3 0
-4137 50 0
-4137 60 0
-4137 73 0
4138 -9 -33 -50 -73 0
-4138 9 0
-4138 33 0
-4138 50 0
-4138 73 0
4139 -15 -27 -50 -73 0
-4139 15 0
-4139 27 0
-4139 50 0
-4139 73 0
-4137 4138 4139 0
-4138 4137 4139 0
-4139 4137 4138 0
4140 -3 -51 -58 -74 0
-4140 3 0
-4140 51 0
-4140 58 0
-4140 74 0
4141 -6 -36 -58 -74 0
-4141 6 0
-4141 36 0
-4141 58 0
-4141 74 0
4142 -18 -24 -58 -74 0
-4142 18 0
-4142 24 0
-4142 58 0
-4142 74 0
-4140 4141 4142 0
-4141 4140 4142 0
-4142 4140 4141 0
4143 -3 -51 -59 -73 0
-4143 3 0
-4143 51 0
-4143 59 0
-4143 73 0
4144 -6 -36 -59 -73 0
-4144 6 0
-4144 36 0
-4144 59 0
-4144 73 0
4145 -18 -24 -59 -73 0
-4145 18 0
-4145 24 0
-4145 59 0
-4145 73 0
-4143 4144 4145 0
-4144 4143 4145 0
-4145 4143 4144 0
4146 -1 -49 -65 -69 0
-4146 1 0
-4146 49 0
-4146 65 0
-4146 69 0
4147 -4 -34 -65 -69 0
-4147 4 0
-4147 34 0
-4147 65 0
-4147 69 0
4148 -16 -22 -65 -69 0
-4148 16 0
-4148 22 0
-4148 65 0
-4148 69 0
-4146 4147 4148 0
-4147 4146 4148 0
-4148 4146 4147 0
4149 -1 -49 -66 -68 0
-4149 1 0
-4149 49 0
-4149 66 0
-4149 68 0
4150 -4 -34 -66 -68 0
-4150 4 0
-4150 34 0
-4150 66 0
-4150 68 0
4151 -16 -22 -66 -68 0
-4151 16 0
-4151 22 0
-4151 66 0
-4151 68 0
-4149 4150 4151 0
-4150 4149 4151 0
-4151 4149 4150 0
4152 -1 -50 -64 -69 0
-4152 1 0
-4152 50 0
-4152 64 0
-4152 69 0
4153 -7 -37 -50 -69 0
-4153 7 0
-4153 37 0
-4153 50 0
-4153 69 0
4154 -19 -25 -50 -69 0
-4154 19 0
-4154 25 0
-4154 50 0
-4154 69 0
-4152 4153 4154 0
-4153 4152 4154 0
-4154 4152 4153 0
4155 -1 -50 -66 -67 0
-4155 1 0
-4155 50 0
-4155 66 0
-4155 67 0
4156 -10 -31 -50 -66 0
-4156 10 0
-4156 31 0
-4156 50 0
-4156 66 0
4157 -13 -28 -50 -66 0
-4157 13 0
-4157 28 0
-4157 50 0
-4157 66 0
-4155 4156 4157 0
-4156 4155 4157 0
-4157 4155 4156 0
4158 -1 -51 -64 -68 0
-4158 1 0
-4158 51 0
-4158 64 0
-4158 68 0
4159 -7 -37 -51 -68 0
-4159 7 0
-4159 37 0
-4159 51 0
-4159 68 0
4160 -19 -25 -51 -68 0
-4160 19 0
-4160 25 0
-4160 51 0
-4160 68 0
-4158 4159 4160 0
-4159 4158 4160 0
-4160 4158 4159 0
4161 -1 -51 -65 -67 0
-4161 1 0
-4161 51 0
-4161 65 0
-4161 67 0
4162 -10 -31 -51 -65 0
-4162 10 0
-4162 31 0
-4162 51 0
-4162 65 0
4163 -13 -28 -51 -65 0
-4163 13 0
-4163 28 0
-4163 51 0
-4163 65 0
-4161 4162 4163 0
-4162 4161 4163 0
-4163 4161 4162 0
4164 -2 -49 -65 -69 0
-4164 2 0
-4164 49 0
-4164 65 0
-4164 69 0
4165 -8 -38 -49 -69 0
-4165 8 0
-4165 38 0
-4165 49 0
-4165 69 0
4166 -20 -26 -49 -69 0
-4166 20 0
-4166 26 0
-4166 49 0
-4166 69 0
-4164 4165 4166 0
-4165 4164 4166 0
-4166 4164 4165 0
4167 -2 -49 -66 -68 0
-4167 2 0
-4167 49 0
-4167 66 0
-4167 68 0
4168 -11 -32 -49 -66 0
-4168 11 0
-4168 32 0
-4168 49 0
-4168 66 0
4169 -14 -29 -49 -66 0
-4169 14 0
-4169 29 0
-4169 49 0
-4169 66 0
-4167 4168 4169 0
-4168 4167 4169 0
-4169 4167 4168 0
4170 -2 -50 -64 -69 0
-4170 2 0
-4170 50 0
-4170 64 0
-4170 69 0
4171 -5 -35 -64 -69 0
-4171 5 0
-4171 35 0
-4171 64 0
-4171 69 0
4172 -17 -23 -64 -69 0
-4172 17 0
-4172 23 0
-4172 64 0
-4172 69 0
-4170 4171 4172 0
-4171 4170 4172 0
-4172 4170 4171 0
4173 -2 -50 -66 -67 0
-4173 2 0
-4173 50 0
-4173 66 0
-4173 67 0
4174 -5 -35 -66 -67 0
-4174 5 0
-4174 35 0
-4174 66 0
-4174 67 0
4175 -17 -23 -66 -67 0
-4175 17 0
-4175 23 0
-4175 66 0
-4175 67 0
-4173 4174 4175 0
-4174 4173 4175 0
-4175 4173 4174 0
4176 -2 -51 -64 -68 0
-4176 2 0
-4176 51 0
-4176 64 0
-4176 68 0
4177 -11 -32 -51 -64 0
-4177 11 0
-4177 32 0
-4177 51 0
-4177 64 0
4178 -14 -29 -51 -64 0
-4178 14 0
-4178 29 0
-4178 51 0
-4178 64 0
-4176 4177 4178 0
-4177 4176 4178 0
-4178 4176 4177 0
4179 -2 -51 -65 -67 0
-4179 2 0
-4179 51 0
-4179 65 0
-4179 67 0
4180 -8 -38 -51 -67 0
-4180 8 0
-4180 38 0
-4180 51 0
-4180 67 0
4181 -20 -26 -51 -67 0
-4181 20 0
-4181 26 0
-4181 51 0
-4181 67 0
-4179 4180 4181 0
-4180 4179 4181 0
-4181 4179 4180 0
4182 -3 -49 -65 -69 0
-4182 3 0
-4182 49 0
-4182 65 0
-4182 69 0
4183 -12 -33 -49 -65 0
-4183 12 0
-4183 33 0
-4183 49 0
-4183 65 0
4184 -15 -30 -49 -65 0
-4184 15 0
-4184 30 0
-4184 49 0
-4184 65 0
-4182 4183 4184 0
-4183 4182 4184 0
-4184 4182 4183 0
4185 -3 -49 -66 -68 0
-4185 3 0
-4185 49 0
-4185 66 0
-4185 68 0
4186 -9 -39 -49 -68 0
-4186 9 0
-4186 39 0
-4186 49 0
-4186 68 0
4187 -21 -27 -49 -68 0
-4187 21 0
-4187 27 0
-4187 49 0
-4187 68 0
-4185 4186 4187 0
-4186 4185 4187 0
-4187 4185 4186 0
4188 -3 -50 -64 -69 0
-4188 3 0
-4188 50 0
-4188 64 0
-4188 69 0
4189 -12 -33 -50 -64 0
-4189 12 0
-4189 33 0
-4189 50 0
-4189 64 0
4190 -15 -30 -50 -64 0
-4190 15 0
-4190 30 0
-4190 50 0
-4190 64 0
-4188 4189 4190 0
-4189 4188 4190 0
-4190 4188 4189 0
4191 -3 -50 -66 -67 0
-4191 3 0
-4191 50 0
-4191 66 0
-4191 67 0
4192 -9 -39 -50 -67 0
-4192 9 0
-4192 39 0
-4192 50 0
-4192 67 0
4193 -21 -27 -50 -67 0
-4193 21 0
-4193 27 0
-4193 50 0
-4193 67 0
-4191 4192 4193 0
-4192 4191 4193 0
-4193 4191 4192 0
4194 -3 -51 -64 -68 0
-4194 3 0
-4194 51 0
-4194 64 0
-4194 68 0
4195 -6 -36 -64 -68 0
-4195 6 0
-4195 36 0
-4195 64 0
-4195 68 0
4196 -18 -24 -64 -68 0
-4196 18 0
-4196 24 0
-4196 64 0
-4196 68 0
-4194 4195 4196 0
-4195 4194 4196 0
-4196 4194 4195 0
4197 -3 -51 -65 -67 0
-4197 3 0
-4197 51 0
-4197 65 0
-4197 67 0
4198 -6 -36 -65 -67 0
-4198 6 0
-4198 36 0
-4198 65 0
-4198 67 0
4199 -18 -24 -65 -67 0
-4199 18 0
-4199 24 0
-4199 65 0
-4199 67 0
-4197 4198 4199 0
-4198 4197 4199 0
-4199 4197 4198 0
4200 -1 -52 -56 -77 0
-4200 1 0
-4200 52 0
-4200 56 0
-4200 77 0
4201 -1 -52 -59 -71 0
-4201 1 0
-4201 52 0
-4201 59 0
-4201 71 0
4202 -1 -52 -62 -68 0
-4202 1 0
-4202 52 0
-4202 62 0
-4202 68 0
4203 -4 -37 -56 -77 0
-4203 4 0
-4203 37 0
-4203 56 0
-4203 77 0
4204 -4 -37 -59 -71 0
-4204 4 0
-4204 37 0
-4204 59 0
-4204 71 0
4205 -4 -37 -62 -68 0
-4205 4 0
-4205 37 0
-4205 62 0
-4205 68 0
4206 -19 -22 -56 -77 0
-4206 19 0
-4206 22 0
-4206 56 0
-4206 77 0
4207 -19 -22 -59 -71 0
-4207 19 0
-4207 22 0
-4207 59 0
-4207 71 0
4208 -19 -22 -62 -68 0
-4208 19 0
-4208 22 0
-4208 62 0
-4208 68 0
-4200 4201 4202 4203 4204 4205 4206 4207 4208 0
-4201 4200 4202 4203 4204 4205 4206 4207 4208 0
-4202 4200 4201 4203 4204 4205 4206 4207 4208 0
-4203 4200 4201 4202 4204 4205 4206 4207 4208 0
-4204 4200 4201 4202 4203 4205 4206 4207 4208 0
-4205 4200 4201 4202 4203 4204 4206 4207 4208 0
-4206 4200 4201 4202 4203 4204 4205 4207 4208 0
-4207 4200 4201 4202 4203 4204 4205 4206 4208 0
-4208 4200 4201 4202 4203 4204 4205 4206 4207 0
4209 -1 -52 -56 -78 0
-4209 1 0
-4209 52 0
-4209 56 0
-4209 78 0
4210 -4 -37 -56 -78 0
-4210 4 0
-4210 37 0
-4210 56 0
-4210 78 0
4211 -19 -22 -56 -78 0
-4211 19 0
-4211 22 0
-4211 56 0
-4211 78 0
-4209 4210 4211 0
-4210 4209 4211 0
-4211 4209 4210 0
4212 -1 -52 -57 -77 0
-4212 1 0
-4212 52 0
-4212 57 0
-4212 77 0
4213 -4 -37 -57 -77 0
-4213 4 0
-4213 37 0
-4213 57 0
-4213 77 0
4214 -19 -22 -57 -77 0
-4214 19 0
-4214 22 0
-4214 57 0
-4214 77 0
-4212 4213 4214 0
-4213 4212 4214 0
-4214 4212 4213 0
4215 -1 -52 -57 -78 0
-4215 1 0
-4215 52 0
-4215 57 0
-4215 78 0
4216 -1 -52 -60 -72 0
-4216 1 0
-4216 52 0
-4216 60 0
-4216 72 0
4217 -1 -52 -63 -69 0
-4217 1 0
-4217 52 0
-4217 63 0
-4217 69 0
4218 -4 -37 -57 -78 0
-4218 4 0
-4218 37 0
-4218 57 0
-4218 78 0
4219 -4 -37 -60 -72 0
-4219 4 0
-4219 37 0
-4219 60 0
-4219 72 0
4220 -4 -37 -63 -69 0
-4220 4 0
-4220 37 0
-4220 63 0
-4220 69 0
4221 -19 -22 -57 -78 0
-4221 19 0
-4221 22 0
-4221 57 0
-4221 78 0
4222 -19 -22 -60 -72 0
-4222 19 0
-4222 22 0
-4222 60 0
-4222 72 0
4223 -19 -22 -63 -69 0
-4223 19 0
-4223 22 0
-4223 63 0
-4223 69 0
-4215 4216 4217 4218 4219 4220 4221 4222 4223 0
-4216 4215 4217 4218 4219 4220 4221 4222 4223 0
-4217 4215 4216 4218 4219 4220 4221 4222 4223 0
-4218 4215 4216 4217 4219 4220 4221 4222 4223 0
-4219 4215 4216 4217 4218 4220 4221 4222 4223 0
-4220 4215 4216 4217 4218 4219 4221 4222 4223 0
-4221 4215 4216 4217 4218 4219 4220 4222 4223 0
-4222 4215 4216 4217 4218 4219 4220 4221 4223 0
-4223 4215 4216 4217 4218 4219 4220 4221 4222 0
4224 -1 -53 -55 -76 0
-4224 1 0
-4224 53 0
-4224 55 0
-4224 76 0
4225 -1 -53 -58 -70 0
-4225 1 0
-4225 53 0
-4225 58 0
-4225 70 0
4226 -1 -53 -61 -67 0
-4226 1 0
-4226 53 0
-4226 61 0
-4226 67 0
4227 -7 -28 -53 -76 0
-4227 7 0
-4227 28 0
-4227 53 0
-4227 76 0
4228 -7 -31 -53 -70 0
-4228 7 0
-4228 31 0
-4228 53 0
-4228 70 0
4229 -7 -34 -53 -67 0
-4229 7 0
-4229 34 0
-4229 53 0
-4229 67 0
4230 -10 -25 -53 -76 0
-4230 10 0
-4230 25 0
-4230 53 0
-4230 76 0
4231 -10 -31 -53 -61 0
-4231 10 0
-4231 31 0
-4231 53 0
-4231 61 0
4232 -10 -34 -53 -58 0
-4232 10 0
-4232 34 0
-4232 53 0
-4232 58 0
4233 -13 -25 -53 -70 0
-4233 13 0
-4233 25 0
-4233 53 0
-4233 70 0
4234 -13 -28 -53 -61 0
-4234 13 0
-4234 28 0
-4234 53 0
-4234 61 0
4235 -13 -34 -53 -55 0
-4235 13 0
-4235 34 0
-4235 53 0
-4235 55 0
4236 -16 -25 -53 -67 0
-4236 16 0
-4236 25 0
-4236 53 0
-4236 67 0
4237 -16 -28 -53 -58 0
-4237 16 0
-4237 28 0
-4237 53 0
-4237 58 0
4238 -16 -31 -53 -55 0
-4238 16 0
-4238 31 0
-4238 53 0
-4238 55 0
-4224 4225 4226 4227 4228 4229 4230 4231 4232 4233 4234 4235 4236 4237 4238 0
-4225 4224 4226 4227 4228 4229 4230 4231 4232 4233 4234 4235 4236 4237 4238 0
-4226 4224 4225 4227 4228 4229 4230 4231 4232 4233 4234 4235 4236 4237 4238 0
-4227 4224 4225 4226 4228 4229 4230 4231 4232 4233 4234 4235 4236 4237 4238 0
-4228 4224 4225 4226 4227 4229 4230 4231 4232 4233 4234 4235 4236 4237 4238 0
-4229 4224 4225 4226 4227 4228 4230 4231 4232 4233 4234 4235 4236 4237 4238 0
-4230 4224 4225 4226 4227 4228 4229 4231 4232 4233 4234 4235 4236 4237 4238 0
-4231 4224 4225 4226 4227 4228 4229 4230 4232 4233 4234 4235 4236 4237 4238 0
-4232 4224 4225 4226 4227 4228 4229 4230 4231 4233 4234 4235 4236 4237 4238 0
-4233 4224 4225 4226 4227 4228 4229 4230 4231 4232 4234 4235 4236 4237 4238 0
-4234 4224 4225 4226 4227 4228 4229 4230 4231 4232 4233 4235 4236 4237 4238 0
-4235 4224 4225 4226 4227 4228 4229 4230 4231 4232 4233 4234 4236 4237 4238 0
-4236 4224 4225 4226 4227 4228 4229 4230 4231 4232 4233 4234 4235 4237 4238 0
-4237 4224 4225 4226 4227 4228 4229 4230 4231 4232 4233 4234 4235 4236 4238 0
-4238 4224 4225 4226 4227 4228 4229 4230 4231 4232 4233 4234 4235 4236 4237 0
4239 -1 -53 -55 -78 0
-4239 1 0
-4239 53 0
-4239 55 0
-4239 78 0
4240 -7 -28 -53 -78 0
-4240 7 0
-4240 28 0
-4240 53 0
-4240 78 0
4241 -10 -25 -53 -78 0
-4241 10 0
-4241 25 0
-4241 53 0
-4241 78 0
-4239 4240 4241 0
-4240 4239 4241 0
-4241 4239 4240 0
4242 -1 -53 -57 -76 0
-4242 1 0
-4242 53 0
-4242 57 0
-4242 76 0
4243 -13 -34 -53 -57 0
-4243 13 0
-4243 34 0
-4243 53 0
-4243 57 0
4244 -16 -31 -53 -57 0
-4244 16 0
-4244 31 0
-4244 53 0
-4244 57 0
-4242 4243 4244 0
-4243 4242 4244 0
-4244 4242 4243 0
4245 -1 -53 -57 -78 0
-4245 1 0
-4245 53 0
-4245 57 0
-4245 78 0
4246 -1 -53 -60 -72 0
-4246 1 0
-4246 53 0
-4246 60 0
-4246 72 0
4247 -1 -53 -63 -69 0
-4247 1 0
-4247 53 0
-4247 63 0
-4247 69 0
-4245 4246 4247 0
-4246 4245 4247 0
-4247 4245 4246 0
4248 -1 -54 -55 -76 0
-4248 1 0
-4248 54 0
-4248 55 0
-4248 76 0
4249 -1 -54 -58 -70 0
-4249 1 0
-4249 54 0
-4249 58 0
-4249 70 0
4250 -1 -54 -61 -67 0
-4250 1 0
-4250 54 0
-4250 61 0
-4250 67 0
4251 -7 -28 -54 -76 0
-4251 7 0
-4251 28 0
-4251 54 0
-4251 76 0
4252 -7 -31 -54 -70 0
-4252 7 0
-4252 31 0
-4252 54 0
-4252 70 0
4253 -7 -34 -54 -67 0
-4253 7 0
-4253 34 0
-4253 54 0
-4253 67 0
4254 -10 -25 -54 -76 0
-4254 10 0
-4254 25 0
-4254 54 0
-4254 76 0
4255 -10 -31 -54 -61 0
-4255 10 0
-4255 31 0
-4255 54 0
-4255 61 0
4256 -10 -34 -54 -58 0
-4256 10 0
-4256 34 0
-4256 54 0
-4256 58 0
4257 -13 -25 -54 -70 0
-4257 13 0
-4257 25 0
-4257 54 0
-4257 70 0
4258 -13 -28 -54 -61 0
-4258 13 0
-4258 28 0
-4258 54 0
-4258 61 0
4259 -13 -34 -54 -55 0
-4259 13 0
-4259 34 0
-4259 54 0
-4259 55 0
4260 -16 -25 -54 -67 0
-4260 16 0
-4260 25 0
-4260 54 0
-4260 67 0
4261 -16 -28 -54 -58 0
-4261 16 0
-4261 28 0
-4261 54 0
-4261 58 0
4262 -16 -31 -54 -55 0
-4262 16 0
-4262 31 0
-4262 54 0
-4262 55 0
-4248 4249 4250 4251 4252 4253 4254 4255 4256 4257 4258 4259 4260 4261 4262 0
-4249 4248 4250 4251 4252 4253 4254 4255 4256 4257 4258 4259 4260 4261 4262 0
-4250 4248 4249 4251 4252 4253 4254 4255 4256 4257 4258 4259 4260 4261 4262 0
-4251 4248 4249 4250 4252 4253 4254 4255 4256 4257 4258 4259 4260 4261 4262 0
-4252 4248 4249 4250 4251 4253 4254 4255 4256 4257 4258 4259 4260 4261 4262 0
-4253 4248 4249 4250 4251 4252 4254 4255 4256 4257 4258 4259 4260 4261 4262 0
-4254 4248 4249 4250 4251 4252 4253 4255 4256 4257 4258 4259 4260 4261 4262 0
-4255 4248 4249 4250 4251 4252 4253 4254 4256 4257 4258 4259 4260 4261 4262 0
-4256 4248 4249 4250 4251 4252 4253 4254 4255 4257 4258 4259 4260 4261 4262 0
-4257 4248 4249 4250 4251 4252 4253 4254 4255 4256 4258 4259 4260 4261 4262 0
-4258 4248 4249 4250 4251 4252 4253 4254 4255 4256 4257 4259 4260 4261 4262 0
-4259 4248 4249 4250 4251 4252 4253 4254 4255 4256 4257 4258 4260 4261 4262 0
-4260 4248 4249 4250 4251 4252 4253 4254 4255 4256 4257 4258 4259 4261 4262 0
-4261 4248 4249 4250 4251 4252 4253 4254 4255 4256 4257 4258 4259 4260 4262 0
-4262 4248 4249 4250 4251 4252 4253 4254 4255 4256 4257 4258 4259 4260 4261 0
4263 -1 -54 -55 -77 0
-4263 1 0
-4263 54 0
-4263 55 0
-4263 77 0
4264 -7 -28 -54 -77 0
-4264 7 0
-4264 28 0
-4264 54 0
-4264 77 0
4265 -10 -25 -54 -77 0
-4265 10 0
-4265 25 0
-4265 54 0
-4265 77 0
-4263 4264 4265 0
-4264 4263 4265 0
-4265 4263 4264 0
4266 -1 -54 -56 -76 0
-4266 1 0
-4266 54 0
-4266 56 0
-4266 76 0
4267 -13 -34 -54 -56 0
-4267 13 0
-4267 34 0
-4267 54 0
-4267 56 0
4268 -16 -31 -54 -56 0
-4268 16 0
-4268 31 0
-4268 54 0
-4268 56 0
-4266 4267 4268 0
-4267 4266 4268 0
-4268 4266 4267 0
4269 -1 -54 -56 -77 0
-4269 1 0
-4269 54 0
-4269 56 0
-4269 77 0
4270 -1 -54 -59 -71 0
-4270 1 0
-4270 54 0
-4270 59 0
-4270 71 0
4271 -1 -54 -62 -68 0
-4271 1 0
-4271 54 0
-4271 62 0
-4271 68 0
-4269 4270 4271 0
-4270 4269 4271 0
-4271 4269 4270 0
4272 -2 -52 -56 -77 0
-4272 2 0
-4272 52 0
-4272 56 0
-4272 77 0
4273 -2 -52 -59 -71 0
-4273 2 0
-4273 52 0
-4273 59 0
-4273 71 0
4274 -2 -52 -62 -68 0
-4274 2 0
-4274 52 0
-4274 62 0
-4274 68 0
4275 -8 -29 -52 -77 0
-4275 8 0
-4275 29 0
-4275 52 0
-4275 77 0
4276 -8 -32 -52 -71 0
-4276 8 0
-4276 32 0
-4276 52 0
-4276 71 0
4277 -8 -35 -52 -68 0
-4277 8 0
-4277 35 0
-4277 52 0
-4277 68 0
4278 -11 -26 -52 -77 0
-4278 11 0
-4278 26 0
-4278 52 0
-4278 77 0
4279 -11 -32 -52 -62 0
-4279 11 0
-4279 32 0
-4279 52 0
-4279 62 0
4280 -11 -35 -52 -59 0
-4280 11 0
-4280 35 0
-4280 52 0
-4280 59 0
4281 -14 -26 -52 -71 0
-4281 14 0
-4281 26 0
-4281 52 0
-4281 71 0
4282 -14 -29 -52 -62 0
-4282 14 0
-4282 29 0
-4282 52 0
-4282 62 0
4283 -14 -35 -52 -56 0
-4283 14 0
-4283 35 0
-4283 52 0
-4283 56 0
4284 -17 -26 -52 -68 0
-4284 17 0
-4284 26 0
-4284 52 0
-4284 68 0
4285 -17 -29 -52 -59 0
-4285 17 0
-4285 29 0
-4285 52 0
-4285 59 0
4286 -17 -32 -52 -56 0
-4286 17 0
-4286 32 0
-4286 52 0
-4286 56 0
-4272 4273 4274 4275 4276 4277 4278 4279 4280 4281 4282 4283 4284 4285 4286 0
-4273 4272 4274 4275 4276 4277 4278 4279 4280 4281 4282 4283 4284 4285 4286 0
-4274 4272 4273 4275 4276 4277 4278 4279 4280 4281 4282 4283 4284 4285 4286 0
-4275 4272 4273 4274 4276 4277 4278 4279 4280 4281 4282 4283 4284 4285 4286 0
-4276 4272 4273 4274 4275 4277 4278 4279 4280 4281 4282 4283 4284 4285 4286 0
-4277 4272 4273 4274 4275 4276 4278 4279 4280 4281 4282 4283 4284 4285 4286 0
-4278 4272 4273 4274 4275 4276 4277 4279 4280 4281 4282 4283 4284 4285 4286 0
-4279 4272 4273 4274 4275 4276 4277 4278 4280 4281 4282 4283 4284 4285 4286 0
-4280 4272 4273 4274 4275 4276 4277 4278 4279 4281 4282 4283 4284 4285 4286 0
-4281 4272 4273 4274 4275 4276 4277 4278 4279 4280 4282 4283 4284 4285 4286 0
-4282 4272 4273 4274 4275 4276 4277 4278 4279 4280 4281 4283 4284 4285 4286 0
-4283 4272 4273 4274 4275 4276 4277 4278 4279 4280 4281 4282 4284 4285 4286 0
-4284 4272 4273 4274 4275 4276 4277 4278 4279 4280 4281 4282 4283 4285 4286 0
-4285 4272 4273 4274 4275 4276 4277 4278 4279 4280 4281 4282 4283 4284 4286 0
-4286 4272 4273 4274 4275 4276 4277 4278 4279 4280 4281 4282 4283 4284 4285 0
4287 -2 -52 -56 -78 0
-4287 2 0
-4287 52 0
-4287 56 0
-4287 78 0
4288 -8 -29 -52 -78 0
-4288 8 0
-4288 29 0
-4288 52 0
-4288 78 0
4289 -11 -26 -52 -78 0
-4289 11 0
-4289 26 0
-4289 52 0
-4289 78 0
-4287 4288 4289 0
-4288 4287 4289 0
-4289 4287 4288 0
4290 -2 -52 -57 -77 0
-4290 2 0
-4290 52 0
-4290 57 0
-4290 77 0
4291 -14 -35 -52 -57 0
-4291 14 0
-4291 35 0
-4291 52 0
-4291 57 0
4292 -17 -32 -52 -57 0
-4292 17 0
-4292 32 0
-4292 52 0
-4292 57 0
-4290 4291 4292 0
-4291 4290 4292 0
-4292 4290 4291 0
4293 -2 -52 -57 -78 0
-4293 2 0
-4293 52 0
-4293 57 0
-4293 78 0
4294 -2 -52 -60 -72 0
-4294 2 0
-4294 52 0
-4294 60 0
-4294 72 0
4295 -2 -52 -63 -69 0
-4295 2 0
-4295 52 0
-4295 63 0
-4295 69 0
-4293 4294 4295 0
-4294 4293 4295 0
-4295 4293 4294 0
4296 -2 -53 -55 -76 0
-4296 2 0
-4296 53 0
-4296 55 0
-4296 76 0
4297 -2 -53 -58 -70 0
-4297 2 0
-4297 53 0
-4297 58 0
-4297 70 0
4298 -2 -53 -61 -67 0
-4298 2 0
-4298 53 0
-4298 61 0
-4298 67 0
4299 -5 -38 -55 -76 0
-4299 5 0
-4299 38 0
-4299 55 0
-4299 76 0
4300 -5 -38 -58 -70 0
-4300 5 0
-4300 38 0
-4300 58 0
-4300 70 0
4301 -5 -38 -61 -67 0
-4301 5 0
-4301 38 0
-4301 61 0
-4301 67 0
4302 -20 -23 -55 -76 0
-4302 20 0
-4302 23 0
-4302 55 0
-4302 76 0
4303 -20 -23 -58 -70 0
-4303 20 0
-4303 23 0
-4303 58 0
-4303 70 0
4304 -20 -23 -61 -67 0
-4304 20 0
-4304 23 0
-4304 61 0
-4304 67 0
-4296 4297 4298 4299 4300 4301 4302 4303 4304 0
-4297 4296 4298 4299 4300 4301 4302 4303 4304 0
-4298 4296 4297 4299 4300 4301 4302 4303 4304 0
-4299 4296 4297 4298 4300 4301 4302 4303 4304 0
-4300 4296 4297 4298 4299 4301 4302 4303 4304 0
-4301 4296 4297 4298 4299 4300 4302 4303 4304 0
-4302 4296 4297 4298 4299 4300 4301 4303 4304 0
-4303 4296 4297 4298 4299 4300 4301 4302 4304 0
-4304 4296 4297 4298 4299 4300 4301 4302 4303 0
4305 -2 -53 -55 -78 0
-4305 2 0
-4305 53 0
-4305 55 0
-4305 78 0
4306 -5 -38 -55 -78 0
-4306 5 0
-4306 38 0
-4306 55 0
-4306 78 0
4307 -20 -23 -55 -78 0
-4307 20 0
-4307 23 0
-4307 55 0
-4307 78 0
-4305 4306 4307 0
-4306 4305 4307 0
-4307 4305 4306 0
4308 -2 -53 -57 -76 0
-4308 2 0
-4308 53 0
-4308 57 0
-4308 76 0
4309 -5 -38 -57 -76 0
-4309 5 0
-4309 38 0
-4309 57 0
-4309 76 0
4310 -20 -23 -57 -76 0
-4310 20 0
-4310 23 0
-4310 57 0
-4310 76 0
-4308 4309 4310 0
-4309 4308 4310 0
-4310 4308 4309 0
4311 -2 -53 -57 -78 0
-4311 2 0
-4311 53 0
-4311 57 0
-4311 78 0
4312 -2 -53 -60 -72 0
-4312 2 0
-4312 53 0
-4312 60 0
-4312 72 0
4313 -2 -53 -63 -69 0
-4313 2 0
-4313 53 0
-4313 63 0
-4313 69 0
4314 -5 -38 -57 -78 0
-4314 5 0
-4314 38 0
-4314 57 0
-4314 78 0
4315 -5 -38 -60 -72 0
-4315 5 0
-4315 38 0
-4315 60 0
-4315 72 0
4316 -5 -38 -63 -69 0
-4316 5 0
-4316 38 0
-4316 63 0
-4316 69 0
4317 -20 -23 -57 -78 0
-4317 20 0
-4317 23 0
-4317 57 0
-4317 78 0
4318 -20 -23 -60 -72 0
-4318 20 0
-4318 23 0
-4318 60 0
-4318 72 0
4319 -20 -23 -63 -69 0
-4319 20 0
-4319 23 0
-4319 63 0
-4319 69 0
-4311 4312 4313 4314 4315 4316 4317 4318 4319 0
-4312 4311 4313 4314 4315 4316 4317 4318 4319 0
-4313 4311 4312 4314 4315 4316 4317 4318 4319 0
-4314 4311 4312 4313 4315 4316 4317 4318 4319 0
-4315 4311 4312 4313 4314 4316 4317 4318 4319 0
-4316 4311 4312 4313 4314 4315 4317 4318 4319 0
-4317 4311 4312 4313 4314 4315 4316 4318 4319 0
-4318 4311 4312 4313 4314 4315 4316 4317 4319 0
-4319 4311 4312 4313 4314 4315 4316 4317 4318 0
4320 -2 -54 -55 -76 0
-4320 2 0
-4320 54 0
-4320 55 0
-4320 76 0
4321 -2 -54 -58 -70 0
-4321 2 0
-4321 54 0
-4321 58 0
-4321 70 0
4322 -2 -54 -61 -67 0
-4322 2 0
-4322 54 0
-4322 61 0
-4322 67 0
-4320 4321 4322 0
-4321 4320 4322 0
-4322 4320 4321 0
4323 -2 -54 -55 -77 0
-4323 2 0
-4323 54 0
-4323 55 0
-4323 77 0
4324 -14 -35 -54 -55 0
-4324 14 0
-4324 35 0
-4324 54 0
-4324 55 0
4325 -17 -32 -54 -55 0
-4325 17 0
-4325 32 0
-4325 54 0
-4325 55 0
-4323 4324 4325 0
-4324 4323 4325 0
-4325 4323 4324 0
4326 -2 -54 -56 -76 0
-4326 2 0
-4326 54 0
-4326 56 0
-4326 76 0
4327 -8 -29 -54 -76 0
-4327 8 0
-4327 29 0
-4327 54 0
-4327 76 0
4328 -11 -26 -54 -76 0
-4328 11 0
-4328 26 0
-4328 54 0
-4328 76 0
-4326 4327 4328 0
-4327 4326 4328 0
-4328 4326 4327 0
4329 -2 -54 -56 -77 0
-4329 2 0
-4329 54 0
-4329 56 0
-4329 77 0
4330 -2 -54 -59 -71 0
-4330 2 0
-4330 54 0
-4330 59 0
-4330 71 0
4331 -2 -54 -62 -68 0
-4331 2 0
-4331 54 0
-4331 62 0
-4331 68 0
4332 -8 -29 -54 -77 0
-4332 8 0
-4332 29 0
-4332 54 0
-4332 77 0
4333 -8 -32 -54 -71 0
-4333 8 0
-4333 32 0
-4333 54 0
-4333 71 0
4334 -8 -35 -54 -68 0
-4334 8 0
-4334 35 0
-4334 54 0
-4334 68 0
4335 -11 -26 -54 -77 0
-4335 11 0
-4335 26 0
-4335 54 0
-4335 77 0
4336 -11 -32 -54 -62 0
-4336 11 0
-4336 32 0
-4336 54 0
-4336 62 0
4337 -11 -35 -54 -59 0
-4337 11 0
-4337 35 0
-4337 54 0
-4337 59 0
4338 -14 -26 -54 -71 0
-4338 14 0
-4338 26 0
-4338 54 0
-4338 71 0
4339 -14 -29 -54 -62 0
-4339 14 0
-4339 29 0
-4339 54 0
-4339 62 0
4340 -14 -35 -54 -56 0
-4340 14 0
-4340 35 0
-4340 54 0
-4340 56 0
4341 -17 -26 -54 -68 0
-4341 17 0
-4341 26 0
-4341 54 0
-4341 68 0
4342 -17 -29 -54 -59 0
-4342 17 0
-4342 29 0
-4342 54 0
-4342 59 0
4343 -17 -32 -54 -56 0
-4343 17 0
-4343 32 0
-4343 54 0
-4343 56 0
-4329 4330 4331 4332 4333 4334 4335 4336 4337 4338 4339 4340 4341 4342 4343 0
-4330 4329 4331 4332 4333 4334 4335 4336 4337 4338 4339 4340 4341 4342 4343 0
-4331 4329 4330 4332 4333 4334 4335 4336 4337 4338 4339 4340 4341 4342 4343 0
-4332 4329 4330 4331 4333 4334 4335 4336 4337 4338 4339 4340 4341 4342 4343 0
-4333 4329 4330 4331 4332 4334 4335 4336 4337 4338 4339 4340 4341 4342 4343 0
-4334 4329 4330 4331 4332 4333 4335 4336 4337 4338 4339 4340 4341 4342 4343 0
-4335 4329 4330 4331 4332 4333 4334 4336 4337 4338 4339 4340 4341 4342 4343 0
-4336 4329 4330 4331 4332 4333 4334 4335 4337 4338 4339 4340 4341 4342 4343 0
-4337 4329 4330 4331 4332 4333 4334 4335 4336 4338 4339 4340 4341 4342 4343 0
-4338 4329 4330 4331 4332 4333 4334 4335 4336 4337 4339 4340 4341 4342 4343 0
-4339 4329 4330 4331 4332 4333 4334 4335 4336 4337 4338 4340 4341 4342 4343 0
-4340 4329 4330 4331 4332 4333 4334 4335 4336 4337 4338 4339 4341 4342 4343 0
-4341 4329 4330 4331 4332 4333 4334 4335 4336 4337 4338 4339 4340 4342 4343 0
-4342 4329 4330 4331 4332 4333 4334 4335 4336 4337 4338 4339 4340 4341 4343 0
-4343 4329 4330 4331 4332 4333 4334 4335 4336 4337 4338 4339 4340 4341 4342 0
4344 -3 -52 -56 -77 0
-4344 3 0
-4344 52 0
-4344 56 0
-4344 77 0
4345 -3 -52 -59 -71 0
-4345 3 0
-4345 52 0
-4345 59 0
-4345 71 0
4346 -3 -52 -62 -68 0
-4346 3 0
-4346 52 0
-4346 62 0
-4346 68 0
-4344 4345 4346 0
-4345 4344 4346 0
-4346 4344 4345 0
4347 -3 -52 -56 -78 0
-4347 3 0
-4347 52 0
-4347 56 0
-4347 78 0
4348 -15 -36 -52 -56 0
-4348 15 0
-4348 36 0
-4348 52 0
-4348 56 0
4349 -18 -33 -52 -56 0
-4349 18 0
-4349 33 0
-4349 52 0
-4349 56 0
-4347 4348 4349 0
-4348 4347 4349 0
-4349 4347 4348 0
4350 -3 -52 -57 -77 0
-4350 3 0
-4350 52 0
-4350 57 0
-4350 77 0
4351 -9 -30 -52 -77 0
-4351 9 0
-4351 30 0
-4351 52 0
-4351 77 0
4352 -12 -27 -52 -77 0
-4352 12 0
-4352 27 0
-4352 52 0
-4352 77 0
-4350 4351 4352 0
-4351 4350 4352 0
-4352 4350 4351 0
4353 -3 -52 -57 -78 0
-4353 3 0
-4353 52 0
-4353 57 0
-4353 78 0
4354 -3 -52 -60 -72 0
-4354 3 0
-4354 52 0
-4354 60 0
-4354 72 0
4355 -3 -52 -63 -69 0
-4355 3 0
-4355 52 0
-4355 63 0
-4355 69 0
4356 -9 -30 -52 -78 0
-4356 9 0
-4356 30 0
-4356 52 0
-4356 78 0
4357 -9 -33 -52 -72 0
-4357 9 0
-4357 33 0
-4357 52 0
-4357 72 0
4358 -9 -36 -52 -69 0
-4358 9 0
-4358 36 0
-4358 52 0
-4358 69 0
4359 -12 -27 -52 -78 0
-4359 12 0
-4359 27 0
-4359 52 0
-4359 78 0
4360 -12 -33 -52 -63 0
-4360 12 0
-4360 33 0
-4360 52 0
-4360 63 0
4361 -12 -36 -52 -60 0
-4361 12 0
-4361 36 0
-4361 52 0
-4361 60 0
4362 -15 -27 -52 -72 0
-4362 15 0
-4362 27 0
-4362 52 0
-4362 72 0
4363 -15 -30 -52 -63 0
-4363 15 0
-4363 30 0
-4363 52 0
-4363 63 0
4364 -15 -36 -52 -57 0
-4364 15 0
-4364 36 0
-4364 52 0
-4364 57 0
4365 -18 -27 -52 -69 0
-4365 18 0
-4365 27 0
-4365 52 0
-4365 69 0
4366 -18 -30 -52 -60 0
-4366 18 0
-4366 30 0
-4366 52 0
-4366 60 0
4367 -18 -33 -52 -57 0
-4367 18 0
-4367 33 0
-4367 52 0
-4367 57 0
-4353 4354 4355 4356 4357 4358 4359 4360 4361 4362 4363 4364 4365 4366 4367 0
-4354 4353 4355 4356 4357 4358 4359 4360 4361 4362 4363 4364 4365 4366 4367 0
-4355 4353 4354 4356 4357 4358 4359 4360 4361 4362 4363 4364 4365 4366 4367 0
-4356 4353 4354 4355 4357 4358 4359 4360 4361 4362 4363 4364 4365 4366 4367 0
-4357 4353 4354 4355 4356 4358 4359 4360 4361 4362 4363 4364 4365 4366 4367 0
-4358 4353 4354 4355 4356 4357 4359 4360 4361 4362 4363 4364 4365 4366 4367 0
-4359 4353 4354 4355 4356 4357 4358 4360 4361 4362 4363 4364 4365 4366 4367 0
-4360 4353 4354 4355 4356 4357 4358 4359 4361 4362 4363 4364 4365 4366 4367 0
-4361 4353 4354 4355 4356 4357 4358 4359 4360 4362 4363 4364 4365 4366 4367 0
-4362 4353 4354 4355 4356 4357 4358 4359 4360 4361 4363 4364 4365 4366 4367 0
-4363 4353 4354 4355 4356 4357 4358 4359 4360 4361 4362 4364 4365 4366 4367 0
-4364 4353 4354 4355 4356 4357 4358 4359 4360 4361 4362 4363 4365 4366 4367 0
-4365 4353 4354 4355 4356 4357 4358 4359 4360 4361 4362 4363 4364 4366 4367 0
-4366 4353 4354 4355 4356 4357 4358 4359 4360 4361 4362 4363 4364 4365 4367 0
-4367 4353 4354 4355 4356 4357 4358 4359 4360 4361 4362 4363 4364 4365 4366 0
4368 -3 -53 -55 -76 0
-4368 3 0
-4368 53 0
-4368 55 0
-4368 76 0
4369 -3 -53 -58 -70 0
-4369 3 0
-4369 53 0
-4369 58 0
-4369 70 0
4370 -3 -53 -61 -67 0
-4370 3 0
-4370 53 0
-4370 61 0
-4370 67 0
-4368 4369 4370 0
-4369 4368 4370 0
-4370 4368 4369 0
4371 -3 -53 -55 -78 0
-4371 3 0
-4371 53 0
-4371 55 0
-4371 78 0
4372 -15 -36 -53 -55 0
-4372 15 0
-4372 36 0
-4372 53 0
-4372 55 0
4373 -18 -33 -53 -55 0
-4373 18 0
-4373 33 0
-4373 53 0
-4373 55 0
-4371 4372 4373 0
-4372 4371 4373 0
-4373 4371 4372 0
4374 -3 -53 -57 -76 0
-4374 3 0
-4374 53 0
-4374 57 0
-4374 76 0
4375 -9 -30 -53 -76 0
-4375 9 0
-4375 30 0
-4375 53 0
-4375 76 0
4376 -12 -27 -53 -76 0
-4376 12 0
-4376 27 0
-4376 53 0
-4376 76 0
-4374 4375 4376 0
-4375 4374 4376 0
-4376 4374 4375 0
4377 -3 -53 -57 -78 0
-4377 3 0
-4377 53 0
-4377 57 0
-4377 78 0
4378 -3 -53 -60 -72 0
-4378 3 0
-4378 53 0
-4378 60 0
-4378 72 0
4379 -3 -53 -63 -69 0
-4379 3 0
-4379 53 0
-4379 63 0
-4379 69 0
4380 -9 -30 -53 -78 0
-4380 9 0
-4380 30 0
-4380 53 0
-4380 78 0
4381 -9 -33 -53 -72 0
-4381 9 0
-4381 33 0
-4381 53 0
-4381 72 0
4382 -9 -36 -53 -69 0
-4382 9 0
-4382 36 0
-4382 53 0
-4382 69 0
4383 -12 -27 -53 -78 0
-4383 12 0
-4383 27 0
-4383 53 0
-4383 78 0
4384 -12 -33 -53 -63 0
-4384 12 0
-4384 33 0
-4384 53 0
-4384 63 0
4385 -12 -36 -53 -60 0
-4385 12 0
-4385 36 0
-4385 53 0
-4385 60 0
4386 -15 -27 -53 -72 0
-4386 15 0
-4386 27 0
-4386 53 0
-4386 72 0
4387 -15 -30 -53 -63 0
-4387 15 0
-4387 30 0
-4387 53 0
-4387 63 0
4388 -15 -36 -53 -57 0
-4388 15 0
-4388 36 0
-4388 53 0
-4388 57 0
4389 -18 -27 -53 -69 0
-4389 18 0
-4389 27 0
-4389 53 0
-4389 69 0
4390 -18 -30 -53 -60 0
-4390 18 0
-4390 30 0
-4390 53 0
-4390 60 0
4391 -18 -33 -53 -57 0
-4391 18 0
-4391 33 0
-4391 53 0
-4391 57 0
-4377 4378 4379 4380 4381 4382 4383 4384 4385 4386 4387 4388 4389 4390 4391 0
-4378 4377 4379 4380 4381 4382 4383 4384 4385 4386 4387 4388 4389 4390 4391 0
-4379 4377 4378 4380 4381 4382 4383 4384 4385 4386 4387 4388 4389 4390 4391 0
-4380 4377 4378 4379 4381 4382 4383 4384 4385 4386 4387 4388 4389 4390 4391 0
-4381 4377 4378 4379 4380 4382 4383 4384 4385 4386 4387 4388 4389 4390 4391 0
-4382 4377 4378 4379 4380 4381 4383 4384 4385 4386 4387 4388 4389 4390 4391 0
-4383 4377 4378 4379 4380 4381 4382 4384 4385 4386 4387 4388 4389 4390 4391 0
-4384 4377 4378 4379 4380 4381 4382 4383 4385 4386 4387 4388 4389 4390 4391 0
-4385 4377 4378 4379 4380 4381 4382 4383 4384 4386 4387 4388 4389 4390 4391 0
-4386 4377 4378 4379 4380 4381 4382 4383 4384 4385 4387 4388 4389 4390 4391 0
-4387 4377 4378 4379 4380 4381 4382 4383 4384 4385 4386 4388 4389 4390 4391 0
-4388 4377 4378 4379 4380 4381 4382 4383 4384 4385 4386 4387 4389 4390 4391 0
-4389 4377 4378 4379 4380 4381 4382 4383 4384 4385 4386 4387 4388 4390 4391 0
-4390 4377 4378 4379 4380 4381 4382 4383 4384 4385 4386 4387 4388 4389 4391 0
-4391 4377 4378 4379 4380 4381 4382 4383 4384 4385 4386 4387 4388 4389 4390 0
4392 -3 -54 -55 -76 0
-4392 3 0
-4392 54 0
-4392 55 0
-4392 76 0
4393 -3 -54 -58 -70 0
-4393 3 0
-4393 54 0
-4393 58 0
-4393 70 0
4394 -3 -54 -61 -67 0
-4394 3 0
-4394 54 0
-4394 61 0
-4394 67 0
4395 -6 -39 -55 -76 0
-4395 6 0
-4395 39 0
-4395 55 0
-4395 76 0
4396 -6 -39 -58 -70 0
-4396 6 0
-4396 39 0
-4396 58 0
-4396 70 0
4397 -6 -39 -61 -67 0
-4397 6 0
-4397 39 0
-4397 61 0
-4397 67 0
4398 -21 -24 -55 -76 0
-4398 21 0
-4398 24 0
-4398 55 0
-4398 76 0
4399 -21 -24 -58 -70 0
-4399 21 0
-4399 24 0
-4399 58 0
-4399 70 0
4400 -21 -24 -61 -67 0
-4400 21 0
-4400 24 0
-4400 61 0
-4400 67 0
-4392 4393 4394 4395 4396 4397 4398 4399 4400 0
-4393 4392 4394 4395 4396 4397 4398 4399 4400 0
-4394 4392 4393 4395 4396 4397 4398 4399 4400 0
-4395 4392 4393 4394 4396 4397 4398 4399 4400 0
-4396 4392 4393 4394 4395 4397 4398 4399 4400 0
-4397 4392 4393 4394 4395 4396 4398 4399 4400 0
-4398 4392 4393 4394 4395 4396 4397 4399 4400 0
-4399 4392 4393 4394 4395 4396 4397 4398 4400 0
-4400 4392 4393 4394 4395 4396 4397 4398 4399 0
4401 -3 -54 -55 -77 0
-4401 3 0
-4401 54 0
-4401 55 0
-4401 77 0
4402 -6 -39 -55 -77 0
-4402 6 0
-4402 39 0
-4402 55 0
-4402 77 0
4403 -21 -24 -55 -77 0
-4403 21 0
-4403 24 0
-4403 55 0
-4403 77 0
-4401 4402 4403 0
-4402 4401 4403 0
-4403 4401 4402 0
4404 -3 -54 -56 -76 0
-4404 3 0
-4404 54 0
-4404 56 0
-4404 76 0
4405 -6 -39 -56 -76 0
-4405 6 0
-4405 39 0
-4405 56 0
-4405 76 0
4406 -21 -24 -56 -76 0
-4406 21 0
-4406 24 0
-4406 56 0
-4406 76 0
-4404 4405 4406 0
-4405 4404 4406 0
-4406 4404 4405 0
4407 -3 -54 -56 -77 0
-4407 3 0
-4407 54 0
-4407 56 0
-4407 77 0
4408 -3 -54 -59 -71 0
-4408 3 0
-4408 54 0
-4408 59 0
-4408 71 0
4409 -3 -54 -62 -68 0
-4409 3 0
-4409 54 0
-4409 62 0
-4409 68 0
4410 -6 -39 -56 -77 0
-4410 6 0
-4410 39 0
-4410 56 0
-4410 77 0
4411 -6 -39 -59 -71 0
-4411 6 0
-4411 39 0
-4411 59 0
-4411 71 0
4412 -6 -39 -62 -68 0
-4412 6 0
-4412 39 0
-4412 62 0
-4412 68 0
4413 -21 -24 -56 -77 0
-4413 21 0
-4413 24 0
-4413 56 0
-4413 77 0
4414 -21 -24 -59 -71 0
-4414 21 0
-4414 24 0
-4414 59 0
-4414 71 0
4415 -21 -24 -62 -68 0
-4415 21 0
-4415 24 0
-4415 62 0
-4415 68 0
-4407 4408 4409 4410 4411 4412 4413 4414 4415 0
-4408 4407 4409 4410 4411 4412 4413 4414 4415 0
-4409 4407 4408 4410 4411 4412 4413 4414 4415 0
-4410 4407 4408 4409 4411 4412 4413 4414 4415 0
-4411 4407 4408 4409 4410 4412 4413 4414 4415 0
-4412 4407 4408 4409 4410 4411 4413 4414 4415 0
-4413 4407 4408 4409 4410 4411 4412 4414 4415 0
-4414 4407 4408 4409 4410 4411 4412 4413 4415 0
-4415 4407 4408 4409 4410 4411 4412 4413 4414 0
4416 -1 -52 -59 -72 0
-4416 1 0
-4416 52 0
-4416 59 0
-4416 72 0
4417 -4 -37 -59 -72 0
-4417 4 0
-4417 37 0
-4417 59 0
-4417 72 0
4418 -19 -22 -59 -72 0
-4418 19 0
-4418 22 0
-4418 59 0
-4418 72 0
-4416 4417 4418 0
-4417 4416 4418 0
-4418 4416 4417 0
4419 -1 -52 -60 -71 0
-4419 1 0
-4419 52 0
-4419 60 0
-4419 71 0
4420 -4 -37 -60 -71 0
-4420 4 0
-4420 37 0
-4420 60 0
-4420 71 0
4421 -19 -22 -60 -71 0
-4421 19 0
-4421 22 0
-4421 60 0
-4421 71 0
-4419 4420 4421 0
-4420 4419 4421 0
-4421 4419 4420 0
4422 -1 -53 -58 -72 0
-4422 1 0
-4422 53 0
-4422 58 0
-4422 72 0
4423 -7 -31 -53 -72 0
-4423 7 0
-4423 31 0
-4423 53 0
-4423 72 0
4424 -13 -25 -53 -72 0
-4424 13 0
-4424 25 0
-4424 53 0
-4424 72 0
-4422 4423 4424 0
-4423 4422 4424 0
-4424 4422 4423 0
4425 -1 -53 -60 -70 0
-4425 1 0
-4425 53 0
-4425 60 0
-4425 70 0
4426 -10 -34 -53 -60 0
-4426 10 0
-4426 34 0
-4426 53 0
-4426 60 0
4427 -16 -28 -53 -60 0
-4427 16 0
-4427 28 0
-4427 53 0
-4427 60 0
-4425 4426 4427 0
-4426 4425 4427 0
-4427 4425 4426 0
4428 -1 -54 -58 -71 0
-4428 1 0
-4428 54 0
-4428 58 0
-4428 71 0
4429 -7 -31 -54 -71 0
-4429 7 0
-4429 31 0
-4429 54 0
-4429 71 0
4430 -13 -25 -54 -71 0
-4430 13 0
-4430 25 0
-4430 54 0
-4430 71 0
-4428 4429 4430 0
-4429 4428 4430 0
-4430 4428 4429 0
4431 -1 -54 -59 -70 0
-4431 1 0
-4431 54 0
-4431 59 0
-4431 70 0
4432 -10 -34 -54 -59 0
-4432 10 0
-4432 34 0
-4432 54 0
-4432 59 0
4433 -16 -28 -54 -59 0
-4433 16 0
-4433 28 0
-4433 54 0
-4433 59 0
-4431 4432 4433 0
-4432 4431 4433 0
-4433 4431 4432 0
4434 -2 -52 -59 -72 0
-4434 2 0
-4434 52 0
-4434 59 0
-4434 72 0
4435 -8 -32 -52 -72 0
-4435 8 0
-4435 32 0
-4435 52 0
-4435 72 0
4436 -14 -26 -52 -72 0
-4436 14 0
-4436 26 0
-4436 52 0
-4436 72 0
-4434 4435 4436 0
-4435 4434 4436 0
-4436 4434 4435 0
4437 -2 -52 -60 -71 0
-4437 2 0
-4437 52 0
-4437 60 0
-4437 71 0
4438 -11 -35 -52 -60 0
-4438 11 0
-4438 35 0
-4438 52 0
-4438 60 0
4439 -17 -29 -52 -60 0
-4439 17 0
-4439 29 0
-4439 52 0
-4439 60 0
-4437 4438 4439 0
-4438 4437 4439 0
-4439 4437 4438 0
4440 -2 -53 -58 -72 0
-4440 2 0
-4440 53 0
-4440 58 0
-4440 72 0
4441 -5 -38 -58 -72 0
-4441 5 0
-4441 38 0
-4441 58 0
-4441 72 0
4442 -20 -23 -58 -72 0
-4442 20 0
-4442 23 0
-4442 58 0
-4442 72 0
-4440 4441 4442 0
-4441 4440 4442 0
-4442 4440 4441 0
4443 -2 -53 -60 -70 0
-4443 2 0
-4443 53 0
-4443 60 0
-4443 70 0
4444 -5 -38 -60 -70 0
-4444 5 0
-4444 38 0
-4444 60 0
-4444 70 0
4445 -20 -23 -60 -70 0
-4445 20 0
-4445 23 0
-4445 60 0
-4445 70 0
-4443 4444 4445 0
-4444 4443 4445 0
-4445 4443 4444 0
4446 -2 -54 -58 -71 0
-4446 2 0
-4446 54 0
-4446 58 0
-4446 71 0
4447 -11 -35 -54 -58 0
-4447 11 0
-4447 35 0
-4447 54 0
-4447 58 0
4448 -17 -29 -54 -58 0
-4448 17 0
-4448 29 0
-4448 54 0
-4448 58 0
-4446 4447 4448 0
-4447 4446 4448 0
-4448 4446 4447 0
4449 -2 -54 -59 -70 0
-4449 2 0
-4449 54 0
-4449 59 0
-4449 70 0
4450 -8 -32 -54 -70 0
-4450 8 0
-4450 32 0
-4450 54 0
-4450 70 0
4451 -14 -26 -54 -70 0
-4451 14 0
-4451 26 0
-4451 54 0
-4451 70 0
-4449 4450 4451 0
-4450 4449 4451 0
-4451 4449 4450 0
4452 -3 -52 -59 -72 0
-4452 3 0
-4452 52 0
-4452 59 0
-4452 72 0
4453 -12 -36 -52 -59 0
-4453 12 0
-4453 36 0
-4453 52 0
-4453 59 0
4454 -18 -30 -52 -59 0
-4454 18 0
-4454 30 0
-4454 52 0
-4454 59 0
-4452 4453 4454 0
-4453 4452 4454 0
-4454 4452 4453 0
4455 -3 -52 -60 -71 0
-4455 3 0
-4455 52 0
-4455 60 0
-4455 71 0
4456 -9 -33 -52 -71 0
-4456 9 0
-4456 33 0
-4456 52 0
-4456 71 0
4457 -15 -27 -52 -71 0
-4457 15 0
-4457 27 0
-4457 52 0
-4457 71 0
-4455 4456 4457 0
-4456 4455 4457 0
-4457 4455 4456 0
4458 -3 -53 -58 -72 0
-4458 3 0
-4458 53 0
-4458 58 0
-4458 72 0
4459 -12 -36 -53 -58 0
-4459 12 0
-4459 36 0
-4459 53 0
-4459 58 0
4460 -18 -30 -53 -58 0
-4460 18 0
-4460 30 0
-4460 53 0
-4460 58 0
-4458 4459 4460 0
-4459 4458 4460 0
-4460 4458 4459 0
4461 -3 -53 -60 -70 0
-4461 3 0
-4461 53 0
-4461 60 0
-4461 70 0
4462 -9 -33 -53 -70 0
-4462 9 0
-4462 33 0
-4462 53 0
-4462 70 0
4463 -15 -27 -53 -70 0
-4463 15 0
-4463 27 0
-4463 53 0
-4463 70 0
-4461 4462 4463 0
-4462 4461 4463 0
-4463 4461 4462 0
4464 -3 -54 -58 -71 0
-4464 3 0
-4464 54 0
-4464 58 0
-4464 71 0
4465 -6 -39 -58 -71 0
-4465 6 0
-4465 39 0
-4465 58 0
-4465 71 0
4466 -21 -24 -58 -71 0
-4466 21 0
-4466 24 0
-4466 58 0
-4466 71 0
-4464 4465 4466 0
-4465 4464 4466 0
-4466 4464 4465 0
4467 -3 -54 -59 -70 0
-4467 3 0
-4467 54 0
-4467 59 0
-4467 70 0
4468 -6 -39 -59 -70 0
-4468 6 0
-4468 39 0
-4468 59 0
-4468 70 0
4469 -21 -24 -59 -70 0
-4469 21 0
-4469 24 0
-4469 59 0
-4469 70 0
-4467 4468 4469 0
-4468 4467 4469 0
-4469 4467 4468 0
4470 -1 -52 -62 -69 0
-4470 1 0
-4470 52 0
-4470 62 0
-4470 69 0
4471 -4 -37 -62 -69 0
-4471 4 0
-4471 37 0
-4471 62 0
-4471 69 0
4472 -19 -22 -62 -69 0
-4472 19 0
-4472 22 0
-4472 62 0
-4472 69 0
-4470 4471 4472 0
-4471 4470 4472 0
-4472 4470 4471 0
4473 -1 -52 -63 -68 0
-4473 1 0
-4473 52 0
-4473 63 0
-4473 68 0
4474 -4 -37 -63 -68 0
-4474 4 0
-4474 37 0
-4474 63 0
-4474 68 0
4475 -19 -22 -63 -68 0
-4475 19 0
-4475 22 0
-4475 63 0
-4475 68 0
-4473 4474 4475 0
-4474 4473 4475 0
-4475 4473 4474 0
4476 -1 -53 -61 -69 0
-4476 1 0
-4476 53 0
-4476 61 0
-4476 69 0
4477 -7 -34 -53 -69 0
-4477 7 0
-4477 34 0
-4477 53 0
-4477 69 0
4478 -16 -25 -53 -69 0
-4478 16 0
-4478 25 0
-4478 53 0
-4478 69 0
-4476 4477 4478 0
-4477 4476 4478 0
-4478 4476 4477 0
4479 -1 -53 -63 -67 0
-4479 1 0
-4479 53 0
-4479 63 0
-4479 67 0
4480 -10 -31 -53 -63 0
-4480 10 0
-4480 31 0
-4480 53 0
-4480 63 0
4481 -13 -28 -53 -63 0
-4481 13 0
-4481 28 0
-4481 53 0
-4481 63 0
-4479 4480 4481 0
-4480 4479 4481 0
-4481 4479 4480 0
4482 -1 -54 -61 -68 0
-4482 1 0
-4482 54 0
-4482 61 0
-4482 68 0
4483 -7 -34 -54 -68 0
-4483 7 0
-4483 34 0
-4483 54 0
-4483 68 0
4484 -16 -25 -54 -68 0
-4484 16 0
-4484 25 0
-4484 54 0
-4484 68 0
-4482 4483 4484 0
-4483 4482 4484 0
-4484 4482 4483 0
4485 -1 -54 -62 -67 0
-4485 1 0
-4485 54 0
-4485 62 0
-4485 67 0
4486 -10 -31 -54 -62 0
-4486 10 0
-4486 31 0
-4486 54 0
-4486 62 0
4487 -13 -28 -54 -62 0
-4487 13 0
-4487 28 0
-4487 54 0
-4487 62 0
-4485 4486 4487 0
-4486 4485 4487 0
-4487 4485 4486 0
4488 -2 -52 -62 -69 0
-4488 2 0
-4488 52 0
-4488 62 0
-4488 69 0
4489 -8 -35 -52 -69 0
-4489 8 0
-4489 35 0
-4489 52 0
-4489 69 0
4490 -17 -26 -52 -69 0
-4490 17 0
-4490 26 0
-4490 52 0
-4490 69 0
-4488 4489 4490 0
-4489 4488 4490 0
-4490 4488 4489 0
4491 -2 -52 -63 -68 0
-4491 2 0
-4491 52 0
-4491 63 0
-4491 68 0
4492 -11 -32 -52 -63 0
-4492 11 0
-4492 32 0
-4492 52 0
-4492 63 0
4493 -14 -29 -52 -63 0
-4493 14 0
-4493 29 0
-4493 52 0
-4493 63 0
-4491 4492 4493 0
-4492 4491 4493 0
-4493 4491 4492 0
4494 -2 -53 -61 -69 0
-4494 2 0
-4494 53 0
-4494 61 0
-4494 69 0
4495 -5 -38 -61 -69 0
-4495 5 0
-4495 38 0
-4495 61 0
-4495 69 0
4496 -20 -23 -61 -69 0
-4496 20 0
-4496 23 0
-4496 61 0
-4496 69 0
-4494 4495 4496 0
-4495 4494 4496 0
-4496 4494 4495 0
4497 -2 -53 -63 -67 0
-4497 2 0
-4497 53 0
-4497 63 0
-4497 67 0
4498 -5 -38 -63 -67 0
-4498 5 0
-4498 38 0
-4498 63 0
-4498 67 0
4499 -20 -23 -63 -67 0
-4499 20 0
-4499 23 0
-4499 63 0
-4499 67 0
-4497 4498 4499 0
-4498 4497 4499 0
-4499 4497 4498 0
4500 -2 -54 -61 -68 0
-4500 2 0
-4500 54 0
-4500 61 0
-4500 68 0
4501 -11 -32 -54 -61 0
-4501 11 0
-4501 32 0
-4501 54 0
-4501 61 0
4502 -14 -29 -54 -61 0
-4502 14 0
-4502 29 0
-4502 54 0
-4502 61 0
-4500 4501 4502 0
-4501 4500 4502 0
-4502 4500 4501 0
4503 -2 -54 -62 -67 0
-4503 2 0
-4503 54 0
-4503 62 0
-4503 67 0
4504 -8 -35 -54 -67 0
-4504 8 0
-4504 35 0
-4504 54 0
-4504 67 0
4505 -17 -26 -54 -67 0
-4505 17 0
-4505 26 0
-4505 54 0
-4505 67 0
-4503 4504 4505 0
-4504 4503 4505 0
-4505 4503 4504 0
4506 -3 -52 -62 -69 0
-4506 3 0
-4506 52 0
-4506 62 0
-4506 69 0
4507 -12 -33 -52 -62 0
-4507 12 0
-4507 33 0
-4507 52 0
-4507 62 0
4508 -15 -30 -52 -62 0
-4508 15 0
-4508 30 0
-4508 52 0
-4508 62 0
-4506 4507 4508 0
-4507 4506 4508 0
-4508 4506 4507 0
4509 -3 -52 -63 -68 0
-4509 3 0
-4509 52 0
-4509 63 0
-4509 68 0
4510 -9 -36 -52 -68 0
-4510 9 0
-4510 36 0
-4510 52 0
-4510 68 0
4511 -18 -27 -52 -68 0
-4511 18 0
-4511 27 0
-4511 52 0
-4511 68 0
-4509 4510 4511 0
-4510 4509 4511 0
-4511 4509 4510 0
4512 -3 -53 -61 -69 0
-4512 3 0
-4512 53 0
-4512 61 0
-4512 69 0
4513 -12 -33 -53 -61 0
-4513 12 0
-4513 33 0
-4513 53 0
-4513 61 0
4514 -15 -30 -53 -61 0
-4514 15 0
-4514 30 0
-4514 53 0
-4514 61 0
-4512 4513 4514 0
-4513 4512 4514 0
-4514 4512 4513 0
4515 -3 -53 -63 -67 0
-4515 3 0
-4515 53 0
-4515 63 0
-4515 67 0
4516 -9 -36 -53 -67 0
-4516 9 0
-4516 36 0
-4516 53 0
-4516 67 0
4517 -18 -27 -53 -67 0
-4517 18 0
-4517 27 0
-4517 53 0
-4517 67 0
-4515 4516 4517 0
-4516 4515 4517 0
-4517 4515 4516 0
4518 -3 -54 -61 -68 0
-4518 3 0
-4518 54 0
-4518 61 0
-4518 68 0
4519 -6 -39 -61 -68 0
-4519 6 0
-4519 39 0
-4519 61 0
-4519 68 0
4520 -21 -24 -61 -68 0
-4520 21 0
-4520 24 0
-4520 61 0
-4520 68 0
-4518 4519 4520 0
-4519 4518 4520 0
-4520 4518 4519 0
4521 -3 -54 -62 -67 0
-4521 3 0
-4521 54 0
-4521 62 0
-4521 67 0
4522 -6 -39 -62 -67 0
-4522 6 0
-4522 39 0
-4522 62 0
-4522 67 0
4523 -21 -24 -62 -67 0
-4523 21 0
-4523 24 0
-4523 62 0
-4523 67 0
-4521 4522 4523 0
-4522 4521 4523 0
-4523 4521 4522 0
4524 -4 -26 -67 -82 0
-4524 4 0
-4524 26 0
-4524 67 0
-4524 82 0
4525 -4 -26 -70 -79 0
-4525 4 0
-4525 26 0
-4525 70 0
-4525 79 0
4526 -4 -26 -73 -76 0
-4526 4 0
-4526 26 0
-4526 73 0
-4526 76 0
4527 -10 -26 -46 -82 0
-4527 10 0
-4527 26 0
-4527 46 0
-4527 82 0
4528 -10 -26 -49 -79 0
-4528 10 0
-4528 26 0
-4528 49 0
-4528 79 0
4529 -10 -26 -52 -76 0
-4529 10 0
-4529 26 0
-4529 52 0
-4529 76 0
4530 -13 -26 -43 -82 0
-4530 13 0
-4530 26 0
-4530 43 0
-4530 82 0
4531 -13 -26 -49 -73 0
-4531 13 0
-4531 26 0
-4531 49 0
-4531 73 0
4532 -13 -26 -52 -70 0
-4532 13 0
-4532 26 0
-4532 52 0
-4532 70 0
4533 -16 -26 -43 -79 0
-4533 16 0
-4533 26 0
-4533 43 0
-4533 79 0
4534 -16 -26 -46 -73 0
-4534 16 0
-4534 26 0
-4534 46 0
-4534 73 0
4535 -16 -26 -52 -67 0
-4535 16 0
-4535 26 0
-4535 52 0
-4535 67 0
4536 -19 -26 -43 -76 0
-4536 19 0
-4536 26 0
-4536 43 0
-4536 76 0
4537 -19 -26 -46 -70 0
-4537 19 0
-4537 26 0
-4537 46 0
-4537 70 0
4538 -19 -26 -49 -67 0
-4538 19 0
-4538 26 0
-4538 49 0
-4538 67 0
-4524 4525 4526 4527 4528 4529 4530 4531 4532 4533 4534 4535 4536 4537 4538 0
-4525 4524 4526 4527 4528 4529 4530 4531 4532 4533 4534 4535 4536 4537 4538 0
-4526 4524 4525 4527 4528 4529 4530 4531 4532 4533 4534 4535 4536 4537 4538 0
-4527 4524 4525 4526 4528 4529 4530 4531 4532 4533 4534 4535 4536 4537 4538 0
-4528 4524 4525 4526 4527 4529 4530 4531 4532 4533 4534 4535 4536 4537 4538 0
-4529 4524 4525 4526 4527 4528 4530 4531 4532 4533 4534 4535 4536 4537 4538 0
-4530 4524 4525 4526 4527 4528 4529 4531 4532 4533 4534 4535 4536 4537 4538 0
-4531 4524 4525 4526 4527 4528 4529 4530 4532 4533 4534 4535 4536 4537 4538 0
-4532 4524 4525 4526 4527 4528 4529 4530 4531 4533 4534 4535 4536 4537 4538 0
-4533 4524 4525 4526 4527 4528 4529 4530 4531 4532 4534 4535 4536 4537 4538 0
-4534 4524 4525 4526 4527 4528 4529 4530 4531 4532 4533 4535 4536 4537 4538 0
-4535 4524 4525 4526 4527 4528 4529 4530 4531 4532 4533 4534 4536 4537 4538 0
-4536 4524 4525 4526 4527 4528 4529 4530 4531 4532 4533 4534 4535 4537 4538 0
-4537 4524 4525 4526 4527 4528 4529 4530 4531 4532 4533 4534 4535 4536 4538 0
-4538 4524 4525 4526 4527 4528 4529 4530 4531 4532 4533 4534 4535 4536 4537 0
4539 -4 -26 -67 -83 0
-4539 4 0
-4539 26 0
-4539 67 0
-4539 83 0
4540 -4 -35 -65 -67 0
-4540 4 0
-4540 35 0
-4540 65 0
-4540 67 0
4541 -4 -38 -62 -67 0
-4541 4 0
-4541 38 0
-4541 62 0
-4541 67 0
4542 -10 -26 -46 -83 0
-4542 10 0
-4542 26 0
-4542 46 0
-4542 83 0
4543 -10 -35 -46 -65 0
-4543 10 0
-4543 35 0
-4543 46 0
-4543 65 0
4544 -10 -38 -46 -62 0
-4544 10 0
-4544 38 0
-4544 46 0
-4544 62 0
4545 -13 -26 -43 -83 0
-4545 13 0
-4545 26 0
-4545 43 0
-4545 83 0
4546 -13 -35 -43 -65 0
-4546 13 0
-4546 35 0
-4546 43 0
-4546 65 0
4547 -13 -38 -43 -62 0
-4547 13 0
-4547 38 0
-4547 43 0
-4547 62 0
-4539 4540 4541 4542 4543 4544 4545 4546 4547 0
-4540 4539 4541 4542 4543 4544 4545 4546 4547 0
-4541 4539 4540 4542 4543 4544 4545 4546 4547 0
-4542 4539 4540 4541 4543 4544 4545 4546 4547 0
-4543 4539 4540 4541 4542 4544 4545 4546 4547 0
-4544 4539 4540 4541 4542 4543 4545 4546 4547 0
-4545 4539 4540 4541 4542 4543 4544 4546 4547 0
-4546 4539 4540 4541 4542 4543 4544 4545 4547 0
-4547 4539 4540 4541 4542 4543 4544 4545 4546 0
4548 -4 -26 -67 -84 0
-4548 4 0
-4548 26 0
-4548 67 0
-4548 84 0
4549 -10 -26 -46 -84 0
-4549 10 0
-4549 26 0
-4549 46 0
-4549 84 0
4550 -13 -26 -43 -84 0
-4550 13 0
-4550 26 0
-4550 43 0
-4550 84 0
-4548 4549 4550 0
-4549 4548 4550 0
-4550 4548 4549 0
4551 -4 -26 -68 -82 0
-4551 4 0
-4551 26 0
-4551 68 0
-4551 82 0
4552 -4 -29 -59 -82 0
-4552 4 0
-4552 29 0
-4552 59 0
-4552 82 0
4553 -4 -32 -56 -82 0
-4553 4 0
-4553 32 0
-4553 56 0
-4553 82 0
4554 -16 -26 -52 -68 0
-4554 16 0
-4554 26 0
-4554 52 0
-4554 68 0
4555 -16 -29 -52 -59 0
-4555 16 0
-4555 29 0
-4555 52 0
-4555 59 0
4556 -16 -32 -52 -56 0
-4556 16 0
-4556 32 0
-4556 52 0
-4556 56 0
4557 -19 -26 -49 -68 0
-4557 19 0
-4557 26 0
-4557 49 0
-4557 68 0
4558 -19 -29 -49 -59 0
-4558 19 0
-4558 29 0
-4558 49 0
-4558 59 0
4559 -19 -32 -49 -56 0
-4559 19 0
-4559 32 0
-4559 49 0
-4559 56 0
-4551 4552 4553 4554 4555 4556 4557 4558 4559 0
-4552 4551 4553 4554 4555 4556 4557 4558 4559 0
-4553 4551 4552 4554 4555 4556 4557 4558 4559 0
-4554 4551 4552 4553 4555 4556 4557 4558 4559 0
-4555 4551 4552 4553 4554 4556 4557 4558 4559 0
-4556 4551 4552 4553 4554 4555 4557 4558 4559 0
-4557 4551 4552 4553 4554 4555 4556 4558 4559 0
-4558 4551 4552 4553 4554 4555 4556 4557 4559 0
-4559 4551 4552 4553 4554 4555 4556 4557 4558 0
4560 -4 -26 -68 -83 0
-4560 4 0
-4560 26 0
-4560 68 0
-4560 83 0
4561 -4 -26 -71 -80 0
-4561 4 0
-4561 26 0
-4561 71 0
-4561 80 0
4562 -4 -26 -74 -77 0
-4562 4 0
-4562 26 0
-4562 74 0
-4562 77 0
4563 -4 -29 -59 -83 0
-4563 4 0
-4563 29 0
-4563 59 0
-4563 83 0
4564 -4 -29 -62 -80 0
-4564 4 0
-4564 29 0
-4564 62 0
-4564 80 0
4565 -4 -29 -65 -77 0
-4565 4 0
-4565 29 0
-4565 65 0
-4565 77 0
4566 -4 -32 -56 -83 0
-4566 4 0
-4566 32 0
-4566 56 0
-4566 83 0
4567 -4 -32 -62 -74 0
-4567 4 0
-4567 32 0
-4567 62 0
-4567 74 0
4568 -4 -32 -65 -71 0
-4568 4 0
-4568 32 0
-4568 65 0
-4568 71 0
4569 -4 -35 -56 -80 0
-4569 4 0
-4569 35 0
-4569 56 0
-4569 80 0
4570 -4 -35 -59 -74 0
-4570 4 0
-4570 35 0
-4570 59 0
-4570 74 0
4571 -4 -35 -65 -68 0
-4571 4 0
-4571 35 0
-4571 65 0
-4571 68 0
4572 -4 -38 -56 -77 0
-4572 4 0
-4572 38 0
-4572 56 0
-4572 77 0
4573 -4 -38 -59 -71 0
-4573 4 0
-4573 38 0
-4573 59 0
-4573 71 0
4574 -4 -38 -62 -68 0
-4574 4 0
-4574 38 0
-4574 62 0
-4574 68 0
-4560 4561 4562 4563 4564 4565 4566 4567 4568 4569 4570 4571 4572 4573 4574 0
-4561 4560 4562 4563 4564 4565 4566 4567 4568 4569 4570 4571 4572 4573 4574 0
-4562 4560 4561 4563 4564 4565 4566 4567 4568 4569 4570 4571 4572 4573 4574 0
-4563 4560 4561 4562 4564 4565 4566 4567 4568 4569 4570 4571 4572 4573 4574 0
-4564 4560 4561 4562 4563 4565 4566 4567 4568 4569 4570 4571 4572 4573 4574 0
-4565 4560 4561 4562 4563 4564 4566 4567 4568 4569 4570 4571 4572 4573 4574 0
-4566 4560 4561 4562 4563 4564 4565 4567 4568 4569 4570 4571 4572 4573 4574 0
-4567 4560 4561 4562 4563 4564 4565 4566 4568 4569 4570 4571 4572 4573 4574 0
-4568 4560 4561 4562 4563 4564 4565 4566 4567 4569 4570 4571 4572 4573 4574 0
-4569 4560 4561 4562 4563 4564 4565 4566 4567 4568 4570 4571 4572 4573 4574 0
-4570 4560 4561 4562 4563 4564 4565 4566 4567 4568 4569 4571 4572 4573 4574 0
-4571 4560 4561 4562 4563 4564 4565 4566 4567 4568 4569 4570 4572 4573 4574 0
-4572 4560 4561 4562 4563 4564 4565 4566 4567 4568 4569 4570 4571 4573 4574 0
-4573 4560 4561 4562 4563 4564 4565 4566 4567 4568 4569 4570 4571 4572 4574 0
-4574 4560 4561 4562 4563 4564 4565 4566 4567 4568 4569 4570 4571 4572 4573 0
4575 -4 -26 -68 -84 0
-4575 4 0
-4575 26 0
-4575 68 0
-4575 84 0
4576 -4 -29 -59 -84 0
-4576 4 0
-4576 29 0
-4576 59 0
-4576 84 0
4577 -4 -32 -56 -84 0
-4577 4 0
-4577 32 0
-4577 56 0
-4577 84 0
-4575 4576 4577 0
-4576 4575 4577 0
-4577 4575 4576 0
4578 -4 -26 -69 -82 0
-4578 4 0
-4578 26 0
-4578 69 0
-4578 82 0
4579 -16 -26 -52 -69 0
-4579 16 0
-4579 26 0
-4579 52 0
-4579 69 0
4580 -19 -26 -49 -69 0
-4580 19 0
-4580 26 0
-4580 49 0
-4580 69 0
-4578 4579 4580 0
-4579 4578 4580 0
-4580 4578 4579 0
4581 -4 -26 -69 -83 0
-4581 4 0
-4581 26 0
-4581 69 0
-4581 83 0
4582 -4 -35 -65 -69 0
-4582 4 0
-4582 35 0
-4582 65 0
-4582 69 0
4583 -4 -38 -62 -69 0
-4583 4 0
-4583 38 0
-4583 62 0
-4583 69 0
-4581 4582 4583 0
-4582 4581 4583 0
-4583 4581 4582 0
4584 -4 -26 -69 -84 0
-4584 4 0
-4584 26 0
-4584 69 0
-4584 84 0
4585 -4 -26 -72 -81 0
-4585 4 0
-4585 26 0
-4585 72 0
-4585 81 0
4586 -4 -26 -75 -78 0
-4586 4 0
-4586 26 0
-4586 75 0
-4586 78 0
-4584 4585 4586 0
-4585 4584 4586 0
-4586 4584 4585 0
4587 -4 -27 -67 -82 0
-4587 4 0
-4587 27 0
-4587 67 0
-4587 82 0
4588 -4 -27 -70 -79 0
-4588 4 0
-4588 27 0
-4588 70 0
-4588 79 0
4589 -4 -27 -73 -76 0
-4589 4 0
-4589 27 0
-4589 73 0
-4589 76 0
4590 -10 -27 -46 -82 0
-4590 10 0
-4590 27 0
-4590 46 0
-4590 82 0
4591 -10 -27 -49 -79 0
-4591 10 0
-4591 27 0
-4591 49 0
-4591 79 0
4592 -10 -27 -52 -76 0
-4592 10 0
-4592 27 0
-4592 52 0
-4592 76 0
4593 -13 -27 -43 -82 0
-4593 13 0
-4593 27 0
-4593 43 0
-4593 82 0
4594 -13 -27 -49 -73 0
-4594 13 0
-4594 27 0
-4594 49 0
-4594 73 0
4595 -13 -27 -52 -70 0
-4595 13 0
-4595 27 0
-4595 52 0
-4595 70 0
4596 -16 -27 -43 -79 0
-4596 16 0
-4596 27 0
-4596 43 0
-4596 79 0
4597 -16 -27 -46 -73 0
-4597 16 0
-4597 27 0
-4597 46 0
-4597 73 0
4598 -16 -27 -52 -67 0
-4598 16 0
-4598 27 0
-4598 52 0
-4598 67 0
4599 -19 -27 -43 -76 0
-4599 19 0
-4599 27 0
-4599 43 0
-4599 76 0
4600 -19 -27 -46 -70 0
-4600 19 0
-4600 27 0
-4600 46 0
-4600 70 0
4601 -19 -27 -49 -67 0
-4601 19 0
-4601 27 0
-4601 49 0
-4601 67 0
-4587 4588 4589 4590 4591 4592 4593 4594 4595 4596 4597 4598 4599 4600 4601 0
-4588 4587 4589 4590 4591 4592 4593 4594 4595 4596 4597 4598 4599 4600 4601 0
-4589 4587 4588 4590 4591 4592 4593 4594 4595 4596 4597 4598 4599 4600 4601 0
-4590 4587 4588 4589 4591 4592 4593 4594 4595 4596 4597 4598 4599 4600 4601 0
-4591 4587 4588 4589 4590 4592 4593 4594 4595 4596 4597 4598 4599 4600 4601 0
-4592 4587 4588 4589 4590 4591 4593 4594 4595 4596 4597 4598 4599 4600 4601 0
-4593 4587 4588 4589 4590 4591 4592 4594 4595 4596 4597 4598 4599 4600 4601 0
-4594 4587 4588 4589 4590 4591 4592 4593 4595 4596 4597 4598 4599 4600 4601 0
-4595 4587 4588 4589 4590 4591 4592 4593 4594 4596 4597 4598 4599 4600 4601 0
-4596 4587 4588 4589 4590 4591 4592 4593 4594 4595 4597 4598 4599 4600 4601 0
-4597 4587 4588 4589 4590 4591 4592 4593 4594 4595 4596 4598 4599 4600 4601 0
-4598 4587 4588 4589 4590 4591 4592 4593 4594 4595 4596 4597 4599 4600 4601 0
-4599 4587 4588 4589 4590 4591 4592 4593 4594 4595 4596 4597 4598 4600 4601 0
-4600 4587 4588 4589 4590 4591 4592 4593 4594 4595 4596 4597 4598 4599 4601 0
-4601 4587 4588 4589 4590 4591 4592 4593 4594 4595 4596 4597 4598 4599 4600 0
4602 -4 -27 -67 -83 0
-4602 4 0
-4602 27 0
-4602 67 0
-4602 83 0
4603 -10 -27 -46 -83 0
-4603 10 0
-4603 27 0
-4603 46 0
-4603 83 0
4604 -13 -27 -43 -83 0
-4604 13 0
-4604 27 0
-4604 43 0
-4604 83 0
-4602 4603 4604 0
-4603 4602 4604 0
-4604 4602 4603 0
4605 -4 -27 -67 -84 0
-4605 4 0
-4605 27 0
-4605 67 0
-4605 84 0
4606 -4 -36 -66 -67 0
-4606 4 0
-4606 36 0
-4606 66 0
-4606 67 0
4607 -4 -39 -63 -67 0
-4607 4 0
-4607 39 0
-4607 63 0
-4607 67 0
4608 -10 -27 -46 -84 0
-4608 10 0
-4608 27 0
-4608 46 0
-4608 84 0
4609 -10 -36 -46 -66 0
-4609 10 0
-4609 36 0
-4609 46 0
-4609 66 0
4610 -10 -39 -46 -63 0
-4610 10 0
-4610 39 0
-4610 46 0
-4610 63 0
4611 -13 -27 -43 -84 0
-4611 13 0
-4611 27 0
-4611 43 0
-4611 84 0
4612 -13 -36 -43 -66 0
-4612 13 0
-4612 36 0
-4612 43 0
-4612 66 0
4613 -13 -39 -43 -63 0
-4613 13 0
-4613 39 0
-4613 43 0
-4613 63 0
-4605 4606 4607 4608 4609 4610 4611 4612 4613 0
-4606 4605 4607 4608 4609 4610 4611 4612 4613 0
-4607 4605 4606 4608 4609 4610 4611 4612 4613 0
-4608 4605 4606 4607 4609 4610 4611 4612 4613 0
-4609 4605 4606 4607 4608 4610 4611 4612 4613 0
-4610 4605 4606 4607 4608 4609 4611 4612 4613 0
-4611 4605 4606 4607 4608 4609 4610 4612 4613 0
-4612 4605 4606 4607 4608 4609 4610 4611 4613 0
-4613 4605 4606 4607 4608 4609 4610 4611 4612 0
4614 -4 -27 -68 -82 0
-4614 4 0
-4614 27 0
-4614 68 0
-4614 82 0
4615 -16 -27 -52 -68 0
-4615 16 0
-4615 27 0
-4615 52 0
-4615 68 0
4616 -19 -27 -49 -68 0
-4616 19 0
-4616 27 0
-4616 49 0
-4616 68 0
-4614 4615 4616 0
-4615 4614 4616 0
-4616 4614 4615 0
4617 -4 -27 -68 -83 0
-4617 4 0
-4617 27 0
-4617 68 0
-4617 83 0
4618 -4 -27 -71 -80 0
-4618 4 0
-4618 27 0
-4618 71 0
-4618 80 0
4619 -4 -27 -74 -77 0
-4619 4 0
-4619 27 0
-4619 74 0
-4619 77 0
-4617 4618 4619 0
-4618 4617 4619 0
-4619 4617 4618 0
4620 -4 -27 -68 -84 0
-4620 4 0
-4620 27 0
-4620 68 0
-4620 84 0
4621 -4 -36 -66 -68 0
-4621 4 0
-4621 36 0
-4621 66 0
-4621 68 0
4622 -4 -39 -63 -68 0
-4622 4 0
-4622 39 0
-4622 63 0
-4622 68 0
-4620 4621 4622 0
-4621 4620 4622 0
-4622 4620 4621 0
4623 -4 -27 -69 -82 0
-4623 4 0
-4623 27 0
-4623 69 0
-4623 82 0
4624 -4 -30 -60 -82 0
-4624 4 0
-4624 30 0
-4624 60 0
-4624 82 0
4625 -4 -33 -57 -82 0
-4625 4 0
-4625 33 0
-4625 57 0
-4625 82 0
4626 -16 -27 -52 -69 0
-4626 16 0
-4626 27 0
-4626 52 0
-4626 69 0
4627 -16 -30 -52 -60 0
-4627 16 0
-4627 30 0
-4627 52 0
-4627 60 0
4628 -16 -33 -52 -57 0
-4628 16 0
-4628 33 0
-4628 52 0
-4628 57 0
4629 -19 -27 -49 -69 0
-4629 19 0
-4629 27 0
-4629 49 0
-4629 69 0
4630 -19 -30 -49 -60 0
-4630 19 0
-4630 30 0
-4630 49 0
-4630 60 0
4631 -19 -33 -49 -57 0
-4631 19 0
-4631 33 0
-4631 49 0
-4631 57 0
-4623 4624 4625 4626 4627 4628 4629 4630 4631 0
-4624 4623 4625 4626 4627 4628 4629 4630 4631 0
-4625 4623 4624 4626 4627 4628 4629 4630 4631 0
-4626 4623 4624 4625 4627 4628 4629 4630 4631 0
-4627 4623 4624 4625 4626 4628 4629 4630 4631 0
-4628 4623 4624 4625 4626 4627 4629 4630 4631 0
-4629 4623 4624 4625 4626 4627 4628 4630 4631 0
-4630 4623 4624 4625 4626 4627 4628 4629 4631 0
-4631 4623 4624 4625 4626 4627 4628 4629 4630 0
4632 -4 -27 -69 -83 0
-4632 4 0
-4632 27 0
-4632 69 0
-4632 83 0
4633 -4 -30 -60 -83 0
-4633 4 0
-4633 30 0
-4633 60 0
-4633 83 0
4634 -4 -33 -57 -83 0
-4634 4 0
-4634 33 0
-4634 57 0
-4634 83 0
-4632 4633 4634 0
-4633 4632 4634 0
-4634 4632 4633 0
4635 -4 -27 -69 -84 0
-4635 4 0
-4635 27 0
-4635 69 0
-4635 84 0
4636 -4 -27 -72 -81 0
-4636 4 0
-4636 27 0
-4636 72 0
-4636 81 0
4637 -4 -27 -75 -78 0
-4637 4 0
-4637 27 0
-4637 75 0
-4637 78 0
4638 -4 -30 -60 -84 0
-4638 4 0
-4638 30 0
-4638 60 0
-4638 84 0
4639 -4 -30 -63 -81 0
-4639 4 0
-4639 30 0
-4639 63 0
-4639 81 0
4640 -4 -30 -66 -78 0
-4640 4 0
-4640 30 0
-4640 66 0
-4640 78 0
4641 -4 -33 -57 -84 0
-4641 4 0
-4641 33 0
-4641 57 0
-4641 84 0
4642 -4 -33 -63 -75 0
-4642 4 0
-4642 33 0
-4642 63 0
-4642 75 0
4643 -4 -33 -66 -72 0
-4643 4 0
-4643 33 0
-4643 66 0
-4643 72 0
4644 -4 -36 -57 -81 0
-4644 4 0
-4644 36 0
-4644 57 0
-4644 81 0
4645 -4 -36 -60 -75 0
-4645 4 0
-4645 36 0
-4645 60 0
-4645 75 0
4646 -4 -36 -66 -69 0
-4646 4 0
-4646 36 0
-4646 66 0
-4646 69 0
4647 -4 -39 -57 -78 0
-4647 4 0
-4647 39 0
-4647 57 0
-4647 78 0
4648 -4 -39 -60 -72 0
-4648 4 0
-4648 39 0
-4648 60 0
-4648 72 0
4649 -4 -39 -63 -69 0
-4649 4 0
-4649 39 0
-4649 63 0
-4649 69 0
-4635 4636 4637 4638 4639 4640 4641 4642 4643 4644 4645 4646 4647 4648 4649 0
-4636 4635 4637 4638 4639 4640 4641 4642 4643 4644 4645 4646 4647 4648 4649 0
-4637 4635 4636 4638 4639 4640 4641 4642 4643 4644 4645 4646 4647 4648 4649 0
-4638 4635 4636 4637 4639 4640 4641 4642 4643 4644 4645 4646 4647 4648 4649 0
-4639 4635 4636 4637 4638 4640 4641 4642 4643 4644 4645 4646 4647 4648 4649 0
-4640 4635 4636 4637 4638 4639 4641 4642 4643 4644 4645 4646 4647 4648 4649 0
-4641 4635 4636 4637 4638 4639 4640 4642 4643 4644 4645 4646 4647 4648 4649 0
-4642 4635 4636 4637 4638 4639 4640 4641 4643 4644 4645 4646 4647 4648 4649 0
-4643 4635 4636 4637 4638 4639 4640 4641 4642 4644 4645 4646 4647 4648 4649 0
-4644 4635 4636 4637 4638 4639 4640 4641 4642 4643 4645 4646 4647 4648 4649 0
-4645 4635 4636 4637 4638 4639 4640 4641 4642 4643 4644 4646 4647 4648 4649 0
-4646 4635 4636 4637 4638 4639 4640 4641 4642 4643 4644 4645 4647 4648 4649 0
-4647 4635 4636 4637 4638 4639 4640 4641 4642 4643 4644 4645 4646 4648 4649 0
-4648 4635 4636 4637 4638 4639 4640 4641 4642 4643 4644 4645 4646 4647 4649 0
-4649 4635 4636 4637 4638 4639 4640 4641 4642 4643 4644 4645 4646 4647 4648 0
4650 -5 -25 -67 -82 0
-4650 5 0
-4650 25 0
-4650 67 0
-4650 82 0
4651 -5 -25 -70 -79 0
-4651 5 0
-4651 25 0
-4651 70 0
-4651 79 0
4652 -5 -25 -73 -76 0
-4652 5 0
-4652 25 0
-4652 73 0
-4652 76 0
4653 -5 -28 -58 -82 0
-4653 5 0
-4653 28 0
-4653 58 0
-4653 82 0
4654 -5 -28 -61 -79 0
-4654 5 0
-4654 28 0
-4654 61 0
-4654 79 0
4655 -5 -28 -64 -76 0
-4655 5 0
-4655 28 0
-4655 64 0
-4655 76 0
4656 -5 -31 -55 -82 0
-4656 5 0
-4656 31 0
-4656 55 0
-4656 82 0
4657 -5 -31 -61 -73 0
-4657 5 0
-4657 31 0
-4657 61 0
-4657 73 0
4658 -5 -31 -64 -70 0
-4658 5 0
-4658 31 0
-4658 64 0
-4658 70 0
4659 -5 -34 -55 -79 0
-4659 5 0
-4659 34 0
-4659 55 0
-4659 79 0
4660 -5 -34 -58 -73 0
-4660 5 0
-4660 34 0
-4660 58 0
-4660 73 0
4661 -5 -34 -64 -67 0
-4661 5 0
-4661 34 0
-4661 64 0
-4661 67 0
4662 -5 -37 -55 -76 0
-4662 5 0
-4662 37 0
-4662 55 0
-4662 76 0
4663 -5 -37 -58 -70 0
-4663 5 0
-4663 37 0
-4663 58 0
-4663 70 0
4664 -5 -37 -61 -67 0
-4664 5 0
-4664 37 0
-4664 61 0
-4664 67 0
-4650 4651 4652 4653 4654 4655 4656 4657 4658 4659 4660 4661 4662 4663 4664 0
-4651 4650 4652 4653 4654 4655 4656 4657 4658 4659 4660 4661 4662 4663 4664 0
-4652 4650 4651 4653 4654 4655 4656 4657 4658 4659 4660 4661 4662 4663 4664 0
-4653 4650 4651 4652 4654 4655 4656 4657 4658 4659 4660 4661 4662 4663 4664 0
-4654 4650 4651 4652 4653 4655 4656 4657 4658 4659 4660 4661 4662 4663 4664 0
-4655 4650 4651 4652 4653 4654 4656 4657 4658 4659 4660 4661 4662 4663 4664 0
-4656 4650 4651 4652 4653 4654 4655 4657 4658 4659 4660 4661 4662 4663 4664 0
-4657 4650 4651 4652 4653 4654 4655 4656 4658 4659 4660 4661 4662 4663 4664 0
-4658 4650 4651 4652 4653 4654 4655 4656 4657 4659 4660 4661 4662 4663 4664 0
-4659 4650 4651 4652 4653 4654 4655 4656 4657 4658 4660 4661 4662 4663 4664 0
-4660 4650 4651 4652 4653 4654 4655 4656 4657 4658 4659 4661 4662 4663 4664 0
-4661 4650 4651 4652 4653 4654 4655 4656 4657 4658 4659 4660 4662 4663 4664 0
-4662 4650 4651 4652 4653 4654 4655 4656 4657 4658 4659 4660 4661 4663 4664 0
-4663 4650 4651 4652 4653 4654 4655 4656 4657 4658 4659 4660 4661 4662 4664 0
-4664 4650 4651 4652 4653 4654 4655 4656 4657 4658 4659 4660 4661 4662 4663 0
4665 -5 -25 -67 -83 0
-4665 5 0
-4665 25 0
-4665 67 0
-4665 83 0
4666 -5 -28 -58 -83 0
-4666 5 0
-4666 28 0
-4666 58 0
-4666 83 0
4667 -5 -31 -55 -83 0
-4667 5 0
-4667 31 0
-4667 55 0
-4667 83 0
4668 -17 -25 -53 -67 0
-4668 17 0
-4668 25 0
-4668 53 0
-4668 67 0
4669 -17 -28 -53 -58 0
-4669 17 0
-4669 28 0
-4669 53 0
-4669 58 0
4670 -17 -31 -53 -55 0
-4670 17 0
-4670 31 0
-4670 53 0
-4670 55 0
4671 -20 -25 -50 -67 0
-4671 20 0
-4671 25 0
-4671 50 0
-4671 67 0
4672 -20 -28 -50 -58 0
-4672 20 0
-4672 28 0
-4672 50 0
-4672 58 0
4673 -20 -31 -50 -55 0
-4673 20 0
-4673 31 0
-4673 50 0
-4673 55 0
-4665 4666 4667 4668 4669 4670 4671 4672 4673 0
-4666 4665 4667 4668 4669 4670 4671 4672 4673 0
-4667 4665 4666 4668 4669 4670 4671 4672 4673 0
-4668 4665 4666 4667 4669 4670 4671 4672 4673 0
-4669 4665 4666 4667 4668 4670 4671 4672 4673 0
-4670 4665 4666 4667 4668 4669 4671 4672 4673 0
-4671 4665 4666 4667 4668 4669 4670 4672 4673 0
-4672 4665 4666 4667 4668 4669 4670 4671 4673 0
-4673 4665 4666 4667 4668 4669 4670 4671 4672 0
4674 -5 -25 -67 -84 0
-4674 5 0
-4674 25 0
-4674 67 0
-4674 84 0
4675 -5 -28 -58 -84 0
-4675 5 0
-4675 28 0
-4675 58 0
-4675 84 0
4676 -5 -31 -55 -84 0
-4676 5 0
-4676 31 0
-4676 55 0
-4676 84 0
-4674 4675 4676 0
-4675 4674 4676 0
-4676 4674 4675 0
4677 -5 -25 -68 -82 0
-4677 5 0
-4677 25 0
-4677 68 0
-4677 82 0
4678 -5 -34 -64 -68 0
-4678 5 0
-4678 34 0
-4678 64 0
-4678 68 0
4679 -5 -37 -61 -68 0
-4679 5 0
-4679 37 0
-4679 61 0
-4679 68 0
4680 -11 -25 -47 -82 0
-4680 11 0
-4680 25 0
-4680 47 0
-4680 82 0
4681 -11 -34 -47 -64 0
-4681 11 0
-4681 34 0
-4681 47 0
-4681 64 0
4682 -11 -37 -47 -61 0
-4682 11 0
-4682 37 0
-4682 47 0
-4682 61 0
4683 -14 -25 -44 -82 0
-4683 14 0
-4683 25 0
-4683 44 0
-4683 82 0
4684 -14 -34 -44 -64 0
-4684 14 0
-4684 34 0
-4684 44 0
-4684 64 0
4685 -14 -37 -44 -61 0
-4685 14 0
-4685 37 0
-4685 44 0
-4685 61 0
-4677 4678 4679 4680 4681 4682 4683 4684 4685 0
-4678 4677 4679 4680 4681 4682 4683 4684 4685 0
-4679 4677 4678 4680 4681 4682 4683 4684 4685 0
-4680 4677 4678 4679 4681 4682 4683 4684 4685 0
-4681 4677 4678 4679 4680 4682 4683 4684 4685 0
-4682 4677 4678 4679 4680 4681 4683 4684 4685 0
-4683 4677 4678 4679 4680 4681 4682 4684 4685 0
-4684 4677 4678 4679 4680 4681 4682 4683 4685 0
-4685 4677 4678 4679 4680 4681 4682 4683 4684 0
4686 -5 -25 -68 -83 0
-4686 5 0
-4686 25 0
-4686 68 0
-4686 83 0
4687 -5 -25 -71 -80 0
-4687 5 0
-4687 25 0
-4687 71 0
-4687 80 0
4688 -5 -25 -74 -77 0
-4688 5 0
-4688 25 0
-4688 74 0
-4688 77 0
4689 -11 -25 -47 -83 0
-4689 11 0
-4689 25 0
-4689 47 0
-4689 83 0
4690 -11 -25 -50 -80 0
-4690 11 0
-4690 25 0
-4690 50 0
-4690 80 0
4691 -11 -25 -53 -77 0
-4691 11 0
-4691 25 0
-4691 53 0
-4691 77 0
4692 -14 -25 -44 -83 0
-4692 14 0
-4692 25 0
-4692 44 0
-4692 83 0
4693 -14 -25 -50 -74 0
-4693 14 0
-4693 25 0
-4693 50 0
-4693 74 0
4694 -14 -25 -53 -71 0
-4694 14 0
-4694 25 0
-4694 53 0
-4694 71 0
4695 -17 -25 -44 -80 0
-4695 17 0
-4695 25 0
-4695 44 0
-4695 80 0
4696 -17 -25 -47 -74 0
-4696 17 0
-4696 25 0
-4696 47 0
-4696 74 0
4697 -17 -25 -53 -68 0
-4697 17 0
-4697 25 0
-4697 53 0
-4697 68 0
4698 -20 -25 -44 -77 0
-4698 20 0
-4698 25 0
-4698 44 0
-4698 77 0
4699 -20 -25 -47 -71 0
-4699 20 0
-4699 25 0
-4699 47 0
-4699 71 0
4700 -20 -25 -50 -68 0
-4700 20 0
-4700 25 0
-4700 50 0
-4700 68 0
-4686 4687 4688 4689 4690 4691 4692 4693 4694 4695 4696 4697 4698 4699 4700 0
-4687 4686 4688 4689 4690 4691 4692 4693 4694 4695 4696 4697 4698 4699 4700 0
-4688 4686 4687 4689 4690 4691 4692 4693 4694 4695 4696 4697 4698 4699 4700 0
-4689 4686 4687 4688 4690 4691 4692 4693 4694 4695 4696 4697 4698 4699 4700 0
-4690 4686 4687 4688 4689 4691 4692 4693 4694 4695 4696 4697 4698 4699 4700 0
-4691 4686 4687 4688 4689 4690 4692 4693 4694 4695 4696 4697 4698 4699 4700 0
-4692 4686 4687 4688 4689 4690 4691 4693 4694 4695 4696 4697 4698 4699 4700 0
-4693 4686 4687 4688 4689 4690 4691 4692 4694 4695 4696 4697 4698 4699 4700 0
-4694 4686 4687 4688 4689 4690 4691 4692 4693 4695 4696 4697 4698 4699 4700 0
-4695 4686 4687 4688 4689 4690 4691 4692 4693 4694 4696 4697 4698 4699 4700 0
-4696 4686 4687 4688 4689 4690 4691 4692 4693 4694 4695 4697 4698 4699 4700 0
-4697 4686 4687 4688 4689 4690 4691 4692 4693 4694 4695 4696 4698 4699 4700 0
-4698 4686 4687 4688 4689 4690 4691 4692 4693 4694 4695 4696 4697 4699 4700 0
-4699 4686 4687 4688 4689 4690 4691 4692 4693 4694 4695 4696 4697 4698 4700 0
-4700 4686 4687 4688 4689 4690 4691 4692 4693 4694 4695 4696 4697 4698 4699 0
4701 -5 -25 -68 -84 0
-4701 5 0
-4701 25 0
-4701 68 0
-4701 84 0
4702 -11 -25 -47 -84 0
-4702 11 0
-4702 25 0
-4702 47 0
-4702 84 0
4703 -14 -25 -44 -84 0
-4703 14 0
-4703 25 0
-4703 44 0
-4703 84 0
-4701 4702 4703 0
-4702 4701 4703 0
-4703 4701 4702 0
4704 -5 -25 -69 -82 0
-4704 5 0
-4704 25 0
-4704 69 0
-4704 82 0
4705 -5 -34 -64 -69 0
-4705 5 0
-4705 34 0
-4705 64 0
-4705 69 0
4706 -5 -37 -61 -69 0
-4706 5 0
-4706 37 0
-4706 61 0
-4706 69 0
-4704 4705 4706 0
-4705 4704 4706 0
-4706 4704 4705 0
4707 -5 -25 -69 -83 0
-4707 5 0
-4707 25 0
-4707 69 0
-4707 83 0
4708 -17 -25 -53 -69 0
-4708 17 0
-4708 25 0
-4708 53 0
-4708 69 0
4709 -20 -25 -50 -69 0
-4709 20 0
-4709 25 0
-4709 50 0
-4709 69 0
-4707 4708 4709 0
-4708 4707 4709 0
-4709 4707 4708 0
4710 -5 -25 -69 -84 0
-4710 5 0
-4710 25 0
-4710 69 0
-4710 84 0
4711 -5 -25 -72 -81 0
-4711 5 0
-4711 25 0
-4711 72 0
-4711 81 0
4712 -5 -25 -75 -78 0
-4712 5 0
-4712 25 0
-4712 75 0
-4712 78 0
-4710 4711 4712 0
-4711 4710 4712 0
-4712 4710 4711 0
4713 -5 -27 -67 -82 0
-4713 5 0
-4713 27 0
-4713 67 0
-4713 82 0
4714 -5 -27 -70 -79 0
-4714 5 0
-4714 27 0
-4714 70 0
-4714 79 0
4715 -5 -27 -73 -76 0
-4715 5 0
-4715 27 0
-4715 73 0
-4715 76 0
-4713 4714 4715 0
-4714 4713 4715 0
-4715 4713 4714 0
4716 -5 -27 -67 -83 0
-4716 5 0
-4716 27 0
-4716 67 0
-4716 83 0
4717 -17 -27 -53 -67 0
-4717 17 0
-4717 27 0
-4717 53 0
-4717 67 0
4718 -20 -27 -50 -67 0
-4718 20 0
-4718 27 0
-4718 50 0
-4718 67 0
-4716 4717 4718 0
-4717 4716 4718 0
-4718 4716 4717 0
4719 -5 -27 -67 -84 0
-4719 5 0
-4719 27 0
-4719 67 0
-4719 84 0
4720 -5 -36 -66 -67 0
-4720 5 0
-4720 36 0
-4720 66 0
-4720 67 0
4721 -5 -39 -63 -67 0
-4721 5 0
-4721 39 0
-4721 63 0
-4721 67 0
-4719 4720 4721 0
-4720 4719 4721 0
-4721 4719 4720 0
4722 -5 -27 -68 -82 0
-4722 5 0
-4722 27 0
-4722 68 0
-4722 82 0
4723 -11 -27 -47 -82 0
-4723 11 0
-4723 27 0
-4723 47 0
-4723 82 0
4724 -14 -27 -44 -82 0
-4724 14 0
-4724 27 0
-4724 44 0
-4724 82 0
-4722 4723 4724 0
-4723 4722 4724 0
-4724 4722 4723 0
4725 -5 -27 -68 -83 0
-4725 5 0
-4725 27 0
-4725 68 0
-4725 83 0
4726 -5 -27 -71 -80 0
-4726 5 0
-4726 27 0
-4726 71 0
-4726 80 0
4727 -5 -27 -74 -77 0
-4727 5 0
-4727 27 0
-4727 74 0
-4727 77 0
4728 -11 -27 -47 -83 0
-4728 11 0
-4728 27 0
-4728 47 0
-4728 83 0
4729 -11 -27 -50 -80 0
-4729 11 0
-4729 27 0
-4729 50 0
-4729 80 0
4730 -11 -27 -53 -77 0
-4730 11 0
-4730 27 0
-4730 53 0
-4730 77 0
4731 -14 -27 -44 -83 0
-4731 14 0
-4731 27 0
-4731 44 0
-4731 83 0
4732 -14 -27 -50 -74 0
-4732 14 0
-4732 27 0
-4732 50 0
-4732 74 0
4733 -14 -27 -53 -71 0
-4733 14 0
-4733 27 0
-4733 53 0
-4733 71 0
4734 -17 -27 -44 -80 0
-4734 17 0
-4734 27 0
-4734 44 0
-4734 80 0
4735 -17 -27 -47 -74 0
-4735 17 0
-4735 27 0
-4735 47 0
-4735 74 0
4736 -17 -27 -53 -68 0
-4736 17 0
-4736 27 0
-4736 53 0
-4736 68 0
4737 -20 -27 -44 -77 0
-4737 20 0
-4737 27 0
-4737 44 0
-4737 77 0
4738 -20 -27 -47 -71 0
-4738 20 0
-4738 27 0
-4738 47 0
-4738 71 0
4739 -20 -27 -50 -68 0
-4739 20 0
-4739 27 0
-4739 50 0
-4739 68 0
-4725 4726 4727 4728 4729 4730 4731 4732 4733 4734 4735 4736 4737 4738 4739 0
-4726 4725 4727 4728 4729 4730 4731 4732 4733 4734 4735 4736 4737 4738 4739 0
-4727 4725 4726 4728 4729 4730 4731 4732 4733 4734 4735 4736 4737 4738 4739 0
-4728 4725 4726 4727 4729 4730 4731 4732 4733 4734 4735 4736 4737 4738 4739 0
-4729 4725 4726 4727 4728 4730 4731 4732 4733 4734 4735 4736 4737 4738 4739 0
-4730 4725 4726 4727 4728 4729 4731 4732 4733 4734 4735 4736 4737 4738 4739 0
-4731 4725 4726 4727 4728 4729 4730 4732 4733 4734 4735 4736 4737 4738 4739 0
-4732 4725 4726 4727 4728 4729 4730 4731 4733 4734 4735 4736 4737 4738 4739 0
-4733 4725 4726 4727 4728 4729 4730 4731 4732 4734 4735 4736 4737 4738 4739 0
-4734 4725 4726 4727 4728 4729 4730 4731 4732 4733 4735 4736 4737 4738 4739 0
-4735 4725 4726 4727 4728 4729 4730 4731 4732 4733 4734 4736 4737 4738 4739 0
-4736 4725 4726 4727 4728 4729 4730 4731 4732 4733 4734 4735 4737 4738 4739 0
-4737 4725 4726 4727 4728 4729 4730 4731 4732 4733 4734 4735 4736 4738 4739 0
-4738 4725 4726 4727 4728 4729 4730 4731 4732 4733 4734 4735 4736 4737 4739 0
-4739 4725 4726 4727 4728 4729 4730 4731 4732 4733 4734 4735 4736 4737 4738 0
4740 -5 -27 -68 -84 0
-4740 5 0
-4740 27 0
-4740 68 0
-4740 84 0
4741 -5 -36 -66 -68 0
-4741 5 0
-4741 36 0
-4741 66 0
-4741 68 0
4742 -5 -39 -63 -68 0
-4742 5 0
-4742 39 0
-4742 63 0
-4742 68 0
4743 -11 -27 -47 -84 0
-4743 11 0
-4743 27 0
-4743 47 0
-4743 84 0
4744 -11 -36 -47 -66 0
-4744 11 0
-4744 36 0
-4744 47 0
-4744 66 0
4745 -11 -39 -47 -63 0
-4745 11 0
-4745 39 0
-4745 47 0
-4745 63 0
4746 -14 -27 -44 -84 0
-4746 14 0
-4746 27 0
-4746 44 0
-4746 84 0
4747 -14 -36 -44 -66 0
-4747 14 0
-4747 36 0
-4747 44 0
-4747 66 0
4748 -14 -39 -44 -63 0
-4748 14 0
-4748 39 0
-4748 44 0
-4748 63 0
-4740 4741 4742 4743 4744 4745 4746 4747 4748 0
-4741 4740 4742 4743 4744 4745 4746 4747 4748 0
-4742 4740 4741 4743 4744 4745 4746 4747 4748 0
-4743 4740 4741 4742 4744 4745 4746 4747 4748 0
-4744 4740 4741 4742 4743 4745 4746 4747 4748 0
-4745 4740 4741 4742 4743 4744 4746 4747 4748 0
-4746 4740 4741 4742 4743 4744 4745 4747 4748 0
-4747 4740 4741 4742 4743 4744 4745 4746 4748 0
-4748 4740 4741 4742 4743 4744 4745 4746 4747 0
4749 -5 -27 -69 -82 0
-4749 5 0
-4749 27 0
-4749 69 0
-4749 82 0
4750 -5 -30 -60 -82 0
-4750 5 0
-4750 30 0
-4750 60 0
-4750 82 0
4751 -5 -33 -57 -82 0
-4751 5 0
-4751 33 0
-4751 57 0
-4751 82 0
-4749 4750 4751 0
-4750 4749 4751 0
-4751 4749 4750 0
4752 -5 -27 -69 -83 0
-4752 5 0
-4752 27 0
-4752 69 0
-4752 83 0
4753 -5 -30 -60 -83 0
-4753 5 0
-4753 30 0
-4753 60 0
-4753 83 0
4754 -5 -33 -57 -83 0
-4754 5 0
-4754 33 0
-4754 57 0
-4754 83 0
4755 -17 -27 -53 -69 0
-4755 17 0
-4755 27 0
-4755 53 0
-4755 69 0
4756 -17 -30 -53 -60 0
-4756 17 0
-4756 30 0
-4756 53 0
-4756 60 0
4757 -17 -33 -53 -57 0
-4757 17 0
-4757 33 0
-4757 53 0
-4757 57 0
4758 -20 -27 -50 -69 0
-4758 20 0
-4758 27 0
-4758 50 0
-4758 69 0
4759 -20 -30 -50 -60 0
-4759 20 0
-4759 30 0
-4759 50 0
-4759 60 0
4760 -20 -33 -50 -57 0
-4760 20 0
-4760 33 0
-4760 50 0
-4760 57 0
-4752 4753 4754 4755 4756 4757 4758 4759 4760 0
-4753 4752 4754 4755 4756 4757 4758 4759 4760 0
-4754 4752 4753 4755 4756 4757 4758 4759 4760 0
-4755 4752 4753 4754 4756 4757 4758 4759 4760 0
-4756 4752 4753 4754 4755 4757 4758 4759 4760 0
-4757 4752 4753 4754 4755 4756 4758 4759 4760 0
-4758 4752 4753 4754 4755 4756 4757 4759 4760 0
-4759 4752 4753 4754 4755 4756 4757 4758 4760 0
-4760 4752 4753 4754 4755 4756 4757 4758 4759 0
4761 -5 -27 -69 -84 0
-4761 5 0
-4761 27 0
-4761 69 0
-4761 84 0
4762 -5 -27 -72 -81 0
-4762 5 0
-4762 27 0
-4762 72 0
-4762 81 0
4763 -5 -27 -75 -78 0
-4763 5 0
-4763 27 0
-4763 75 0
-4763 78 0
4764 -5 -30 -60 -84 0
-4764 5 0
-4764 30 0
-4764 60 0
-4764 84 0
4765 -5 -30 -63 -81 0
-4765 5 0
-4765 30 0
-4765 63 0
-4765 81 0
4766 -5 -30 -66 -78 0
-4766 5 0
-4766 30 0
-4766 66 0
-4766 78 0
4767 -5 -33 -57 -84 0
-4767 5 0
-4767 33 0
-4767 57 0
-4767 84 0
4768 -5 -33 -63 -75 0
-4768 5 0
-4768 33 0
-4768 63 0
-4768 75 0
4769 -5 -33 -66 -72 0
-4769 5 0
-4769 33 0
-4769 66 0
-4769 72 0
4770 -5 -36 -57 -81 0
-4770 5 0
-4770 36 0
-4770 57 0
-4770 81 0
4771 -5 -36 -60 -75 0
-4771 5 0
-4771 36 0
-4771 60 0
-4771 75 0
4772 -5 -36 -66 -69 0
-4772 5 0
-4772 36 0
-4772 66 0
-4772 69 0
4773 -5 -39 -57 -78 0
-4773 5 0
-4773 39 0
-4773 57 0
-4773 78 0
4774 -5 -39 -60 -72 0
-4774 5 0
-4774 39 0
-4774 60 0
-4774 72 0
4775 -5 -39 -63 -69 0
-4775 5 0
-4775 39 0
-4775 63 0
-4775 69 0
-4761 4762 4763 4764 4765 4766 4767 4768 4769 4770 4771 4772 4773 4774 4775 0
-4762 4761 4763 4764 4765 4766 4767 4768 4769 4770 4771 4772 4773 4774 4775 0
-4763 4761 4762 4764 4765 4766 4767 4768 4769 4770 4771 4772 4773 4774 4775 0
-4764 4761 4762 4763 4765 4766 4767 4768 4769 4770 4771 4772 4773 4774 4775 0
-4765 4761 4762 4763 4764 4766 4767 4768 4769 4770 4771 4772 4773 4774 4775 0
-4766 4761 4762 4763 4764 4765 4767 4768 4769 4770 4771 4772 4773 4774 4775 0
-4767 4761 4762 4763 4764 4765 4766 4768 4769 4770 4771 4772 4773 4774 4775 0
-4768 4761 4762 4763 4764 4765 4766 4767 4769 4770 4771 4772 4773 4774 4775 0
-4769 4761 4762 4763 4764 4765 4766 4767 4768 4770 4771 4772 4773 4774 4775 0
-4770 4761 4762 4763 4764 4765 4766 4767 4768 4769 4771 4772 4773 4774 4775 0
-4771 4761 4762 4763 4764 4765 4766 4767 4768 4769 4770 4772 4773 4774 4775 0
-4772 4761 4762 4763 4764 4765 4766 4767 4768 4769 4770 4771 4773 4774 4775 0
-4773 4761 4762 4763 4764 4765 4766 4767 4768 4769 4770 4771 4772 4774 4775 0
-4774 4761 4762 4763 4764 4765 4766 4767 4768 4769 4770 4771 4772 4773 4775 0
-4775 4761 4762 4763 4764 4765 4766 4767 4768 4769 4770 4771 4772 4773 4774 0
4776 -6 -25 -67 -82 0
-4776 6 0
-4776 25 0
-4776 67 0
-4776 82 0
4777 -6 -25 -70 -79 0
-4777 6 0
-4777 25 0
-4777 70 0
-4777 79 0
4778 -6 -25 -73 -76 0
-4778 6 0
-4778 25 0
-4778 73 0
-4778 76 0
4779 -6 -28 -58 -82 0
-4779 6 0
-4779 28 0
-4779 58 0
-4779 82 0
4780 -6 -28 -61 -79 0
-4780 6 0
-4780 28 0
-4780 61 0
-4780 79 0
4781 -6 -28 -64 -76 0
-4781 6 0
-4781 28 0
-4781 64 0
-4781 76 0
4782 -6 -31 -55 -82 0
-4782 6 0
-4782 31 0
-4782 55 0
-4782 82 0
4783 -6 -31 -61 -73 0
-4783 6 0
-4783 31 0
-4783 61 0
-4783 73 0
4784 -6 -31 -64 -70 0
-4784 6 0
-4784 31 0
-4784 64 0
-4784 70 0
4785 -6 -34 -55 -79 0
-4785 6 0
-4785 34 0
-4785 55 0
-4785 79 0
4786 -6 -34 -58 -73 0
-4786 6 0
-4786 34 0
-4786 58 0
-4786 73 0
4787 -6 -34 -64 -67 0
-4787 6 0
-4787 34 0
-4787 64 0
-4787 67 0
4788 -6 -37 -55 -76 0
-4788 6 0
-4788 37 0
-4788 55 0
-4788 76 0
4789 -6 -37 -58 -70 0
-4789 6 0
-4789 37 0
-4789 58 0
-4789 70 0
4790 -6 -37 -61 -67 0
-4790 6 0
-4790 37 0
-4790 61 0
-4790 67 0
-4776 4777 4778 4779 4780 4781 4782 4783 4784 4785 4786 4787 4788 4789 4790 0
-4777 4776 4778 4779 4780 4781 4782 4783 4784 4785 4786 4787 4788 4789 4790 0
-4778 4776 4777 4779 4780 4781 4782 4783 4784 4785 4786 4787 4788 4789 4790 0
-4779 4776 4777 4778 4780 4781 4782 4783 4784 4785 4786 4787 4788 4789 4790 0
-4780 4776 4777 4778 4779 4781 4782 4783 4784 4785 4786 4787 4788 4789 4790 0
-4781 4776 4777 4778 4779 4780 4782 4783 4784 4785 4786 4787 4788 4789 4790 0
-4782 4776 4777 4778 4779 4780 4781 4783 4784 4785 4786 4787 4788 4789 4790 0
-4783 4776 4777 4778 4779 4780 4781 4782 4784 4785 4786 4787 4788 4789 4790 0
-4784 4776 4777 4778 4779 4780 4781 4782 4783 4785 4786 4787 4788 4789 4790 0
-4785 4776 4777 4778 4779 4780 4781 4782 4783 4784 4786 4787 4788 4789 4790 0
-4786 4776 4777 4778 4779 4780 4781 4782 4783 4784 4785 4787 4788 4789 4790 0
-4787 4776 4777 4778 4779 4780 4781 4782 4783 4784 4785 4786 4788 4789 4790 0
-4788 4776 4777 4778 4779 4780 4781 4782 4783 4784 4785 4786 4787 4789 4790 0
-4789 4776 4777 4778 4779 4780 4781 4782 4783 4784 4785 4786 4787 4788 4790 0
-4790 4776 4777 4778 4779 4780 4781 4782 4783 4784 4785 4786 4787 4788 4789 0
4791 -6 -25 -67 -83 0
-4791 6 0
-4791 25 0
-4791 67 0
-4791 83 0
4792 -6 -28 -58 -83 0
-4792 6 0
-4792 28 0
-4792 58 0
-4792 83 0
4793 -6 -31 -55 -83 0
-4793 6 0
-4793 31 0
-4793 55 0
-4793 83 0
-4791 4792 4793 0
-4792 4791 4793 0
-4793 4791 4792 0
4794 -6 -25 -67 -84 0
-4794 6 0
-4794 25 0
-4794 67 0
-4794 84 0
4795 -6 -28 -58 -84 0
-4795 6 0
-4795 28 0
-4795 58 0
-4795 84 0
4796 -6 -31 -55 -84 0
-4796 6 0
-4796 31 0
-4796 55 0
-4796 84 0
4797 -18 -25 -54 -67 0
-4797 18 0
-4797 25 0
-4797 54 0
-4797 67 0
4798 -18 -28 -54 -58 0
-4798 18 0
-4798 28 0
-4798 54 0
-4798 58 0
4799 -18 -31 -54 -55 0
-4799 18 0
-4799 31 0
-4799 54 0
-4799 55 0
4800 -21 -25 -51 -67 0
-4800 21 0
-4800 25 0
-4800 51 0
-4800 67 0
4801 -21 -28 -51 -58 0
-4801 21 0
-4801 28 0
-4801 51 0
-4801 58 0
4802 -21 -31 -51 -55 0
-4802 21 0
-4802 31 0
-4802 51 0
-4802 55 0
-4794 4795 4796 4797 4798 4799 4800 4801 4802 0
-4795 4794 4796 4797 4798 4799 4800 4801 4802 0
-4796 4794 4795 4797 4798 4799 4800 4801 4802 0
-4797 4794 4795 4796 4798 4799 4800 4801 4802 0
-4798 4794 4795 4796 4797 4799 4800 4801 4802 0
-4799 4794 4795 4796 4797 4798 4800 4801 4802 0
-4800 4794 4795 4796 4797 4798 4799 4801 4802 0
-4801 4794 4795 4796 4797 4798 4799 4800 4802 0
-4802 4794 4795 4796 4797 4798 4799 4800 4801 0
4803 -6 -25 -68 -82 0
-4803 6 0
-4803 25 0
-4803 68 0
-4803 82 0
4804 -6 -34 -64 -68 0
-4804 6 0
-4804 34 0
-4804 64 0
-4804 68 0
4805 -6 -37 -61 -68 0
-4805 6 0
-4805 37 0
-4805 61 0
-4805 68 0
-4803 4804 4805 0
-4804 4803 4805 0
-4805 4803 4804 0
4806 -6 -25 -68 -83 0
-4806 6 0
-4806 25 0
-4806 68 0
-4806 83 0
4807 -6 -25 -71 -80 0
-4807 6 0
-4807 25 0
-4807 71 0
-4807 80 0
4808 -6 -25 -74 -77 0
-4808 6 0
-4808 25 0
-4808 74 0
-4808 77 0
-4806 4807 4808 0
-4807 4806 4808 0
-4808 4806 4807 0
4809 -6 -25 -68 -84 0
-4809 6 0
-4809 25 0
-4809 68 0
-4809 84 0
4810 -18 -25 -54 -68 0
-4810 18 0
-4810 25 0
-4810 54 0
-4810 68 0
4811 -21 -25 -51 -68 0
-4811 21 0
-4811 25 0
-4811 51 0
-4811 68 0
-4809 4810 4811 0
-4810 4809 4811 0
-4811 4809 4810 0
4812 -6 -25 -69 -82 0
-4812 6 0
-4812 25 0
-4812 69 0
-4812 82 0
4813 -6 -34 -64 -69 0
-4813 6 0
-4813 34 0
-4813 64 0
-4813 69 0
4814 -6 -37 -61 -69 0
-4814 6 0
-4814 37 0
-4814 61 0
-4814 69 0
4815 -12 -25 -48 -82 0
-4815 12 0
-4815 25 0
-4815 48 0
-4815 82 0
4816 -12 -34 -48 -64 0
-4816 12 0
-4816 34 0
-4816 48 0
-4816 64 0
4817 -12 -37 -48 -61 0
-4817 12 0
-4817 37 0
-4817 48 0
-4817 61 0
4818 -15 -25 -45 -82 0
-4818 15 0
-4818 25 0
-4818 45 0
-4818 82 0
4819 -15 -34 -45 -64 0
-4819 15 0
-4819 34 0
-4819 45 0
-4819 64 0
4820 -15 -37 -45 -61 0
-4820 15 0
-4820 37 0
-4820 45 0
-4820 61 0
-4812 4813 4814 4815 4816 4817 4818 4819 4820 0
-4813 4812 4814 4815 4816 4817 4818 4819 4820 0
-4814 4812 4813 4815 4816 4817 4818 4819 4820 0
-4815 4812 4813 4814 4816 4817 4818 4819 4820 0
-4816 4812 4813 4814 4815 4817 4818 4819 4820 0
-4817 4812 4813 4814 4815 4816 4818 4819 4820 0
-4818 4812 4813 4814 4815 4816 4817 4819 4820 0
-4819 4812 4813 4814 4815 4816 4817 4818 4820 0
-4820 4812 4813 4814 4815 4816 4817 4818 4819 0
4821 -6 -25 -69 -83 0
-4821 6 0
-4821 25 0
-4821 69 0
-4821 83 0
4822 -12 -25 -48 -83 0
-4822 12 0
-4822 25 0
-4822 48 0
-4822 83 0
4823 -15 -25 -45 -83 0
-4823 15 0
-4823 25 0
-4823 45 0
-4823 83 0
-4821 4822 4823 0
-4822 4821 4823 0
-4823 4821 4822 0
4824 -6 -25 -69 -84 0
-4824 6 0
-4824 25 0
-4824 69 0
-4824 84 0
4825 -6 -25 -72 -81 0
-4825 6 0
-4825 25 0
-4825 72 0
-4825 81 0
4826 -6 -25 -75 -78 0
-4826 6 0
-4826 25 0
-4826 75 0
-4826 78 0
4827 -12 -25 -48 -84 0
-4827 12 0
-4827 25 0
-4827 48 0
-4827 84 0
4828 -12 -25 -51 -81 0
-4828 12 0
-4828 25 0
-4828 51 0
-4828 81 0
4829 -12 -25 -54 -78 0
-4829 12 0
-4829 25 0
-4829 54 0
-4829 78 0
4830 -15 -25 -45 -84 0
-4830 15 0
-4830 25 0
-4830 45 0
-4830 84 0
4831 -15 -25 -51 -75 0
-4831 15 0
-4831 25 0
-4831 51 0
-4831 75 0
4832 -15 -25 -54 -72 0
-4832 15 0
-4832 25 0
-4832 54 0
-4832 72 0
4833 -18 -25 -45 -81 0
-4833 18 0
-4833 25 0
-4833 45 0
-4833 81 0
4834 -18 -25 -48 -75 0
-4834 18 0
-4834 25 0
-4834 48 0
-4834 75 0
4835 -18 -25 -54 -69 0
-4835 18 0
-4835 25 0
-4835 54 0
-4835 69 0
4836 -21 -25 -45 -78 0
-4836 21 0
-4836 25 0
-4836 45 0
-4836 78 0
4837 -21 -25 -48 -72 0
-4837 21 0
-4837 25 0
-4837 48 0
-4837 72 0
4838 -21 -25 -51 -69 0
-4838 21 0
-4838 25 0
-4838 51 0
-4838 69 0
-4824 4825 4826 4827 4828 4829 4830 4831 4832 4833 4834 4835 4836 4837 4838 0
-4825 4824 4826 4827 4828 4829 4830 4831 4832 4833 4834 4835 4836 4837 4838 0
-4826 4824 4825 4827 4828 4829 4830 4831 4832 4833 4834 4835 4836 4837 4838 0
-4827 4824 4825 4826 4828 4829 4830 4831 4832 4833 4834 4835 4836 4837 4838 0
-4828 4824 4825 4826 4827 4829 4830 4831 4832 4833 4834 4835 4836 4837 4838 0
-4829 4824 4825 4826 4827 4828 4830 4831 4832 4833 4834 4835 4836 4837 4838 0
-4830 4824 4825 4826 4827 4828 4829 4831 4832 4833 4834 4835 4836 4837 4838 0
-4831 4824 4825 4826 4827 4828 4829 4830 4832 4833 4834 4835 4836 4837 4838 0
-4832 4824 4825 4826 4827 4828 4829 4830 4831 4833 4834 4835 4836 4837 4838 0
-4833 4824 4825 4826 4827 4828 4829 4830 4831 4832 4834 4835 4836 4837 4838 0
-4834 4824 4825 4826 4827 4828 4829 4830 4831 4832 4833 4835 4836 4837 4838 0
-4835 4824 4825 4826 4827 4828 4829 4830 4831 4832 4833 4834 4836 4837 4838 0
-4836 4824 4825 4826 4827 4828 4829 4830 4831 4832 4833 4834 4835 4837 4838 0
-4837 4824 4825 4826 4827 4828 4829 4830 4831 4832 4833 4834 4835 4836 4838 0
-4838 4824 4825 4826 4827 4828 4829 4830 4831 4832 4833 4834 4835 4836 4837 0
4839 -6 -26 -67 -82 0
-4839 6 0
-4839 26 0
-4839 67 0
-4839 82 0
4840 -6 -26 -70 -79 0
-4840 6 0
-4840 26 0
-4840 70 0
-4840 79 0
4841 -6 -26 -73 -76 0
-4841 6 0
-4841 26 0
-4841 73 0
-4841 76 0
-4839 4840 4841 0
-4840 4839 4841 0
-4841 4839 4840 0
4842 -6 -26 -67 -83 0
-4842 6 0
-4842 26 0
-4842 67 0
-4842 83 0
4843 -6 -35 -65 -67 0
-4843 6 0
-4843 35 0
-4843 65 0
-4843 67 0
4844 -6 -38 -62 -67 0
-4844 6 0
-4844 38 0
-4844 62 0
-4844 67 0
-4842 4843 4844 0
-4843 4842 4844 0
-4844 4842 4843 0
4845 -6 -26 -67 -84 0
-4845 6 0
-4845 26 0
-4845 67 0
-4845 84 0
4846 -18 -26 -54 -67 0
-4846 18 0
-4846 26 0
-4846 54 0
-4846 67 0
4847 -21 -26 -51 -67 0
-4847 21 0
-4847 26 0
-4847 51 0
-4847 67 0
-4845 4846 4847 0
-4846 4845 4847 0
-4847 4845 4846 0
4848 -6 -26 -68 -82 0
-4848 6 0
-4848 26 0
-4848 68 0
-4848 82 0
4849 -6 -29 -59 -82 0
-4849 6 0
-4849 29 0
-4849 59 0
-4849 82 0
4850 -6 -32 -56 -82 0
-4850 6 0
-4850 32 0
-4850 56 0
-4850 82 0
-4848 4849 4850 0
-4849 4848 4850 0
-4850 4848 4849 0
4851 -6 -26 -68 -83 0
-4851 6 0
-4851 26 0
-4851 68 0
-4851 83 0
4852 -6 -26 -71 -80 0
-4852 6 0
-4852 26 0
-4852 71 0
-4852 80 0
4853 -6 -26 -74 -77 0
-4853 6 0
-4853 26 0
-4853 74 0
-4853 77 0
4854 -6 -29 -59 -83 0
-4854 6 0
-4854 29 0
-4854 59 0
-4854 83 0
4855 -6 -29 -62 -80 0
-4855 6 0
-4855 29 0
-4855 62 0
-4855 80 0
4856 -6 -29 -65 -77 0
-4856 6 0
-4856 29 0
-4856 65 0
-4856 77 0
4857 -6 -32 -56 -83 0
-4857 6 0
-4857 32 0
-4857 56 0
-4857 83 0
4858 -6 -32 -62 -74 0
-4858 6 0
-4858 32 0
-4858 62 0
-4858 74 0
4859 -6 -32 -65 -71 0
-4859 6 0
-4859 32 0
-4859 65 0
-4859 71 0
4860 -6 -35 -56 -80 0
-4860 6 0
-4860 35 0
-4860 56 0
-4860 80 0
4861 -6 -35 -59 -74 0
-4861 6 0
-4861 35 0
-4861 59 0
-4861 74 0
4862 -6 -35 -65 -68 0
-4862 6 0
-4862 35 0
-4862 65 0
-4862 68 0
4863 -6 -38 -56 -77 0
-4863 6 0
-4863 38 0
-4863 56 0
-4863 77 0
4864 -6 -38 -59 -71 0
-4864 6 0
-4864 38 0
-4864 59 0
-4864 71 0
4865 -6 -38 -62 -68 0
-4865 6 0
-4865 38 0
-4865 62 0
-4865 68 0
-4851 4852 4853 4854 4855 4856 4857 4858 4859 4860 4861 4862 4863 4864 4865 0
-4852 4851 4853 4854 4855 4856 4857 4858 4859 4860 4861 4862 4863 4864 4865 0
-4853 4851 4852 4854 4855 4856 4857 4858 4859 4860 4861 4862 4863 4864 4865 0
-4854 4851 4852 4853 4855 4856 4857 4858 4859 4860 4861 4862 4863 4864 4865 0
-4855 4851 4852 4853 4854 4856 4857 4858 4859 4860 4861 4862 4863 4864 4865 0
-4856 4851 4852 4853 4854 4855 4857 4858 4859 4860 4861 4862 4863 4864 4865 0
-4857 4851 4852 4853 4854 4855 4856 4858 4859 4860 4861 4862 4863 4864 4865 0
-4858 4851 4852 4853 4854 4855 4856 4857 4859 4860 4861 4862 4863 4864 4865 0
-4859 4851 4852 4853 4854 4855 4856 4857 4858 4860 4861 4862 4863 4864 4865 0
-4860 4851 4852 4853 4854 4855 4856 4857 4858 4859 4861 4862 4863 4864 4865 0
-4861 4851 4852 4853 4854 4855 4856 4857 4858 4859 4860 4862 4863 4864 4865 0
-4862 4851 4852 4853 4854 4855 4856 4857 4858 4859 4860 4861 4863 4864 4865 0
-4863 4851 4852 4853 4854 4855 4856 4857 4858 4859 4860 4861 4862 4864 4865 0
-4864 4851 4852 4853 4854 4855 4856 4857 4858 4859 4860 4861 4862 4863 4865 0
-4865 4851 4852 4853 4854 4855 4856 4857 4858 4859 4860 4861 4862 4863 4864 0
4866 -6 -26 -68 -84 0
-4866 6 0
-4866 26 0
-4866 68 0
-4866 84 0
4867 -6 -29 -59 -84 0
-4867 6 0
-4867 29 0
-4867 59 0
-4867 84 0
4868 -6 -32 -56 -84 0
-4868 6 0
-4868 32 0
-4868 56 0
-4868 84 0
4869 -18 -26 -54 -68 0
-4869 18 0
-4869 26 0
-4869 54 0
-4869 68 0
4870 -18 -29 -54 -59 0
-4870 18 0
-4870 29 0
-4870 54 0
-4870 59 0
4871 -18 -32 -54 -56 0
-4871 18 0
-4871 32 0
-4871 54 0
-4871 56 0
4872 -21 -26 -51 -68 0
-4872 21 0
-4872 26 0
-4872 51 0
-4872 68 0
4873 -21 -29 -51 -59 0
-4873 21 0
-4873 29 0
-4873 51 0
-4873 59 0
4874 -21 -32 -51 -56 0
-4874 21 0
-4874 32 0
-4874 51 0
-4874 56 0
-4866 4867 4868 4869 4870 4871 4872 4873 4874 0
-4867 4866 4868 4869 4870 4871 4872 4873 4874 0
-4868 4866 4867 4869 4870 4871 4872 4873 4874 0
-4869 4866 4867 4868 4870 4871 4872 4873 4874 0
-4870 4866 4867 4868 4869 4871 4872 4873 4874 0
-4871 4866 4867 4868 4869 4870 4872 4873 4874 0
-4872 4866 4867 4868 4869 4870 4871 4873 4874 0
-4873 4866 4867 4868 4869 4870 4871 4872 4874 0
-4874 4866 4867 4868 4869 4870 4871 4872 4873 0
4875 -6 -26 -69 -82 0
-4875 6 0
-4875 26 0
-4875 69 0
-4875 82 0
4876 -12 -26 -48 -82 0
-4876 12 0
-4876 26 0
-4876 48 0
-4876 82 0
4877 -15 -26 -45 -82 0
-4877 15 0
-4877 26 0
-4877 45 0
-4877 82 0
-4875 4876 4877 0
-4876 4875 4877 0
-4877 4875 4876 0
4878 -6 -26 -69 -83 0
-4878 6 0
-4878 26 0
-4878 69 0
-4878 83 0
4879 -6 -35 -65 -69 0
-4879 6 0
-4879 35 0
-4879 65 0
-4879 69 0
4880 -6 -38 -62 -69 0
-4880 6 0
-4880 38 0
-4880 62 0
-4880 69 0
4881 -12 -26 -48 -83 0
-4881 12 0
-4881 26 0
-4881 48 0
-4881 83 0
4882 -12 -35 -48 -65 0
-4882 12 0
-4882 35 0
-4882 48 0
-4882 65 0
4883 -12 -38 -48 -62 0
-4883 12 0
-4883 38 0
-4883 48 0
-4883 62 0
4884 -15 -26 -45 -83 0
-4884 15 0
-4884 26 0
-4884 45 0
-4884 83 0
4885 -15 -35 -45 -65 0
-4885 15 0
-4885 35 0
-4885 45 0
-4885 65 0
4886 -15 -38 -45 -62 0
-4886 15 0
-4886 38 0
-4886 45 0
-4886 62 0
-4878 4879 4880 4881 4882 4883 4884 4885 4886 0
-4879 4878 4880 4881 4882 4883 4884 4885 4886 0
-4880 4878 4879 4881 4882 4883 4884 4885 4886 0
-4881 4878 4879 4880 4882 4883 4884 4885 4886 0
-4882 4878 4879 4880 4881 4883 4884 4885 4886 0
-4883 4878 4879 4880 4881 4882 4884 4885 4886 0
-4884 4878 4879 4880 4881 4882 4883 4885 4886 0
-4885 4878 4879 4880 4881 4882 4883 4884 4886 0
-4886 4878 4879 4880 4881 4882 4883 4884 4885 0
4887 -6 -26 -69 -84 0
-4887 6 0
-4887 26 0
-4887 69 0
-4887 84 0
4888 -6 -26 -72 -81 0
-4888 6 0
-4888 26 0
-4888 72 0
-4888 81 0
4889 -6 -26 -75 -78 0
-4889 6 0
-4889 26 0
-4889 75 0
-4889 78 0
4890 -12 -26 -48 -84 0
-4890 12 0
-4890 26 0
-4890 48 0
-4890 84 0
4891 -12 -26 -51 -81 0
-4891 12 0
-4891 26 0
-4891 51 0
-4891 81 0
4892 -12 -26 -54 -78 0
-4892 12 0
-4892 26 0
-4892 54 0
-4892 78 0
4893 -15 -26 -45 -84 0
-4893 15 0
-4893 26 0
-4893 45 0
-4893 84 0
4894 -15 -26 -51 -75 0
-4894 15 0
-4894 26 0
-4894 51 0
-4894 75 0
4895 -15 -26 -54 -72 0
-4895 15 0
-4895 26 0
-4895 54 0
-4895 72 0
4896 -18 -26 -45 -81 0
-4896 18 0
-4896 26 0
-4896 45 0
-4896 81 0
4897 -18 -26 -48 -75 0
-4897 18 0
-4897 26 0
-4897 48 0
-4897 75 0
4898 -18 -26 -54 -69 0
-4898 18 0
-4898 26 0
-4898 54 0
-4898 69 0
4899 -21 -26 -45 -78 0
-4899 21 0
-4899 26 0
-4899 45 0
-4899 78 0
4900 -21 -26 -48 -72 0
-4900 21 0
-4900 26 0
-4900 48 0
-4900 72 0
4901 -21 -26 -51 -69 0
-4901 21 0
-4901 26 0
-4901 51 0
-4901 69 0
-4887 4888 4889 4890 4891 4892 4893 4894 4895 4896 4897 4898 4899 4900 4901 0
-4888 4887 4889 4890 4891 4892 4893 4894 4895 4896 4897 4898 4899 4900 4901 0
-4889 4887 4888 4890 4891 4892 4893 4894 4895 4896 4897 4898 4899 4900 4901 0
-4890 4887 4888 4889 4891 4892 4893 4894 4895 4896 4897 4898 4899 4900 4901 0
-4891 4887 4888 4889 4890 4892 4893 4894 4895 4896 4897 4898 4899 4900 4901 0
-4892 4887 4888 4889 4890 4891 4893 4894 4895 4896 4897 4898 4899 4900 4901 0
-4893 4887 4888 4889 4890 4891 4892 4894 4895 4896 4897 4898 4899 4900 4901 0
-4894 4887 4888 4889 4890 4891 4892 4893 4895 4896 4897 4898 4899 4900 4901 0
-4895 4887 4888 4889 4890 4891 4892 4893 4894 4896 4897 4898 4899 4900 4901 0
-4896 4887 4888 4889 4890 4891 4892 4893 4894 4895 4897 4898 4899 4900 4901 0
-4897 4887 4888 4889 4890 4891 4892 4893 4894 4895 4896 4898 4899 4900 4901 0
-4898 4887 4888 4889 4890 4891 4892 4893 4894 4895 4896 4897 4899 4900 4901 0
-4899 4887 4888 4889 4890 4891 4892 4893 4894 4895 4896 4897 4898 4900 4901 0
-4900 4887 4888 4889 4890 4891 4892 4893 4894 4895 4896 4897 4898 4899 4901 0
-4901 4887 4888 4889 4890 4891 4892 4893 4894 4895 4896 4897 4898 4899 4900 0
4902 -4 -26 -70 -80 0
-4902 4 0
-4902 26 0
-4902 70 0
-4902 80 0
4903 -4 -32 -65 -70 0
-4903 4 0
-4903 32 0
-4903 65 0
-4903 70 0
4904 -4 -38 -59 -70 0
-4904 4 0
-4904 38 0
-4904 59 0
-4904 70 0
4905 -10 -26 -49 -80 0
-4905 10 0
-4905 26 0
-4905 49 0
-4905 80 0
4906 -10 -32 -49 -65 0
-4906 10 0
-4906 32 0
-4906 49 0
-4906 65 0
4907 -10 -38 -49 -59 0
-4907 10 0
-4907 38 0
-4907 49 0
-4907 59 0
4908 -16 -26 -43 -80 0
-4908 16 0
-4908 26 0
-4908 43 0
-4908 80 0
4909 -16 -32 -43 -65 0
-4909 16 0
-4909 32 0
-4909 43 0
-4909 65 0
4910 -16 -38 -43 -59 0
-4910 16 0
-4910 38 0
-4910 43 0
-4910 59 0
-4902 4903 4904 4905 4906 4907 4908 4909 4910 0
-4903 4902 4904 4905 4906 4907 4908 4909 4910 0
-4904 4902 4903 4905 4906 4907 4908 4909 4910 0
-4905 4902 4903 4904 4906 4907 4908 4909 4910 0
-4906 4902 4903 4904 4905 4907 4908 4909 4910 0
-4907 4902 4903 4904 4905 4906 4908 4909 4910 0
-4908 4902 4903 4904 4905 4906 4907 4909 4910 0
-4909 4902 4903 4904 4905 4906 4907 4908 4910 0
-4910 4902 4903 4904 4905 4906 4907 4908 4909 0
4911 -4 -26 -70 -81 0
-4911 4 0
-4911 26 0
-4911 70 0
-4911 81 0
4912 -10 -26 -49 -81 0
-4912 10 0
-4912 26 0
-4912 49 0
-4912 81 0
4913 -16 -26 -43 -81 0
-4913 16 0
-4913 26 0
-4913 43 0
-4913 81 0
-4911 4912 4913 0
-4912 4911 4913 0
-4913 4911 4912 0
4914 -4 -26 -71 -79 0
-4914 4 0
-4914 26 0
-4914 71 0
-4914 79 0
4915 -4 -29 -62 -79 0
-4915 4 0
-4915 29 0
-4915 62 0
-4915 79 0
4916 -4 -35 -56 -79 0
-4916 4 0
-4916 35 0
-4916 56 0
-4916 79 0
4917 -13 -26 -52 -71 0
-4917 13 0
-4917 26 0
-4917 52 0
-4917 71 0
4918 -13 -29 -52 -62 0
-4918 13 0
-4918 29 0
-4918 52 0
-4918 62 0
4919 -13 -35 -52 -56 0
-4919 13 0
-4919 35 0
-4919 52 0
-4919 56 0
4920 -19 -26 -46 -71 0
-4920 19 0
-4920 26 0
-4920 46 0
-4920 71 0
4921 -19 -29 -46 -62 0
-4921 19 0
-4921 29 0
-4921 46 0
-4921 62 0
4922 -19 -35 -46 -56 0
-4922 19 0
-4922 35 0
-4922 46 0
-4922 56 0
-4914 4915 4916 4917 4918 4919 4920 4921 4922 0
-4915 4914 4916 4917 4918 4919 4920 4921 4922 0
-4916 4914 4915 4917 4918 4919 4920 4921 4922 0
-4917 4914 4915 4916 4918 4919 4920 4921 4922 0
-4918 4914 4915 4916 4917 4919 4920 4921 4922 0
-4919 4914 4915 4916 4917 4918 4920 4921 4922 0
-4920 4914 4915 4916 4917 4918 4919 4921 4922 0
-4921 4914 4915 4916 4917 4918 4919 4920 4922 0
-4922 4914 4915 4916 4917 4918 4919 4920 4921 0
4923 -4 -26 -71 -81 0
-4923 4 0
-4923 26 0
-4923 71 0
-4923 81 0
4924 -4 -29 -62 -81 0
-4924 4 0
-4924 29 0
-4924 62 0
-4924 81 0
4925 -4 -35 -56 -81 0
-4925 4 0
-4925 35 0
-4925 56 0
-4925 81 0
-4923 4924 4925 0
-4924 4923 4925 0
-4925 4923 4924 0
4926 -4 -26 -72 -79 0
-4926 4 0
-4926 26 0
-4926 72 0
-4926 79 0
4927 -13 -26 -52 -72 0
-4927 13 0
-4927 26 0
-4927 52 0
-4927 72 0
4928 -19 -26 -46 -72 0
-4928 19 0
-4928 26 0
-4928 46 0
-4928 72 0
-4926 4927 4928 0
-4927 4926 4928 0
-4928 4926 4927 0
4929 -4 -26 -72 -80 0
-4929 4 0
-4929 26 0
-4929 72 0
-4929 80 0
4930 -4 -32 -65 -72 0
-4930 4 0
-4930 32 0
-4930 65 0
-4930 72 0
4931 -4 -38 -59 -72 0
-4931 4 0
-4931 38 0
-4931 59 0
-4931 72 0
-4929 4930 4931 0
-4930 4929 4931 0
-4931 4929 4930 0
4932 -4 -27 -70 -80 0
-4932 4 0
-4932 27 0
-4932 70 0
-4932 80 0
4933 -10 -27 -49 -80 0
-4933 10 0
-4933 27 0
-4933 49 0
-4933 80 0
4934 -16 -27 -43 -80 0
-4934 16 0
-4934 27 0
-4934 43 0
-4934 80 0
-4932 4933 4934 0
-4933 4932 4934 0
-4934 4932 4933 0
4935 -4 -27 -70 -81 0
-4935 4 0
-4935 27 0
-4935 70 0
-4935 81 0
4936 -4 -33 -66 -70 0
-4936 4 0
-4936 33 0
-4936 66 0
-4936 70 0
4937 -4 -39 -60 -70 0
-4937 4 0
-4937 39 0
-4937 60 0
-4937 70 0
4938 -10 -27 -49 -81 0
-4938 10 0
-4938 27 0
-4938 49 0
-4938 81 0
4939 -10 -33 -49 -66 0
-4939 10 0
-4939 33 0
-4939 49 0
-4939 66 0
4940 -10 -39 -49 -60 0
-4940 10 0
-4940 39 0
-4940 49 0
-4940 60 0
4941 -16 -27 -43 -81 0
-4941 16 0
-4941 27 0
-4941 43 0
-4941 81 0
4942 -16 -33 -43 -66 0
-4942 16 0
-4942 33 0
-4942 43 0
-4942 66 0
4943 -16 -39 -43 -60 0
-4943 16 0
-4943 39 0
-4943 43 0
-4943 60 0
-4935 4936 4937 4938 4939 4940 4941 4942 4943 0
-4936 4935 4937 4938 4939 4940 4941 4942 4943 0
-4937 4935 4936 4938 4939 4940 4941 4942 4943 0
-4938 4935 4936 4937 4939 4940 4941 4942 4943 0
-4939 4935 4936 4937 4938 4940 4941 4942 4943 0
-4940 4935 4936 4937 4938 4939 4941 4942 4943 0
-4941 4935 4936 4937 4938 4939 4940 4942 4943 0
-4942 4935 4936 4937 4938 4939 4940 4941 4943 0
-4943 4935 4936 4937 4938 4939 4940 4941 4942 0
4944 -4 -27 -71 -79 0
-4944 4 0
-4944 27 0
-4944 71 0
-4944 79 0
4945 -13 -27 -52 -71 0
-4945 13 0
-4945 27 0
-4945 52 0
-4945 71 0
4946 -19 -27 -46 -71 0
-4946 19 0
-4946 27 0
-4946 46 0
-4946 71 0
-4944 4945 4946 0
-4945 4944 4946 0
-4946 4944 4945 0
4947 -4 -27 -71 -81 0
-4947 4 0
-4947 27 0
-4947 71 0
-4947 81 0
4948 -4 -33 -66 -71 0
-4948 4 0
-4948 33 0
-4948 66 0
-4948 71 0
4949 -4 -39 -60 -71 0
-4949 4 0
-4949 39 0
-4949 60 0
-4949 71 0
-4947 4948 4949 0
-4948 4947 4949 0
-4949 4947 4948 0
4950 -4 -27 -72 -79 0
-4950 4 0
-4950 27 0
-4950 72 0
-4950 79 0
4951 -4 -30 -63 -79 0
-4951 4 0
-4951 30 0
-4951 63 0
-4951 79 0
4952 -4 -36 -57 -79 0
-4952 4 0
-4952 36 0
-4952 57 0
-4952 79 0
4953 -13 -27 -52 -72 0
-4953 13 0
-4953 27 0
-4953 52 0
-4953 72 0
4954 -13 -30 -52 -63 0
-4954 13 0
-4954 30 0
-4954 52 0
-4954 63 0
4955 -13 -36 -52 -57 0
-4955 13 0
-4955 36 0
-4955 52 0
-4955 57 0
4956 -19 -27 -46 -72 0
-4956 19 0
-4956 27 0
-4956 46 0
-4956 72 0
4957 -19 -30 -46 -63 0
-4957 19 0
-4957 30 0
-4957 46 0
-4957 63 0
4958 -19 -36 -46 -57 0
-4958 19 0
-4958 36 0
-4958 46 0
-4958 57 0
-4950 4951 4952 4953 4954 4955 4956 4957 4958 0
-4951 4950 4952 4953 4954 4955 4956 4957 4958 0
-4952 4950 4951 4953 4954 4955 4956 4957 4958 0
-4953 4950 4951 4952 4954 4955 4956 4957 4958 0
-4954 4950 4951 4952 4953 4955 4956 4957 4958 0
-4955 4950 4951 4952 4953 4954 4956 4957 4958 0
-4956 4950 4951 4952 4953 4954 4955 4957 4958 0
-4957 4950 4951 4952 4953 4954 4955 4956 4958 0
-4958 4950 4951 4952 4953 4954 4955 4956 4957 0
4959 -4 -27 -72 -80 0
-4959 4 0
-4959 27 0
-4959 72 0
-4959 80 0
4960 -4 -30 -63 -80 0
-4960 4 0
-4960 30 0
-4960 63 0
-4960 80 0
4961 -4 -36 -57 -80 0
-4961 4 0
-4961 36 0
-4961 57 0
-4961 80 0
-4959 4960 4961 0
-4960 4959 4961 0
-4961 4959 4960 0
4962 -5 -25 -70 -80 0
-4962 5 0
-4962 25 0
-4962 70 0
-4962 80 0
4963 -5 -28 -61 -80 0
-4963 5 0
-4963 28 0
-4963 61 0
-4963 80 0
4964 -5 -34 -55 -80 0
-4964 5 0
-4964 34 0
-4964 55 0
-4964 80 0
4965 -14 -25 -53 -70 0
-4965 14 0
-4965 25 0
-4965 53 0
-4965 70 0
4966 -14 -28 -53 -61 0
-4966 14 0
-4966 28 0
-4966 53 0
-4966 61 0
4967 -14 -34 -53 -55 0
-4967 14 0
-4967 34 0
-4967 53 0
-4967 55 0
4968 -20 -25 -47 -70 0
-4968 20 0
-4968 25 0
-4968 47 0
-4968 70 0
4969 -20 -28 -47 -61 0
-4969 20 0
-4969 28 0
-4969 47 0
-4969 61 0
4970 -20 -34 -47 -55 0
-4970 20 0
-4970 34 0
-4970 47 0
-4970 55 0
-4962 4963 4964 4965 4966 4967 4968 4969 4970 0
-4963 4962 4964 4965 4966 4967 4968 4969 4970 0
-4964 4962 4963 4965 4966 4967 4968 4969 4970 0
-4965 4962 4963 4964 4966 4967 4968 4969 4970 0
-4966 4962 4963 4964 4965 4967 4968 4969 4970 0
-4967 4962 4963 4964 4965 4966 4968 4969 4970 0
-4968 4962 4963 4964 4965 4966 4967 4969 4970 0
-4969 4962 4963 4964 4965 4966 4967 4968 4970 0
-4970 4962 4963 4964 4965 4966 4967 4968 4969 0
4971 -5 -25 -70 -81 0
-4971 5 0
-4971 25 0
-4971 70 0
-4971 81 0
4972 -5 -28 -61 -81 0
-4972 5 0
-4972 28 0
-4972 61 0
-4972 81 0
4973 -5 -34 -55 -81 0
-4973 5 0
-4973 34 0
-4973 55 0
-4973 81 0
-4971 4972 4973 0
-4972 4971 4973 0
-4973 4971 4972 0
4974 -5 -25 -71 -79 0
-4974 5 0
-4974 25 0
-4974 71 0
-4974 79 0
4975 -5 -31 -64 -71 0
-4975 5 0
-4975 31 0
-4975 64 0
-4975 71 0
4976 -5 -37 -58 -71 0
-4976 5 0
-4976 37 0
-4976 58 0
-4976 71 0
4977 -11 -25 -50 -79 0
-4977 11 0
-4977 25 0
-4977 50 0
-4977 79 0
4978 -11 -31 -50 -64 0
-4978 11 0
-4978 31 0
-4978 50 0
-4978 64 0
4979 -11 -37 -50 -58 0
-4979 11 0
-4979 37 0
-4979 50 0
-4979 58 0
4980 -17 -25 -44 -79 0
-4980 17 0
-4980 25 0
-4980 44 0
-4980 79 0
4981 -17 -31 -44 -64 0
-4981 17 0
-4981 31 0
-4981 44 0
-4981 64 0
4982 -17 -37 -44 -58 0
-4982 17 0
-4982 37 0
-4982 44 0
-4982 58 0
-4974 4975 4976 4977 4978 4979 4980 4981 4982 0
-4975 4974 4976 4977 4978 4979 4980 4981 4982 0
-4976 4974 4975 4977 4978 4979 4980 4981 4982 0
-4977 4974 4975 4976 4978 4979 4980 4981 4982 0
-4978 4974 4975 4976 4977 4979 4980 4981 4982 0
-4979 4974 4975 4976 4977 4978 4980 4981 4982 0
-4980 4974 4975 4976 4977 4978 4979 4981 4982 0
-4981 4974 4975 4976 4977 4978 4979 4980 4982 0
-4982 4974 4975 4976 4977 4978 4979 4980 4981 0
4983 -5 -25 -71 -81 0
-4983 5 0
-4983 25 0
-4983 71 0
-4983 81 0
4984 -11 -25 -50 -81 0
-4984 11 0
-4984 25 0
-4984 50 0
-4984 81 0
4985 -17 -25 -44 -81 0
-4985 17 0
-4985 25 0
-4985 44 0
-4985 81 0
-4983 4984 4985 0
-4984 4983 4985 0
-4985 4983 4984 0
4986 -5 -25 -72 -79 0
-4986 5 0
-4986 25 0
-4986 72 0
-4986 79 0
4987 -5 -31 -64 -72 0
-4987 5 0
-4987 31 0
-4987 64 0
-4987 72 0
4988 -5 -37 -58 -72 0
-4988 5 0
-4988 37 0
-4988 58 0
-4988 72 0
-4986 4987 4988 0
-4987 4986 4988 0
-4988 4986 4987 0
4989 -5 -25 -72 -80 0
-4989 5 0
-4989 25 0
-4989 72 0
-4989 80 0
4990 -14 -25 -53 -72 0
-4990 14 0
-4990 25 0
-4990 53 0
-4990 72 0
4991 -20 -25 -47 -72 0
-4991 20 0
-4991 25 0
-4991 47 0
-4991 72 0
-4989 4990 4991 0
-4990 4989 4991 0
-4991 4989 4990 0
4992 -5 -27 -70 -80 0
-4992 5 0
-4992 27 0
-4992 70 0
-4992 80 0
4993 -14 -27 -53 -70 0
-4993 14 0
-4993 27 0
-4993 53 0
-4993 70 0
4994 -20 -27 -47 -70 0
-4994 20 0
-4994 27 0
-4994 47 0
-4994 70 0
-4992 4993 4994 0
-4993 4992 4994 0
-4994 4992 4993 0
4995 -5 -27 -70 -81 0
-4995 5 0
-4995 27 0
-4995 70 0
-4995 81 0
4996 -5 -33 -66 -70 0
-4996 5 0
-4996 33 0
-4996 66 0
-4996 70 0
4997 -5 -39 -60 -70 0
-4997 5 0
-4997 39 0
-4997 60 0
-4997 70 0
-4995 4996 4997 0
-4996 4995 4997 0
-4997 4995 4996 0
4998 -5 -27 -71 -79 0
-4998 5 0
-4998 27 0
-4998 71 0
-4998 79 0
4999 -11 -27 -50 -79 0
-4999 11 0
-4999 27 0
-4999 50 0
-4999 79 0
5000 -17 -27 -44 -79 0
-5000 17 0
-5000 27 0
-5000 44 0
-5000 79 0
-4998 4999 5000 0
-4999 4998 5000 0
-5000 4998 4999 0
5001 -5 -27 -71 -81 0
-5001 5 0
-5001 27 0
-5001 71 0
-5001 81 0
5002 -5 -33 -66 -71 0
-5002 5 0
-5002 33 0
-5002 66 0
-5002 71 0
5003 -5 -39 -60 -71 0
-5003 5 0
-5003 39 0
-5003 60 0
-5003 71 0
5004 -11 -27 -50 -81 0
-5004 11 0
-5004 27 0
-5004 50 0
-5004 81 0
5005 -11 -33 -50 -66 0
-5005 11 0
-5005 33 0
-5005 50 0
-5005 66 0
5006 -11 -39 -50 -60 0
-5006 11 0
-5006 39 0
-5006 50 0
-5006 60 0
5007 -17 -27 -44 -81 0
-5007 17 0
-5007 27 0
-5007 44 0
-5007 81 0
5008 -17 -33 -44 -66 0
-5008 17 0
-5008 33 0
-5008 44 0
-5008 66 0
5009 -17 -39 -44 -60 0
-5009 17 0
-5009 39 0
-5009 44 0
-5009 60 0
-5001 5002 5003 5004 5005 5006 5007 5008 5009 0
-5002 5001 5003 5004 5005 5006 5007 5008 5009 0
-5003 5001 5002 5004 5005 5006 5007 5008 5009 0
-5004 5001 5002 5003 5005 5006 5007 5008 5009 0
-5005 5001 5002 5003 5004 5006 5007 5008 5009 0
-5006 5001 5002 5003 5004 5005 5007 5008 5009 0
-5007 5001 5002 5003 5004 5005 5006 5008 5009 0
-5008 5001 5002 5003 5004 5005 5006 5007 5009 0
-5009 5001 5002 5003 5004 5005 5006 5007 5008 0
5010 -5 -27 -72 -79 0
-5010 5 0
-5010 27 0
-5010 72 0
-5010 79 0
5011 -5 -30 -63 -79 0
-5011 5 0
-5011 30 0
-5011 63 0
-5011 79 0
5012 -5 -36 -57 -79 0
-5012 5 0
-5012 36 0
-5012 57 0
-5012 79 0
-5010 5011 5012 0
-5011 5010 5012 0
-5012 5010 5011 0
5013 -5 -27 -72 -80 0
-5013 5 0
-5013 27 0
-5013 72 0
-5013 80 0
5014 -5 -30 -63 -80 0
-5014 5 0
-5014 30 0
-5014 63 0
-5014 80 0
5015 -5 -36 -57 -80 0
-5015 5 0
-5015 36 0
-5015 57 0
-5015 80 0
5016 -14 -27 -53 -72 0
-5016 14 0
-5016 27 0
-5016 53 0
-5016 72 0
5017 -14 -30 -53 -63 0
-5017 14 0
-5017 30 0
-5017 53 0
-5017 63 0
5018 -14 -36 -53 -57 0
-5018 14 0
-5018 36 0
-5018 53 0
-5018 57 0
5019 -20 -27 -47 -72 0
-5019 20 0
-5019 27 0
-5019 47 0
-5019 72 0
5020 -20 -30 -47 -63 0
-5020 20 0
-5020 30 0
-5020 47 0
-5020 63 0
5021 -20 -36 -47 -57 0
-5021 20 0
-5021 36 0
-5021 47 0
-5021 57 0
-5013 5014 5015 5016 5017 5018 5019 5020 5021 0
-5014 5013 5015 5016 5017 5018 5019 5020 5021 0
-5015 5013 5014 5016 5017 5018 5019 5020 5021 0
-5016 5013 5014 5015 5017 5018 5019 5020 5021 0
-5017 5013 5014 5015 5016 5018 5019 5020 5021 0
-5018 5013 5014 5015 5016 5017 5019 5020 5021 0
-5019 5013 5014 5015 5016 5017 5018 5020 5021 0
-5020 5013 5014 5015 5016 5017 5018 5019 5021 0
-5021 5013 5014 5015 5016 5017 5018 5019 5020 0
5022 -6 -25 -70 -80 0
-5022 6 0
-5022 25 0
-5022 70 0
-5022 80 0
5023 -6 -28 -61 -80 0
-5023 6 0
-5023 28 0
-5023 61 0
-5023 80 0
5024 -6 -34 -55 -80 0
-5024 6 0
-5024 34 0
-5024 55 0
-5024 80 0
-5022 5023 5024 0
-5023 5022 5024 0
-5024 5022 5023 0
5025 -6 -25 -70 -81 0
-5025 6 0
-5025 25 0
-5025 70 0
-5025 81 0
5026 -6 -28 -61 -81 0
-5026 6 0
-5026 28 0
-5026 61 0
-5026 81 0
5027 -6 -34 -55 -81 0
-5027 6 0
-5027 34 0
-5027 55 0
-5027 81 0
5028 -15 -25 -54 -70 0
-5028 15 0
-5028 25 0
-5028 54 0
-5028 70 0
5029 -15 -28 -54 -61 0
-5029 15 0
-5029 28 0
-5029 54 0
-5029 61 0
5030 -15 -34 -54 -55 0
-5030 15 0
-5030 34 0
-5030 54 0
-5030 55 0
5031 -21 -25 -48 -70 0
-5031 21 0
-5031 25 0
-5031 48 0
-5031 70 0
5032 -21 -28 -48 -61 0
-5032 21 0
-5032 28 0
-5032 48 0
-5032 61 0
5033 -21 -34 -48 -55 0
-5033 21 0
-5033 34 0
-5033 48 0
-5033 55 0
-5025 5026 5027 5028 5029 5030 5031 5032 5033 0
-5026 5025 5027 5028 5029 5030 5031 5032 5033 0
-5027 5025 5026 5028 5029 5030 5031 5032 5033 0
-5028 5025 5026 5027 5029 5030 5031 5032 5033 0
-5029 5025 5026 5027 5028 5030 5031 5032 5033 0
-5030 5025 5026 5027 5028 5029 5031 5032 5033 0
-5031 5025 5026 5027 5028 5029 5030 5032 5033 0
-5032 5025 5026 5027 5028 5029 5030 5031 5033 0
-5033 5025 5026 5027 5028 5029 5030 5031 5032 0
5034 -6 -25 -71 -79 0
-5034 6 0
-5034 25 0
-5034 71 0
-5034 79 0
5035 -6 -31 -64 -71 0
-5035 6 0
-5035 31 0
-5035 64 0
-5035 71 0
5036 -6 -37 -58 -71 0
-5036 6 0
-5036 37 0
-5036 58 0
-5036 71 0
-5034 5035 5036 0
-5035 5034 5036 0
-5036 5034 5035 0
5037 -6 -25 -71 -81 0
-5037 6 0
-5037 25 0
-5037 71 0
-5037 81 0
5038 -15 -25 -54 -71 0
-5038 15 0
-5038 25 0
-5038 54 0
-5038 71 0
5039 -21 -25 -48 -71 0
-5039 21 0
-5039 25 0
-5039 48 0
-5039 71 0
-5037 5038 5039 0
-5038 5037 5039 0
-5039 5037 5038 0
5040 -6 -25 -72 -79 0
-5040 6 0
-5040 25 0
-5040 72 0
-5040 79 0
5041 -6 -31 -64 -72 0
-5041 6 0
-5041 31 0
-5041 64 0
-5041 72 0
5042 -6 -37 -58 -72 0
-5042 6 0
-5042 37 0
-5042 58 0
-5042 72 0
5043 -12 -25 -51 -79 0
-5043 12 0
-5043 25 0
-5043 51 0
-5043 79 0
5044 -12 -31 -51 -64 0
-5044 12 0
-5044 31 0
-5044 51 0
-5044 64 0
5045 -12 -37 -51 -58 0
-5045 12 0
-5045 37 0
-5045 51 0
-5045 58 0
5046 -18 -25 -45 -79 0
-5046 18 0
-5046 25 0
-5046 45 0
-5046 79 0
5047 -18 -31 -45 -64 0
-5047 18 0
-5047 31 0
-5047 45 0
-5047 64 0
5048 -18 -37 -45 -58 0
-5048 18 0
-5048 37 0
-5048 45 0
-5048 58 0
-5040 5041 5042 5043 5044 5045 5046 5047 5048 0
-5041 5040 5042 5043 5044 5045 5046 5047 5048 0
-5042 5040 5041 5043 5044 5045 5046 5047 5048 0
-5043 5040 5041 5042 5044 5045 5046 5047 5048 0
-5044 5040 5041 5042 5043 5045 5046 5047 5048 0
-5045 5040 5041 5042 5043 5044 5046 5047 5048 0
-5046 5040 5041 5042 5043 5044 5045 5047 5048 0
-5047 5040 5041 5042 5043 5044 5045 5046 5048 0
-5048 5040 5041 5042 5043 5044 5045 5046 5047 0
5049 -6 -25 -72 -80 0
-5049 6 0
-5049 25 0
-5049 72 0
-5049 80 0
5050 -12 -25 -51 -80 0
-5050 12 0
-5050 25 0
-5050 51 0
-5050 80 0
5051 -18 -25 -45 -80 0
-5051 18 0
-5051 25 0
-5051 45 0
-5051 80 0
-5049 5050 5051 0
-5050 5049 5051 0
-5051 5049 5050 0
5052 -6 -26 -70 -80 0
-5052 6 0
-5052 26 0
-5052 70 0
-5052 80 0
5053 -6 -32 -65 -70 0
-5053 6 0
-5053 32 0
-5053 65 0
-5053 70 0
5054 -6 -38 -59 -70 0
-5054 6 0
-5054 38 0
-5054 59 0
-5054 70 0
-5052 5053 5054 0
-5053 5052 5054 0
-5054 5052 5053 0
5055 -6 -26 -70 -81 0
-5055 6 0
-5055 26 0
-5055 70 0
-5055 81 0
5056 -15 -26 -54 -70 0
-5056 15 0
-5056 26 0
-5056 54 0
-5056 70 0
5057 -21 -26 -48 -70 0
-5057 21 0
-5057 26 0
-5057 48 0
-5057 70 0
-5055 5056 5057 0
-5056 5055 5057 0
-5057 5055 5056 0
5058 -6 -26 -71 -79 0
-5058 6 0
-5058 26 0
-5058 71 0
-5058 79 0
5059 -6 -29 -62 -79 0
-5059 6 0
-5059 29 0
-5059 62 0
-5059 79 0
5060 -6 -35 -56 -79 0
-5060 6 0
-5060 35 0
-5060 56 0
-5060 79 0
-5058 5059 5060 0
-5059 5058 5060 0
-5060 5058 5059 0
5061 -6 -26 -71 -81 0
-5061 6 0
-5061 26 0
-5061 71 0
-5061 81 0
5062 -6 -29 -62 -81 0
-5062 6 0
-5062 29 0
-5062 62 0
-5062 81 0
5063 -6 -35 -56 -81 0
-5063 6 0
-5063 35 0
-5063 56 0
-5063 81 0
5064 -15 -26 -54 -71 0
-5064 15 0
-5064 26 0
-5064 54 0
-5064 71 0
5065 -15 -29 -54 -62 0
-5065 15 0
-5065 29 0
-5065 54 0
-5065 62 0
5066 -15 -35 -54 -56 0
-5066 15 0
-5066 35 0
-5066 54 0
-5066 56 0
5067 -21 -26 -48 -71 0
-5067 21 0
-5067 26 0
-5067 48 0
-5067 71 0
5068 -21 -29 -48 -62 0
-5068 21 0
-5068 29 0
-5068 48 0
-5068 62 0
5069 -21 -35 -48 -56 0
-5069 21 0
-5069 35 0
-5069 48 0
-5069 56 0
-5061 5062 5063 5064 5065 5066 5067 5068 5069 0
-5062 5061 5063 5064 5065 5066 5067 5068 5069 0
-5063 5061 5062 5064 5065 5066 5067 5068 5069 0
-5064 5061 5062 5063 5065 5066 5067 5068 5069 0
-5065 5061 5062 5063 5064 5066 5067 5068 5069 0
-5066 5061 5062 5063 5064 5065 5067 5068 5069 0
-5067 5061 5062 5063 5064 5065 5066 5068 5069 0
-5068 5061 5062 5063 5064 5065 5066 5067 5069 0
-5069 5061 5062 5063 5064 5065 5066 5067 5068 0
5070 -6 -26 -72 -79 0
-5070 6 0
-5070 26 0
-5070 72 0
-5070 79 0
5071 -12 -26 -51 -79 0
-5071 12 0
-5071 26 0
-5071 51 0
-5071 79 0
5072 -18 -26 -45 -79 0
-5072 18 0
-5072 26 0
-5072 45 0
-5072 79 0
-5070 5071 5072 0
-5071 5070 5072 0
-5072 5070 5071 0
5073 -6 -26 -72 -80 0
-5073 6 0
-5073 26 0
-5073 72 0
-5073 80 0
5074 -6 -32 -65 -72 0
-5074 6 0
-5074 32 0
-5074 65 0
-5074 72 0
5075 -6 -38 -59 -72 0
-5075 6 0
-5075 38 0
-5075 59 0
-5075 72 0
5076 -12 -26 -51 -80 0
-5076 12 0
-5076 26 0
-5076 51 0
-5076 80 0
5077 -12 -32 -51 -65 0
-5077 12 0
-5077 32 0
-5077 51 0
-5077 65 0
5078 -12 -38 -51 -59 0
-5078 12 0
-5078 38 0
-5078 51 0
-5078 59 0
5079 -18 -26 -45 -80 0
-5079 18 0
-5079 26 0
-5079 45 0
-5079 80 0
5080 -18 -32 -45 -65 0
-5080 18 0
-5080 32 0
-5080 45 0
-5080 65 0
5081 -18 -38 -45 -59 0
-5081 18 0
-5081 38 0
-5081 45 0
-5081 59 0
-5073 5074 5075 5076 5077 5078 5079 5080 5081 0
-5074 5073 5075 5076 5077 5078 5079 5080 5081 0
-5075 5073 5074 5076 5077 5078 5079 5080 5081 0
-5076 5073 5074 5075 5077 5078 5079 5080 5081 0
-5077 5073 5074 5075 5076 5078 5079 5080 5081 0
-5078 5073 5074 5075 5076 5077 5079 5080 5081 0
-5079 5073 5074 5075 5076 5077 5078 5080 5081 0
-5080 5073 5074 5075 5076 5077 5078 5079 5081 0
-5081 5073 5074 5075 5076 5077 5078 5079 5080 0
5082 -4 -26 -73 -77 0
-5082 4 0
-5082 26 0
-5082 73 0
-5082 77 0
5083 -4 -32 -62 -73 0
-5083 4 0
-5083 32 0
-5083 62 0
-5083 73 0
5084 -4 -35 -59 -73 0
-5084 4 0
-5084 35 0
-5084 59 0
-5084 73 0
5085 -10 -26 -52 -77 0
-5085 10 0
-5085 26 0
-5085 52 0
-5085 77 0
5086 -10 -32 -52 -62 0
-5086 10 0
-5086 32 0
-5086 52 0
-5086 62 0
5087 -10 -35 -52 -59 0
-5087 10 0
-5087 35 0
-5087 52 0
-5087 59 0
5088 -19 -26 -43 -77 0
-5088 19 0
-5088 26 0
-5088 43 0
-5088 77 0
5089 -19 -32 -43 -62 0
-5089 19 0
-5089 32 0
-5089 43 0
-5089 62 0
5090 -19 -35 -43 -59 0
-5090 19 0
-5090 35 0
-5090 43 0
-5090 59 0
-5082 5083 5084 5085 5086 5087 5088 5089 5090 0
-5083 5082 5084 5085 5086 5087 5088 5089 5090 0
-5084 5082 5083 5085 5086 5087 5088 5089 5090 0
-5085 5082 5083 5084 5086 5087 5088 5089 5090 0
-5086 5082 5083 5084 5085 5087 5088 5089 5090 0
-5087 5082 5083 5084 5085 5086 5088 5089 5090 0
-5088 5082 5083 5084 5085 5086 5087 5089 5090 0
-5089 5082 5083 5084 5085 5086 5087 5088 5090 0
-5090 5082 5083 5084 5085 5086 5087 5088 5089 0
5091 -4 -26 -73 -78 0
-5091 4 0
-5091 26 0
-5091 73 0
-5091 78 0
5092 -10 -26 -52 -78 0
-5092 10 0
-5092 26 0
-5092 52 0
-5092 78 0
5093 -19 -26 -43 -78 0
-5093 19 0
-5093 26 0
-5093 43 0
-5093 78 0
-5091 5092 5093 0
-5092 5091 5093 0
-5093 5091 5092 0
5094 -4 -26 -74 -76 0
-5094 4 0
-5094 26 0
-5094 74 0
-5094 76 0
5095 -4 -29 -65 -76 0
-5095 4 0
-5095 29 0
-5095 65 0
-5095 76 0
5096 -4 -38 -56 -76 0
-5096 4 0
-5096 38 0
-5096 56 0
-5096 76 0
5097 -13 -26 -49 -74 0
-5097 13 0
-5097 26 0
-5097 49 0
-5097 74 0
5098 -13 -29 -49 -65 0
-5098 13 0
-5098 29 0
-5098 49 0
-5098 65 0
5099 -13 -38 -49 -56 0
-5099 13 0
-5099 38 0
-5099 49 0
-5099 56 0
5100 -16 -26 -46 -74 0
-5100 16 0
-5100 26 0
-5100 46 0
-5100 74 0
5101 -16 -29 -46 -65 0
-5101 16 0
-5101 29 0
-5101 46 0
-5101 65 0
5102 -16 -38 -46 -56 0
-5102 16 0
-5102 38 0
-5102 46 0
-5102 56 0
-5094 5095 5096 5097 5098 5099 5100 5101 5102 0
-5095 5094 5096 5097 5098 5099 5100 5101 5102 0
-5096 5094 5095 5097 5098 5099 5100 5101 5102 0
-5097 5094 5095 5096 5098 5099 5100 5101 5102 0
-5098 5094 5095 5096 5097 5099 5100 5101 5102 0
-5099 5094 5095 5096 5097 5098 5100 5101 5102 0
-5100 5094 5095 5096 5097 5098 5099 5101 5102 0
-5101 5094 5095 5096 5097 5098 5099 5100 5102 0
-5102 5094 5095 5096 5097 5098 5099 5100 5101 0
5103 -4 -26 -74 -78 0
-5103 4 0
-5103 26 0
-5103 74 0
-5103 78 0
5104 -4 -29 -65 -78 0
-5104 4 0
-5104 29 0
-5104 65 0
-5104 78 0
5105 -4 -38 -56 -78 0
-5105 4 0
-5105 38 0
-5105 56 0
-5105 78 0
-5103 5104 5105 0
-5104 5103 5105 0
-5105 5103 5104 0
5106 -4 -26 -75 -76 0
-5106 4 0
-5106 26 0
-5106 75 0
-5106 76 0
5107 -13 -26 -49 -75 0
-5107 13 0
-5107 26 0
-5107 49 0
-5107 75 0
5108 -16 -26 -46 -75 0
-5108 16 0
-5108 26 0
-5108 46 0
-5108 75 0
-5106 5107 5108 0
-5107 5106 5108 0
-5108 5106 5107 0
5109 -4 -26 -75 -77 0
-5109 4 0
-5109 26 0
-5109 75 0
-5109 77 0
5110 -4 -32 -62 -75 0
-5110 4 0
-5110 32 0
-5110 62 0
-5110 75 0
5111 -4 -35 -59 -75 0
-5111 4 0
-5111 35 0
-5111 59 0
-5111 75 0
-5109 5110 5111 0
-5110 5109 5111 0
-5111 5109 5110 0
5112 -4 -27 -73 -77 0
-5112 4 0
-5112 27 0
-5112 73 0
-5112 77 0
5113 -10 -27 -52 -77 0
-5113 10 0
-5113 27 0
-5113 52 0
-5113 77 0
5114 -19 -27 -43 -77 0
-5114 19 0
-5114 27 0
-5114 43 0
-5114 77 0
-5112 5113 5114 0
-5113 5112 5114 0
-5114 5112 5113 0
5115 -4 -27 -73 -78 0
-5115 4 0
-5115 27 0
-5115 73 0
-5115 78 0
5116 -4 -33 -63 -73 0
-5116 4 0
-5116 33 0
-5116 63 0
-5116 73 0
5117 -4 -36 -60 -73 0
-5117 4 0
-5117 36 0
-5117 60 0
-5117 73 0
5118 -10 -27 -52 -78 0
-5118 10 0
-5118 27 0
-5118 52 0
-5118 78 0
5119 -10 -33 -52 -63 0
-5119 10 0
-5119 33 0
-5119 52 0
-5119 63 0
5120 -10 -36 -52 -60 0
-5120 10 0
-5120 36 0
-5120 52 0
-5120 60 0
5121 -19 -27 -43 -78 0
-5121 19 0
-5121 27 0
-5121 43 0
-5121 78 0
5122 -19 -33 -43 -63 0
-5122 19 0
-5122 33 0
-5122 43 0
-5122 63 0
5123 -19 -36 -43 -60 0
-5123 19 0
-5123 36 0
-5123 43 0
-5123 60 0
-5115 5116 5117 5118 5119 5120 5121 5122 5123 0
-5116 5115 5117 5118 5119 5120 5121 5122 5123 0
-5117 5115 5116 5118 5119 5120 5121 5122 5123 0
-5118 5115 5116 5117 5119 5120 5121 5122 5123 0
-5119 5115 5116 5117 5118 5120 5121 5122 5123 0
-5120 5115 5116 5117 5118 5119 5121 5122 5123 0
-5121 5115 5116 5117 5118 5119 5120 5122 5123 0
-5122 5115 5116 5117 5118 5119 5120 5121 5123 0
-5123 5115 5116 5117 5118 5119 5120 5121 5122 0
5124 -4 -27 -74 -76 0
-5124 4 0
-5124 27 0
-5124 74 0
-5124 76 0
5125 -13 -27 -49 -74 0
-5125 13 0
-5125 27 0
-5125 49 0
-5125 74 0
5126 -16 -27 -46 -74 0
-5126 16 0
-5126 27 0
-5126 46 0
-5126 74 0
-5124 5125 5126 0
-5125 5124 5126 0
-5126 5124 5125 0
5127 -4 -27 -74 -78 0
-5127 4 0
-5127 27 0
-5127 74 0
-5127 78 0
5128 -4 -33 -63 -74 0
-5128 4 0
-5128 33 0
-5128 63 0
-5128 74 0
5129 -4 -36 -60 -74 0
-5129 4 0
-5129 36 0
-5129 60 0
-5129 74 0
-5127 5128 5129 0
-5128 5127 5129 0
-5129 5127 5128 0
5130 -4 -27 -75 -76 0
-5130 4 0
-5130 27 0
-5130 75 0
-5130 76 0
5131 -4 -30 -66 -76 0
-5131 4 0
-5131 30 0
-5131 66 0
-5131 76 0
5132 -4 -39 -57 -76 0
-5132 4 0
-5132 39 0
-5132 57 0
-5132 76 0
5133 -13 -27 -49 -75 0
-5133 13 0
-5133 27 0
-5133 49 0
-5133 75 0
5134 -13 -30 -49 -66 0
-5134 13 0
-5134 30 0
-5134 49 0
-5134 66 0
5135 -13 -39 -49 -57 0
-5135 13 0
-5135 39 0
-5135 49 0
-5135 57 0
5136 -16 -27 -46 -75 0
-5136 16 0
-5136 27 0
-5136 46 0
-5136 75 0
5137 -16 -30 -46 -66 0
-5137 16 0
-5137 30 0
-5137 46 0
-5137 66 0
5138 -16 -39 -46 -57 0
-5138 16 0
-5138 39 0
-5138 46 0
-5138 57 0
-5130 5131 5132 5133 5134 5135 5136 5137 5138 0
-5131 5130 5132 5133 5134 5135 5136 5137 5138 0
-5132 5130 5131 5133 5134 5135 5136 5137 5138 0
-5133 5130 5131 5132 5134 5135 5136 5137 5138 0
-5134 5130 5131 5132 5133 5135 5136 5137 5138 0
-5135 5130 5131 5132 5133 5134 5136 5137 5138 0
-5136 5130 5131 5132 5133 5134 5135 5137 5138 0
-5137 5130 5131 5132 5133 5134 5135 5136 5138 0
-5138 5130 5131 5132 5133 5134 5135 5136 5137 0
5139 -4 -27 -75 -77 0
-5139 4 0
-5139 27 0
-5139 75 0
-5139 77 0
5140 -4 -30 -66 -77 0
-5140 4 0
-5140 30 0
-5140 66 0
-5140 77 0
5141 -4 -39 -57 -77 0
-5141 4 0
-5141 39 0
-5141 57 0
-5141 77 0
-5139 5140 5141 0
-5140 5139 5141 0
-5141 5139 5140 0
5142 -5 -25 -73 -77 0
-5142 5 0
-5142 25 0
-5142 73 0
-5142 77 0
5143 -5 -28 -64 -77 0
-5143 5 0
-5143 28 0
-5143 64 0
-5143 77 0
5144 -5 -37 -55 -77 0
-5144 5 0
-5144 37 0
-5144 55 0
-5144 77 0
5145 -14 -25 -50 -73 0
-5145 14 0
-5145 25 0
-5145 50 0
-5145 73 0
5146 -14 -28 -50 -64 0
-5146 14 0
-5146 28 0
-5146 50 0
-5146 64 0
5147 -14 -37 -50 -55 0
-5147 14 0
-5147 37 0
-5147 50 0
-5147 55 0
5148 -17 -25 -47 -73 0
-5148 17 0
-5148 25 0
-5148 47 0
-5148 73 0
5149 -17 -28 -47 -64 0
-5149 17 0
-5149 28 0
-5149 47 0
-5149 64 0
5150 -17 -37 -47 -55 0
-5150 17 0
-5150 37 0
-5150 47 0
-5150 55 0
-5142 5143 5144 5145 5146 5147 5148 5149 5150 0
-5143 5142 5144 5145 5146 5147 5148 5149 5150 0
-5144 5142 5143 5145 5146 5147 5148 5149 5150 0
-5145 5142 5143 5144 5146 5147 5148 5149 5150 0
-5146 5142 5143 5144 5145 5147 5148 5149 5150 0
-5147 5142 5143 5144 5145 5146 5148 5149 5150 0
-5148 5142 5143 5144 5145 5146 5147 5149 5150 0
-5149 5142 5143 5144 5145 5146 5147 5148 5150 0
-5150 5142 5143 5144 5145 5146 5147 5148 5149 0
5151 -5 -25 -73 -78 0
-5151 5 0
-5151 25 0
-5151 73 0
-5151 78 0
5152 -5 -28 -64 -78 0
-5152 5 0
-5152 28 0
-5152 64 0
-5152 78 0
5153 -5 -37 -55 -78 0
-5153 5 0
-5153 37 0
-5153 55 0
-5153 78 0
-5151 5152 5153 0
-5152 5151 5153 0
-5153 5151 5152 0
5154 -5 -25 -74 -76 0
-5154 5 0
-5154 25 0
-5154 74 0
-5154 76 0
5155 -5 -31 -61 -74 0
-5155 5 0
-5155 31 0
-5155 61 0
-5155 74 0
5156 -5 -34 -58 -74 0
-5156 5 0
-5156 34 0
-5156 58 0
-5156 74 0
5157 -11 -25 -53 -76 0
-5157 11 0
-5157 25 0
-5157 53 0
-5157 76 0
5158 -11 -31 -53 -61 0
-5158 11 0
-5158 31 0
-5158 53 0
-5158 61 0
5159 -11 -34 -53 -58 0
-5159 11 0
-5159 34 0
-5159 53 0
-5159 58 0
5160 -20 -25 -44 -76 0
-5160 20 0
-5160 25 0
-5160 44 0
-5160 76 0
5161 -20 -31 -44 -61 0
-5161 20 0
-5161 31 0
-5161 44 0
-5161 61 0
5162 -20 -34 -44 -58 0
-5162 20 0
-5162 34 0
-5162 44 0
-5162 58 0
-5154 5155 5156 5157 5158 5159 5160 5161 5162 0
-5155 5154 5156 5157 5158 5159 5160 5161 5162 0
-5156 5154 5155 5157 5158 5159 5160 5161 5162 0
-5157 5154 5155 5156 5158 5159 5160 5161 5162 0
-5158 5154 5155 5156 5157 5159 5160 5161 5162 0
-5159 5154 5155 5156 5157 5158 5160 5161 5162 0
-5160 5154 5155 5156 5157 5158 5159 5161 5162 0
-5161 5154 5155 5156 5157 5158 5159 5160 5162 0
-5162 5154 5155 5156 5157 5158 5159 5160 5161 0
5163 -5 -25 -74 -78 0
-5163 5 0
-5163 25 0
-5163 74 0
-5163 78 0
5164 -11 -25 -53 -78 0
-5164 11 0
-5164 25 0
-5164 53 0
-5164 78 0
5165 -20 -25 -44 -78 0
-5165 20 0
-5165 25 0
-5165 44 0
-5165 78 0
-5163 5164 5165 0
-5164 5163 5165 0
-5165 5163 5164 0
5166 -5 -25 -75 -76 0
-5166 5 0
-5166 25 0
-5166 75 0
-5166 76 0
5167 -5 -31 -61 -75 0
-5167 5 0
-5167 31 0
-5167 61 0
-5167 75 0
5168 -5 -34 -58 -75 0
-5168 5 0
-5168 34 0
-5168 58 0
-5168 75 0
-5166 5167 5168 0
-5167 5166 5168 0
-5168 5166 5167 0
5169 -5 -25 -75 -77 0
-5169 5 0
-5169 25 0
-5169 75 0
-5169 77 0
5170 -14 -25 -50 -75 0
-5170 14 0
-5170 25 0
-5170 50 0
-5170 75 0
5171 -17 -25 -47 -75 0
-5171 17 0
-5171 25 0
-5171 47 0
-5171 75 0
-5169 5170 5171 0
-5170 5169 5171 0
-5171 5169 5170 0
5172 -5 -27 -73 -77 0
-5172 5 0
-5172 27 0
-5172 73 0
-5172 77 0
5173 -14 -27 -50 -73 0
-5173 14 0
-5173 27 0
-5173 50 0
-5173 73 0
5174 -17 -27 -47 -73 0
-5174 17 0
-5174 27 0
-5174 47 0
-5174 73 0
-5172 5173 5174 0
-5173 5172 5174 0
-5174 5172 5173 0
5175 -5 -27 -73 -78 0
-5175 5 0
-5175 27 0
-5175 73 0
-5175 78 0
5176 -5 -33 -63 -73 0
-5176 5 0
-5176 33 0
-5176 63 0
-5176 73 0
5177 -5 -36 -60 -73 0
-5177 5 0
-5177 36 0
-5177 60 0
-5177 73 0
-5175 5176 5177 0
-5176 5175 5177 0
-5177 5175 5176 0
5178 -5 -27 -74 -76 0
-5178 5 0
-5178 27 0
-5178 74 0
-5178 76 0
5179 -11 -27 -53 -76 0
-5179 11 0
-5179 27 0
-5179 53 0
-5179 76 0
5180 -20 -27 -44 -76 0
-5180 20 0
-5180 27 0
-5180 44 0
-5180 76 0
-5178 5179 5180 0
-5179 5178 5180 0
-5180 5178 5179 0
5181 -5 -27 -74 -78 0
-5181 5 0
-5181 27 0
-5181 74 0
-5181 78 0
5182 -5 -33 -63 -74 0
-5182 5 0
-5182 33 0
-5182 63 0
-5182 74 0
5183 -5 -36 -60 -74 0
-5183 5 0
-5183 36 0
-5183 60 0
-5183 74 0
5184 -11 -27 -53 -78 0
-5184 11 0
-5184 27 0
-5184 53 0
-5184 78 0
5185 -11 -33 -53 -63 0
-5185 11 0
-5185 33 0
-5185 53 0
-5185 63 0
5186 -11 -36 -53 -60 0
-5186 11 0
-5186 36 0
-5186 53 0
-5186 60 0
5187 -20 -27 -44 -78 0
-5187 20 0
-5187 27 0
-5187 44 0
-5187 78 0
5188 -20 -33 -44 -63 0
-5188 20 0
-5188 33 0
-5188 44 0
-5188 63 0
5189 -20 -36 -44 -60 0
-5189 20 0
-5189 36 0
-5189 44 0
-5189 60 0
-5181 5182 5183 5184 5185 5186 5187 5188 5189 0
-5182 5181 5183 5184 5185 5186 5187 5188 5189 0
-5183 5181 5182 5184 5185 5186 5187 5188 5189 0
-5184 5181 5182 5183 5185 5186 5187 5188 5189 0
-5185 5181 5182 5183 5184 5186 5187 5188 5189 0
-5186 5181 5182 5183 5184 5185 5187 5188 5189 0
-5187 5181 5182 5183 5184 5185 5186 5188 5189 0
-5188 5181 5182 5183 5184 5185 5186 5187 5189 0
-5189 5181 5182 5183 5184 5185 5186 5187 5188 0
5190 -5 -27 -75 -76 0
-5190 5 0
-5190 27 0
-5190 75 0
-5190 76 0
5191 -5 -30 -66 -76 0
-5191 5 0
-5191 30 0
-5191 66 0
-5191 76 0
5192 -5 -39 -57 -76 0
-5192 5 0
-5192 39 0
-5192 57 0
-5192 76 0
-5190 5191 5192 0
-5191 5190 5192 0
-5192 5190 5191 0
5193 -5 -27 -75 -77 0
-5193 5 0
-5193 27 0
-5193 75 0
-5193 77 0
5194 -5 -30 -66 -77 0
-5194 5 0
-5194 30 0
-5194 66 0
-5194 77 0
5195 -5 -39 -57 -77 0
-5195 5 0
-5195 39 0
-5195 57 0
-5195 77 0
5196 -14 -27 -50 -75 0
-5196 14 0
-5196 27 0
-5196 50 0
-5196 75 0
5197 -14 -30 -50 -66 0
-5197 14 0
-5197 30 0
-5197 50 0
-5197 66 0
5198 -14 -39 -50 -57 0
-5198 14 0
-5198 39 0
-5198 50 0
-5198 57 0
5199 -17 -27 -47 -75 0
-5199 17 0
-5199 27 0
-5199 47 0
-5199 75 0
5200 -17 -30 -47 -66 0
-5200 17 0
-5200 30 0
-5200 47 0
-5200 66 0
5201 -17 -39 -47 -57 0
-5201 17 0
-5201 39 0
-5201 47 0
-5201 57 0
-5193 5194 5195 5196 5197 5198 5199 5200 5201 0
-5194 5193 5195 5196 5197 5198 5199 5200 5201 0
-5195 5193 5194 5196 5197 5198 5199 5200 5201 0
-5196 5193 5194 5195 5197 5198 5199 5200 5201 0
-5197 5193 5194 5195 5196 5198 5199 5200 5201 0
-5198 5193 5194 5195 5196 5197 5199 5200 5201 0
-5199 5193 5194 5195 5196 5197 5198 5200 5201 0
-5200 5193 5194 5195 5196 5197 5198 5199 5201 0
-5201 5193 5194 5195 5196 5197 5198 5199 5200 0
5202 -6 -25 -73 -77 0
-5202 6 0
-5202 25 0
-5202 73 0
-5202 77 0
5203 -6 -28 -64 -77 0
-5203 6 0
-5203 28 0
-5203 64 0
-5203 77 0
5204 -6 -37 -55 -77 0
-5204 6 0
-5204 37 0
-5204 55 0
-5204 77 0
-5202 5203 5204 0
-5203 5202 5204 0
-5204 5202 5203 0
5205 -6 -25 -73 -78 0
-5205 6 0
-5205 25 0
-5205 73 0
-5205 78 0
5206 -6 -28 -64 -78 0
-5206 6 0
-5206 28 0
-5206 64 0
-5206 78 0
5207 -6 -37 -55 -78 0
-5207 6 0
-5207 37 0
-5207 55 0
-5207 78 0
5208 -15 -25 -51 -73 0
-5208 15 0
-5208 25 0
-5208 51 0
-5208 73 0
5209 -15 -28 -51 -64 0
-5209 15 0
-5209 28 0
-5209 51 0
-5209 64 0
5210 -15 -37 -51 -55 0
-5210 15 0
-5210 37 0
-5210 51 0
-5210 55 0
5211 -18 -25 -48 -73 0
-5211 18 0
-5211 25 0
-5211 48 0
-5211 73 0
5212 -18 -28 -48 -64 0
-5212 18 0
-5212 28 0
-5212 48 0
-5212 64 0
5213 -18 -37 -48 -55 0
-5213 18 0
-5213 37 0
-5213 48 0
-5213 55 0
-5205 5206 5207 5208 5209 5210 5211 5212 5213 0
-5206 5205 5207 5208 5209 5210 5211 5212 5213 0
-5207 5205 5206 5208 5209 5210 5211 5212 5213 0
-5208 5205 5206 5207 5209 5210 5211 5212 5213 0
-5209 5205 5206 5207 5208 5210 5211 5212 5213 0
-5210 5205 5206 5207 5208 5209 5211 5212 5213 0
-5211 5205 5206 5207 5208 5209 5210 5212 5213 0
-5212 5205 5206 5207 5208 5209 5210 5211 5213 0
-5213 5205 5206 5207 5208 5209 5210 5211 5212 0
5214 -6 -25 -74 -76 0
-5214 6 0
-5214 25 0
-5214 74 0
-5214 76 0
5215 -6 -31 -61 -74 0
-5215 6 0
-5215 31 0
-5215 61 0
-5215 74 0
5216 -6 -34 -58 -74 0
-5216 6 0
-5216 34 0
-5216 58 0
-5216 74 0
-5214 5215 5216 0
-5215 5214 5216 0
-5216 5214 5215 0
5217 -6 -25 -74 -78 0
-5217 6 0
-5217 25 0
-5217 74 0
-5217 78 0
5218 -15 -25 -51 -74 0
-5218 15 0
-5218 25 0
-5218 51 0
-5218 74 0
5219 -18 -25 -48 -74 0
-5219 18 0
-5219 25 0
-5219 48 0
-5219 74 0
-5217 5218 5219 0
-5218 5217 5219 0
-5219 5217 5218 0
5220 -6 -25 -75 -76 0
-5220 6 0
-5220 25 0
-5220 75 0
-5220 76 0
5221 -6 -31 -61 -75 0
-5221 6 0
-5221 31 0
-5221 61 0
-5221 75 0
5222 -6 -34 -58 -75 0
-5222 6 0
-5222 34 0
-5222 58 0
-5222 75 0
5223 -12 -25 -54 -76 0
-5223 12 0
-5223 25 0
-5223 54 0
-5223 76 0
5224 -12 -31 -54 -61 0
-5224 12 0
-5224 31 0
-5224 54 0
-5224 61 0
5225 -12 -34 -54 -58 0
-5225 12 0
-5225 34 0
-5225 54 0
-5225 58 0
5226 -21 -25 -45 -76 0
-5226 21 0
-5226 25 0
-5226 45 0
-5226 76 0
5227 -21 -31 -45 -61 0
-5227 21 0
-5227 31 0
-5227 45 0
-5227 61 0
5228 -21 -34 -45 -58 0
-5228 21 0
-5228 34 0
-5228 45 0
-5228 58 0
-5220 5221 5222 5223 5224 5225 5226 5227 5228 0
-5221 5220 5222 5223 5224 5225 5226 5227 5228 0
-5222 5220 5221 5223 5224 5225 5226 5227 5228 0
-5223 5220 5221 5222 5224 5225 5226 5227 5228 0
-5224 5220 5221 5222 5223 5225 5226 5227 5228 0
-5225 5220 5221 5222 5223 5224 5226 5227 5228 0
-5226 5220 5221 5222 5223 5224 5225 5227 5228 0
-5227 5220 5221 5222 5223 5224 5225 5226 5228 0
-5228 5220 5221 5222 5223 5224 5225 5226 5227 0
5229 -6 -25 -75 -77 0
-5229 6 0
-5229 25 0
-5229 75 0
-5229 77 0
5230 -12 -25 -54 -77 0
-5230 12 0
-5230 25 0
-5230 54 0
-5230 77 0
5231 -21 -25 -45 -77 0
-5231 21 0
-5231 25 0
-5231 45 0
-5231 77 0
-5229 5230 5231 0
-5230 5229 5231 0
-5231 5229 5230 0
5232 -6 -26 -73 -77 0
-5232 6 0
-5232 26 0
-5232 73 0
-5232 77 0
5233 -6 -32 -62 -73 0
-5233 6 0
-5233 32 0
-5233 62 0
-5233 73 0
5234 -6 -35 -59 -73 0
-5234 6 0
-5234 35 0
-5234 59 0
-5234 73 0
-5232 5233 5234 0
-5233 5232 5234 0
-5234 5232 5233 0
5235 -6 -26 -73 -78 0
-5235 6 0
-5235 26 0
-5235 73 0
-5235 78 0
5236 -15 -26 -51 -73 0
-5236 15 0
-5236 26 0
-5236 51 0
-5236 73 0
5237 -18 -26 -48 -73 0
-5237 18 0
-5237 26 0
-5237 48 0
-5237 73 0
-5235 5236 5237 0
-5236 5235 5237 0
-5237 5235 5236 0
5238 -6 -26 -74 -76 0
-5238 6 0
-5238 26 0
-5238 74 0
-5238 76 0
5239 -6 -29 -65 -76 0
-5239 6 0
-5239 29 0
-5239 65 0
-5239 76 0
5240 -6 -38 -56 -76 0
-5240 6 0
-5240 38 0
-5240 56 0
-5240 76 0
-5238 5239 5240 0
-5239 5238 5240 0
-5240 5238 5239 0
5241 -6 -26 -74 -78 0
-5241 6 0
-5241 26 0
-5241 74 0
-5241 78 0
5242 -6 -29 -65 -78 0
-5242 6 0
-5242 29 0
-5242 65 0
-5242 78 0
5243 -6 -38 -56 -78 0
-5243 6 0
-5243 38 0
-5243 56 0
-5243 78 0
5244 -15 -26 -51 -74 0
-5244 15 0
-5244 26 0
-5244 51 0
-5244 74 0
5245 -15 -29 -51 -65 0
-5245 15 0
-5245 29 0
-5245 51 0
-5245 65 0
5246 -15 -38 -51 -56 0
-5246 15 0
-5246 38 0
-5246 51 0
-5246 56 0
5247 -18 -26 -48 -74 0
-5247 18 0
-5247 26 0
-5247 48 0
-5247 74 0
5248 -18 -29 -48 -65 0
-5248 18 0
-5248 29 0
-5248 48 0
-5248 65 0
5249 -18 -38 -48 -56 0
-5249 18 0
-5249 38 0
-5249 48 0
-5249 56 0
-5241 5242 5243 5244 5245 5246 5247 5248 5249 0
-5242 5241 5243 5244 5245 5246 5247 5248 5249 0
-5243 5241 5242 5244 5245 5246 5247 5248 5249 0
-5244 5241 5242 5243 5245 5246 5247 5248 5249 0
-5245 5241 5242 5243 5244 5246 5247 5248 5249 0
-5246 5241 5242 5243 5244 5245 5247 5248 5249 0
-5247 5241 5242 5243 5244 5245 5246 5248 5249 0
-5248 5241 5242 5243 5244 5245 5246 5247 5249 0
-5249 5241 5242 5243 5244 5245 5246 5247 5248 0
5250 -6 -26 -75 -76 0
-5250 6 0
-5250 26 0
-5250 75 0
-5250 76 0
5251 -12 -26 -54 -76 0
-5251 12 0
-5251 26 0
-5251 54 0
-5251 76 0
5252 -21 -26 -45 -76 0
-5252 21 0
-5252 26 0
-5252 45 0
-5252 76 0
-5250 5251 5252 0
-5251 5250 5252 0
-5252 5250 5251 0
5253 -6 -26 -75 -77 0
-5253 6 0
-5253 26 0
-5253 75 0
-5253 77 0
5254 -6 -32 -62 -75 0
-5254 6 0
-5254 32 0
-5254 62 0
-5254 75 0
5255 -6 -35 -59 -75 0
-5255 6 0
-5255 35 0
-5255 59 0
-5255 75 0
5256 -12 -26 -54 -77 0
-5256 12 0
-5256 26 0
-5256 54 0
-5256 77 0
5257 -12 -32 -54 -62 0
-5257 12 0
-5257 32 0
-5257 54 0
-5257 62 0
5258 -12 -35 -54 -59 0
-5258 12 0
-5258 35 0
-5258 54 0
-5258 59 0
5259 -21 -26 -45 -77 0
-5259 21 0
-5259 26 0
-5259 45 0
-5259 77 0
5260 -21 -32 -45 -62 0
-5260 21 0
-5260 32 0
-5260 45 0
-5260 62 0
5261 -21 -35 -45 -59 0
-5261 21 0
-5261 35 0
-5261 45 0
-5261 59 0
-5253 5254 5255 5256 5257 5258 5259 5260 5261 0
-5254 5253 5255 5256 5257 5258 5259 5260 5261 0
-5255 5253 5254 5256 5257 5258 5259 5260 5261 0
-5256 5253 5254 5255 5257 5258 5259 5260 5261 0
-5257 5253 5254 5255 5256 5258 5259 5260 5261 0
-5258 5253 5254 5255 5256 5257 5259 5260 5261 0
-5259 5253 5254 5255 5256 5257 5258 5260 5261 0
-5260 5253 5254 5255 5256 5257 5258 5259 5261 0
-5261 5253 5254 5255 5256 5257 5258 5259 5260 0
5262 -4 -29 -58 -82 0
-5262 4 0
-5262 29 0
-5262 58 0
-5262 82 0
5263 -4 -29 -61 -79 0
-5263 4 0
-5263 29 0
-5263 61 0
-5263 79 0
5264 -4 -29 -64 -76 0
-5264 4 0
-5264 29 0
-5264 64 0
-5264 76 0
5265 -7 -29 -46 -82 0
-5265 7 0
-5265 29 0
-5265 46 0
-5265 82 0
5266 -7 -29 -49 -79 0
-5266 7 0
-5266 29 0
-5266 49 0
-5266 79 0
5267 -7 -29 -52 -76 0
-5267 7 0
-5267 29 0
-5267 52 0
-5267 76 0
5268 -13 -29 -40 -82 0
-5268 13 0
-5268 29 0
-5268 40 0
-5268 82 0
5269 -13 -29 -49 -64 0
-5269 13 0
-5269 29 0
-5269 49 0
-5269 64 0
5270 -13 -29 -52 -61 0
-5270 13 0
-5270 29 0
-5270 52 0
-5270 61 0
5271 -16 -29 -40 -79 0
-5271 16 0
-5271 29 0
-5271 40 0
-5271 79 0
5272 -16 -29 -46 -64 0
-5272 16 0
-5272 29 0
-5272 46 0
-5272 64 0
5273 -16 -29 -52 -58 0
-5273 16 0
-5273 29 0
-5273 52 0
-5273 58 0
5274 -19 -29 -40 -76 0
-5274 19 0
-5274 29 0
-5274 40 0
-5274 76 0
5275 -19 -29 -46 -61 0
-5275 19 0
-5275 29 0
-5275 46 0
-5275 61 0
5276 -19 -29 -49 -58 0
-5276 19 0
-5276 29 0
-5276 49 0
-5276 58 0
-5262 5263 5264 5265 5266 5267 5268 5269 5270 5271 5272 5273 5274 5275 5276 0
-5263 5262 5264 5265 5266 5267 5268 5269 5270 5271 5272 5273 5274 5275 5276 0
-5264 5262 5263 5265 5266 5267 5268 5269 5270 5271 5272 5273 5274 5275 5276 0
-5265 5262 5263 5264 5266 5267 5268 5269 5270 5271 5272 5273 5274 5275 5276 0
-5266 5262 5263 5264 5265 5267 5268 5269 5270 5271 5272 5273 5274 5275 5276 0
-5267 5262 5263 5264 5265 5266 5268 5269 5270 5271 5272 5273 5274 5275 5276 0
-5268 5262 5263 5264 5265 5266 5267 5269 5270 5271 5272 5273 5274 5275 5276 0
-5269 5262 5263 5264 5265 5266 5267 5268 5270 5271 5272 5273 5274 5275 5276 0
-5270 5262 5263 5264 5265 5266 5267 5268 5269 5271 5272 5273 5274 5275 5276 0
-5271 5262 5263 5264 5265 5266 5267 5268 5269 5270 5272 5273 5274 5275 5276 0
-5272 5262 5263 5264 5265 5266 5267 5268 5269 5270 5271 5273 5274 5275 5276 0
-5273 5262 5263 5264 5265 5266 5267 5268 5269 5270 5271 5272 5274 5275 5276 0
-5274 5262 5263 5264 5265 5266 5267 5268 5269 5270 5271 5272 5273 5275 5276 0
-5275 5262 5263 5264 5265 5266 5267 5268 5269 5270 5271 5272 5273 5274 5276 0
-5276 5262 5263 5264 5265 5266 5267 5268 5269 5270 5271 5272 5273 5274 5275 0
5277 -4 -29 -58 -83 0
-5277 4 0
-5277 29 0
-5277 58 0
-5277 83 0
5278 -4 -35 -58 -74 0
-5278 4 0
-5278 35 0
-5278 58 0
-5278 74 0
5279 -4 -38 -58 -71 0
-5279 4 0
-5279 38 0
-5279 58 0
-5279 71 0
5280 -7 -29 -46 -83 0
-5280 7 0
-5280 29 0
-5280 46 0
-5280 83 0
5281 -7 -35 -46 -74 0
-5281 7 0
-5281 35 0
-5281 46 0
-5281 74 0
5282 -7 -38 -46 -71 0
-5282 7 0
-5282 38 0
-5282 46 0
-5282 71 0
5283 -13 -29 -40 -83 0
-5283 13 0
-5283 29 0
-5283 40 0
-5283 83 0
5284 -13 -35 -40 -74 0
-5284 13 0
-5284 35 0
-5284 40 0
-5284 74 0
5285 -13 -38 -40 -71 0
-5285 13 0
-5285 38 0
-5285 40 0
-5285 71 0
-5277 5278 5279 5280 5281 5282 5283 5284 5285 0
-5278 5277 5279 5280 5281 5282 5283 5284 5285 0
-5279 5277 5278 5280 5281 5282 5283 5284 5285 0
-5280 5277 5278 5279 5281 5282 5283 5284 5285 0
-5281 5277 5278 5279 5280 5282 5283 5284 5285 0
-5282 5277 5278 5279 5280 5281 5283 5284 5285 0
-5283 5277 5278 5279 5280 5281 5282 5284 5285 0
-5284 5277 5278 5279 5280 5281 5282 5283 5285 0
-5285 5277 5278 5279 5280 5281 5282 5283 5284 0
5286 -4 -29 -58 -84 0
-5286 4 0
-5286 29 0
-5286 58 0
-5286 84 0
5287 -7 -29 -46 -84 0
-5287 7 0
-5287 29 0
-5287 46 0
-5287 84 0
5288 -13 -29 -40 -84 0
-5288 13 0
-5288 29 0
-5288 40 0
-5288 84 0
-5286 5287 5288 0
-5287 5286 5288 0
-5288 5286 5287 0
5289 -4 -29 -60 -82 0
-5289 4 0
-5289 29 0
-5289 60 0
-5289 82 0
5290 -16 -29 -52 -60 0
-5290 16 0
-5290 29 0
-5290 52 0
-5290 60 0
5291 -19 -29 -49 -60 0
-5291 19 0
-5291 29 0
-5291 49 0
-5291 60 0
-5289 5290 5291 0
-5290 5289 5291 0
-5291 5289 5290 0
5292 -4 -29 -60 -83 0
-5292 4 0
-5292 29 0
-5292 60 0
-5292 83 0
5293 -4 -35 -60 -74 0
-5293 4 0
-5293 35 0
-5293 60 0
-5293 74 0
5294 -4 -38 -60 -71 0
-5294 4 0
-5294 38 0
-5294 60 0
-5294 71 0
-5292 5293 5294 0
-5293 5292 5294 0
-5294 5292 5293 0
5295 -4 -29 -60 -84 0
-5295 4 0
-5295 29 0
-5295 60 0
-5295 84 0
5296 -4 -29 -63 -81 0
-5296 4 0
-5296 29 0
-5296 63 0
-5296 81 0
5297 -4 -29 -66 -78 0
-5297 4 0
-5297 29 0
-5297 66 0
-5297 78 0
-5295 5296 5297 0
-5296 5295 5297 0
-5297 5295 5296 0
5298 -4 -30 -58 -82 0
-5298 4 0
-5298 30 0
-5298 58 0
-5298 82 0
5299 -4 -30 -61 -79 0
-5299 4 0
-5299 30 0
-5299 61 0
-5299 79 0
5300 -4 -30 -64 -76 0
-5300 4 0
-5300 30 0
-5300 64 0
-5300 76 0
5301 -7 -30 -46 -82 0
-5301 7 0
-5301 30 0
-5301 46 0
-5301 82 0
5302 -7 -30 -49 -79 0
-5302 7 0
-5302 30 0
-5302 49 0
-5302 79 0
5303 -7 -30 -52 -76 0
-5303 7 0
-5303 30 0
-5303 52 0
-5303 76 0
5304 -13 -30 -40 -82 0
-5304 13 0
-5304 30 0
-5304 40 0
-5304 82 0
5305 -13 -30 -49 -64 0
-5305 13 0
-5305 30 0
-5305 49 0
-5305 64 0
5306 -13 -30 -52 -61 0
-5306 13 0
-5306 30 0
-5306 52 0
-5306 61 0
5307 -16 -30 -40 -79 0
-5307 16 0
-5307 30 0
-5307 40 0
-5307 79 0
5308 -16 -30 -46 -64 0
-5308 16 0
-5308 30 0
-5308 46 0
-5308 64 0
5309 -16 -30 -52 -58 0
-5309 16 0
-5309 30 0
-5309 52 0
-5309 58 0
5310 -19 -30 -40 -76 0
-5310 19 0
-5310 30 0
-5310 40 0
-5310 76 0
5311 -19 -30 -46 -61 0
-5311 19 0
-5311 30 0
-5311 46 0
-5311 61 0
5312 -19 -30 -49 -58 0
-5312 19 0
-5312 30 0
-5312 49 0
-5312 58 0
-5298 5299 5300 5301 5302 5303 5304 5305 5306 5307 5308 5309 5310 5311 5312 0
-5299 5298 5300 5301 5302 5303 5304 5305 5306 5307 5308 5309 5310 5311 5312 0
-5300 5298 5299 5301 5302 5303 5304 5305 5306 5307 5308 5309 5310 5311 5312 0
-5301 5298 5299 5300 5302 5303 5304 5305 5306 5307 5308 5309 5310 5311 5312 0
-5302 5298 5299 5300 5301 5303 5304 5305 5306 5307 5308 5309 5310 5311 5312 0
-5303 5298 5299 5300 5301 5302 5304 5305 5306 5307 5308 5309 5310 5311 5312 0
-5304 5298 5299 5300 5301 5302 5303 5305 5306 5307 5308 5309 5310 5311 5312 0
-5305 5298 5299 5300 5301 5302 5303 5304 5306 5307 5308 5309 5310 5311 5312 0
-5306 5298 5299 5300 5301 5302 5303 5304 5305 5307 5308 5309 5310 5311 5312 0
-5307 5298 5299 5300 5301 5302 5303 5304 5305 5306 5308 5309 5310 5311 5312 0
-5308 5298 5299 5300 5301 5302 5303 5304 5305 5306 5307 5309 5310 5311 5312 0
-5309 5298 5299 5300 5301 5302 5303 5304 5305 5306 5307 5308 5310 5311 5312 0
-5310 5298 5299 5300 5301 5302 5303 5304 5305 5306 5307 5308 5309 5311 5312 0
-5311 5298 5299 5300 5301 5302 5303 5304 5305 5306 5307 5308 5309 5310 5312 0
-5312 5298 5299 5300 5301 5302 5303 5304 5305 5306 5307 5308 5309 5310 5311 0
5313 -4 -30 -58 -83 0
-5313 4 0
-5313 30 0
-5313 58 0
-5313 83 0
5314 -7 -30 -46 -83 0
-5314 7 0
-5314 30 0
-5314 46 0
-5314 83 0
5315 -13 -30 -40 -83 0
-5315 13 0
-5315 30 0
-5315 40 0
-5315 83 0
-5313 5314 5315 0
-5314 5313 5315 0
-5315 5313 5314 0
5316 -4 -30 -58 -84 0
-5316 4 0
-5316 30 0
-5316 58 0
-5316 84 0
5317 -4 -36 -58 -75 0
-5317 4 0
-5317 36 0
-5317 58 0
-5317 75 0
5318 -4 -39 -58 -72 0
-5318 4 0
-5318 39 0
-5318 58 0
-5318 72 0
5319 -7 -30 -46 -84 0
-5319 7 0
-5319 30 0
-5319 46 0
-5319 84 0
5320 -7 -36 -46 -75 0
-5320 7 0
-5320 36 0
-5320 46 0
-5320 75 0
5321 -7 -39 -46 -72 0
-5321 7 0
-5321 39 0
-5321 46 0
-5321 72 0
5322 -13 -30 -40 -84 0
-5322 13 0
-5322 30 0
-5322 40 0
-5322 84 0
5323 -13 -36 -40 -75 0
-5323 13 0
-5323 36 0
-5323 40 0
-5323 75 0
5324 -13 -39 -40 -72 0
-5324 13 0
-5324 39 0
-5324 40 0
-5324 72 0
-5316 5317 5318 5319 5320 5321 5322 5323 5324 0
-5317 5316 5318 5319 5320 5321 5322 5323 5324 0
-5318 5316 5317 5319 5320 5321 5322 5323 5324 0
-5319 5316 5317 5318 5320 5321 5322 5323 5324 0
-5320 5316 5317 5318 5319 5321 5322 5323 5324 0
-5321 5316 5317 5318 5319 5320 5322 5323 5324 0
-5322 5316 5317 5318 5319 5320 5321 5323 5324 0
-5323 5316 5317 5318 5319 5320 5321 5322 5324 0
-5324 5316 5317 5318 5319 5320 5321 5322 5323 0
5325 -4 -30 -59 -82 0
-5325 4 0
-5325 30 0
-5325 59 0
-5325 82 0
5326 -16 -30 -52 -59 0
-5326 16 0
-5326 30 0
-5326 52 0
-5326 59 0
5327 -19 -30 -49 -59 0
-5327 19 0
-5327 30 0
-5327 49 0
-5327 59 0
-5325 5326 5327 0
-5326 5325 5327 0
-5327 5325 5326 0
5328 -4 -30 -59 -83 0
-5328 4 0
-5328 30 0
-5328 59 0
-5328 83 0
5329 -4 -30 -62 -80 0
-5329 4 0
-5329 30 0
-5329 62 0
-5329 80 0
5330 -4 -30 -65 -77 0
-5330 4 0
-5330 30 0
-5330 65 0
-5330 77 0
-5328 5329 5330 0
-5329 5328 5330 0
-5330 5328 5329 0
5331 -4 -30 -59 -84 0
-5331 4 0
-5331 30 0
-5331 59 0
-5331 84 0
5332 -4 -36 -59 -75 0
-5332 4 0
-5332 36 0
-5332 59 0
-5332 75 0
5333 -4 -39 -59 -72 0
-5333 4 0
-5333 39 0
-5333 59 0
-5333 72 0
-5331 5332 5333 0
-5332 5331 5333 0
-5333 5331 5332 0
5334 -5 -28 -59 -82 0
-5334 5 0
-5334 28 0
-5334 59 0
-5334 82 0
5335 -5 -34 -59 -73 0
-5335 5 0
-5335 34 0
-5335 59 0
-5335 73 0
5336 -5 -37 -59 -70 0
-5336 5 0
-5336 37 0
-5336 59 0
-5336 70 0
5337 -8 -28 -47 -82 0
-5337 8 0
-5337 28 0
-5337 47 0
-5337 82 0
5338 -8 -34 -47 -73 0
-5338 8 0
-5338 34 0
-5338 47 0
-5338 73 0
5339 -8 -37 -47 -70 0
-5339 8 0
-5339 37 0
-5339 47 0
-5339 70 0
5340 -14 -28 -41 -82 0
-5340 14 0
-5340 28 0
-5340 41 0
-5340 82 0
5341 -14 -34 -41 -73 0
-5341 14 0
-5341 34 0
-5341 41 0
-5341 73 0
5342 -14 -37 -41 -70 0
-5342 14 0
-5342 37 0
-5342 41 0
-5342 70 0
-5334 5335 5336 5337 5338 5339 5340 5341 5342 0
-5335 5334 5336 5337 5338 5339 5340 5341 5342 0
-5336 5334 5335 5337 5338 5339 5340 5341 5342 0
-5337 5334 5335 5336 5338 5339 5340 5341 5342 0
-5338 5334 5335 5336 5337 5339 5340 5341 5342 0
-5339 5334 5335 5336 5337 5338 5340 5341 5342 0
-5340 5334 5335 5336 5337 5338 5339 5341 5342 0
-5341 5334 5335 5336 5337 5338 5339 5340 5342 0
-5342 5334 5335 5336 5337 5338 5339 5340 5341 0
5343 -5 -28 -59 -83 0
-5343 5 0
-5343 28 0
-5343 59 0
-5343 83 0
5344 -5 -28 -62 -80 0
-5344 5 0
-5344 28 0
-5344 62 0
-5344 80 0
5345 -5 -28 -65 -77 0
-5345 5 0
-5345 28 0
-5345 65 0
-5345 77 0
5346 -8 -28 -47 -83 0
-5346 8 0
-5346 28 0
-5346 47 0
-5346 83 0
5347 -8 -28 -50 -80 0
-5347 8 0
-5347 28 0
-5347 50 0
-5347 80 0
5348 -8 -28 -53 -77 0
-5348 8 0
-5348 28 0
-5348 53 0
-5348 77 0
5349 -14 -28 -41 -83 0
-5349 14 0
-5349 28 0
-5349 41 0
-5349 83 0
5350 -14 -28 -50 -65 0
-5350 14 0
-5350 28 0
-5350 50 0
-5350 65 0
5351 -14 -28 -53 -62 0
-5351 14 0
-5351 28 0
-5351 53 0
-5351 62 0
5352 -17 -28 -41 -80 0
-5352 17 0
-5352 28 0
-5352 41 0
-5352 80 0
5353 -17 -28 -47 -65 0
-5353 17 0
-5353 28 0
-5353 47 0
-5353 65 0
5354 -17 -28 -53 -59 0
-5354 17 0
-5354 28 0
-5354 53 0
-5354 59 0
5355 -20 -28 -41 -77 0
-5355 20 0
-5355 28 0
-5355 41 0
-5355 77 0
5356 -20 -28 -47 -62 0
-5356 20 0
-5356 28 0
-5356 47 0
-5356 62 0
5357 -20 -28 -50 -59 0
-5357 20 0
-5357 28 0
-5357 50 0
-5357 59 0
-5343 5344 5345 5346 5347 5348 5349 5350 5351 5352 5353 5354 5355 5356 5357 0
-5344 5343 5345 5346 5347 5348 5349 5350 5351 5352 5353 5354 5355 5356 5357 0
-5345 5343 5344 5346 5347 5348 5349 5350 5351 5352 5353 5354 5355 5356 5357 0
-5346 5343 5344 5345 5347 5348 5349 5350 5351 5352 5353 5354 5355 5356 5357 0
-5347 5343 5344 5345 5346 5348 5349 5350 5351 5352 5353 5354 5355 5356 5357 0
-5348 5343 5344 5345 5346 5347 5349 5350 5351 5352 5353 5354 5355 5356 5357 0
-5349 5343 5344 5345 5346 5347 5348 5350 5351 5352 5353 5354 5355 5356 5357 0
-5350 5343 5344 5345 5346 5347 5348 5349 5351 5352 5353 5354 5355 5356 5357 0
-5351 5343 5344 5345 5346 5347 5348 5349 5350 5352 5353 5354 5355 5356 5357 0
-5352 5343 5344 5345 5346 5347 5348 5349 5350 5351 5353 5354 5355 5356 5357 0
-5353 5343 5344 5345 5346 5347 5348 5349 5350 5351 5352 5354 5355 5356 5357 0
-5354 5343 5344 5345 5346 5347 5348 5349 5350 5351 5352 5353 5355 5356 5357 0
-5355 5343 5344 5345 5346 5347 5348 5349 5350 5351 5352 5353 5354 5356 5357 0
-5356 5343 5344 5345 5346 5347 5348 5349 5350 5351 5352 5353 5354 5355 5357 0
-5357 5343 5344 5345 5346 5347 5348 5349 5350 5351 5352 5353 5354 5355 5356 0
5358 -5 -28 -59 -84 0
-5358 5 0
-5358 28 0
-5358 59 0
-5358 84 0
5359 -8 -28 -47 -84 0
-5359 8 0
-5359 28 0
-5359 47 0
-5359 84 0
5360 -14 -28 -41 -84 0
-5360 14 0
-5360 28 0
-5360 41 0
-5360 84 0
-5358 5359 5360 0
-5359 5358 5360 0
-5360 5358 5359 0
5361 -5 -28 -60 -82 0
-5361 5 0
-5361 28 0
-5361 60 0
-5361 82 0
5362 -5 -34 -60 -73 0
-5362 5 0
-5362 34 0
-5362 60 0
-5362 73 0
5363 -5 -37 -60 -70 0
-5363 5 0
-5363 37 0
-5363 60 0
-5363 70 0
-5361 5362 5363 0
-5362 5361 5363 0
-5363 5361 5362 0
5364 -5 -28 -60 -83 0
-5364 5 0
-5364 28 0
-5364 60 0
-5364 83 0
5365 -17 -28 -53 -60 0
-5365 17 0
-5365 28 0
-5365 53 0
-5365 60 0
5366 -20 -28 -50 -60 0
-5366 20 0
-5366 28 0
-5366 50 0
-5366 60 0
-5364 5365 5366 0
-5365 5364 5366 0
-5366 5364 5365 0
5367 -5 -28 -60 -84 0
-5367 5 0
-5367 28 0
-5367 60 0
-5367 84 0
5368 -5 -28 -63 -81 0
-5368 5 0
-5368 28 0
-5368 63 0
-5368 81 0
5369 -5 -28 -66 -78 0
-5369 5 0
-5369 28 0
-5369 66 0
-5369 78 0
-5367 5368 5369 0
-5368 5367 5369 0
-5369 5367 5368 0
5370 -5 -30 -58 -82 0
-5370 5 0
-5370 30 0
-5370 58 0
-5370 82 0
5371 -5 -30 -61 -79 0
-5371 5 0
-5371 30 0
-5371 61 0
-5371 79 0
5372 -5 -30 -64 -76 0
-5372 5 0
-5372 30 0
-5372 64 0
-5372 76 0
-5370 5371 5372 0
-5371 5370 5372 0
-5372 5370 5371 0
5373 -5 -30 -58 -83 0
-5373 5 0
-5373 30 0
-5373 58 0
-5373 83 0
5374 -17 -30 -53 -58 0
-5374 17 0
-5374 30 0
-5374 53 0
-5374 58 0
5375 -20 -30 -50 -58 0
-5375 20 0
-5375 30 0
-5375 50 0
-5375 58 0
-5373 5374 5375 0
-5374 5373 5375 0
-5375 5373 5374 0
5376 -5 -30 -58 -84 0
-5376 5 0
-5376 30 0
-5376 58 0
-5376 84 0
5377 -5 -36 -58 -75 0
-5377 5 0
-5377 36 0
-5377 58 0
-5377 75 0
5378 -5 -39 -58 -72 0
-5378 5 0
-5378 39 0
-5378 58 0
-5378 72 0
-5376 5377 5378 0
-5377 5376 5378 0
-5378 5376 5377 0
5379 -5 -30 -59 -82 0
-5379 5 0
-5379 30 0
-5379 59 0
-5379 82 0
5380 -8 -30 -47 -82 0
-5380 8 0
-5380 30 0
-5380 47 0
-5380 82 0
5381 -14 -30 -41 -82 0
-5381 14 0
-5381 30 0
-5381 41 0
-5381 82 0
-5379 5380 5381 0
-5380 5379 5381 0
-5381 5379 5380 0
5382 -5 -30 -59 -83 0
-5382 5 0
-5382 30 0
-5382 59 0
-5382 83 0
5383 -5 -30 -62 -80 0
-5383 5 0
-5383 30 0
-5383 62 0
-5383 80 0
5384 -5 -30 -65 -77 0
-5384 5 0
-5384 30 0
-5384 65 0
-5384 77 0
5385 -8 -30 -47 -83 0
-5385 8 0
-5385 30 0
-5385 47 0
-5385 83 0
5386 -8 -30 -50 -80 0
-5386 8 0
-5386 30 0
-5386 50 0
-5386 80 0
5387 -8 -30 -53 -77 0
-5387 8 0
-5387 30 0
-5387 53 0
-5387 77 0
5388 -14 -30 -41 -83 0
-5388 14 0
-5388 30 0
-5388 41 0
-5388 83 0
5389 -14 -30 -50 -65 0
-5389 14 0
-5389 30 0
-5389 50 0
-5389 65 0
5390 -14 -30 -53 -62 0
-5390 14 0
-5390 30 0
-5390 53 0
-5390 62 0
5391 -17 -30 -41 -80 0
-5391 17 0
-5391 30 0
-5391 41 0
-5391 80 0
5392 -17 -30 -47 -65 0
-5392 17 0
-5392 30 0
-5392 47 0
-5392 65 0
5393 -17 -30 -53 -59 0
-5393 17 0
-5393 30 0
-5393 53 0
-5393 59 0
5394 -20 -30 -41 -77 0
-5394 20 0
-5394 30 0
-5394 41 0
-5394 77 0
5395 -20 -30 -47 -62 0
-5395 20 0
-5395 30 0
-5395 47 0
-5395 62 0
5396 -20 -30 -50 -59 0
-5396 20 0
-5396 30 0
-5396 50 0
-5396 59 0
-5382 5383 5384 5385 5386 5387 5388 5389 5390 5391 5392 5393 5394 5395 5396 0
-5383 5382 5384 5385 5386 5387 5388 5389 5390 5391 5392 5393 5394 5395 5396 0
-5384 5382 5383 5385 5386 5387 5388 5389 5390 5391 5392 5393 5394 5395 5396 0
-5385 5382 5383 5384 5386 5387 5388 5389 5390 5391 5392 5393 5394 5395 5396 0
-5386 5382 5383 5384 5385 5387 5388 5389 5390 5391 5392 5393 5394 5395 5396 0
-5387 5382 5383 5384 5385 5386 5388 5389 5390 5391 5392 5393 5394 5395 5396 0
-5388 5382 5383 5384 5385 5386 5387 5389 5390 5391 5392 5393 5394 5395 5396 0
-5389 5382 5383 5384 5385 5386 5387 5388 5390 5391 5392 5393 5394 5395 5396 0
-5390 5382 5383 5384 5385 5386 5387 5388 5389 5391 5392 5393 5394 5395 5396 0
-5391 5382 5383 5384 5385 5386 5387 5388 5389 5390 5392 5393 5394 5395 5396 0
-5392 5382 5383 5384 5385 5386 5387 5388 5389 5390 5391 5393 5394 5395 5396 0
-5393 5382 5383 5384 5385 5386 5387 5388 5389 5390 5391 5392 5394 5395 5396 0
-5394 5382 5383 5384 5385 5386 5387 5388 5389 5390 5391 5392 5393 5395 5396 0
-5395 5382 5383 5384 5385 5386 5387 5388 5389 5390 5391 5392 5393 5394 5396 0
-5396 5382 5383 5384 5385 5386 5387 5388 5389 5390 5391 5392 5393 5394 5395 0
5397 -5 -30 -59 -84 0
-5397 5 0
-5397 30 0
-5397 59 0
-5397 84 0
5398 -5 -36 -59 -75 0
-5398 5 0
-5398 36 0
-5398 59 0
-5398 75 0
5399 -5 -39 -59 -72 0
-5399 5 0
-5399 39 0
-5399 59 0
-5399 72 0
5400 -8 -30 -47 -84 0
-5400 8 0
-5400 30 0
-5400 47 0
-5400 84 0
5401 -8 -36 -47 -75 0
-5401 8 0
-5401 36 0
-5401 47 0
-5401 75 0
5402 -8 -39 -47 -72 0
-5402 8 0
-5402 39 0
-5402 47 0
-5402 72 0
5403 -14 -30 -41 -84 0
-5403 14 0
-5403 30 0
-5403 41 0
-5403 84 0
5404 -14 -36 -41 -75 0
-5404 14 0
-5404 36 0
-5404 41 0
-5404 75 0
5405 -14 -39 -41 -72 0
-5405 14 0
-5405 39 0
-5405 41 0
-5405 72 0
-5397 5398 5399 5400 5401 5402 5403 5404 5405 0
-5398 5397 5399 5400 5401 5402 5403 5404 5405 0
-5399 5397 5398 5400 5401 5402 5403 5404 5405 0
-5400 5397 5398 5399 5401 5402 5403 5404 5405 0
-5401 5397 5398 5399 5400 5402 5403 5404 5405 0
-5402 5397 5398 5399 5400 5401 5403 5404 5405 0
-5403 5397 5398 5399 5400 5401 5402 5404 5405 0
-5404 5397 5398 5399 5400 5401 5402 5403 5405 0
-5405 5397 5398 5399 5400 5401 5402 5403 5404 0
5406 -6 -28 -59 -82 0
-5406 6 0
-5406 28 0
-5406 59 0
-5406 82 0
5407 -6 -34 -59 -73 0
-5407 6 0
-5407 34 0
-5407 59 0
-5407 73 0
5408 -6 -37 -59 -70 0
-5408 6 0
-5408 37 0
-5408 59 0
-5408 70 0
-5406 5407 5408 0
-5407 5406 5408 0
-5408 5406 5407 0
5409 -6 -28 -59 -83 0
-5409 6 0
-5409 28 0
-5409 59 0
-5409 83 0
5410 -6 -28 -62 -80 0
-5410 6 0
-5410 28 0
-5410 62 0
-5410 80 0
5411 -6 -28 -65 -77 0
-5411 6 0
-5411 28 0
-5411 65 0
-5411 77 0
-5409 5410 5411 0
-5410 5409 5411 0
-5411 5409 5410 0
5412 -6 -28 -59 -84 0
-5412 6 0
-5412 28 0
-5412 59 0
-5412 84 0
5413 -18 -28 -54 -59 0
-5413 18 0
-5413 28 0
-5413 54 0
-5413 59 0
5414 -21 -28 -51 -59 0
-5414 21 0
-5414 28 0
-5414 51 0
-5414 59 0
-5412 5413 5414 0
-5413 5412 5414 0
-5414 5412 5413 0
5415 -6 -28 -60 -82 0
-5415 6 0
-5415 28 0
-5415 60 0
-5415 82 0
5416 -6 -34 -60 -73 0
-5416 6 0
-5416 34 0
-5416 60 0
-5416 73 0
5417 -6 -37 -60 -70 0
-5417 6 0
-5417 37 0
-5417 60 0
-5417 70 0
5418 -9 -28 -48 -82 0
-5418 9 0
-5418 28 0
-5418 48 0
-5418 82 0
5419 -9 -34 -48 -73 0
-5419 9 0
-5419 34 0
-5419 48 0
-5419 73 0
5420 -9 -37 -48 -70 0
-5420 9 0
-5420 37 0
-5420 48 0
-5420 70 0
5421 -15 -28 -42 -82 0
-5421 15 0
-5421 28 0
-5421 42 0
-5421 82 0
5422 -15 -34 -42 -73 0
-5422 15 0
-5422 34 0
-5422 42 0
-5422 73 0
5423 -15 -37 -42 -70 0
-5423 15 0
-5423 37 0
-5423 42 0
-5423 70 0
-5415 5416 5417 5418 5419 5420 5421 5422 5423 0
-5416 5415 5417 5418 5419 5420 5421 5422 5423 0
-5417 5415 5416 5418 5419 5420 5421 5422 5423 0
-5418 5415 5416 5417 5419 5420 5421 5422 5423 0
-5419 5415 5416 5417 5418 5420 5421 5422 5423 0
-5420 5415 5416 5417 5418 5419 5421 5422 5423 0
-5421 5415 5416 5417 5418 5419 5420 5422 5423 0
-5422 5415 5416 5417 5418 5419 5420 5421 5423 0
-5423 5415 5416 5417 5418 5419 5420 5421 5422 0
5424 -6 -28 -60 -83 0
-5424 6 0
-5424 28 0
-5424 60 0
-5424 83 0
5425 -9 -28 -48 -83 0
-5425 9 0
-5425 28 0
-5425 48 0
-5425 83 0
5426 -15 -28 -42 -83 0
-5426 15 0
-5426 28 0
-5426 42 0
-5426 83 0
-5424 5425 5426 0
-5425 5424 5426 0
-5426 5424 5425 0
5427 -6 -28 -60 -84 0
-5427 6 0
-5427 28 0
-5427 60 0
-5427 84 0
5428 -6 -28 -63 -81 0
-5428 6 0
-5428 28 0
-5428 63 0
-5428 81 0
5429 -6 -28 -66 -78 0
-5429 6 0
-5429 28 0
-5429 66 0
-5429 78 0
5430 -9 -28 -48 -84 0
-5430 9 0
-5430 28 0
-5430 48 0
-5430 84 0
5431 -9 -28 -51 -81 0
-5431 9 0
-5431 28 0
-5431 51 0
-5431 81 0
5432 -9 -28 -54 -78 0
-5432 9 0
-5432 28 0
-5432 54 0
-5432 78 0
5433 -15 -28 -42 -84 0
-5433 15 0
-5433 28 0
-5433 42 0
-5433 84 0
5434 -15 -28 -51 -66 0
-5434 15 0
-5434 28 0
-5434 51 0
-5434 66 0
5435 -15 -28 -54 -63 0
-5435 15 0
-5435 28 0
-5435 54 0
-5435 63 0
5436 -18 -28 -42 -81 0
-5436 18 0
-5436 28 0
-5436 42 0
-5436 81 0
5437 -18 -28 -48 -66 0
-5437 18 0
-5437 28 0
-5437 48 0
-5437 66 0
5438 -18 -28 -54 -60 0
-5438 18 0
-5438 28 0
-5438 54 0
-5438 60 0
5439 -21 -28 -42 -78 0
-5439 21 0
-5439 28 0
-5439 42 0
-5439 78 0
5440 -21 -28 -48 -63 0
-5440 21 0
-5440 28 0
-5440 48 0
-5440 63 0
5441 -21 -28 -51 -60 0
-5441 21 0
-5441 28 0
-5441 51 0
-5441 60 0
-5427 5428 5429 5430 5431 5432 5433 5434 5435 5436 5437 5438 5439 5440 5441 0
-5428 5427 5429 5430 5431 5432 5433 5434 5435 5436 5437 5438 5439 5440 5441 0
-5429 5427 5428 5430 5431 5432 5433 5434 5435 5436 5437 5438 5439 5440 5441 0
-5430 5427 5428 5429 5431 5432 5433 5434 5435 5436 5437 5438 5439 5440 5441 0
-5431 5427 5428 5429 5430 5432 5433 5434 5435 5436 5437 5438 5439 5440 5441 0
-5432 5427 5428 5429 5430 5431 5433 5434 5435 5436 5437 5438 5439 5440 5441 0
-5433 5427 5428 5429 5430 5431 5432 5434 5435 5436 5437 5438 5439 5440 5441 0
-5434 5427 5428 5429 5430 5431 5432 5433 5435 5436 5437 5438 5439 5440 5441 0
-5435 5427 5428 5429 5430 5431 5432 5433 5434 5436 5437 5438 5439 5440 5441 0
-5436 5427 5428 5429 5430 5431 5432 5433 5434 5435 5437 5438 5439 5440 5441 0
-5437 5427 5428 5429 5430 5431 5432 5433 5434 5435 5436 5438 5439 5440 5441 0
-5438 5427 5428 5429 5430 5431 5432 5433 5434 5435 5436 5437 5439 5440 5441 0
-5439 5427 5428 5429 5430 5431 5432 5433 5434 5435 5436 5437 5438 5440 5441 0
-5440 5427 5428 5429 5430 5431 5432 5433 5434 5435 5436 5437 5438 5439 5441 0
-5441 5427 5428 5429 5430 5431 5432 5433 5434 5435 5436 5437 5438 5439 5440 0
5442 -6 -29 -58 -82 0
-5442 6 0
-5442 29 0
-5442 58 0
-5442 82 0
5443 -6 -29 -61 -79 0
-5443 6 0
-5443 29 0
-5443 61 0
-5443 79 0
5444 -6 -29 -64 -76 0
-5444 6 0
-5444 29 0
-5444 64 0
-5444 76 0
-5442 5443 5444 0
-5443 5442 5444 0
-5444 5442 5443 0
5445 -6 -29 -58 -83 0
-5445 6 0
-5445 29 0
-5445 58 0
-5445 83 0
5446 -6 -35 -58 -74 0
-5446 6 0
-5446 35 0
-5446 58 0
-5446 74 0
5447 -6 -38 -58 -71 0
-5447 6 0
-5447 38 0
-5447 58 0
-5447 71 0
-5445 5446 5447 0
-5446 5445 5447 0
-5447 5445 5446 0
5448 -6 -29 -58 -84 0
-5448 6 0
-5448 29 0
-5448 58 0
-5448 84 0
5449 -18 -29 -54 -58 0
-5449 18 0
-5449 29 0
-5449 54 0
-5449 58 0
5450 -21 -29 -51 -58 0
-5450 21 0
-5450 29 0
-5450 51 0
-5450 58 0
-5448 5449 5450 0
-5449 5448 5450 0
-5450 5448 5449 0
5451 -6 -29 -60 -82 0
-5451 6 0
-5451 29 0
-5451 60 0
-5451 82 0
5452 -9 -29 -48 -82 0
-5452 9 0
-5452 29 0
-5452 48 0
-5452 82 0
5453 -15 -29 -42 -82 0
-5453 15 0
-5453 29 0
-5453 42 0
-5453 82 0
-5451 5452 5453 0
-5452 5451 5453 0
-5453 5451 5452 0
5454 -6 -29 -60 -83 0
-5454 6 0
-5454 29 0
-5454 60 0
-5454 83 0
5455 -6 -35 -60 -74 0
-5455 6 0
-5455 35 0
-5455 60 0
-5455 74 0
5456 -6 -38 -60 -71 0
-5456 6 0
-5456 38 0
-5456 60 0
-5456 71 0
5457 -9 -29 -48 -83 0
-5457 9 0
-5457 29 0
-5457 48 0
-5457 83 0
5458 -9 -35 -48 -74 0
-5458 9 0
-5458 35 0
-5458 48 0
-5458 74 0
5459 -9 -38 -48 -71 0
-5459 9 0
-5459 38 0
-5459 48 0
-5459 71 0
5460 -15 -29 -42 -83 0
-5460 15 0
-5460 29 0
-5460 42 0
-5460 83 0
5461 -15 -35 -42 -74 0
-5461 15 0
-5461 35 0
-5461 42 0
-5461 74 0
5462 -15 -38 -42 -71 0
-5462 15 0
-5462 38 0
-5462 42 0
-5462 71 0
-5454 5455 5456 5457 5458 5459 5460 5461 5462 0
-5455 5454 5456 5457 5458 5459 5460 5461 5462 0
-5456 5454 5455 5457 5458 5459 5460 5461 5462 0
-5457 5454 5455 5456 5458 5459 5460 5461 5462 0
-5458 5454 5455 5456 5457 5459 5460 5461 5462 0
-5459 5454 5455 5456 5457 5458 5460 5461 5462 0
-5460 5454 5455 5456 5457 5458 5459 5461 5462 0
-5461 5454 5455 5456 5457 5458 5459 5460 5462 0
-5462 5454 5455 5456 5457 5458 5459 5460 5461 0
5463 -6 -29 -60 -84 0
-5463 6 0
-5463 29 0
-5463 60 0
-5463 84 0
5464 -6 -29 -63 -81 0
-5464 6 0
-5464 29 0
-5464 63 0
-5464 81 0
5465 -6 -29 -66 -78 0
-5465 6 0
-5465 29 0
-5465 66 0
-5465 78 0
5466 -9 -29 -48 -84 0
-5466 9 0
-5466 29 0
-5466 48 0
-5466 84 0
5467 -9 -29 -51 -81 0
-5467 9 0
-5467 29 0
-5467 51 0
-5467 81 0
5468 -9 -29 -54 -78 0
-5468 9 0
-5468 29 0
-5468 54 0
-5468 78 0
5469 -15 -29 -42 -84 0
-5469 15 0
-5469 29 0
-5469 42 0
-5469 84 0
5470 -15 -29 -51 -66 0
-5470 15 0
-5470 29 0
-5470 51 0
-5470 66 0
5471 -15 -29 -54 -63 0
-5471 15 0
-5471 29 0
-5471 54 0
-5471 63 0
5472 -18 -29 -42 -81 0
-5472 18 0
-5472 29 0
-5472 42 0
-5472 81 0
5473 -18 -29 -48 -66 0
-5473 18 0
-5473 29 0
-5473 48 0
-5473 66 0
5474 -18 -29 -54 -60 0
-5474 18 0
-5474 29 0
-5474 54 0
-5474 60 0
5475 -21 -29 -42 -78 0
-5475 21 0
-5475 29 0
-5475 42 0
-5475 78 0
5476 -21 -29 -48 -63 0
-5476 21 0
-5476 29 0
-5476 48 0
-5476 63 0
5477 -21 -29 -51 -60 0
-5477 21 0
-5477 29 0
-5477 51 0
-5477 60 0
-5463 5464 5465 5466 5467 5468 5469 5470 5471 5472 5473 5474 5475 5476 5477 0
-5464 5463 5465 5466 5467 5468 5469 5470 5471 5472 5473 5474 5475 5476 5477 0
-5465 5463 5464 5466 5467 5468 5469 5470 5471 5472 5473 5474 5475 5476 5477 0
-5466 5463 5464 5465 5467 5468 5469 5470 5471 5472 5473 5474 5475 5476 5477 0
-5467 5463 5464 5465 5466 5468 5469 5470 5471 5472 5473 5474 5475 5476 5477 0
-5468 5463 5464 5465 5466 5467 5469 5470 5471 5472 5473 5474 5475 5476 5477 0
-5469 5463 5464 5465 5466 5467 5468 5470 5471 5472 5473 5474 5475 5476 5477 0
-5470 5463 5464 5465 5466 5467 5468 5469 5471 5472 5473 5474 5475 5476 5477 0
-5471 5463 5464 5465 5466 5467 5468 5469 5470 5472 5473 5474 5475 5476 5477 0
-5472 5463 5464 5465 5466 5467 5468 5469 5470 5471 5473 5474 5475 5476 5477 0
-5473 5463 5464 5465 5466 5467 5468 5469 5470 5471 5472 5474 5475 5476 5477 0
-5474 5463 5464 5465 5466 5467 5468 5469 5470 5471 5472 5473 5475 5476 5477 0
-5475 5463 5464 5465 5466 5467 5468 5469 5470 5471 5472 5473 5474 5476 5477 0
-5476 5463 5464 5465 5466 5467 5468 5469 5470 5471 5472 5473 5474 5475 5477 0
-5477 5463 5464 5465 5466 5467 5468 5469 5470 5471 5472 5473 5474 5475 5476 0
5478 -4 -29 -61 -80 0
-5478 4 0
-5478 29 0
-5478 61 0
-5478 80 0
5479 -4 -32 -61 -74 0
-5479 4 0
-5479 32 0
-5479 61 0
-5479 74 0
5480 -4 -38 -61 -68 0
-5480 4 0
-5480 38 0
-5480 61 0
-5480 68 0
5481 -7 -29 -49 -80 0
-5481 7 0
-5481 29 0
-5481 49 0
-5481 80 0
5482 -7 -32 -49 -74 0
-5482 7 0
-5482 32 0
-5482 49 0
-5482 74 0
5483 -7 -38 -49 -68 0
-5483 7 0
-5483 38 0
-5483 49 0
-5483 68 0
5484 -16 -29 -40 -80 0
-5484 16 0
-5484 29 0
-5484 40 0
-5484 80 0
5485 -16 -32 -40 -74 0
-5485 16 0
-5485 32 0
-5485 40 0
-5485 74 0
5486 -16 -38 -40 -68 0
-5486 16 0
-5486 38 0
-5486 40 0
-5486 68 0
-5478 5479 5480 5481 5482 5483 5484 5485 5486 0
-5479 5478 5480 5481 5482 5483 5484 5485 5486 0
-5480 5478 5479 5481 5482 5483 5484 5485 5486 0
-5481 5478 5479 5480 5482 5483 5484 5485 5486 0
-5482 5478 5479 5480 5481 5483 5484 5485 5486 0
-5483 5478 5479 5480 5481 5482 5484 5485 5486 0
-5484 5478 5479 5480 5481 5482 5483 5485 5486 0
-5485 5478 5479 5480 5481 5482 5483 5484 5486 0
-5486 5478 5479 5480 5481 5482 5483 5484 5485 0
5487 -4 -29 -61 -81 0
-5487 4 0
-5487 29 0
-5487 61 0
-5487 81 0
5488 -7 -29 -49 -81 0
-5488 7 0
-5488 29 0
-5488 49 0
-5488 81 0
5489 -16 -29 -40 -81 0
-5489 16 0
-5489 29 0
-5489 40 0
-5489 81 0
-5487 5488 5489 0
-5488 5487 5489 0
-5489 5487 5488 0
5490 -4 -29 -63 -79 0
-5490 4 0
-5490 29 0
-5490 63 0
-5490 79 0
5491 -13 -29 -52 -63 0
-5491 13 0
-5491 29 0
-5491 52 0
-5491 63 0
5492 -19 -29 -46 -63 0
-5492 19 0
-5492 29 0
-5492 46 0
-5492 63 0
-5490 5491 5492 0
-5491 5490 5492 0
-5492 5490 5491 0
5493 -4 -29 -63 -80 0
-5493 4 0
-5493 29 0
-5493 63 0
-5493 80 0
5494 -4 -32 -63 -74 0
-5494 4 0
-5494 32 0
-5494 63 0
-5494 74 0
5495 -4 -38 -63 -68 0
-5495 4 0
-5495 38 0
-5495 63 0
-5495 68 0
-5493 5494 5495 0
-5494 5493 5495 0
-5495 5493 5494 0
5496 -4 -30 -61 -80 0
-5496 4 0
-5496 30 0
-5496 61 0
-5496 80 0
5497 -7 -30 -49 -80 0
-5497 7 0
-5497 30 0
-5497 49 0
-5497 80 0
5498 -16 -30 -40 -80 0
-5498 16 0
-5498 30 0
-5498 40 0
-5498 80 0
-5496 5497 5498 0
-5497 5496 5498 0
-5498 5496 5497 0
5499 -4 -30 -61 -81 0
-5499 4 0
-5499 30 0
-5499 61 0
-5499 81 0
5500 -4 -33 -61 -75 0
-5500 4 0
-5500 33 0
-5500 61 0
-5500 75 0
5501 -4 -39 -61 -69 0
-5501 4 0
-5501 39 0
-5501 61 0
-5501 69 0
5502 -7 -30 -49 -81 0
-5502 7 0
-5502 30 0
-5502 49 0
-5502 81 0
5503 -7 -33 -49 -75 0
-5503 7 0
-5503 33 0
-5503 49 0
-5503 75 0
5504 -7 -39 -49 -69 0
-5504 7 0
-5504 39 0
-5504 49 0
-5504 69 0
5505 -16 -30 -40 -81 0
-5505 16 0
-5505 30 0
-5505 40 0
-5505 81 0
5506 -16 -33 -40 -75 0
-5506 16 0
-5506 33 0
-5506 40 0
-5506 75 0
5507 -16 -39 -40 -69 0
-5507 16 0
-5507 39 0
-5507 40 0
-5507 69 0
-5499 5500 5501 5502 5503 5504 5505 5506 5507 0
-5500 5499 5501 5502 5503 5504 5505 5506 5507 0
-5501 5499 5500 5502 5503 5504 5505 5506 5507 0
-5502 5499 5500 5501 5503 5504 5505 5506 5507 0
-5503 5499 5500 5501 5502 5504 5505 5506 5507 0
-5504 5499 5500 5501 5502 5503 5505 5506 5507 0
-5505 5499 5500 5501 5502 5503 5504 5506 5507 0
-5506 5499 5500 5501 5502 5503 5504 5505 5507 0
-5507 5499 5500 5501 5502 5503 5504 5505 5506 0
5508 -4 -30 -62 -79 0
-5508 4 0
-5508 30 0
-5508 62 0
-5508 79 0
5509 -13 -30 -52 -62 0
-5509 13 0
-5509 30 0
-5509 52 0
-5509 62 0
5510 -19 -30 -46 -62 0
-5510 19 0
-5510 30 0
-5510 46 0
-5510 62 0
-5508 5509 5510 0
-5509 5508 5510 0
-5510 5508 5509 0
5511 -4 -30 -62 -81 0
-5511 4 0
-5511 30 0
-5511 62 0
-5511 81 0
5512 -4 -33 -62 -75 0
-5512 4 0
-5512 33 0
-5512 62 0
-5512 75 0
5513 -4 -39 -62 -69 0
-5513 4 0
-5513 39 0
-5513 62 0
-5513 69 0
-5511 5512 5513 0
-5512 5511 5513 0
-5513 5511 5512 0
5514 -5 -28 -62 -79 0
-5514 5 0
-5514 28 0
-5514 62 0
-5514 79 0
5515 -5 -31 -62 -73 0
-5515 5 0
-5515 31 0
-5515 62 0
-5515 73 0
5516 -5 -37 -62 -67 0
-5516 5 0
-5516 37 0
-5516 62 0
-5516 67 0
5517 -8 -28 -50 -79 0
-5517 8 0
-5517 28 0
-5517 50 0
-5517 79 0
5518 -8 -31 -50 -73 0
-5518 8 0
-5518 31 0
-5518 50 0
-5518 73 0
5519 -8 -37 -50 -67 0
-5519 8 0
-5519 37 0
-5519 50 0
-5519 67 0
5520 -17 -28 -41 -79 0
-5520 17 0
-5520 28 0
-5520 41 0
-5520 79 0
5521 -17 -31 -41 -73 0
-5521 17 0
-5521 31 0
-5521 41 0
-5521 73 0
5522 -17 -37 -41 -67 0
-5522 17 0
-5522 37 0
-5522 41 0
-5522 67 0
-5514 5515 5516 5517 5518 5519 5520 5521 5522 0
-5515 5514 5516 5517 5518 5519 5520 5521 5522 0
-5516 5514 5515 5517 5518 5519 5520 5521 5522 0
-5517 5514 5515 5516 5518 5519 5520 5521 5522 0
-5518 5514 5515 5516 5517 5519 5520 5521 5522 0
-5519 5514 5515 5516 5517 5518 5520 5521 5522 0
-5520 5514 5515 5516 5517 5518 5519 5521 5522 0
-5521 5514 5515 5516 5517 5518 5519 5520 5522 0
-5522 5514 5515 5516 5517 5518 5519 5520 5521 0
5523 -5 -28 -62 -81 0
-5523 5 0
-5523 28 0
-5523 62 0
-5523 81 0
5524 -8 -28 -50 -81 0
-5524 8 0
-5524 28 0
-5524 50 0
-5524 81 0
5525 -17 -28 -41 -81 0
-5525 17 0
-5525 28 0
-5525 41 0
-5525 81 0
-5523 5524 5525 0
-5524 5523 5525 0
-5525 5523 5524 0
5526 -5 -28 -63 -79 0
-5526 5 0
-5526 28 0
-5526 63 0
-5526 79 0
5527 -5 -31 -63 -73 0
-5527 5 0
-5527 31 0
-5527 63 0
-5527 73 0
5528 -5 -37 -63 -67 0
-5528 5 0
-5528 37 0
-5528 63 0
-5528 67 0
-5526 5527 5528 0
-5527 5526 5528 0
-5528 5526 5527 0
5529 -5 -28 -63 -80 0
-5529 5 0
-5529 28 0
-5529 63 0
-5529 80 0
5530 -14 -28 -53 -63 0
-5530 14 0
-5530 28 0
-5530 53 0
-5530 63 0
5531 -20 -28 -47 -63 0
-5531 20 0
-5531 28 0
-5531 47 0
-5531 63 0
-5529 5530 5531 0
-5530 5529 5531 0
-5531 5529 5530 0
5532 -5 -30 -61 -80 0
-5532 5 0
-5532 30 0
-5532 61 0
-5532 80 0
5533 -14 -30 -53 -61 0
-5533 14 0
-5533 30 0
-5533 53 0
-5533 61 0
5534 -20 -30 -47 -61 0
-5534 20 0
-5534 30 0
-5534 47 0
-5534 61 0
-5532 5533 5534 0
-5533 5532 5534 0
-5534 5532 5533 0
5535 -5 -30 -61 -81 0
-5535 5 0
-5535 30 0
-5535 61 0
-5535 81 0
5536 -5 -33 -61 -75 0
-5536 5 0
-5536 33 0
-5536 61 0
-5536 75 0
5537 -5 -39 -61 -69 0
-5537 5 0
-5537 39 0
-5537 61 0
-5537 69 0
-5535 5536 5537 0
-5536 5535 5537 0
-5537 5535 5536 0
5538 -5 -30 -62 -79 0
-5538 5 0
-5538 30 0
-5538 62 0
-5538 79 0
5539 -8 -30 -50 -79 0
-5539 8 0
-5539 30 0
-5539 50 0
-5539 79 0
5540 -17 -30 -41 -79 0
-5540 17 0
-5540 30 0
-5540 41 0
-5540 79 0
-5538 5539 5540 0
-5539 5538 5540 0
-5540 5538 5539 0
5541 -5 -30 -62 -81 0
-5541 5 0
-5541 30 0
-5541 62 0
-5541 81 0
5542 -5 -33 -62 -75 0
-5542 5 0
-5542 33 0
-5542 62 0
-5542 75 0
5543 -5 -39 -62 -69 0
-5543 5 0
-5543 39 0
-5543 62 0
-5543 69 0
5544 -8 -30 -50 -81 0
-5544 8 0
-5544 30 0
-5544 50 0
-5544 81 0
5545 -8 -33 -50 -75 0
-5545 8 0
-5545 33 0
-5545 50 0
-5545 75 0
5546 -8 -39 -50 -69 0
-5546 8 0
-5546 39 0
-5546 50 0
-5546 69 0
5547 -17 -30 -41 -81 0
-5547 17 0
-5547 30 0
-5547 41 0
-5547 81 0
5548 -17 -33 -41 -75 0
-5548 17 0
-5548 33 0
-5548 41 0
-5548 75 0
5549 -17 -39 -41 -69 0
-5549 17 0
-5549 39 0
-5549 41 0
-5549 69 0
-5541 5542 5543 5544 5545 5546 5547 5548 5549 0
-5542 5541 5543 5544 5545 5546 5547 5548 5549 0
-5543 5541 5542 5544 5545 5546 5547 5548 5549 0
-5544 5541 5542 5543 5545 5546 5547 5548 5549 0
-5545 5541 5542 5543 5544 5546 5547 5548 5549 0
-5546 5541 5542 5543 5544 5545 5547 5548 5549 0
-5547 5541 5542 5543 5544 5545 5546 5548 5549 0
-5548 5541 5542 5543 5544 5545 5546 5547 5549 0
-5549 5541 5542 5543 5544 5545 5546 5547 5548 0
5550 -6 -28 -62 -79 0
-5550 6 0
-5550 28 0
-5550 62 0
-5550 79 0
5551 -6 -31 -62 -73 0
-5551 6 0
-5551 31 0
-5551 62 0
-5551 73 0
5552 -6 -37 -62 -67 0
-5552 6 0
-5552 37 0
-5552 62 0
-5552 67 0
-5550 5551 5552 0
-5551 5550 5552 0
-5552 5550 5551 0
5553 -6 -28 -62 -81 0
-5553 6 0
-5553 28 0
-5553 62 0
-5553 81 0
5554 -15 -28 -54 -62 0
-5554 15 0
-5554 28 0
-5554 54 0
-5554 62 0
5555 -21 -28 -48 -62 0
-5555 21 0
-5555 28 0
-5555 48 0
-5555 62 0
-5553 5554 5555 0
-5554 5553 5555 0
-5555 5553 5554 0
5556 -6 -28 -63 -79 0
-5556 6 0
-5556 28 0
-5556 63 0
-5556 79 0
5557 -6 -31 -63 -73 0
-5557 6 0
-5557 31 0
-5557 63 0
-5557 73 0
5558 -6 -37 -63 -67 0
-5558 6 0
-5558 37 0
-5558 63 0
-5558 67 0
5559 -9 -28 -51 -79 0
-5559 9 0
-5559 28 0
-5559 51 0
-5559 79 0
5560 -9 -31 -51 -73 0
-5560 9 0
-5560 31 0
-5560 51 0
-5560 73 0
5561 -9 -37 -51 -67 0
-5561 9 0
-5561 37 0
-5561 51 0
-5561 67 0
5562 -18 -28 -42 -79 0
-5562 18 0
-5562 28 0
-5562 42 0
-5562 79 0
5563 -18 -31 -42 -73 0
-5563 18 0
-5563 31 0
-5563 42 0
-5563 73 0
5564 -18 -37 -42 -67 0
-5564 18 0
-5564 37 0
-5564 42 0
-5564 67 0
-5556 5557 5558 5559 5560 5561 5562 5563 5564 0
-5557 5556 5558 5559 5560 5561 5562 5563 5564 0
-5558 5556 5557 5559 5560 5561 5562 5563 5564 0
-5559 5556 5557 5558 5560 5561 5562 5563 5564 0
-5560 5556 5557 5558 5559 5561 5562 5563 5564 0
-5561 5556 5557 5558 5559 5560 5562 5563 5564 0
-5562 5556 5557 5558 5559 5560 5561 5563 5564 0
-5563 5556 5557 5558 5559 5560 5561 5562 5564 0
-5564 5556 5557 5558 5559 5560 5561 5562 5563 0
5565 -6 -28 -63 -80 0
-5565 6 0
-5565 28 0
-5565 63 0
-5565 80 0
5566 -9 -28 -51 -80 0
-5566 9 0
-5566 28 0
-5566 51 0
-5566 80 0
5567 -18 -28 -42 -80 0
-5567 18 0
-5567 28 0
-5567 42 0
-5567 80 0
-5565 5566 5567 0
-5566 5565 5567 0
-5567 5565 5566 0
5568 -6 -29 -61 -80 0
-5568 6 0
-5568 29 0
-5568 61 0
-5568 80 0
5569 -6 -32 -61 -74 0
-5569 6 0
-5569 32 0
-5569 61 0
-5569 74 0
5570 -6 -38 -61 -68 0
-5570 6 0
-5570 38 0
-5570 61 0
-5570 68 0
-5568 5569 5570 0
-5569 5568 5570 0
-5570 5568 5569 0
5571 -6 -29 -61 -81 0
-5571 6 0
-5571 29 0
-5571 61 0
-5571 81 0
5572 -15 -29 -54 -61 0
-5572 15 0
-5572 29 0
-5572 54 0
-5572 61 0
5573 -21 -29 -48 -61 0
-5573 21 0
-5573 29 0
-5573 48 0
-5573 61 0
-5571 5572 5573 0
-5572 5571 5573 0
-5573 5571 5572 0
5574 -6 -29 -63 -79 0
-5574 6 0
-5574 29 0
-5574 63 0
-5574 79 0
5575 -9 -29 -51 -79 0
-5575 9 0
-5575 29 0
-5575 51 0
-5575 79 0
5576 -18 -29 -42 -79 0
-5576 18 0
-5576 29 0
-5576 42 0
-5576 79 0
-5574 5575 5576 0
-5575 5574 5576 0
-5576 5574 5575 0
5577 -6 -29 -63 -80 0
-5577 6 0
-5577 29 0
-5577 63 0
-5577 80 0
5578 -6 -32 -63 -74 0
-5578 6 0
-5578 32 0
-5578 63 0
-5578 74 0
5579 -6 -38 -63 -68 0
-5579 6 0
-5579 38 0
-5579 63 0
-5579 68 0
5580 -9 -29 -51 -80 0
-5580 9 0
-5580 29 0
-5580 51 0
-5580 80 0
5581 -9 -32 -51 -74 0
-5581 9 0
-5581 32 0
-5581 51 0
-5581 74 0
5582 -9 -38 -51 -68 0
-5582 9 0
-5582 38 0
-5582 51 0
-5582 68 0
5583 -18 -29 -42 -80 0
-5583 18 0
-5583 29 0
-5583 42 0
-5583 80 0
5584 -18 -32 -42 -74 0
-5584 18 0
-5584 32 0
-5584 42 0
-5584 74 0
5585 -18 -38 -42 -68 0
-5585 18 0
-5585 38 0
-5585 42 0
-5585 68 0
-5577 5578 5579 5580 5581 5582 5583 5584 5585 0
-5578 5577 5579 5580 5581 5582 5583 5584 5585 0
-5579 5577 5578 5580 5581 5582 5583 5584 5585 0
-5580 5577 5578 5579 5581 5582 5583 5584 5585 0
-5581 5577 5578 5579 5580 5582 5583 5584 5585 0
-5582 5577 5578 5579 5580 5581 5583 5584 5585 0
-5583 5577 5578 5579 5580 5581 5582 5584 5585 0
-5584 5577 5578 5579 5580 5581 5582 5583 5585 0
-5585 5577 5578 5579 5580 5581 5582 5583 5584 0
5586 -4 -29 -64 -77 0
-5586 4 0
-5586 29 0
-5586 64 0
-5586 77 0
5587 -4 -32 -64 -71 0
-5587 4 0
-5587 32 0
-5587 64 0
-5587 71 0
5588 -4 -35 -64 -68 0
-5588 4 0
-5588 35 0
-5588 64 0
-5588 68 0
5589 -7 -29 -52 -77 0
-5589 7 0
-5589 29 0
-5589 52 0
-5589 77 0
5590 -7 -32 -52 -71 0
-5590 7 0
-5590 32 0
-5590 52 0
-5590 71 0
5591 -7 -35 -52 -68 0
-5591 7 0
-5591 35 0
-5591 52 0
-5591 68 0
5592 -19 -29 -40 -77 0
-5592 19 0
-5592 29 0
-5592 40 0
-5592 77 0
5593 -19 -32 -40 -71 0
-5593 19 0
-5593 32 0
-5593 40 0
-5593 71 0
5594 -19 -35 -40 -68 0
-5594 19 0
-5594 35 0
-5594 40 0
-5594 68 0
-5586 5587 5588 5589 5590 5591 5592 5593 5594 0
-5587 5586 5588 5589 5590 5591 5592 5593 5594 0
-5588 5586 5587 5589 5590 5591 5592 5593 5594 0
-5589 5586 5587 5588 5590 5591 5592 5593 5594 0
-5590 5586 5587 5588 5589 5591 5592 5593 5594 0
-5591 5586 5587 5588 5589 5590 5592 5593 5594 0
-5592 5586 5587 5588 5589 5590 5591 5593 5594 0
-5593 5586 5587 5588 5589 5590 5591 5592 5594 0
-5594 5586 5587 5588 5589 5590 5591 5592 5593 0
5595 -4 -29 -64 -78 0
-5595 4 0
-5595 29 0
-5595 64 0
-5595 78 0
5596 -7 -29 -52 -78 0
-5596 7 0
-5596 29 0
-5596 52 0
-5596 78 0
5597 -19 -29 -40 -78 0
-5597 19 0
-5597 29 0
-5597 40 0
-5597 78 0
-5595 5596 5597 0
-5596 5595 5597 0
-5597 5595 5596 0
5598 -4 -29 -66 -76 0
-5598 4 0
-5598 29 0
-5598 66 0
-5598 76 0
5599 -13 -29 -49 -66 0
-5599 13 0
-5599 29 0
-5599 49 0
-5599 66 0
5600 -16 -29 -46 -66 0
-5600 16 0
-5600 29 0
-5600 46 0
-5600 66 0
-5598 5599 5600 0
-5599 5598 5600 0
-5600 5598 5599 0
5601 -4 -29 -66 -77 0
-5601 4 0
-5601 29 0
-5601 66 0
-5601 77 0
5602 -4 -32 -66 -71 0
-5602 4 0
-5602 32 0
-5602 66 0
-5602 71 0
5603 -4 -35 -66 -68 0
-5603 4 0
-5603 35 0
-5603 66 0
-5603 68 0
-5601 5602 5603 0
-5602 5601 5603 0
-5603 5601 5602 0
5604 -4 -30 -64 -77 0
-5604 4 0
-5604 30 0
-5604 64 0
-5604 77 0
5605 -7 -30 -52 -77 0
-5605 7 0
-5605 30 0
-5605 52 0
-5605 77 0
5606 -19 -30 -40 -77 0
-5606 19 0
-5606 30 0
-5606 40 0
-5606 77 0
-5604 5605 5606 0
-5605 5604 5606 0
-5606 5604 5605 0
5607 -4 -30 -64 -78 0
-5607 4 0
-5607 30 0
-5607 64 0
-5607 78 0
5608 -4 -33 -64 -72 0
-5608 4 0
-5608 33 0
-5608 64 0
-5608 72 0
5609 -4 -36 -64 -69 0
-5609 4 0
-5609 36 0
-5609 64 0
-5609 69 0
5610 -7 -30 -52 -78 0
-5610 7 0
-5610 30 0
-5610 52 0
-5610 78 0
5611 -7 -33 -52 -72 0
-5611 7 0
-5611 33 0
-5611 52 0
-5611 72 0
5612 -7 -36 -52 -69 0
-5612 7 0
-5612 36 0
-5612 52 0
-5612 69 0
5613 -19 -30 -40 -78 0
-5613 19 0
-5613 30 0
-5613 40 0
-5613 78 0
5614 -19 -33 -40 -72 0
-5614 19 0
-5614 33 0
-5614 40 0
-5614 72 0
5615 -19 -36 -40 -69 0
-5615 19 0
-5615 36 0
-5615 40 0
-5615 69 0
-5607 5608 5609 5610 5611 5612 5613 5614 5615 0
-5608 5607 5609 5610 5611 5612 5613 5614 5615 0
-5609 5607 5608 5610 5611 5612 5613 5614 5615 0
-5610 5607 5608 5609 5611 5612 5613 5614 5615 0
-5611 5607 5608 5609 5610 5612 5613 5614 5615 0
-5612 5607 5608 5609 5610 5611 5613 5614 5615 0
-5613 5607 5608 5609 5610 5611 5612 5614 5615 0
-5614 5607 5608 5609 5610 5611 5612 5613 5615 0
-5615 5607 5608 5609 5610 5611 5612 5613 5614 0
5616 -4 -30 -65 -76 0
-5616 4 0
-5616 30 0
-5616 65 0
-5616 76 0
5617 -13 -30 -49 -65 0
-5617 13 0
-5617 30 0
-5617 49 0
-5617 65 0
5618 -16 -30 -46 -65 0
-5618 16 0
-5618 30 0
-5618 46 0
-5618 65 0
-5616 5617 5618 0
-5617 5616 5618 0
-5618 5616 5617 0
5619 -4 -30 -65 -78 0
-5619 4 0
-5619 30 0
-5619 65 0
-5619 78 0
5620 -4 -33 -65 -72 0
-5620 4 0
-5620 33 0
-5620 65 0
-5620 72 0
5621 -4 -36 -65 -69 0
-5621 4 0
-5621 36 0
-5621 65 0
-5621 69 0
-5619 5620 5621 0
-5620 5619 5621 0
-5621 5619 5620 0
5622 -5 -28 -65 -76 0
-5622 5 0
-5622 28 0
-5622 65 0
-5622 76 0
5623 -5 -31 -65 -70 0
-5623 5 0
-5623 31 0
-5623 65 0
-5623 70 0
5624 -5 -34 -65 -67 0
-5624 5 0
-5624 34 0
-5624 65 0
-5624 67 0
5625 -8 -28 -53 -76 0
-5625 8 0
-5625 28 0
-5625 53 0
-5625 76 0
5626 -8 -31 -53 -70 0
-5626 8 0
-5626 31 0
-5626 53 0
-5626 70 0
5627 -8 -34 -53 -67 0
-5627 8 0
-5627 34 0
-5627 53 0
-5627 67 0
5628 -20 -28 -41 -76 0
-5628 20 0
-5628 28 0
-5628 41 0
-5628 76 0
5629 -20 -31 -41 -70 0
-5629 20 0
-5629 31 0
-5629 41 0
-5629 70 0
5630 -20 -34 -41 -67 0
-5630 20 0
-5630 34 0
-5630 41 0
-5630 67 0
-5622 5623 5624 5625 5626 5627 5628 5629 5630 0
-5623 5622 5624 5625 5626 5627 5628 5629 5630 0
-5624 5622 5623 5625 5626 5627 5628 5629 5630 0
-5625 5622 5623 5624 5626 5627 5628 5629 5630 0
-5626 5622 5623 5624 5625 5627 5628 5629 5630 0
-5627 5622 5623 5624 5625 5626 5628 5629 5630 0
-5628 5622 5623 5624 5625 5626 5627 5629 5630 0
-5629 5622 5623 5624 5625 5626 5627 5628 5630 0
-5630 5622 5623 5624 5625 5626 5627 5628 5629 0
5631 -5 -28 -65 -78 0
-5631 5 0
-5631 28 0
-5631 65 0
-5631 78 0
5632 -8 -28 -53 -78 0
-5632 8 0
-5632 28 0
-5632 53 0
-5632 78 0
5633 -20 -28 -41 -78 0
-5633 20 0
-5633 28 0
-5633 41 0
-5633 78 0
-5631 5632 5633 0
-5632 5631 5633 0
-5633 5631 5632 0
5634 -5 -28 -66 -76 0
-5634 5 0
-5634 28 0
-5634 66 0
-5634 76 0
5635 -5 -31 -66 -70 0
-5635 5 0
-5635 31 0
-5635 66 0
-5635 70 0
5636 -5 -34 -66 -67 0
-5636 5 0
-5636 34 0
-5636 66 0
-5636 67 0
-5634 5635 5636 0
-5635 5634 5636 0
-5636 5634 5635 0
5637 -5 -28 -66 -77 0
-5637 5 0
-5637 28 0
-5637 66 0
-5637 77 0
5638 -14 -28 -50 -66 0
-5638 14 0
-5638 28 0
-5638 50 0
-5638 66 0
5639 -17 -28 -47 -66 0
-5639 17 0
-5639 28 0
-5639 47 0
-5639 66 0
-5637 5638 5639 0
-5638 5637 5639 0
-5639 5637 5638 0
5640 -5 -30 -64 -77 0
-5640 5 0
-5640 30 0
-5640 64 0
-5640 77 0
5641 -14 -30 -50 -64 0
-5641 14 0
-5641 30 0
-5641 50 0
-5641 64 0
5642 -17 -30 -47 -64 0
-5642 17 0
-5642 30 0
-5642 47 0
-5642 64 0
-5640 5641 5642 0
-5641 5640 5642 0
-5642 5640 5641 0
5643 -5 -30 -64 -78 0
-5643 5 0
-5643 30 0
-5643 64 0
-5643 78 0
5644 -5 -33 -64 -72 0
-5644 5 0
-5644 33 0
-5644 64 0
-5644 72 0
5645 -5 -36 -64 -69 0
-5645 5 0
-5645 36 0
-5645 64 0
-5645 69 0
-5643 5644 5645 0
-5644 5643 5645 0
-5645 5643 5644 0
5646 -5 -30 -65 -76 0
-5646 5 0
-5646 30 0
-5646 65 0
-5646 76 0
5647 -8 -30 -53 -76 0
-5647 8 0
-5647 30 0
-5647 53 0
-5647 76 0
5648 -20 -30 -41 -76 0
-5648 20 0
-5648 30 0
-5648 41 0
-5648 76 0
-5646 5647 5648 0
-5647 5646 5648 0
-5648 5646 5647 0
5649 -5 -30 -65 -78 0
-5649 5 0
-5649 30 0
-5649 65 0
-5649 78 0
5650 -5 -33 -65 -72 0
-5650 5 0
-5650 33 0
-5650 65 0
-5650 72 0
5651 -5 -36 -65 -69 0
-5651 5 0
-5651 36 0
-5651 65 0
-5651 69 0
5652 -8 -30 -53 -78 0
-5652 8 0
-5652 30 0
-5652 53 0
-5652 78 0
5653 -8 -33 -53 -72 0
-5653 8 0
-5653 33 0
-5653 53 0
-5653 72 0
5654 -8 -36 -53 -69 0
-5654 8 0
-5654 36 0
-5654 53 0
-5654 69 0
5655 -20 -30 -41 -78 0
-5655 20 0
-5655 30 0
-5655 41 0
-5655 78 0
5656 -20 -33 -41 -72 0
-5656 20 0
-5656 33 0
-5656 41 0
-5656 72 0
5657 -20 -36 -41 -69 0
-5657 20 0
-5657 36 0
-5657 41 0
-5657 69 0
-5649 5650 5651 5652 5653 5654 5655 5656 5657 0
-5650 5649 5651 5652 5653 5654 5655 5656 5657 0
-5651 5649 5650 5652 5653 5654 5655 5656 5657 0
-5652 5649 5650 5651 5653 5654 5655 5656 5657 0
-5653 5649 5650 5651 5652 5654 5655 5656 5657 0
-5654 5649 5650 5651 5652 5653 5655 5656 5657 0
-5655 5649 5650 5651 5652 5653 5654 5656 5657 0
-5656 5649 5650 5651 5652 5653 5654 5655 5657 0
-5657 5649 5650 5651 5652 5653 5654 5655 5656 0
5658 -6 -28 -65 -76 0
-5658 6 0
-5658 28 0
-5658 65 0
-5658 76 0
5659 -6 -31 -65 -70 0
-5659 6 0
-5659 31 0
-5659 65 0
-5659 70 0
5660 -6 -34 -65 -67 0
-5660 6 0
-5660 34 0
-5660 65 0
-5660 67 0
-5658 5659 5660 0
-5659 5658 5660 0
-5660 5658 5659 0
5661 -6 -28 -65 -78 0
-5661 6 0
-5661 28 0
-5661 65 0
-5661 78 0
5662 -15 -28 -51 -65 0
-5662 15 0
-5662 28 0
-5662 51 0
-5662 65 0
5663 -18 -28 -48 -65 0
-5663 18 0
-5663 28 0
-5663 48 0
-5663 65 0
-5661 5662 5663 0
-5662 5661 5663 0
-5663 5661 5662 0
5664 -6 -28 -66 -76 0
-5664 6 0
-5664 28 0
-5664 66 0
-5664 76 0
5665 -6 -31 -66 -70 0
-5665 6 0
-5665 31 0
-5665 66 0
-5665 70 0
5666 -6 -34 -66 -67 0
-5666 6 0
-5666 34 0
-5666 66 0
-5666 67 0
5667 -9 -28 -54 -76 0
-5667 9 0
-5667 28 0
-5667 54 0
-5667 76 0
5668 -9 -31 -54 -70 0
-5668 9 0
-5668 31 0
-5668 54 0
-5668 70 0
5669 -9 -34 -54 -67 0
-5669 9 0
-5669 34 0
-5669 54 0
-5669 67 0
5670 -21 -28 -42 -76 0
-5670 21 0
-5670 28 0
-5670 42 0
-5670 76 0
5671 -21 -31 -42 -70 0
-5671 21 0
-5671 31 0
-5671 42 0
-5671 70 0
5672 -21 -34 -42 -67 0
-5672 21 0
-5672 34 0
-5672 42 0
-5672 67 0
-5664 5665 5666 5667 5668 5669 5670 5671 5672 0
-5665 5664 5666 5667 5668 5669 5670 5671 5672 0
-5666 5664 5665 5667 5668 5669 5670 5671 5672 0
-5667 5664 5665 5666 5668 5669 5670 5671 5672 0
-5668 5664 5665 5666 5667 5669 5670 5671 5672 0
-5669 5664 5665 5666 5667 5668 5670 5671 5672 0
-5670 5664 5665 5666 5667 5668 5669 5671 5672 0
-5671 5664 5665 5666 5667 5668 5669 5670 5672 0
-5672 5664 5665 5666 5667 5668 5669 5670 5671 0
5673 -6 -28 -66 -77 0
-5673 6 0
-5673 28 0
-5673 66 0
-5673 77 0
5674 -9 -28 -54 -77 0
-5674 9 0
-5674 28 0
-5674 54 0
-5674 77 0
5675 -21 -28 -42 -77 0
-5675 21 0
-5675 28 0
-5675 42 0
-5675 77 0
-5673 5674 5675 0
-5674 5673 5675 0
-5675 5673 5674 0
5676 -6 -29 -64 -77 0
-5676 6 0
-5676 29 0
-5676 64 0
-5676 77 0
5677 -6 -32 -64 -71 0
-5677 6 0
-5677 32 0
-5677 64 0
-5677 71 0
5678 -6 -35 -64 -68 0
-5678 6 0
-5678 35 0
-5678 64 0
-5678 68 0
-5676 5677 5678 0
-5677 5676 5678 0
-5678 5676 5677 0
5679 -6 -29 -64 -78 0
-5679 6 0
-5679 29 0
-5679 64 0
-5679 78 0
5680 -15 -29 -51 -64 0
-5680 15 0
-5680 29 0
-5680 51 0
-5680 64 0
5681 -18 -29 -48 -64 0
-5681 18 0
-5681 29 0
-5681 48 0
-5681 64 0
-5679 5680 5681 0
-5680 5679 5681 0
-5681 5679 5680 0
5682 -6 -29 -66 -76 0
-5682 6 0
-5682 29 0
-5682 66 0
-5682 76 0
5683 -9 -29 -54 -76 0
-5683 9 0
-5683 29 0
-5683 54 0
-5683 76 0
5684 -21 -29 -42 -76 0
-5684 21 0
-5684 29 0
-5684 42 0
-5684 76 0
-5682 5683 5684 0
-5683 5682 5684 0
-5684 5682 5683 0
5685 -6 -29 -66 -77 0
-5685 6 0
-5685 29 0
-5685 66 0
-5685 77 0
5686 -6 -32 -66 -71 0
-5686 6 0
-5686 32 0
-5686 66 0
-5686 71 0
5687 -6 -35 -66 -68 0
-5687 6 0
-5687 35 0
-5687 66 0
-5687 68 0
5688 -9 -29 -54 -77 0
-5688 9 0
-5688 29 0
-5688 54 0
-5688 77 0
5689 -9 -32 -54 -71 0
-5689 9 0
-5689 32 0
-5689 54 0
-5689 71 0
5690 -9 -35 -54 -68 0
-5690 9 0
-5690 35 0
-5690 54 0
-5690 68 0
5691 -21 -29 -42 -77 0
-5691 21 0
-5691 29 0
-5691 42 0
-5691 77 0
5692 -21 -32 -42 -71 0
-5692 21 0
-5692 32 0
-5692 42 0
-5692 71 0
5693 -21 -35 -42 -68 0
-5693 21 0
-5693 35 0
-5693 42 0
-5693 68 0
-5685 5686 5687 5688 5689 5690 5691 5692 5693 0
-5686 5685 5687 5688 5689 5690 5691 5692 5693 0
-5687 5685 5686 5688 5689 5690 5691 5692 5693 0
-5688 5685 5686 5687 5689 5690 5691 5692 5693 0
-5689 5685 5686 5687 5688 5690 5691 5692 5693 0
-5690 5685 5686 5687 5688 5689 5691 5692 5693 0
-5691 5685 5686 5687 5688 5689 5690 5692 5693 0
-5692 5685 5686 5687 5688 5689 5690 5691 5693 0
-5693 5685 5686 5687 5688 5689 5690 5691 5692 0
5694 -4 -32 -55 -82 0
-5694 4 0
-5694 32 0
-5694 55 0
-5694 82 0
5695 -4 -32 -61 -73 0
-5695 4 0
-5695 32 0
-5695 61 0
-5695 73 0
5696 -4 -32 -64 -70 0
-5696 4 0
-5696 32 0
-5696 64 0
-5696 70 0
5697 -7 -32 -43 -82 0
-5697 7 0
-5697 32 0
-5697 43 0
-5697 82 0
5698 -7 -32 -49 -73 0
-5698 7 0
-5698 32 0
-5698 49 0
-5698 73 0
5699 -7 -32 -52 -70 0
-5699 7 0
-5699 32 0
-5699 52 0
-5699 70 0
5700 -10 -32 -40 -82 0
-5700 10 0
-5700 32 0
-5700 40 0
-5700 82 0
5701 -10 -32 -49 -64 0
-5701 10 0
-5701 32 0
-5701 49 0
-5701 64 0
5702 -10 -32 -52 -61 0
-5702 10 0
-5702 32 0
-5702 52 0
-5702 61 0
5703 -16 -32 -40 -73 0
-5703 16 0
-5703 32 0
-5703 40 0
-5703 73 0
5704 -16 -32 -43 -64 0
-5704 16 0
-5704 32 0
-5704 43 0
-5704 64 0
5705 -16 -32 -52 -55 0
-5705 16 0
-5705 32 0
-5705 52 0
-5705 55 0
5706 -19 -32 -40 -70 0
-5706 19 0
-5706 32 0
-5706 40 0
-5706 70 0
5707 -19 -32 -43 -61 0
-5707 19 0
-5707 32 0
-5707 43 0
-5707 61 0
5708 -19 -32 -49 -55 0
-5708 19 0
-5708 32 0
-5708 49 0
-5708 55 0
-5694 5695 5696 5697 5698 5699 5700 5701 5702 5703 5704 5705 5706 5707 5708 0
-5695 5694 5696 5697 5698 5699 5700 5701 5702 5703 5704 5705 5706 5707 5708 0
-5696 5694 5695 5697 5698 5699 5700 5701 5702 5703 5704 5705 5706 5707 5708 0
-5697 5694 5695 5696 5698 5699 5700 5701 5702 5703 5704 5705 5706 5707 5708 0
-5698 5694 5695 5696 5697 5699 5700 5701 5702 5703 5704 5705 5706 5707 5708 0
-5699 5694 5695 5696 5697 5698 5700 5701 5702 5703 5704 5705 5706 5707 5708 0
-5700 5694 5695 5696 5697 5698 5699 5701 5702 5703 5704 5705 5706 5707 5708 0
-5701 5694 5695 5696 5697 5698 5699 5700 5702 5703 5704 5705 5706 5707 5708 0
-5702 5694 5695 5696 5697 5698 5699 5700 5701 5703 5704 5705 5706 5707 5708 0
-5703 5694 5695 5696 5697 5698 5699 5700 5701 5702 5704 5705 5706 5707 5708 0
-5704 5694 5695 5696 5697 5698 5699 5700 5701 5702 5703 5705 5706 5707 5708 0
-5705 5694 5695 5696 5697 5698 5699 5700 5701 5702 5703 5704 5706 5707 5708 0
-5706 5694 5695 5696 5697 5698 5699 5700 5701 5702 5703 5704 5705 5707 5708 0
-5707 5694 5695 5696 5697 5698 5699 5700 5701 5702 5703 5704 5705 5706 5708 0
-5708 5694 5695 5696 5697 5698 5699 5700 5701 5702 5703 5704 5705 5706 5707 0
5709 -4 -32 -55 -83 0
-5709 4 0
-5709 32 0
-5709 55 0
-5709 83 0
5710 -4 -35 -55 -80 0
-5710 4 0
-5710 35 0
-5710 55 0
-5710 80 0
5711 -4 -38 -55 -77 0
-5711 4 0
-5711 38 0
-5711 55 0
-5711 77 0
5712 -7 -32 -43 -83 0
-5712 7 0
-5712 32 0
-5712 43 0
-5712 83 0
5713 -7 -35 -43 -80 0
-5713 7 0
-5713 35 0
-5713 43 0
-5713 80 0
5714 -7 -38 -43 -77 0
-5714 7 0
-5714 38 0
-5714 43 0
-5714 77 0
5715 -10 -32 -40 -83 0
-5715 10 0
-5715 32 0
-5715 40 0
-5715 83 0
5716 -10 -35 -40 -80 0
-5716 10 0
-5716 35 0
-5716 40 0
-5716 80 0
5717 -10 -38 -40 -77 0
-5717 10 0
-5717 38 0
-5717 40 0
-5717 77 0
-5709 5710 5711 5712 5713 5714 5715 5716 5717 0
-5710 5709 5711 5712 5713 5714 5715 5716 5717 0
-5711 5709 5710 5712 5713 5714 5715 5716 5717 0
-5712 5709 5710 5711 5713 5714 5715 5716 5717 0
-5713 5709 5710 5711 5712 5714 5715 5716 5717 0
-5714 5709 5710 5711 5712 5713 5715 5716 5717 0
-5715 5709 5710 5711 5712 5713 5714 5716 5717 0
-5716 5709 5710 5711 5712 5713 5714 5715 5717 0
-5717 5709 5710 5711 5712 5713 5714 5715 5716 0
5718 -4 -32 -55 -84 0
-5718 4 0
-5718 32 0
-5718 55 0
-5718 84 0
5719 -7 -32 -43 -84 0
-5719 7 0
-5719 32 0
-5719 43 0
-5719 84 0
5720 -10 -32 -40 -84 0
-5720 10 0
-5720 32 0
-5720 40 0
-5720 84 0
-5718 5719 5720 0
-5719 5718 5720 0
-5720 5718 5719 0
5721 -4 -32 -57 -82 0
-5721 4 0
-5721 32 0
-5721 57 0
-5721 82 0
5722 -16 -32 -52 -57 0
-5722 16 0
-5722 32 0
-5722 52 0
-5722 57 0
5723 -19 -32 -49 -57 0
-5723 19 0
-5723 32 0
-5723 49 0
-5723 57 0
-5721 5722 5723 0
-5722 5721 5723 0
-5723 5721 5722 0
5724 -4 -32 -57 -83 0
-5724 4 0
-5724 32 0
-5724 57 0
-5724 83 0
5725 -4 -35 -57 -80 0
-5725 4 0
-5725 35 0
-5725 57 0
-5725 80 0
5726 -4 -38 -57 -77 0
-5726 4 0
-5726 38 0
-5726 57 0
-5726 77 0
-5724 5725 5726 0
-5725 5724 5726 0
-5726 5724 5725 0
5727 -4 -32 -57 -84 0
-5727 4 0
-5727 32 0
-5727 57 0
-5727 84 0
5728 -4 -32 -63 -75 0
-5728 4 0
-5728 32 0
-5728 63 0
-5728 75 0
5729 -4 -32 -66 -72 0
-5729 4 0
-5729 32 0
-5729 66 0
-5729 72 0
-5727 5728 5729 0
-5728 5727 5729 0
-5729 5727 5728 0
5730 -4 -33 -55 -82 0
-5730 4 0
-5730 33 0
-5730 55 0
-5730 82 0
5731 -4 -33 -61 -73 0
-5731 4 0
-5731 33 0
-5731 61 0
-5731 73 0
5732 -4 -33 -64 -70 0
-5732 4 0
-5732 33 0
-5732 64 0
-5732 70 0
5733 -7 -33 -43 -82 0
-5733 7 0
-5733 33 0
-5733 43 0
-5733 82 0
5734 -7 -33 -49 -73 0
-5734 7 0
-5734 33 0
-5734 49 0
-5734 73 0
5735 -7 -33 -52 -70 0
-5735 7 0
-5735 33 0
-5735 52 0
-5735 70 0
5736 -10 -33 -40 -82 0
-5736 10 0
-5736 33 0
-5736 40 0
-5736 82 0
5737 -10 -33 -49 -64 0
-5737 10 0
-5737 33 0
-5737 49 0
-5737 64 0
5738 -10 -33 -52 -61 0
-5738 10 0
-5738 33 0
-5738 52 0
-5738 61 0
5739 -16 -33 -40 -73 0
-5739 16 0
-5739 33 0
-5739 40 0
-5739 73 0
5740 -16 -33 -43 -64 0
-5740 16 0
-5740 33 0
-5740 43 0
-5740 64 0
5741 -16 -33 -52 -55 0
-5741 16 0
-5741 33 0
-5741 52 0
-5741 55 0
5742 -19 -33 -40 -70 0
-5742 19 0
-5742 33 0
-5742 40 0
-5742 70 0
5743 -19 -33 -43 -61 0
-5743 19 0
-5743 33 0
-5743 43 0
-5743 61 0
5744 -19 -33 -49 -55 0
-5744 19 0
-5744 33 0
-5744 49 0
-5744 55 0
-5730 5731 5732 5733 5734 5735 5736 5737 5738 5739 5740 5741 5742 5743 5744 0
-5731 5730 5732 5733 5734 5735 5736 5737 5738 5739 5740 5741 5742 5743 5744 0
-5732 5730 5731 5733 5734 5735 5736 5737 5738 5739 5740 5741 5742 5743 5744 0
-5733 5730 5731 5732 5734 5735 5736 5737 5738 5739 5740 5741 5742 5743 5744 0
-5734 5730 5731 5732 5733 5735 5736 5737 5738 5739 5740 5741 5742 5743 5744 0
-5735 5730 5731 5732 5733 5734 5736 5737 5738 5739 5740 5741 5742 5743 5744 0
-5736 5730 5731 5732 5733 5734 5735 5737 5738 5739 5740 5741 5742 5743 5744 0
-5737 5730 5731 5732 5733 5734 5735 5736 5738 5739 5740 5741 5742 5743 5744 0
-5738 5730 5731 5732 5733 5734 5735 5736 5737 5739 5740 5741 5742 5743 5744 0
-5739 5730 5731 5732 5733 5734 5735 5736 5737 5738 5740 5741 5742 5743 5744 0
-5740 5730 5731 5732 5733 5734 5735 5736 5737 5738 5739 5741 5742 5743 5744 0
-5741 5730 5731 5732 5733 5734 5735 5736 5737 5738 5739 5740 5742 5743 5744 0
-5742 5730 5731 5732 5733 5734 5735 5736 5737 5738 5739 5740 5741 5743 5744 0
-5743 5730 5731 5732 5733 5734 5735 5736 5737 5738 5739 5740 5741 5742 5744 0
-5744 5730 5731 5732 5733 5734 5735 5736 5737 5738 5739 5740 5741 5742 5743 0
5745 -4 -33 -55 -83 0
-5745 4 0
-5745 33 0
-5745 55 0
-5745 83 0
5746 -7 -33 -43 -83 0
-5746 7 0
-5746 33 0
-5746 43 0
-5746 83 0
5747 -10 -33 -40 -83 0
-5747 10 0
-5747 33 0
-5747 40 0
-5747 83 0
-5745 5746 5747 0
-5746 5745 5747 0
-5747 5745 5746 0
5748 -4 -33 -55 -84 0
-5748 4 0
-5748 33 0
-5748 55 0
-5748 84 0
5749 -4 -36 -55 -81 0
-5749 4 0
-5749 36 0
-5749 55 0
-5749 81 0
5750 -4 -39 -55 -78 0
-5750 4 0
-5750 39 0
-5750 55 0
-5750 78 0
5751 -7 -33 -43 -84 0
-5751 7 0
-5751 33 0
-5751 43 0
-5751 84 0
5752 -7 -36 -43 -81 0
-5752 7 0
-5752 36 0
-5752 43 0
-5752 81 0
5753 -7 -39 -43 -78 0
-5753 7 0
-5753 39 0
-5753 43 0
-5753 78 0
5754 -10 -33 -40 -84 0
-5754 10 0
-5754 33 0
-5754 40 0
-5754 84 0
5755 -10 -36 -40 -81 0
-5755 10 0
-5755 36 0
-5755 40 0
-5755 81 0
5756 -10 -39 -40 -78 0
-5756 10 0
-5756 39 0
-5756 40 0
-5756 78 0
-5748 5749 5750 5751 5752 5753 5754 5755 5756 0
-5749 5748 5750 5751 5752 5753 5754 5755 5756 0
-5750 5748 5749 5751 5752 5753 5754 5755 5756 0
-5751 5748 5749 5750 5752 5753 5754 5755 5756 0
-5752 5748 5749 5750 5751 5753 5754 5755 5756 0
-5753 5748 5749 5750 5751 5752 5754 5755 5756 0
-5754 5748 5749 5750 5751 5752 5753 5755 5756 0
-5755 5748 5749 5750 5751 5752 5753 5754 5756 0
-5756 5748 5749 5750 5751 5752 5753 5754 5755 0
5757 -4 -33 -56 -82 0
-5757 4 0
-5757 33 0
-5757 56 0
-5757 82 0
5758 -16 -33 -52 -56 0
-5758 16 0
-5758 33 0
-5758 52 0
-5758 56 0
5759 -19 -33 -49 -56 0
-5759 19 0
-5759 33 0
-5759 49 0
-5759 56 0
-5757 5758 5759 0
-5758 5757 5759 0
-5759 5757 5758 0
5760 -4 -33 -56 -83 0
-5760 4 0
-5760 33 0
-5760 56 0
-5760 83 0
5761 -4 -33 -62 -74 0
-5761 4 0
-5761 33 0
-5761 62 0
-5761 74 0
5762 -4 -33 -65 -71 0
-5762 4 0
-5762 33 0
-5762 65 0
-5762 71 0
-5760 5761 5762 0
-5761 5760 5762 0
-5762 5760 5761 0
5763 -4 -33 -56 -84 0
-5763 4 0
-5763 33 0
-5763 56 0
-5763 84 0
5764 -4 -36 -56 -81 0
-5764 4 0
-5764 36 0
-5764 56 0
-5764 81 0
5765 -4 -39 -56 -78 0
-5765 4 0
-5765 39 0
-5765 56 0
-5765 78 0
-5763 5764 5765 0
-5764 5763 5765 0
-5765 5763 5764 0
5766 -5 -31 -56 -82 0
-5766 5 0
-5766 31 0
-5766 56 0
-5766 82 0
5767 -5 -34 -56 -79 0
-5767 5 0
-5767 34 0
-5767 56 0
-5767 79 0
5768 -5 -37 -56 -76 0
-5768 5 0
-5768 37 0
-5768 56 0
-5768 76 0
5769 -8 -31 -44 -82 0
-5769 8 0
-5769 31 0
-5769 44 0
-5769 82 0
5770 -8 -34 -44 -79 0
-5770 8 0
-5770 34 0
-5770 44 0
-5770 79 0
5771 -8 -37 -44 -76 0
-5771 8 0
-5771 37 0
-5771 44 0
-5771 76 0
5772 -11 -31 -41 -82 0
-5772 11 0
-5772 31 0
-5772 41 0
-5772 82 0
5773 -11 -34 -41 -79 0
-5773 11 0
-5773 34 0
-5773 41 0
-5773 79 0
5774 -11 -37 -41 -76 0
-5774 11 0
-5774 37 0
-5774 41 0
-5774 76 0
-5766 5767 5768 5769 5770 5771 5772 5773 5774 0
-5767 5766 5768 5769 5770 5771 5772 5773 5774 0
-5768 5766 5767 5769 5770 5771 5772 5773 5774 0
-5769 5766 5767 5768 5770 5771 5772 5773 5774 0
-5770 5766 5767 5768 5769 5771 5772 5773 5774 0
-5771 5766 5767 5768 5769 5770 5772 5773 5774 0
-5772 5766 5767 5768 5769 5770 5771 5773 5774 0
-5773 5766 5767 5768 5769 5770 5771 5772 5774 0
-5774 5766 5767 5768 5769 5770 5771 5772 5773 0
5775 -5 -31 -56 -83 0
-5775 5 0
-5775 31 0
-5775 56 0
-5775 83 0
5776 -5 -31 -62 -74 0
-5776 5 0
-5776 31 0
-5776 62 0
-5776 74 0
5777 -5 -31 -65 -71 0
-5777 5 0
-5777 31 0
-5777 65 0
-5777 71 0
5778 -8 -31 -44 -83 0
-5778 8 0
-5778 31 0
-5778 44 0
-5778 83 0
5779 -8 -31 -50 -74 0
-5779 8 0
-5779 31 0
-5779 50 0
-5779 74 0
5780 -8 -31 -53 -71 0
-5780 8 0
-5780 31 0
-5780 53 0
-5780 71 0
5781 -11 -31 -41 -83 0
-5781 11 0
-5781 31 0
-5781 41 0
-5781 83 0
5782 -11 -31 -50 -65 0
-5782 11 0
-5782 31 0
-5782 50 0
-5782 65 0
5783 -11 -31 -53 -62 0
-5783 11 0
-5783 31 0
-5783 53 0
-5783 62 0
5784 -17 -31 -41 -74 0
-5784 17 0
-5784 31 0
-5784 41 0
-5784 74 0
5785 -17 -31 -44 -65 0
-5785 17 0
-5785 31 0
-5785 44 0
-5785 65 0
5786 -17 -31 -53 -56 0
-5786 17 0
-5786 31 0
-5786 53 0
-5786 56 0
5787 -20 -31 -41 -71 0
-5787 20 0
-5787 31 0
-5787 41 0
-5787 71 0
5788 -20 -31 -44 -62 0
-5788 20 0
-5788 31 0
-5788 44 0
-5788 62 0
5789 -20 -31 -50 -56 0
-5789 20 0
-5789 31 0
-5789 50 0
-5789 56 0
-5775 5776 5777 5778 5779 5780 5781 5782 5783 5784 5785 5786 5787 5788 5789 0
-5776 5775 5777 5778 5779 5780 5781 5782 5783 5784 5785 5786 5787 5788 5789 0
-5777 5775 5776 5778 5779 5780 5781 5782 5783 5784 5785 5786 5787 5788 5789 0
-5778 5775 5776 5777 5779 5780 5781 5782 5783 5784 5785 5786 5787 5788 5789 0
-5779 5775 5776 5777 5778 5780 5781 5782 5783 5784 5785 5786 5787 5788 5789 0
-5780 5775 5776 5777 5778 5779 5781 5782 5783 5784 5785 5786 5787 5788 5789 0
-5781 5775 5776 5777 5778 5779 5780 5782 5783 5784 5785 5786 5787 5788 5789 0
-5782 5775 5776 5777 5778 5779 5780 5781 5783 5784 5785 5786 5787 5788 5789 0
-5783 5775 5776 5777 5778 5779 5780 5781 5782 5784 5785 5786 5787 5788 5789 0
-5784 5775 5776 5777 5778 5779 5780 5781 5782 5783 5785 5786 5787 5788 5789 0
-5785 5775 5776 5777 5778 5779 5780 5781 5782 5783 5784 5786 5787 5788 5789 0
-5786 5775 5776 5777 5778 5779 5780 5781 5782 5783 5784 5785 5787 5788 5789 0
-5787 5775 5776 5777 5778 5779 5780 5781 5782 5783 5784 5785 5786 5788 5789 0
-5788 5775 5776 5777 5778 5779 5780 5781 5782 5783 5784 5785 5786 5787 5789 0
-5789 5775 5776 5777 5778 5779 5780 5781 5782 5783 5784 5785 5786 5787 5788 0
5790 -5 -31 -56 -84 0
-5790 5 0
-5790 31 0
-5790 56 0
-5790 84 0
5791 -8 -31 -44 -84 0
-5791 8 0
-5791 31 0
-5791 44 0
-5791 84 0
5792 -11 -31 -41 -84 0
-5792 11 0
-5792 31 0
-5792 41 0
-5792 84 0
-5790 5791 5792 0
-5791 5790 5792 0
-5792 5790 5791 0
5793 -5 -31 -57 -82 0
-5793 5 0
-5793 31 0
-5793 57 0
-5793 82 0
5794 -5 -34 -57 -79 0
-5794 5 0
-5794 34 0
-5794 57 0
-5794 79 0
5795 -5 -37 -57 -76 0
-5795 5 0
-5795 37 0
-5795 57 0
-5795 76 0
-5793 5794 5795 0
-5794 5793 5795 0
-5795 5793 5794 0
5796 -5 -31 -57 -83 0
-5796 5 0
-5796 31 0
-5796 57 0
-5796 83 0
5797 -17 -31 -53 -57 0
-5797 17 0
-5797 31 0
-5797 53 0
-5797 57 0
5798 -20 -31 -50 -57 0
-5798 20 0
-5798 31 0
-5798 50 0
-5798 57 0
-5796 5797 5798 0
-5797 5796 5798 0
-5798 5796 5797 0
5799 -5 -31 -57 -84 0
-5799 5 0
-5799 31 0
-5799 57 0
-5799 84 0
5800 -5 -31 -63 -75 0
-5800 5 0
-5800 31 0
-5800 63 0
-5800 75 0
5801 -5 -31 -66 -72 0
-5801 5 0
-5801 31 0
-5801 66 0
-5801 72 0
-5799 5800 5801 0
-5800 5799 5801 0
-5801 5799 5800 0
5802 -5 -33 -55 -82 0
-5802 5 0
-5802 33 0
-5802 55 0
-5802 82 0
5803 -5 -33 -61 -73 0
-5803 5 0
-5803 33 0
-5803 61 0
-5803 73 0
5804 -5 -33 -64 -70 0
-5804 5 0
-5804 33 0
-5804 64 0
-5804 70 0
-5802 5803 5804 0
-5803 5802 5804 0
-5804 5802 5803 0
5805 -5 -33 -55 -83 0
-5805 5 0
-5805 33 0
-5805 55 0
-5805 83 0
5806 -17 -33 -53 -55 0
-5806 17 0
-5806 33 0
-5806 53 0
-5806 55 0
5807 -20 -33 -50 -55 0
-5807 20 0
-5807 33 0
-5807 50 0
-5807 55 0
-5805 5806 5807 0
-5806 5805 5807 0
-5807 5805 5806 0
5808 -5 -33 -55 -84 0
-5808 5 0
-5808 33 0
-5808 55 0
-5808 84 0
5809 -5 -36 -55 -81 0
-5809 5 0
-5809 36 0
-5809 55 0
-5809 81 0
5810 -5 -39 -55 -78 0
-5810 5 0
-5810 39 0
-5810 55 0
-5810 78 0
-5808 5809 5810 0
-5809 5808 5810 0
-5810 5808 5809 0
5811 -5 -33 -56 -82 0
-5811 5 0
-5811 33 0
-5811 56 0
-5811 82 0
5812 -8 -33 -44 -82 0
-5812 8 0
-5812 33 0
-5812 44 0
-5812 82 0
5813 -11 -33 -41 -82 0
-5813 11 0
-5813 33 0
-5813 41 0
-5813 82 0
-5811 5812 5813 0
-5812 5811 5813 0
-5813 5811 5812 0
5814 -5 -33 -56 -83 0
-5814 5 0
-5814 33 0
-5814 56 0
-5814 83 0
5815 -5 -33 -62 -74 0
-5815 5 0
-5815 33 0
-5815 62 0
-5815 74 0
5816 -5 -33 -65 -71 0
-5816 5 0
-5816 33 0
-5816 65 0
-5816 71 0
5817 -8 -33 -44 -83 0
-5817 8 0
-5817 33 0
-5817 44 0
-5817 83 0
5818 -8 -33 -50 -74 0
-5818 8 0
-5818 33 0
-5818 50 0
-5818 74 0
5819 -8 -33 -53 -71 0
-5819 8 0
-5819 33 0
-5819 53 0
-5819 71 0
5820 -11 -33 -41 -83 0
-5820 11 0
-5820 33 0
-5820 41 0
-5820 83 0
5821 -11 -33 -50 -65 0
-5821 11 0
-5821 33 0
-5821 50 0
-5821 65 0
5822 -11 -33 -53 -62 0
-5822 11 0
-5822 33 0
-5822 53 0
-5822 62 0
5823 -17 -33 -41 -74 0
-5823 17 0
-5823 33 0
-5823 41 0
-5823 74 0
5824 -17 -33 -44 -65 0
-5824 17 0
-5824 33 0
-5824 44 0
-5824 65 0
5825 -17 -33 -53 -56 0
-5825 17 0
-5825 33 0
-5825 53 0
-5825 56 0
5826 -20 -33 -41 -71 0
-5826 20 0
-5826 33 0
-5826 41 0
-5826 71 0
5827 -20 -33 -44 -62 0
-5827 20 0
-5827 33 0
-5827 44 0
-5827 62 0
5828 -20 -33 -50 -56 0
-5828 20 0
-5828 33 0
-5828 50 0
-5828 56 0
-5814 5815 5816 5817 5818 5819 5820 5821 5822 5823 5824 5825 5826 5827 5828 0
-5815 5814 5816 5817 5818 5819 5820 5821 5822 5823 5824 5825 5826 5827 5828 0
-5816 5814 5815 5817 5818 5819 5820 5821 5822 5823 5824 5825 5826 5827 5828 0
-5817 5814 5815 5816 5818 5819 5820 5821 5822 5823 5824 5825 5826 5827 5828 0
-5818 5814 5815 5816 5817 5819 5820 5821 5822 5823 5824 5825 5826 5827 5828 0
-5819 5814 5815 5816 5817 5818 5820 5821 5822 5823 5824 5825 5826 5827 5828 0
-5820 5814 5815 5816 5817 5818 5819 5821 5822 5823 5824 5825 5826 5827 5828 0
-5821 5814 5815 5816 5817 5818 5819 5820 5822 5823 5824 5825 5826 5827 5828 0
-5822 5814 5815 5816 5817 5818 5819 5820 5821 5823 5824 5825 5826 5827 5828 0
-5823 5814 5815 5816 5817 5818 5819 5820 5821 5822 5824 5825 5826 5827 5828 0
-5824 5814 5815 5816 5817 5818 5819 5820 5821 5822 5823 5825 5826 5827 5828 0
-5825 5814 5815 5816 5817 5818 5819 5820 5821 5822 5823 5824 5826 5827 5828 0
-5826 5814 5815 5816 5817 5818 5819 5820 5821 5822 5823 5824 5825 5827 5828 0
-5827 5814 5815 5816 5817 5818 5819 5820 5821 5822 5823 5824 5825 5826 5828 0
-5828 5814 5815 5816 5817 5818 5819 5820 5821 5822 5823 5824 5825 5826 5827 0
5829 -5 -33 -56 -84 0
-5829 5 0
-5829 33 0
-5829 56 0
-5829 84 0
5830 -5 -36 -56 -81 0
-5830 5 0
-5830 36 0
-5830 56 0
-5830 81 0
5831 -5 -39 -56 -78 0
-5831 5 0
-5831 39 0
-5831 56 0
-5831 78 0
5832 -8 -33 -44 -84 0
-5832 8 0
-5832 33 0
-5832 44 0
-5832 84 0
5833 -8 -36 -44 -81 0
-5833 8 0
-5833 36 0
-5833 44 0
-5833 81 0
5834 -8 -39 -44 -78 0
-5834 8 0
-5834 39 0
-5834 44 0
-5834 78 0
5835 -11 -33 -41 -84 0
-5835 11 0
-5835 33 0
-5835 41 0
-5835 84 0
5836 -11 -36 -41 -81 0
-5836 11 0
-5836 36 0
-5836 41 0
-5836 81 0
5837 -11 -39 -41 -78 0
-5837 11 0
-5837 39 0
-5837 41 0
-5837 78 0
-5829 5830 5831 5832 5833 5834 5835 5836 5837 0
-5830 5829 5831 5832 5833 5834 5835 5836 5837 0
-5831 5829 5830 5832 5833 5834 5835 5836 5837 0
-5832 5829 5830 5831 5833 5834 5835 5836 5837 0
-5833 5829 5830 5831 5832 5834 5835 5836 5837 0
-5834 5829 5830 5831 5832 5833 5835 5836 5837 0
-5835 5829 5830 5831 5832 5833 5834 5836 5837 0
-5836 5829 5830 5831 5832 5833 5834 5835 5837 0
-5837 5829 5830 5831 5832 5833 5834 5835 5836 0
5838 -6 -31 -56 -82 0
-5838 6 0
-5838 31 0
-5838 56 0
-5838 82 0
5839 -6 -34 -56 -79 0
-5839 6 0
-5839 34 0
-5839 56 0
-5839 79 0
5840 -6 -37 -56 -76 0
-5840 6 0
-5840 37 0
-5840 56 0
-5840 76 0
-5838 5839 5840 0
-5839 5838 5840 0
-5840 5838 5839 0
5841 -6 -31 -56 -83 0
-5841 6 0
-5841 31 0
-5841 56 0
-5841 83 0
5842 -6 -31 -62 -74 0
-5842 6 0
-5842 31 0
-5842 62 0
-5842 74 0
5843 -6 -31 -65 -71 0
-5843 6 0
-5843 31 0
-5843 65 0
-5843 71 0
-5841 5842 5843 0
-5842 5841 5843 0
-5843 5841 5842 0
5844 -6 -31 -56 -84 0
-5844 6 0
-5844 31 0
-5844 56 0
-5844 84 0
5845 -18 -31 -54 -56 0
-5845 18 0
-5845 31 0
-5845 54 0
-5845 56 0
5846 -21 -31 -51 -56 0
-5846 21 0
-5846 31 0
-5846 51 0
-5846 56 0
-5844 5845 5846 0
-5845 5844 5846 0
-5846 5844 5845 0
5847 -6 -31 -57 -82 0
-5847 6 0
-5847 31 0
-5847 57 0
-5847 82 0
5848 -6 -34 -57 -79 0
-5848 6 0
-5848 34 0
-5848 57 0
-5848 79 0
5849 -6 -37 -57 -76 0
-5849 6 0
-5849 37 0
-5849 57 0
-5849 76 0
5850 -9 -31 -45 -82 0
-5850 9 0
-5850 31 0
-5850 45 0
-5850 82 0
5851 -9 -34 -45 -79 0
-5851 9 0
-5851 34 0
-5851 45 0
-5851 79 0
5852 -9 -37 -45 -76 0
-5852 9 0
-5852 37 0
-5852 45 0
-5852 76 0
5853 -12 -31 -42 -82 0
-5853 12 0
-5853 31 0
-5853 42 0
-5853 82 0
5854 -12 -34 -42 -79 0
-5854 12 0
-5854 34 0
-5854 42 0
-5854 79 0
5855 -12 -37 -42 -76 0
-5855 12 0
-5855 37 0
-5855 42 0
-5855 76 0
-5847 5848 5849 5850 5851 5852 5853 5854 5855 0
-5848 5847 5849 5850 5851 5852 5853 5854 5855 0
-5849 5847 5848 5850 5851 5852 5853 5854 5855 0
-5850 5847 5848 5849 5851 5852 5853 5854 5855 0
-5851 5847 5848 5849 5850 5852 5853 5854 5855 0
-5852 5847 5848 5849 5850 5851 5853 5854 5855 0
-5853 5847 5848 5849 5850 5851 5852 5854 5855 0
-5854 5847 5848 5849 5850 5851 5852 5853 5855 0
-5855 5847 5848 5849 5850 5851 5852 5853 5854 0
5856 -6 -31 -57 -83 0
-5856 6 0
-5856 31 0
-5856 57 0
-5856 83 0
5857 -9 -31 -45 -83 0
-5857 9 0
-5857 31 0
-5857 45 0
-5857 83 0
5858 -12 -31 -42 -83 0
-5858 12 0
-5858 31 0
-5858 42 0
-5858 83 0
-5856 5857 5858 0
-5857 5856 5858 0
-5858 5856 5857 0
5859 -6 -31 -57 -84 0
-5859 6 0
-5859 31 0
-5859 57 0
-5859 84 0
5860 -6 -31 -63 -75 0
-5860 6 0
-5860 31 0
-5860 63 0
-5860 75 0
5861 -6 -31 -66 -72 0
-5861 6 0
-5861 31 0
-5861 66 0
-5861 72 0
5862 -9 -31 -45 -84 0
-5862 9 0
-5862 31 0
-5862 45 0
-5862 84 0
5863 -9 -31 -51 -75 0
-5863 9 0
-5863 31 0
-5863 51 0
-5863 75 0
5864 -9 -31 -54 -72 0
-5864 9 0
-5864 31 0
-5864 54 0
-5864 72 0
5865 -12 -31 -42 -84 0
-5865 12 0
-5865 31 0
-5865 42 0
-5865 84 0
5866 -12 -31 -51 -66 0
-5866 12 0
-5866 31 0
-5866 51 0
-5866 66 0
5867 -12 -31 -54 -63 0
-5867 12 0
-5867 31 0
-5867 54 0
-5867 63 0
5868 -18 -31 -42 -75 0
-5868 18 0
-5868 31 0
-5868 42 0
-5868 75 0
5869 -18 -31 -45 -66 0
-5869 18 0
-5869 31 0
-5869 45 0
-5869 66 0
5870 -18 -31 -54 -57 0
-5870 18 0
-5870 31 0
-5870 54 0
-5870 57 0
5871 -21 -31 -42 -72 0
-5871 21 0
-5871 31 0
-5871 42 0
-5871 72 0
5872 -21 -31 -45 -63 0
-5872 21 0
-5872 31 0
-5872 45 0
-5872 63 0
5873 -21 -31 -51 -57 0
-5873 21 0
-5873 31 0
-5873 51 0
-5873 57 0
-5859 5860 5861 5862 5863 5864 5865 5866 5867 5868 5869 5870 5871 5872 5873 0
-5860 5859 5861 5862 5863 5864 5865 5866 5867 5868 5869 5870 5871 5872 5873 0
-5861 5859 5860 5862 5863 5864 5865 5866 5867 5868 5869 5870 5871 5872 5873 0
-5862 5859 5860 5861 5863 5864 5865 5866 5867 5868 5869 5870 5871 5872 5873 0
-5863 5859 5860 5861 5862 5864 5865 5866 5867 5868 5869 5870 5871 5872 5873 0
-5864 5859 5860 5861 5862 5863 5865 5866 5867 5868 5869 5870 5871 5872 5873 0
-5865 5859 5860 5861 5862 5863 5864 5866 5867 5868 5869 5870 5871 5872 5873 0
-5866 5859 5860 5861 5862 5863 5864 5865 5867 5868 5869 5870 5871 5872 5873 0
-5867 5859 5860 5861 5862 5863 5864 5865 5866 5868 5869 5870 5871 5872 5873 0
-5868 5859 5860 5861 5862 5863 5864 5865 5866 5867 5869 5870 5871 5872 5873 0
-5869 5859 5860 5861 5862 5863 5864 5865 5866 5867 5868 5870 5871 5872 5873 0
-5870 5859 5860 5861 5862 5863 5864 5865 5866 5867 5868 5869 5871 5872 5873 0
-5871 5859 5860 5861 5862 5863 5864 5865 5866 5867 5868 5869 5870 5872 5873 0
-5872 5859 5860 5861 5862 5863 5864 5865 5866 5867 5868 5869 5870 5871 5873 0
-5873 5859 5860 5861 5862 5863 5864 5865 5866 5867 5868 5869 5870 5871 5872 0
5874 -6 -32 -55 -82 0
-5874 6 0
-5874 32 0
-5874 55 0
-5874 82 0
5875 -6 -32 -61 -73 0
-5875 6 0
-5875 32 0
-5875 61 0
-5875 73 0
5876 -6 -32 -64 -70 0
-5876 6 0
-5876 32 0
-5876 64 0
-5876 70 0
-5874 5875 5876 0
-5875 5874 5876 0
-5876 5874 5875 0
5877 -6 -32 -55 -83 0
-5877 6 0
-5877 32 0
-5877 55 0
-5877 83 0
5878 -6 -35 -55 -80 0
-5878 6 0
-5878 35 0
-5878 55 0
-5878 80 0
5879 -6 -38 -55 -77 0
-5879 6 0
-5879 38 0
-5879 55 0
-5879 77 0
-5877 5878 5879 0
-5878 5877 5879 0
-5879 5877 5878 0
5880 -6 -32 -55 -84 0
-5880 6 0
-5880 32 0
-5880 55 0
-5880 84 0
5881 -18 -32 -54 -55 0
-5881 18 0
-5881 32 0
-5881 54 0
-5881 55 0
5882 -21 -32 -51 -55 0
-5882 21 0
-5882 32 0
-5882 51 0
-5882 55 0
-5880 5881 5882 0
-5881 5880 5882 0
-5882 5880 5881 0
5883 -6 -32 -57 -82 0
-5883 6 0
-5883 32 0
-5883 57 0
-5883 82 0
5884 -9 -32 -45 -82 0
-5884 9 0
-5884 32 0
-5884 45 0
-5884 82 0
5885 -12 -32 -42 -82 0
-5885 12 0
-5885 32 0
-5885 42 0
-5885 82 0
-5883 5884 5885 0
-5884 5883 5885 0
-5885 5883 5884 0
5886 -6 -32 -57 -83 0
-5886 6 0
-5886 32 0
-5886 57 0
-5886 83 0
5887 -6 -35 -57 -80 0
-5887 6 0
-5887 35 0
-5887 57 0
-5887 80 0
5888 -6 -38 -57 -77 0
-5888 6 0
-5888 38 0
-5888 57 0
-5888 77 0
5889 -9 -32 -45 -83 0
-5889 9 0
-5889 32 0
-5889 45 0
-5889 83 0
5890 -9 -35 -45 -80 0
-5890 9 0
-5890 35 0
-5890 45 0
-5890 80 0
5891 -9 -38 -45 -77 0
-5891 9 0
-5891 38 0
-5891 45 0
-5891 77 0
5892 -12 -32 -42 -83 0
-5892 12 0
-5892 32 0
-5892 42 0
-5892 83 0
5893 -12 -35 -42 -80 0
-5893 12 0
-5893 35 0
-5893 42 0
-5893 80 0
5894 -12 -38 -42 -77 0
-5894 12 0
-5894 38 0
-5894 42 0
-5894 77 0
-5886 5887 5888 5889 5890 5891 5892 5893 5894 0
-5887 5886 5888 5889 5890 5891 5892 5893 5894 0
-5888 5886 5887 5889 5890 5891 5892 5893 5894 0
-5889 5886 5887 5888 5890 5891 5892 5893 5894 0
-5890 5886 5887 5888 5889 5891 5892 5893 5894 0
-5891 5886 5887 5888 5889 5890 5892 5893 5894 0
-5892 5886 5887 5888 5889 5890 5891 5893 5894 0
-5893 5886 5887 5888 5889 5890 5891 5892 5894 0
-5894 5886 5887 5888 5889 5890 5891 5892 5893 0
5895 -6 -32 -57 -84 0
-5895 6 0
-5895 32 0
-5895 57 0
-5895 84 0
5896 -6 -32 -63 -75 0
-5896 6 0
-5896 32 0
-5896 63 0
-5896 75 0
5897 -6 -32 -66 -72 0
-5897 6 0
-5897 32 0
-5897 66 0
-5897 72 0
5898 -9 -32 -45 -84 0
-5898 9 0
-5898 32 0
-5898 45 0
-5898 84 0
5899 -9 -32 -51 -75 0
-5899 9 0
-5899 32 0
-5899 51 0
-5899 75 0
5900 -9 -32 -54 -72 0
-5900 9 0
-5900 32 0
-5900 54 0
-5900 72 0
5901 -12 -32 -42 -84 0
-5901 12 0
-5901 32 0
-5901 42 0
-5901 84 0
5902 -12 -32 -51 -66 0
-5902 12 0
-5902 32 0
-5902 51 0
-5902 66 0
5903 -12 -32 -54 -63 0
-5903 12 0
-5903 32 0
-5903 54 0
-5903 63 0
5904 -18 -32 -42 -75 0
-5904 18 0
-5904 32 0
-5904 42 0
-5904 75 0
5905 -18 -32 -45 -66 0
-5905 18 0
-5905 32 0
-5905 45 0
-5905 66 0
5906 -18 -32 -54 -57 0
-5906 18 0
-5906 32 0
-5906 54 0
-5906 57 0
5907 -21 -32 -42 -72 0
-5907 21 0
-5907 32 0
-5907 42 0
-5907 72 0
5908 -21 -32 -45 -63 0
-5908 21 0
-5908 32 0
-5908 45 0
-5908 63 0
5909 -21 -32 -51 -57 0
-5909 21 0
-5909 32 0
-5909 51 0
-5909 57 0
-5895 5896 5897 5898 5899 5900 5901 5902 5903 5904 5905 5906 5907 5908 5909 0
-5896 5895 5897 5898 5899 5900 5901 5902 5903 5904 5905 5906 5907 5908 5909 0
-5897 5895 5896 5898 5899 5900 5901 5902 5903 5904 5905 5906 5907 5908 5909 0
-5898 5895 5896 5897 5899 5900 5901 5902 5903 5904 5905 5906 5907 5908 5909 0
-5899 5895 5896 5897 5898 5900 5901 5902 5903 5904 5905 5906 5907 5908 5909 0
-5900 5895 5896 5897 5898 5899 5901 5902 5903 5904 5905 5906 5907 5908 5909 0
-5901 5895 5896 5897 5898 5899 5900 5902 5903 5904 5905 5906 5907 5908 5909 0
-5902 5895 5896 5897 5898 5899 5900 5901 5903 5904 5905 5906 5907 5908 5909 0
-5903 5895 5896 5897 5898 5899 5900 5901 5902 5904 5905 5906 5907 5908 5909 0
-5904 5895 5896 5897 5898 5899 5900 5901 5902 5903 5905 5906 5907 5908 5909 0
-5905 5895 5896 5897 5898 5899 5900 5901 5902 5903 5904 5906 5907 5908 5909 0
-5906 5895 5896 5897 5898 5899 5900 5901 5902 5903 5904 5905 5907 5908 5909 0
-5907 5895 5896 5897 5898 5899 5900 5901 5902 5903 5904 5905 5906 5908 5909 0
-5908 5895 5896 5897 5898 5899 5900 5901 5902 5903 5904 5905 5906 5907 5909 0
-5909 5895 5896 5897 5898 5899 5900 5901 5902 5903 5904 5905 5906 5907 5908 0
5910 -4 -32 -61 -75 0
-5910 4 0
-5910 32 0
-5910 61 0
-5910 75 0
5911 -7 -32 -49 -75 0
-5911 7 0
-5911 32 0
-5911 49 0
-5911 75 0
5912 -16 -32 -40 -75 0
-5912 16 0
-5912 32 0
-5912 40 0
-5912 75 0
-5910 5911 5912 0
-5911 5910 5912 0
-5912 5910 5911 0
5913 -4 -32 -63 -73 0
-5913 4 0
-5913 32 0
-5913 63 0
-5913 73 0
5914 -10 -32 -52 -63 0
-5914 10 0
-5914 32 0
-5914 52 0
-5914 63 0
5915 -19 -32 -43 -63 0
-5915 19 0
-5915 32 0
-5915 43 0
-5915 63 0
-5913 5914 5915 0
-5914 5913 5915 0
-5915 5913 5914 0
5916 -4 -33 -61 -74 0
-5916 4 0
-5916 33 0
-5916 61 0
-5916 74 0
5917 -7 -33 -49 -74 0
-5917 7 0
-5917 33 0
-5917 49 0
-5917 74 0
5918 -16 -33 -40 -74 0
-5918 16 0
-5918 33 0
-5918 40 0
-5918 74 0
-5916 5917 5918 0
-5917 5916 5918 0
-5918 5916 5917 0
5919 -4 -33 -62 -73 0
-5919 4 0
-5919 33 0
-5919 62 0
-5919 73 0
5920 -10 -33 -52 -62 0
-5920 10 0
-5920 33 0
-5920 52 0
-5920 62 0
5921 -19 -33 -43 -62 0
-5921 19 0
-5921 33 0
-5921 43 0
-5921 62 0
-5919 5920 5921 0
-5920 5919 5921 0
-5921 5919 5920 0
5922 -5 -31 -62 -75 0
-5922 5 0
-5922 31 0
-5922 62 0
-5922 75 0
5923 -8 -31 -50 -75 0
-5923 8 0
-5923 31 0
-5923 50 0
-5923 75 0
5924 -17 -31 -41 -75 0
-5924 17 0
-5924 31 0
-5924 41 0
-5924 75 0
-5922 5923 5924 0
-5923 5922 5924 0
-5924 5922 5923 0
5925 -5 -31 -63 -74 0
-5925 5 0
-5925 31 0
-5925 63 0
-5925 74 0
5926 -11 -31 -53 -63 0
-5926 11 0
-5926 31 0
-5926 53 0
-5926 63 0
5927 -20 -31 -44 -63 0
-5927 20 0
-5927 31 0
-5927 44 0
-5927 63 0
-5925 5926 5927 0
-5926 5925 5927 0
-5927 5925 5926 0
5928 -5 -33 -61 -74 0
-5928 5 0
-5928 33 0
-5928 61 0
-5928 74 0
5929 -11 -33 -53 -61 0
-5929 11 0
-5929 33 0
-5929 53 0
-5929 61 0
5930 -20 -33 -44 -61 0
-5930 20 0
-5930 33 0
-5930 44 0
-5930 61 0
-5928 5929 5930 0
-5929 5928 5930 0
-5930 5928 5929 0
5931 -5 -33 -62 -73 0
-5931 5 0
-5931 33 0
-5931 62 0
-5931 73 0
5932 -8 -33 -50 -73 0
-5932 8 0
-5932 33 0
-5932 50 0
-5932 73 0
5933 -17 -33 -41 -73 0
-5933 17 0
-5933 33 0
-5933 41 0
-5933 73 0
-5931 5932 5933 0
-5932 5931 5933 0
-5933 5931 5932 0
5934 -6 -31 -62 -75 0
-5934 6 0
-5934 31 0
-5934 62 0
-5934 75 0
5935 -12 -31 -54 -62 0
-5935 12 0
-5935 31 0
-5935 54 0
-5935 62 0
5936 -21 -31 -45 -62 0
-5936 21 0
-5936 31 0
-5936 45 0
-5936 62 0
-5934 5935 5936 0
-5935 5934 5936 0
-5936 5934 5935 0
5937 -6 -31 -63 -74 0
-5937 6 0
-5937 31 0
-5937 63 0
-5937 74 0
5938 -9 -31 -51 -74 0
-5938 9 0
-5938 31 0
-5938 51 0
-5938 74 0
5939 -18 -31 -42 -74 0
-5939 18 0
-5939 31 0
-5939 42 0
-5939 74 0
-5937 5938 5939 0
-5938 5937 5939 0
-5939 5937 5938 0
5940 -6 -32 -61 -75 0
-5940 6 0
-5940 32 0
-5940 61 0
-5940 75 0
5941 -12 -32 -54 -61 0
-5941 12 0
-5941 32 0
-5941 54 0
-5941 61 0
5942 -21 -32 -45 -61 0
-5942 21 0
-5942 32 0
-5942 45 0
-5942 61 0
-5940 5941 5942 0
-5941 5940 5942 0
-5942 5940 5941 0
5943 -6 -32 -63 -73 0
-5943 6 0
-5943 32 0
-5943 63 0
-5943 73 0
5944 -9 -32 -51 -73 0
-5944 9 0
-5944 32 0
-5944 51 0
-5944 73 0
5945 -18 -32 -42 -73 0
-5945 18 0
-5945 32 0
-5945 42 0
-5945 73 0
-5943 5944 5945 0
-5944 5943 5945 0
-5945 5943 5944 0
5946 -4 -32 -64 -72 0
-5946 4 0
-5946 32 0
-5946 64 0
-5946 72 0
5947 -7 -32 -52 -72 0
-5947 7 0
-5947 32 0
-5947 52 0
-5947 72 0
5948 -19 -32 -40 -72 0
-5948 19 0
-5948 32 0
-5948 40 0
-5948 72 0
-5946 5947 5948 0
-5947 5946 5948 0
-5948 5946 5947 0
5949 -4 -32 -66 -70 0
-5949 4 0
-5949 32 0
-5949 66 0
-5949 70 0
5950 -10 -32 -49 -66 0
-5950 10 0
-5950 32 0
-5950 49 0
-5950 66 0
5951 -16 -32 -43 -66 0
-5951 16 0
-5951 32 0
-5951 43 0
-5951 66 0
-5949 5950 5951 0
-5950 5949 5951 0
-5951 5949 5950 0
5952 -4 -33 -64 -71 0
-5952 4 0
-5952 33 0
-5952 64 0
-5952 71 0
5953 -7 -33 -52 -71 0
-5953 7 0
-5953 33 0
-5953 52 0
-5953 71 0
5954 -19 -33 -40 -71 0
-5954 19 0
-5954 33 0
-5954 40 0
-5954 71 0
-5952 5953 5954 0
-5953 5952 5954 0
-5954 5952 5953 0
5955 -4 -33 -65 -70 0
-5955 4 0
-5955 33 0
-5955 65 0
-5955 70 0
5956 -10 -33 -49 -65 0
-5956 10 0
-5956 33 0
-5956 49 0
-5956 65 0
5957 -16 -33 -43 -65 0
-5957 16 0
-5957 33 0
-5957 43 0
-5957 65 0
-5955 5956 5957 0
-5956 5955 5957 0
-5957 5955 5956 0
5958 -5 -31 -65 -72 0
-5958 5 0
-5958 31 0
-5958 65 0
-5958 72 0
5959 -8 -31 -53 -72 0
-5959 8 0
-5959 31 0
-5959 53 0
-5959 72 0
5960 -20 -31 -41 -72 0
-5960 20 0
-5960 31 0
-5960 41 0
-5960 72 0
-5958 5959 5960 0
-5959 5958 5960 0
-5960 5958 5959 0
5961 -5 -31 -66 -71 0
-5961 5 0
-5961 31 0
-5961 66 0
-5961 71 0
5962 -11 -31 -50 -66 0
-5962 11 0
-5962 31 0
-5962 50 0
-5962 66 0
5963 -17 -31 -44 -66 0
-5963 17 0
-5963 31 0
-5963 44 0
-5963 66 0
-5961 5962 5963 0
-5962 5961 5963 0
-5963 5961 5962 0
5964 -5 -33 -64 -71 0
-5964 5 0
-5964 33 0
-5964 64 0
-5964 71 0
5965 -11 -33 -50 -64 0
-5965 11 0
-5965 33 0
-5965 50 0
-5965 64 0
5966 -17 -33 -44 -64 0
-5966 17 0
-5966 33 0
-5966 44 0
-5966 64 0
-5964 5965 5966 0
-5965 5964 5966 0
-5966 5964 5965 0
5967 -5 -33 -65 -70 0
-5967 5 0
-5967 33 0
-5967 65 0
-5967 70 0
5968 -8 -33 -53 -70 0
-5968 8 0
-5968 33 0
-5968 53 0
-5968 70 0
5969 -20 -33 -41 -70 0
-5969 20 0
-5969 33 0
-5969 41 0
-5969 70 0
-5967 5968 5969 0
-5968 5967 5969 0
-5969 5967 5968 0
5970 -6 -31 -65 -72 0
-5970 6 0
-5970 31 0
-5970 65 0
-5970 72 0
5971 -12 -31 -51 -65 0
-5971 12 0
-5971 31 0
-5971 51 0
-5971 65 0
5972 -18 -31 -45 -65 0
-5972 18 0
-5972 31 0
-5972 45 0
-5972 65 0
-5970 5971 5972 0
-5971 5970 5972 0
-5972 5970 5971 0
5973 -6 -31 -66 -71 0
-5973 6 0
-5973 31 0
-5973 66 0
-5973 71 0
5974 -9 -31 -54 -71 0
-5974 9 0
-5974 31 0
-5974 54 0
-5974 71 0
5975 -21 -31 -42 -71 0
-5975 21 0
-5975 31 0
-5975 42 0
-5975 71 0
-5973 5974 5975 0
-5974 5973 5975 0
-5975 5973 5974 0
5976 -6 -32 -64 -72 0
-5976 6 0
-5976 32 0
-5976 64 0
-5976 72 0
5977 -12 -32 -51 -64 0
-5977 12 0
-5977 32 0
-5977 51 0
-5977 64 0
5978 -18 -32 -45 -64 0
-5978 18 0
-5978 32 0
-5978 45 0
-5978 64 0
-5976 5977 5978 0
-5977 5976 5978 0
-5978 5976 5977 0
5979 -6 -32 -66 -70 0
-5979 6 0
-5979 32 0
-5979 66 0
-5979 70 0
5980 -9 -32 -54 -70 0
-5980 9 0
-5980 32 0
-5980 54 0
-5980 70 0
5981 -21 -32 -42 -70 0
-5981 21 0
-5981 32 0
-5981 42 0
-5981 70 0
-5979 5980 5981 0
-5980 5979 5981 0
-5981 5979 5980 0
5982 -4 -35 -55 -79 0
-5982 4 0
-5982 35 0
-5982 55 0
-5982 79 0
5983 -4 -35 -58 -73 0
-5983 4 0
-5983 35 0
-5983 58 0
-5983 73 0
5984 -4 -35 -64 -67 0
-5984 4 0
-5984 35 0
-5984 64 0
-5984 67 0
5985 -7 -35 -43 -79 0
-5985 7 0
-5985 35 0
-5985 43 0
-5985 79 0
5986 -7 -35 -46 -73 0
-5986 7 0
-5986 35 0
-5986 46 0
-5986 73 0
5987 -7 -35 -52 -67 0
-5987 7 0
-5987 35 0
-5987 52 0
-5987 67 0
5988 -10 -35 -40 -79 0
-5988 10 0
-5988 35 0
-5988 40 0
-5988 79 0
5989 -10 -35 -46 -64 0
-5989 10 0
-5989 35 0
-5989 46 0
-5989 64 0
5990 -10 -35 -52 -58 0
-5990 10 0
-5990 35 0
-5990 52 0
-5990 58 0
5991 -13 -35 -40 -73 0
-5991 13 0
-5991 35 0
-5991 40 0
-5991 73 0
5992 -13 -35 -43 -64 0
-5992 13 0
-5992 35 0
-5992 43 0
-5992 64 0
5993 -13 -35 -52 -55 0
-5993 13 0
-5993 35 0
-5993 52 0
-5993 55 0
5994 -19 -35 -40 -67 0
-5994 19 0
-5994 35 0
-5994 40 0
-5994 67 0
5995 -19 -35 -43 -58 0
-5995 19 0
-5995 35 0
-5995 43 0
-5995 58 0
5996 -19 -35 -46 -55 0
-5996 19 0
-5996 35 0
-5996 46 0
-5996 55 0
-5982 5983 5984 5985 5986 5987 5988 5989 5990 5991 5992 5993 5994 5995 5996 0
-5983 5982 5984 5985 5986 5987 5988 5989 5990 5991 5992 5993 5994 5995 5996 0
-5984 5982 5983 5985 5986 5987 5988 5989 5990 5991 5992 5993 5994 5995 5996 0
-5985 5982 5983 5984 5986 5987 5988 5989 5990 5991 5992 5993 5994 5995 5996 0
-5986 5982 5983 5984 5985 5987 5988 5989 5990 5991 5992 5993 5994 5995 5996 0
-5987 5982 5983 5984 5985 5986 5988 5989 5990 5991 5992 5993 5994 5995 5996 0
-5988 5982 5983 5984 5985 5986 5987 5989 5990 5991 5992 5993 5994 5995 5996 0
-5989 5982 5983 5984 5985 5986 5987 5988 5990 5991 5992 5993 5994 5995 5996 0
-5990 5982 5983 5984 5985 5986 5987 5988 5989 5991 5992 5993 5994 5995 5996 0
-5991 5982 5983 5984 5985 5986 5987 5988 5989 5990 5992 5993 5994 5995 5996 0
-5992 5982 5983 5984 5985 5986 5987 5988 5989 5990 5991 5993 5994 5995 5996 0
-5993 5982 5983 5984 5985 5986 5987 5988 5989 5990 5991 5992 5994 5995 5996 0
-5994 5982 5983 5984 5985 5986 5987 5988 5989 5990 5991 5992 5993 5995 5996 0
-5995 5982 5983 5984 5985 5986 5987 5988 5989 5990 5991 5992 5993 5994 5996 0
-5996 5982 5983 5984 5985 5986 5987 5988 5989 5990 5991 5992 5993 5994 5995 0
5997 -4 -35 -55 -81 0
-5997 4 0
-5997 35 0
-5997 55 0
-5997 81 0
5998 -7 -35 -43 -81 0
-5998 7 0
-5998 35 0
-5998 43 0
-5998 81 0
5999 -10 -35 -40 -81 0
-5999 10 0
-5999 35 0
-5999 40 0
-5999 81 0
-5997 5998 5999 0
-5998 5997 5999 0
-5999 5997 5998 0
6000 -4 -35 -57 -79 0
-6000 4 0
-6000 35 0
-6000 57 0
-6000 79 0
6001 -13 -35 -52 -57 0
-6001 13 0
-6001 35 0
-6001 52 0
-6001 57 0
6002 -19 -35 -46 -57 0
-6002 19 0
-6002 35 0
-6002 46 0
-6002 57 0
-6000 6001 6002 0
-6001 6000 6002 0
-6002 6000 6001 0
6003 -4 -35 -57 -81 0
-6003 4 0
-6003 35 0
-6003 57 0
-6003 81 0
6004 -4 -35 -60 -75 0
-6004 4 0
-6004 35 0
-6004 60 0
-6004 75 0
6005 -4 -35 -66 -69 0
-6005 4 0
-6005 35 0
-6005 66 0
-6005 69 0
-6003 6004 6005 0
-6004 6003 6005 0
-6005 6003 6004 0
6006 -4 -36 -55 -79 0
-6006 4 0
-6006 36 0
-6006 55 0
-6006 79 0
6007 -4 -36 -58 -73 0
-6007 4 0
-6007 36 0
-6007 58 0
-6007 73 0
6008 -4 -36 -64 -67 0
-6008 4 0
-6008 36 0
-6008 64 0
-6008 67 0
6009 -7 -36 -43 -79 0
-6009 7 0
-6009 36 0
-6009 43 0
-6009 79 0
6010 -7 -36 -46 -73 0
-6010 7 0
-6010 36 0
-6010 46 0
-6010 73 0
6011 -7 -36 -52 -67 0
-6011 7 0
-6011 36 0
-6011 52 0
-6011 67 0
6012 -10 -36 -40 -79 0
-6012 10 0
-6012 36 0
-6012 40 0
-6012 79 0
6013 -10 -36 -46 -64 0
-6013 10 0
-6013 36 0
-6013 46 0
-6013 64 0
6014 -10 -36 -52 -58 0
-6014 10 0
-6014 36 0
-6014 52 0
-6014 58 0
6015 -13 -36 -40 -73 0
-6015 13 0
-6015 36 0
-6015 40 0
-6015 73 0
6016 -13 -36 -43 -64 0
-6016 13 0
-6016 36 0
-6016 43 0
-6016 64 0
6017 -13 -36 -52 -55 0
-6017 13 0
-6017 36 0
-6017 52 0
-6017 55 0
6018 -19 -36 -40 -67 0
-6018 19 0
-6018 36 0
-6018 40 0
-6018 67 0
6019 -19 -36 -43 -58 0
-6019 19 0
-6019 36 0
-6019 43 0
-6019 58 0
6020 -19 -36 -46 -55 0
-6020 19 0
-6020 36 0
-6020 46 0
-6020 55 0
-6006 6007 6008 6009 6010 6011 6012 6013 6014 6015 6016 6017 6018 6019 6020 0
-6007 6006 6008 6009 6010 6011 6012 6013 6014 6015 6016 6017 6018 6019 6020 0
-6008 6006 6007 6009 6010 6011 6012 6013 6014 6015 6016 6017 6018 6019 6020 0
-6009 6006 6007 6008 6010 6011 6012 6013 6014 6015 6016 6017 6018 6019 6020 0
-6010 6006 6007 6008 6009 6011 6012 6013 6014 6015 6016 6017 6018 6019 6020 0
-6011 6006 6007 6008 6009 6010 6012 6013 6014 6015 6016 6017 6018 6019 6020 0
-6012 6006 6007 6008 6009 6010 6011 6013 6014 6015 6016 6017 6018 6019 6020 0
-6013 6006 6007 6008 6009 6010 6011 6012 6014 6015 6016 6017 6018 6019 6020 0
-6014 6006 6007 6008 6009 6010 6011 6012 6013 6015 6016 6017 6018 6019 6020 0
-6015 6006 6007 6008 6009 6010 6011 6012 6013 6014 6016 6017 6018 6019 6020 0
-6016 6006 6007 6008 6009 6010 6011 6012 6013 6014 6015 6017 6018 6019 6020 0
-6017 6006 6007 6008 6009 6010 6011 6012 6013 6014 6015 6016 6018 6019 6020 0
-6018 6006 6007 6008 6009 6010 6011 6012 6013 6014 6015 6016 6017 6019 6020 0
-6019 6006 6007 6008 6009 6010 6011 6012 6013 6014 6015 6016 6017 6018 6020 0
-6020 6006 6007 6008 6009 6010 6011 6012 6013 6014 6015 6016 6017 6018 6019 0
6021 -4 -36 -55 -80 0
-6021 4 0
-6021 36 0
-6021 55 0
-6021 80 0
6022 -7 -36 -43 -80 0
-6022 7 0
-6022 36 0
-6022 43 0
-6022 80 0
6023 -10 -36 -40 -80 0
-6023 10 0
-6023 36 0
-6023 40 0
-6023 80 0
-6021 6022 6023 0
-6022 6021 6023 0
-6023 6021 6022 0
6024 -4 -36 -56 -79 0
-6024 4 0
-6024 36 0
-6024 56 0
-6024 79 0
6025 -13 -36 -52 -56 0
-6025 13 0
-6025 36 0
-6025 52 0
-6025 56 0
6026 -19 -36 -46 -56 0
-6026 19 0
-6026 36 0
-6026 46 0
-6026 56 0
-6024 6025 6026 0
-6025 6024 6026 0
-6026 6024 6025 0
6027 -4 -36 -56 -80 0
-6027 4 0
-6027 36 0
-6027 56 0
-6027 80 0
6028 -4 -36 -59 -74 0
-6028 4 0
-6028 36 0
-6028 59 0
-6028 74 0
6029 -4 -36 -65 -68 0
-6029 4 0
-6029 36 0
-6029 65 0
-6029 68 0
-6027 6028 6029 0
-6028 6027 6029 0
-6029 6027 6028 0
6030 -5 -34 -56 -80 0
-6030 5 0
-6030 34 0
-6030 56 0
-6030 80 0
6031 -5 -34 -59 -74 0
-6031 5 0
-6031 34 0
-6031 59 0
-6031 74 0
6032 -5 -34 -65 -68 0
-6032 5 0
-6032 34 0
-6032 65 0
-6032 68 0
6033 -8 -34 -44 -80 0
-6033 8 0
-6033 34 0
-6033 44 0
-6033 80 0
6034 -8 -34 -47 -74 0
-6034 8 0
-6034 34 0
-6034 47 0
-6034 74 0
6035 -8 -34 -53 -68 0
-6035 8 0
-6035 34 0
-6035 53 0
-6035 68 0
6036 -11 -34 -41 -80 0
-6036 11 0
-6036 34 0
-6036 41 0
-6036 80 0
6037 -11 -34 -47 -65 0
-6037 11 0
-6037 34 0
-6037 47 0
-6037 65 0
6038 -11 -34 -53 -59 0
-6038 11 0
-6038 34 0
-6038 53 0
-6038 59 0
6039 -14 -34 -41 -74 0
-6039 14 0
-6039 34 0
-6039 41 0
-6039 74 0
6040 -14 -34 -44 -65 0
-6040 14 0
-6040 34 0
-6040 44 0
-6040 65 0
6041 -14 -34 -53 -56 0
-6041 14 0
-6041 34 0
-6041 53 0
-6041 56 0
6042 -20 -34 -41 -68 0
-6042 20 0
-6042 34 0
-6042 41 0
-6042 68 0
6043 -20 -34 -44 -59 0
-6043 20 0
-6043 34 0
-6043 44 0
-6043 59 0
6044 -20 -34 -47 -56 0
-6044 20 0
-6044 34 0
-6044 47 0
-6044 56 0
-6030 6031 6032 6033 6034 6035 6036 6037 6038 6039 6040 6041 6042 6043 6044 0
-6031 6030 6032 6033 6034 6035 6036 6037 6038 6039 6040 6041 6042 6043 6044 0
-6032 6030 6031 6033 6034 6035 6036 6037 6038 6039 6040 6041 6042 6043 6044 0
-6033 6030 6031 6032 6034 6035 6036 6037 6038 6039 6040 6041 6042 6043 6044 0
-6034 6030 6031 6032 6033 6035 6036 6037 6038 6039 6040 6041 6042 6043 6044 0
-6035 6030 6031 6032 6033 6034 6036 6037 6038 6039 6040 6041 6042 6043 6044 0
-6036 6030 6031 6032 6033 6034 6035 6037 6038 6039 6040 6041 6042 6043 6044 0
-6037 6030 6031 6032 6033 6034 6035 6036 6038 6039 6040 6041 6042 6043 6044 0
-6038 6030 6031 6032 6033 6034 6035 6036 6037 6039 6040 6041 6042 6043 6044 0
-6039 6030 6031 6032 6033 6034 6035 6036 6037 6038 6040 6041 6042 6043 6044 0
-6040 6030 6031 6032 6033 6034 6035 6036 6037 6038 6039 6041 6042 6043 6044 0
-6041 6030 6031 6032 6033 6034 6035 6036 6037 6038 6039 6040 6042 6043 6044 0
-6042 6030 6031 6032 6033 6034 6035 6036 6037 6038 6039 6040 6041 6043 6044 0
-6043 6030 6031 6032 6033 6034 6035 6036 6037 6038 6039 6040 6041 6042 6044 0
-6044 6030 6031 6032 6033 6034 6035 6036 6037 6038 6039 6040 6041 6042 6043 0
6045 -5 -34 -56 -81 0
-6045 5 0
-6045 34 0
-6045 56 0
-6045 81 0
6046 -8 -34 -44 -81 0
-6046 8 0
-6046 34 0
-6046 44 0
-6046 81 0
6047 -11 -34 -41 -81 0
-6047 11 0
-6047 34 0
-6047 41 0
-6047 81 0
-6045 6046 6047 0
-6046 6045 6047 0
-6047 6045 6046 0
6048 -5 -34 -57 -80 0
-6048 5 0
-6048 34 0
-6048 57 0
-6048 80 0
6049 -14 -34 -53 -57 0
-6049 14 0
-6049 34 0
-6049 53 0
-6049 57 0
6050 -20 -34 -47 -57 0
-6050 20 0
-6050 34 0
-6050 47 0
-6050 57 0
-6048 6049 6050 0
-6049 6048 6050 0
-6050 6048 6049 0
6051 -5 -34 -57 -81 0
-6051 5 0
-6051 34 0
-6051 57 0
-6051 81 0
6052 -5 -34 -60 -75 0
-6052 5 0
-6052 34 0
-6052 60 0
-6052 75 0
6053 -5 -34 -66 -69 0
-6053 5 0
-6053 34 0
-6053 66 0
-6053 69 0
-6051 6052 6053 0
-6052 6051 6053 0
-6053 6051 6052 0
6054 -5 -36 -55 -79 0
-6054 5 0
-6054 36 0
-6054 55 0
-6054 79 0
6055 -5 -36 -58 -73 0
-6055 5 0
-6055 36 0
-6055 58 0
-6055 73 0
6056 -5 -36 -64 -67 0
-6056 5 0
-6056 36 0
-6056 64 0
-6056 67 0
-6054 6055 6056 0
-6055 6054 6056 0
-6056 6054 6055 0
6057 -5 -36 -55 -80 0
-6057 5 0
-6057 36 0
-6057 55 0
-6057 80 0
6058 -14 -36 -53 -55 0
-6058 14 0
-6058 36 0
-6058 53 0
-6058 55 0
6059 -20 -36 -47 -55 0
-6059 20 0
-6059 36 0
-6059 47 0
-6059 55 0
-6057 6058 6059 0
-6058 6057 6059 0
-6059 6057 6058 0
6060 -5 -36 -56 -79 0
-6060 5 0
-6060 36 0
-6060 56 0
-6060 79 0
6061 -8 -36 -44 -79 0
-6061 8 0
-6061 36 0
-6061 44 0
-6061 79 0
6062 -11 -36 -41 -79 0
-6062 11 0
-6062 36 0
-6062 41 0
-6062 79 0
-6060 6061 6062 0
-6061 6060 6062 0
-6062 6060 6061 0
6063 -5 -36 -56 -80 0
-6063 5 0
-6063 36 0
-6063 56 0
-6063 80 0
6064 -5 -36 -59 -74 0
-6064 5 0
-6064 36 0
-6064 59 0
-6064 74 0
6065 -5 -36 -65 -68 0
-6065 5 0
-6065 36 0
-6065 65 0
-6065 68 0
6066 -8 -36 -44 -80 0
-6066 8 0
-6066 36 0
-6066 44 0
-6066 80 0
6067 -8 -36 -47 -74 0
-6067 8 0
-6067 36 0
-6067 47 0
-6067 74 0
6068 -8 -36 -53 -68 0
-6068 8 0
-6068 36 0
-6068 53 0
-6068 68 0
6069 -11 -36 -41 -80 0
-6069 11 0
-6069 36 0
-6069 41 0
-6069 80 0
6070 -11 -36 -47 -65 0
-6070 11 0
-6070 36 0
-6070 47 0
-6070 65 0
6071 -11 -36 -53 -59 0
-6071 11 0
-6071 36 0
-6071 53 0
-6071 59 0
6072 -14 -36 -41 -74 0
-6072 14 0
-6072 36 0
-6072 41 0
-6072 74 0
6073 -14 -36 -44 -65 0
-6073 14 0
-6073 36 0
-6073 44 0
-6073 65 0
6074 -14 -36 -53 -56 0
-6074 14 0
-6074 36 0
-6074 53 0
-6074 56 0
6075 -20 -36 -41 -68 0
-6075 20 0
-6075 36 0
-6075 41 0
-6075 68 0
6076 -20 -36 -44 -59 0
-6076 20 0
-6076 36 0
-6076 44 0
-6076 59 0
6077 -20 -36 -47 -56 0
-6077 20 0
-6077 36 0
-6077 47 0
-6077 56 0
-6063 6064 6065 6066 6067 6068 6069 6070 6071 6072 6073 6074 6075 6076 6077 0
-6064 6063 6065 6066 6067 6068 6069 6070 6071 6072 6073 6074 6075 6076 6077 0
-6065 6063 6064 6066 6067 6068 6069 6070 6071 6072 6073 6074 6075 6076 6077 0
-6066 6063 6064 6065 6067 6068 6069 6070 6071 6072 6073 6074 6075 6076 6077 0
-6067 6063 6064 6065 6066 6068 6069 6070 6071 6072 6073 6074 6075 6076 6077 0
-6068 6063 6064 6065 6066 6067 6069 6070 6071 6072 6073 6074 6075 6076 6077 0
-6069 6063 6064 6065 6066 6067 6068 6070 6071 6072 6073 6074 6075 6076 6077 0
-6070 6063 6064 6065 6066 6067 6068 6069 6071 6072 6073 6074 6075 6076 6077 0
-6071 6063 6064 6065 6066 6067 6068 6069 6070 6072 6073 6074 6075 6076 6077 0
-6072 6063 6064 6065 6066 6067 6068 6069 6070 6071 6073 6074 6075 6076 6077 0
-6073 6063 6064 6065 6066 6067 6068 6069 6070 6071 6072 6074 6075 6076 6077 0
-6074 6063 6064 6065 6066 6067 6068 6069 6070 6071 6072 6073 6075 6076 6077 0
-6075 6063 6064 6065 6066 6067 6068 6069 6070 6071 6072 6073 6074 6076 6077 0
-6076 6063 6064 6065 6066 6067 6068 6069 6070 6071 6072 6073 6074 6075 6077 0
-6077 6063 6064 6065 6066 6067 6068 6069 6070 6071 6072 6073 6074 6075 6076 0
6078 -6 -34 -56 -80 0
-6078 6 0
-6078 34 0
-6078 56 0
-6078 80 0
6079 -6 -34 -59 -74 0
-6079 6 0
-6079 34 0
-6079 59 0
-6079 74 0
6080 -6 -34 -65 -68 0
-6080 6 0
-6080 34 0
-6080 65 0
-6080 68 0
-6078 6079 6080 0
-6079 6078 6080 0
-6080 6078 6079 0
6081 -6 -34 -56 -81 0
-6081 6 0
-6081 34 0
-6081 56 0
-6081 81 0
6082 -15 -34 -54 -56 0
-6082 15 0
-6082 34 0
-6082 54 0
-6082 56 0
6083 -21 -34 -48 -56 0
-6083 21 0
-6083 34 0
-6083 48 0
-6083 56 0
-6081 6082 6083 0
-6082 6081 6083 0
-6083 6081 6082 0
6084 -6 -34 -57 -80 0
-6084 6 0
-6084 34 0
-6084 57 0
-6084 80 0
6085 -9 -34 -45 -80 0
-6085 9 0
-6085 34 0
-6085 45 0
-6085 80 0
6086 -12 -34 -42 -80 0
-6086 12 0
-6086 34 0
-6086 42 0
-6086 80 0
-6084 6085 6086 0
-6085 6084 6086 0
-6086 6084 6085 0
6087 -6 -34 -57 -81 0
-6087 6 0
-6087 34 0
-6087 57 0
-6087 81 0
6088 -6 -34 -60 -75 0
-6088 6 0
-6088 34 0
-6088 60 0
-6088 75 0
6089 -6 -34 -66 -69 0
-6089 6 0
-6089 34 0
-6089 66 0
-6089 69 0
6090 -9 -34 -45 -81 0
-6090 9 0
-6090 34 0
-6090 45 0
-6090 81 0
6091 -9 -34 -48 -75 0
-6091 9 0
-6091 34 0
-6091 48 0
-6091 75 0
6092 -9 -34 -54 -69 0
-6092 9 0
-6092 34 0
-6092 54 0
-6092 69 0
6093 -12 -34 -42 -81 0
-6093 12 0
-6093 34 0
-6093 42 0
-6093 81 0
6094 -12 -34 -48 -66 0
-6094 12 0
-6094 34 0
-6094 48 0
-6094 66 0
6095 -12 -34 -54 -60 0
-6095 12 0
-6095 34 0
-6095 54 0
-6095 60 0
6096 -15 -34 -42 -75 0
-6096 15 0
-6096 34 0
-6096 42 0
-6096 75 0
6097 -15 -34 -45 -66 0
-6097 15 0
-6097 34 0
-6097 45 0
-6097 66 0
6098 -15 -34 -54 -57 0
-6098 15 0
-6098 34 0
-6098 54 0
-6098 57 0
6099 -21 -34 -42 -69 0
-6099 21 0
-6099 34 0
-6099 42 0
-6099 69 0
6100 -21 -34 -45 -60 0
-6100 21 0
-6100 34 0
-6100 45 0
-6100 60 0
6101 -21 -34 -48 -57 0
-6101 21 0
-6101 34 0
-6101 48 0
-6101 57 0
-6087 6088 6089 6090 6091 6092 6093 6094 6095 6096 6097 6098 6099 6100 6101 0
-6088 6087 6089 6090 6091 6092 6093 6094 6095 6096 6097 6098 6099 6100 6101 0
-6089 6087 6088 6090 6091 6092 6093 6094 6095 6096 6097 6098 6099 6100 6101 0
-6090 6087 6088 6089 6091 6092 6093 6094 6095 6096 6097 6098 6099 6100 6101 0
-6091 6087 6088 6089 6090 6092 6093 6094 6095 6096 6097 6098 6099 6100 6101 0
-6092 6087 6088 6089 6090 6091 6093 6094 6095 6096 6097 6098 6099 6100 6101 0
-6093 6087 6088 6089 6090 6091 6092 6094 6095 6096 6097 6098 6099 6100 6101 0
-6094 6087 6088 6089 6090 6091 6092 6093 6095 6096 6097 6098 6099 6100 6101 0
-6095 6087 6088 6089 6090 6091 6092 6093 6094 6096 6097 6098 6099 6100 6101 0
-6096 6087 6088 6089 6090 6091 6092 6093 6094 6095 6097 6098 6099 6100 6101 0
-6097 6087 6088 6089 6090 6091 6092 6093 6094 6095 6096 6098 6099 6100 6101 0
-6098 6087 6088 6089 6090 6091 6092 6093 6094 6095 6096 6097 6099 6100 6101 0
-6099 6087 6088 6089 6090 6091 6092 6093 6094 6095 6096 6097 6098 6100 6101 0
-6100 6087 6088 6089 6090 6091 6092 6093 6094 6095 6096 6097 6098 6099 6101 0
-6101 6087 6088 6089 6090 6091 6092 6093 6094 6095 6096 6097 6098 6099 6100 0
6102 -6 -35 -55 -79 0
-6102 6 0
-6102 35 0
-6102 55 0
-6102 79 0
6103 -6 -35 -58 -73 0
-6103 6 0
-6103 35 0
-6103 58 0
-6103 73 0
6104 -6 -35 -64 -67 0
-6104 6 0
-6104 35 0
-6104 64 0
-6104 67 0
-6102 6103 6104 0
-6103 6102 6104 0
-6104 6102 6103 0
6105 -6 -35 -55 -81 0
-6105 6 0
-6105 35 0
-6105 55 0
-6105 81 0
6106 -15 -35 -54 -55 0
-6106 15 0
-6106 35 0
-6106 54 0
-6106 55 0
6107 -21 -35 -48 -55 0
-6107 21 0
-6107 35 0
-6107 48 0
-6107 55 0
-6105 6106 6107 0
-6106 6105 6107 0
-6107 6105 6106 0
6108 -6 -35 -57 -79 0
-6108 6 0
-6108 35 0
-6108 57 0
-6108 79 0
6109 -9 -35 -45 -79 0
-6109 9 0
-6109 35 0
-6109 45 0
-6109 79 0
6110 -12 -35 -42 -79 0
-6110 12 0
-6110 35 0
-6110 42 0
-6110 79 0
-6108 6109 6110 0
-6109 6108 6110 0
-6110 6108 6109 0
6111 -6 -35 -57 -81 0
-6111 6 0
-6111 35 0
-6111 57 0
-6111 81 0
6112 -6 -35 -60 -75 0
-6112 6 0
-6112 35 0
-6112 60 0
-6112 75 0
6113 -6 -35 -66 -69 0
-6113 6 0
-6113 35 0
-6113 66 0
-6113 69 0
6114 -9 -35 -45 -81 0
-6114 9 0
-6114 35 0
-6114 45 0
-6114 81 0
6115 -9 -35 -48 -75 0
-6115 9 0
-6115 35 0
-6115 48 0
-6115 75 0
6116 -9 -35 -54 -69 0
-6116 9 0
-6116 35 0
-6116 54 0
-6116 69 0
6117 -12 -35 -42 -81 0
-6117 12 0
-6117 35 0
-6117 42 0
-6117 81 0
6118 -12 -35 -48 -66 0
-6118 12 0
-6118 35 0
-6118 48 0
-6118 66 0
6119 -12 -35 -54 -60 0
-6119 12 0
-6119 35 0
-6119 54 0
-6119 60 0
6120 -15 -35 -42 -75 0
-6120 15 0
-6120 35 0
-6120 42 0
-6120 75 0
6121 -15 -35 -45 -66 0
-6121 15 0
-6121 35 0
-6121 45 0
-6121 66 0
6122 -15 -35 -54 -57 0
-6122 15 0
-6122 35 0
-6122 54 0
-6122 57 0
6123 -21 -35 -42 -69 0
-6123 21 0
-6123 35 0
-6123 42 0
-6123 69 0
6124 -21 -35 -45 -60 0
-6124 21 0
-6124 35 0
-6124 45 0
-6124 60 0
6125 -21 -35 -48 -57 0
-6125 21 0
-6125 35 0
-6125 48 0
-6125 57 0
-6111 6112 6113 6114 6115 6116 6117 6118 6119 6120 6121 6122 6123 6124 6125 0
-6112 6111 6113 6114 6115 6116 6117 6118 6119 6120 6121 6122 6123 6124 6125 0
-6113 6111 6112 6114 6115 6116 6117 6118 6119 6120 6121 6122 6123 6124 6125 0
-6114 6111 6112 6113 6115 6116 6117 6118 6119 6120 6121 6122 6123 6124 6125 0
-6115 6111 6112 6113 6114 6116 6117 6118 6119 6120 6121 6122 6123 6124 6125 0
-6116 6111 6112 6113 6114 6115 6117 6118 6119 6120 6121 6122 6123 6124 6125 0
-6117 6111 6112 6113 6114 6115 6116 6118 6119 6120 6121 6122 6123 6124 6125 0
-6118 6111 6112 6113 6114 6115 6116 6117 6119 6120 6121 6122 6123 6124 6125 0
-6119 6111 6112 6113 6114 6115 6116 6117 6118 6120 6121 6122 6123 6124 6125 0
-6120 6111 6112 6113 6114 6115 6116 6117 6118 6119 6121 6122 6123 6124 6125 0
-6121 6111 6112 6113 6114 6115 6116 6117 6118 6119 6120 6122 6123 6124 6125 0
-6122 6111 6112 6113 6114 6115 6116 6117 6118 6119 6120 6121 6123 6124 6125 0
-6123 6111 6112 6113 6114 6115 6116 6117 6118 6119 6120 6121 6122 6124 6125 0
-6124 6111 6112 6113 6114 6115 6116 6117 6118 6119 6120 6121 6122 6123 6125 0
-6125 6111 6112 6113 6114 6115 6116 6117 6118 6119 6120 6121 6122 6123 6124 0
6126 -4 -35 -58 -75 0
-6126 4 0
-6126 35 0
-6126 58 0
-6126 75 0
6127 -7 -35 -46 -75 0
-6127 7 0
-6127 35 0
-6127 46 0
-6127 75 0
6128 -13 -35 -40 -75 0
-6128 13 0
-6128 35 0
-6128 40 0
-6128 75 0
-6126 6127 6128 0
-6127 6126 6128 0
-6128 6126 6127 0
6129 -4 -35 -60 -73 0
-6129 4 0
-6129 35 0
-6129 60 0
-6129 73 0
6130 -10 -35 -52 -60 0
-6130 10 0
-6130 35 0
-6130 52 0
-6130 60 0
6131 -19 -35 -43 -60 0
-6131 19 0
-6131 35 0
-6131 43 0
-6131 60 0
-6129 6130 6131 0
-6130 6129 6131 0
-6131 6129 6130 0
6132 -4 -36 -58 -74 0
-6132 4 0
-6132 36 0
-6132 58 0
-6132 74 0
6133 -7 -36 -46 -74 0
-6133 7 0
-6133 36 0
-6133 46 0
-6133 74 0
6134 -13 -36 -40 -74 0
-6134 13 0
-6134 36 0
-6134 40 0
-6134 74 0
-6132 6133 6134 0
-6133 6132 6134 0
-6134 6132 6133 0
6135 -4 -36 -59 -73 0
-6135 4 0
-6135 36 0
-6135 59 0
-6135 73 0
6136 -10 -36 -52 -59 0
-6136 10 0
-6136 36 0
-6136 52 0
-6136 59 0
6137 -19 -36 -43 -59 0
-6137 19 0
-6137 36 0
-6137 43 0
-6137 59 0
-6135 6136 6137 0
-6136 6135 6137 0
-6137 6135 6136 0
6138 -5 -34 -59 -75 0
-6138 5 0
-6138 34 0
-6138 59 0
-6138 75 0
6139 -8 -34 -47 -75 0
-6139 8 0
-6139 34 0
-6139 47 0
-6139 75 0
6140 -14 -34 -41 -75 0
-6140 14 0
-6140 34 0
-6140 41 0
-6140 75 0
-6138 6139 6140 0
-6139 6138 6140 0
-6140 6138 6139 0
6141 -5 -34 -60 -74 0
-6141 5 0
-6141 34 0
-6141 60 0
-6141 74 0
6142 -11 -34 -53 -60 0
-6142 11 0
-6142 34 0
-6142 53 0
-6142 60 0
6143 -20 -34 -44 -60 0
-6143 20 0
-6143 34 0
-6143 44 0
-6143 60 0
-6141 6142 6143 0
-6142 6141 6143 0
-6143 6141 6142 0
6144 -5 -36 -58 -74 0
-6144 5 0
-6144 36 0
-6144 58 0
-6144 74 0
6145 -11 -36 -53 -58 0
-6145 11 0
-6145 36 0
-6145 53 0
-6145 58 0
6146 -20 -36 -44 -58 0
-6146 20 0
-6146 36 0
-6146 44 0
-6146 58 0
-6144 6145 6146 0
-6145 6144 6146 0
-6146 6144 6145 0
6147 -5 -36 -59 -73 0
-6147 5 0
-6147 36 0
-6147 59 0
-6147 73 0
6148 -8 -36 -47 -73 0
-6148 8 0
-6148 36 0
-6148 47 0
-6148 73 0
6149 -14 -36 -41 -73 0
-6149 14 0
-6149 36 0
-6149 41 0
-6149 73 0
-6147 6148 6149 0
-6148 6147 6149 0
-6149 6147 6148 0
6150 -6 -34 -59 -75 0
-6150 6 0
-6150 34 0
-6150 59 0
-6150 75 0
6151 -12 -34 -54 -59 0
-6151 12 0
-6151 34 0
-6151 54 0
-6151 59 0
6152 -21 -34 -45 -59 0
-6152 21 0
-6152 34 0
-6152 45 0
-6152 59 0
-6150 6151 6152 0
-6151 6150 6152 0
-6152 6150 6151 0
6153 -6 -34 -60 -74 0
-6153 6 0
-6153 34 0
-6153 60 0
-6153 74 0
6154 -9 -34 -48 -74 0
-6154 9 0
-6154 34 0
-6154 48 0
-6154 74 0
6155 -15 -34 -42 -74 0
-6155 15 0
-6155 34 0
-6155 42 0
-6155 74 0
-6153 6154 6155 0
-6154 6153 6155 0
-6155 6153 6154 0
6156 -6 -35 -58 -75 0
-6156 6 0
-6156 35 0
-6156 58 0
-6156 75 0
6157 -12 -35 -54 -58 0
-6157 12 0
-6157 35 0
-6157 54 0
-6157 58 0
6158 -21 -35 -45 -58 0
-6158 21 0
-6158 35 0
-6158 45 0
-6158 58 0
-6156 6157 6158 0
-6157 6156 6158 0
-6158 6156 6157 0
6159 -6 -35 -60 -73 0
-6159 6 0
-6159 35 0
-6159 60 0
-6159 73 0
6160 -9 -35 -48 -73 0
-6160 9 0
-6160 35 0
-6160 48 0
-6160 73 0
6161 -15 -35 -42 -73 0
-6161 15 0
-6161 35 0
-6161 42 0
-6161 73 0
-6159 6160 6161 0
-6160 6159 6161 0
-6161 6159 6160 0
6162 -4 -35 -64 -69 0
-6162 4 0
-6162 35 0
-6162 64 0
-6162 69 0
6163 -7 -35 -52 -69 0
-6163 7 0
-6163 35 0
-6163 52 0
-6163 69 0
6164 -19 -35 -40 -69 0
-6164 19 0
-6164 35 0
-6164 40 0
-6164 69 0
-6162 6163 6164 0
-6163 6162 6164 0
-6164 6162 6163 0
6165 -4 -35 -66 -67 0
-6165 4 0
-6165 35 0
-6165 66 0
-6165 67 0
6166 -10 -35 -46 -66 0
-6166 10 0
-6166 35 0
-6166 46 0
-6166 66 0
6167 -13 -35 -43 -66 0
-6167 13 0
-6167 35 0
-6167 43 0
-6167 66 0
-6165 6166 6167 0
-6166 6165 6167 0
-6167 6165 6166 0
6168 -4 -36 -64 -68 0
-6168 4 0
-6168 36 0
-6168 64 0
-6168 68 0
6169 -7 -36 -52 -68 0
-6169 7 0
-6169 36 0
-6169 52 0
-6169 68 0
6170 -19 -36 -40 -68 0
-6170 19 0
-6170 36 0
-6170 40 0
-6170 68 0
-6168 6169 6170 0
-6169 6168 6170 0
-6170 6168 6169 0
6171 -4 -36 -65 -67 0
-6171 4 0
-6171 36 0
-6171 65 0
-6171 67 0
6172 -10 -36 -46 -65 0
-6172 10 0
-6172 36 0
-6172 46 0
-6172 65 0
6173 -13 -36 -43 -65 0
-6173 13 0
-6173 36 0
-6173 43 0
-6173 65 0
-6171 6172 6173 0
-6172 6171 6173 0
-6173 6171 6172 0
6174 -5 -34 -65 -69 0
-6174 5 0
-6174 34 0
-6174 65 0
-6174 69 0
6175 -8 -34 -53 -69 0
-6175 8 0
-6175 34 0
-6175 53 0
-6175 69 0
6176 -20 -34 -41 -69 0
-6176 20 0
-6176 34 0
-6176 41 0
-6176 69 0
-6174 6175 6176 0
-6175 6174 6176 0
-6176 6174 6175 0
6177 -5 -34 -66 -68 0
-6177 5 0
-6177 34 0
-6177 66 0
-6177 68 0
6178 -11 -34 -47 -66 0
-6178 11 0
-6178 34 0
-6178 47 0
-6178 66 0
6179 -14 -34 -44 -66 0
-6179 14 0
-6179 34 0
-6179 44 0
-6179 66 0
-6177 6178 6179 0
-6178 6177 6179 0
-6179 6177 6178 0
6180 -5 -36 -64 -68 0
-6180 5 0
-6180 36 0
-6180 64 0
-6180 68 0
6181 -11 -36 -47 -64 0
-6181 11 0
-6181 36 0
-6181 47 0
-6181 64 0
6182 -14 -36 -44 -64 0
-6182 14 0
-6182 36 0
-6182 44 0
-6182 64 0
-6180 6181 6182 0
-6181 6180 6182 0
-6182 6180 6181 0
6183 -5 -36 -65 -67 0
-6183 5 0
-6183 36 0
-6183 65 0
-6183 67 0
6184 -8 -36 -53 -67 0
-6184 8 0
-6184 36 0
-6184 53 0
-6184 67 0
6185 -20 -36 -41 -67 0
-6185 20 0
-6185 36 0
-6185 41 0
-6185 67 0
-6183 6184 6185 0
-6184 6183 6185 0
-6185 6183 6184 0
6186 -6 -34 -65 -69 0
-6186 6 0
-6186 34 0
-6186 65 0
-6186 69 0
6187 -12 -34 -48 -65 0
-6187 12 0
-6187 34 0
-6187 48 0
-6187 65 0
6188 -15 -34 -45 -65 0
-6188 15 0
-6188 34 0
-6188 45 0
-6188 65 0
-6186 6187 6188 0
-6187 6186 6188 0
-6188 6186 6187 0
6189 -6 -34 -66 -68 0
-6189 6 0
-6189 34 0
-6189 66 0
-6189 68 0
6190 -9 -34 -54 -68 0
-6190 9 0
-6190 34 0
-6190 54 0
-6190 68 0
6191 -21 -34 -42 -68 0
-6191 21 0
-6191 34 0
-6191 42 0
-6191 68 0
-6189 6190 6191 0
-6190 6189 6191 0
-6191 6189 6190 0
6192 -6 -35 -64 -69 0
-6192 6 0
-6192 35 0
-6192 64 0
-6192 69 0
6193 -12 -35 -48 -64 0
-6193 12 0
-6193 35 0
-6193 48 0
-6193 64 0
6194 -15 -35 -45 -64 0
-6194 15 0
-6194 35 0
-6194 45 0
-6194 64 0
-6192 6193 6194 0
-6193 6192 6194 0
-6194 6192 6193 0
6195 -6 -35 -66 -67 0
-6195 6 0
-6195 35 0
-6195 66 0
-6195 67 0
6196 -9 -35 -54 -67 0
-6196 9 0
-6196 35 0
-6196 54 0
-6196 67 0
6197 -21 -35 -42 -67 0
-6197 21 0
-6197 35 0
-6197 42 0
-6197 67 0
-6195 6196 6197 0
-6196 6195 6197 0
-6197 6195 6196 0
6198 -4 -38 -55 -76 0
-6198 4 0
-6198 38 0
-6198 55 0
-6198 76 0
6199 -4 -38 -58 -70 0
-6199 4 0
-6199 38 0
-6199 58 0
-6199 70 0
6200 -4 -38 -61 -67 0
-6200 4 0
-6200 38 0
-6200 61 0
-6200 67 0
6201 -7 -38 -43 -76 0
-6201 7 0
-6201 38 0
-6201 43 0
-6201 76 0
6202 -7 -38 -46 -70 0
-6202 7 0
-6202 38 0
-6202 46 0
-6202 70 0
6203 -7 -38 -49 -67 0
-6203 7 0
-6203 38 0
-6203 49 0
-6203 67 0
6204 -10 -38 -40 -76 0
-6204 10 0
-6204 38 0
-6204 40 0
-6204 76 0
6205 -10 -38 -46 -61 0
-6205 10 0
-6205 38 0
-6205 46 0
-6205 61 0
6206 -10 -38 -49 -58 0
-6206 10 0
-6206 38 0
-6206 49 0
-6206 58 0
6207 -13 -38 -40 -70 0
-6207 13 0
-6207 38 0
-6207 40 0
-6207 70 0
6208 -13 -38 -43 -61 0
-6208 13 0
-6208 38 0
-6208 43 0
-6208 61 0
6209 -13 -38 -49 -55 0
-6209 13 0
-6209 38 0
-6209 49 0
-6209 55 0
6210 -16 -38 -40 -67 0
-6210 16 0
-6210 38 0
-6210 40 0
-6210 67 0
6211 -16 -38 -43 -58 0
-6211 16 0
-6211 38 0
-6211 43 0
-6211 58 0
6212 -16 -38 -46 -55 0
-6212 16 0
-6212 38 0
-6212 46 0
-6212 55 0
-6198 6199 6200 6201 6202 6203 6204 6205 6206 6207 6208 6209 6210 6211 6212 0
-6199 6198 6200 6201 6202 6203 6204 6205 6206 6207 6208 6209 6210 6211 6212 0
-6200 6198 6199 6201 6202 6203 6204 6205 6206 6207 6208 6209 6210 6211 6212 0
-6201 6198 6199 6200 6202 6203 6204 6205 6206 6207 6208 6209 6210 6211 6212 0
-6202 6198 6199 6200 6201 6203 6204 6205 6206 6207 6208 6209 6210 6211 6212 0
-6203 6198 6199 6200 6201 6202 6204 6205 6206 6207 6208 6209 6210 6211 6212 0
-6204 6198 6199 6200 6201 6202 6203 6205 6206 6207 6208 6209 6210 6211 6212 0
-6205 6198 6199 6200 6201 6202 6203 6204 6206 6207 6208 6209 6210 6211 6212 0
-6206 6198 6199 6200 6201 6202 6203 6204 6205 6207 6208 6209 6210 6211 6212 0
-6207 6198 6199 6200 6201 6202 6203 6204 6205 6206 6208 6209 6210 6211 6212 0
-6208 6198 6199 6200 6201 6202 6203 6204 6205 6206 6207 6209 6210 6211 6212 0
-6209 6198 6199 6200 6201 6202 6203 6204 6205 6206 6207 6208 6210 6211 6212 0
-6210 6198 6199 6200 6201 6202 6203 6204 6205 6206 6207 6208 6209 6211 6212 0
-6211 6198 6199 6200 6201 6202 6203 6204 6205 6206 6207 6208 6209 6210 6212 0
-6212 6198 6199 6200 6201 6202 6203 6204 6205 6206 6207 6208 6209 6210 6211 0
6213 -4 -38 -55 -78 0
-6213 4 0
-6213 38 0
-6213 55 0
-6213 78 0
6214 -7 -38 -43 -78 0
-6214 7 0
-6214 38 0
-6214 43 0
-6214 78 0
6215 -10 -38 -40 -78 0
-6215 10 0
-6215 38 0
-6215 40 0
-6215 78 0
-6213 6214 6215 0
-6214 6213 6215 0
-6215 6213 6214 0
6216 -4 -38 -57 -76 0
-6216 4 0
-6216 38 0
-6216 57 0
-6216 76 0
6217 -13 -38 -49 -57 0
-6217 13 0
-6217 38 0
-6217 49 0
-6217 57 0
6218 -16 -38 -46 -57 0
-6218 16 0
-6218 38 0
-6218 46 0
-6218 57 0
-6216 6217 6218 0
-6217 6216 6218 0
-6218 6216 6217 0
6219 -4 -38 -57 -78 0
-6219 4 0
-6219 38 0
-6219 57 0
-6219 78 0
6220 -4 -38 -60 -72 0
-6220 4 0
-6220 38 0
-6220 60 0
-6220 72 0
6221 -4 -38 -63 -69 0
-6221 4 0
-6221 38 0
-6221 63 0
-6221 69 0
-6219 6220 6221 0
-6220 6219 6221 0
-6221 6219 6220 0
6222 -4 -39 -55 -76 0
-6222 4 0
-6222 39 0
-6222 55 0
-6222 76 0
6223 -4 -39 -58 -70 0
-6223 4 0
-6223 39 0
-6223 58 0
-6223 70 0
6224 -4 -39 -61 -67 0
-6224 4 0
-6224 39 0
-6224 61 0
-6224 67 0
6225 -7 -39 -43 -76 0
-6225 7 0
-6225 39 0
-6225 43 0
-6225 76 0
6226 -7 -39 -46 -70 0
-6226 7 0
-6226 39 0
-6226 46 0
-6226 70 0
6227 -7 -39 -49 -67 0
-6227 7 0
-6227 39 0
-6227 49 0
-6227 67 0
6228 -10 -39 -40 -76 0
-6228 10 0
-6228 39 0
-6228 40 0
-6228 76 0
6229 -10 -39 -46 -61 0
-6229 10 0
-6229 39 0
-6229 46 0
-6229 61 0
6230 -10 -39 -49 -58 0
-6230 10 0
-6230 39 0
-6230 49 0
-6230 58 0
6231 -13 -39 -40 -70 0
-6231 13 0
-6231 39 0
-6231 40 0
-6231 70 0
6232 -13 -39 -43 -61 0
-6232 13 0
-6232 39 0
-6232 43 0
-6232 61 0
6233 -13 -39 -49 -55 0
-6233 13 0
-6233 39 0
-6233 49 0
-6233 55 0
6234 -16 -39 -40 -67 0
-6234 16 0
-6234 39 0
-6234 40 0
-6234 67 0
6235 -16 -39 -43 -58 0
-6235 16 0
-6235 39 0
-6235 43 0
-6235 58 0
6236 -16 -39 -46 -55 0
-6236 16 0
-6236 39 0
-6236 46 0
-6236 55 0
-6222 6223 6224 6225 6226 6227 6228 6229 6230 6231 6232 6233 6234 6235 6236 0
-6223 6222 6224 6225 6226 6227 6228 6229 6230 6231 6232 6233 6234 6235 6236 0
-6224 6222 6223 6225 6226 6227 6228 6229 6230 6231 6232 6233 6234 6235 6236 0
-6225 6222 6223 6224 6226 6227 6228 6229 6230 6231 6232 6233 6234 6235 6236 0
-6226 6222 6223 6224 6225 6227 6228 6229 6230 6231 6232 6233 6234 6235 6236 0
-6227 6222 6223 6224 6225 6226 6228 6229 6230 6231 6232 6233 6234 6235 6236 0
-6228 6222 6223 6224 6225 6226 6227 6229 6230 6231 6232 6233 6234 6235 6236 0
-6229 6222 6223 6224 6225 6226 6227 6228 6230 6231 6232 6233 6234 6235 6236 0
-6230 6222 6223 6224 6225 6226 6227 6228 6229 6231 6232 6233 6234 6235 6236 0
-6231 6222 6223 6224 6225 6226 6227 6228 6229 6230 6232 6233 6234 6235 6236 0
-6232 6222 6223 6224 6225 6226 6227 6228 6229 6230 6231 6233 6234 6235 6236 0
-6233 6222 6223 6224 6225 6226 6227 6228 6229 6230 6231 6232 6234 6235 6236 0
-6234 6222 6223 6224 6225 6226 6227 6228 6229 6230 6231 6232 6233 6235 6236 0
-6235 6222 6223 6224 6225 6226 6227 6228 6229 6230 6231 6232 6233 6234 6236 0
-6236 6222 6223 6224 6225 6226 6227 6228 6229 6230 6231 6232 6233 6234 6235 0
6237 -4 -39 -55 -77 0
-6237 4 0
-6237 39 0
-6237 55 0
-6237 77 0
6238 -7 -39 -43 -77 0
-6238 7 0
-6238 39 0
-6238 43 0
-6238 77 0
6239 -10 -39 -40 -77 0
-6239 10 0
-6239 39 0
-6239 40 0
-6239 77 0
-6237 6238 6239 0
-6238 6237 6239 0
-6239 6237 6238 0
6240 -4 -39 -56 -76 0
-6240 4 0
-6240 39 0
-6240 56 0
-6240 76 0
6241 -13 -39 -49 -56 0
-6241 13 0
-6241 39 0
-6241 49 0
-6241 56 0
6242 -16 -39 -46 -56 0
-6242 16 0
-6242 39 0
-6242 46 0
-6242 56 0
-6240 6241 6242 0
-6241 6240 6242 0
-6242 6240 6241 0
6243 -4 -39 -56 -77 0
-6243 4 0
-6243 39 0
-6243 56 0
-6243 77 0
6244 -4 -39 -59 -71 0
-6244 4 0
-6244 39 0
-6244 59 0
-6244 71 0
6245 -4 -39 -62 -68 0
-6245 4 0
-6245 39 0
-6245 62 0
-6245 68 0
-6243 6244 6245 0
-6244 6243 6245 0
-6245 6243 6244 0
6246 -5 -37 -56 -77 0
-6246 5 0
-6246 37 0
-6246 56 0
-6246 77 0
6247 -5 -37 -59 -71 0
-6247 5 0
-6247 37 0
-6247 59 0
-6247 71 0
6248 -5 -37 -62 -68 0
-6248 5 0
-6248 37 0
-6248 62 0
-6248 68 0
6249 -8 -37 -44 -77 0
-6249 8 0
-6249 37 0
-6249 44 0
-6249 77 0
6250 -8 -37 -47 -71 0
-6250 8 0
-6250 37 0
-6250 47 0
-6250 71 0
6251 -8 -37 -50 -68 0
-6251 8 0
-6251 37 0
-6251 50 0
-6251 68 0
6252 -11 -37 -41 -77 0
-6252 11 0
-6252 37 0
-6252 41 0
-6252 77 0
6253 -11 -37 -47 -62 0
-6253 11 0
-6253 37 0
-6253 47 0
-6253 62 0
6254 -11 -37 -50 -59 0
-6254 11 0
-6254 37 0
-6254 50 0
-6254 59 0
6255 -14 -37 -41 -71 0
-6255 14 0
-6255 37 0
-6255 41 0
-6255 71 0
6256 -14 -37 -44 -62 0
-6256 14 0
-6256 37 0
-6256 44 0
-6256 62 0
6257 -14 -37 -50 -56 0
-6257 14 0
-6257 37 0
-6257 50 0
-6257 56 0
6258 -17 -37 -41 -68 0
-6258 17 0
-6258 37 0
-6258 41 0
-6258 68 0
6259 -17 -37 -44 -59 0
-6259 17 0
-6259 37 0
-6259 44 0
-6259 59 0
6260 -17 -37 -47 -56 0
-6260 17 0
-6260 37 0
-6260 47 0
-6260 56 0
-6246 6247 6248 6249 6250 6251 6252 6253 6254 6255 6256 6257 6258 6259 6260 0
-6247 6246 6248 6249 6250 6251 6252 6253 6254 6255 6256 6257 6258 6259 6260 0
-6248 6246 6247 6249 6250 6251 6252 6253 6254 6255 6256 6257 6258 6259 6260 0
-6249 6246 6247 6248 6250 6251 6252 6253 6254 6255 6256 6257 6258 6259 6260 0
-6250 6246 6247 6248 6249 6251 6252 6253 6254 6255 6256 6257 6258 6259 6260 0
-6251 6246 6247 6248 6249 6250 6252 6253 6254 6255 6256 6257 6258 6259 6260 0
-6252 6246 6247 6248 6249 6250 6251 6253 6254 6255 6256 6257 6258 6259 6260 0
-6253 6246 6247 6248 6249 6250 6251 6252 6254 6255 6256 6257 6258 6259 6260 0
-6254 6246 6247 6248 6249 6250 6251 6252 6253 6255 6256 6257 6258 6259 6260 0
-6255 6246 6247 6248 6249 6250 6251 6252 6253 6254 6256 6257 6258 6259 6260 0
-6256 6246 6247 6248 6249 6250 6251 6252 6253 6254 6255 6257 6258 6259 6260 0
-6257 6246 6247 6248 6249 6250 6251 6252 6253 6254 6255 6256 6258 6259 6260 0
-6258 6246 6247 6248 6249 6250 6251 6252 6253 6254 6255 6256 6257 6259 6260 0
-6259 6246 6247 6248 6249 6250 6251 6252 6253 6254 6255 6256 6257 6258 6260 0
-6260 6246 6247 6248 6249 6250 6251 6252 6253 6254 6255 6256 6257 6258 6259 0
6261 -5 -37 -56 -78 0
-6261 5 0
-6261 37 0
-6261 56 0
-6261 78 0
6262 -8 -37 -44 -78 0
-6262 8 0
-6262 37 0
-6262 44 0
-6262 78 0
6263 -11 -37 -41 -78 0
-6263 11 0
-6263 37 0
-6263 41 0
-6263 78 0
-6261 6262 6263 0
-6262 6261 6263 0
-6263 6261 6262 0
6264 -5 -37 -57 -77 0
-6264 5 0
-6264 37 0
-6264 57 0
-6264 77 0
6265 -14 -37 -50 -57 0
-6265 14 0
-6265 37 0
-6265 50 0
-6265 57 0
6266 -17 -37 -47 -57 0
-6266 17 0
-6266 37 0
-6266 47 0
-6266 57 0
-6264 6265 6266 0
-6265 6264 6266 0
-6266 6264 6265 0
6267 -5 -37 -57 -78 0
-6267 5 0
-6267 37 0
-6267 57 0
-6267 78 0
6268 -5 -37 -60 -72 0
-6268 5 0
-6268 37 0
-6268 60 0
-6268 72 0
6269 -5 -37 -63 -69 0
-6269 5 0
-6269 37 0
-6269 63 0
-6269 69 0
-6267 6268 6269 0
-6268 6267 6269 0
-6269 6267 6268 0
6270 -5 -39 -55 -76 0
-6270 5 0
-6270 39 0
-6270 55 0
-6270 76 0
6271 -5 -39 -58 -70 0
-6271 5 0
-6271 39 0
-6271 58 0
-6271 70 0
6272 -5 -39 -61 -67 0
-6272 5 0
-6272 39 0
-6272 61 0
-6272 67 0
-6270 6271 6272 0
-6271 6270 6272 0
-6272 6270 6271 0
6273 -5 -39 -55 -77 0
-6273 5 0
-6273 39 0
-6273 55 0
-6273 77 0
6274 -14 -39 -50 -55 0
-6274 14 0
-6274 39 0
-6274 50 0
-6274 55 0
6275 -17 -39 -47 -55 0
-6275 17 0
-6275 39 0
-6275 47 0
-6275 55 0
-6273 6274 6275 0
-6274 6273 6275 0
-6275 6273 6274 0
6276 -5 -39 -56 -76 0
-6276 5 0
-6276 39 0
-6276 56 0
-6276 76 0
6277 -8 -39 -44 -76 0
-6277 8 0
-6277 39 0
-6277 44 0
-6277 76 0
6278 -11 -39 -41 -76 0
-6278 11 0
-6278 39 0
-6278 41 0
-6278 76 0
-6276 6277 6278 0
-6277 6276 6278 0
-6278 6276 6277 0
6279 -5 -39 -56 -77 0
-6279 5 0
-6279 39 0
-6279 56 0
-6279 77 0
6280 -5 -39 -59 -71 0
-6280 5 0
-6280 39 0
-6280 59 0
-6280 71 0
6281 -5 -39 -62 -68 0
-6281 5 0
-6281 39 0
-6281 62 0
-6281 68 0
6282 -8 -39 -44 -77 0
-6282 8 0
-6282 39 0
-6282 44 0
-6282 77 0
6283 -8 -39 -47 -71 0
-6283 8 0
-6283 39 0
-6283 47 0
-6283 71 0
6284 -8 -39 -50 -68 0
-6284 8 0
-6284 39 0
-6284 50 0
-6284 68 0
6285 -11 -39 -41 -77 0
-6285 11 0
-6285 39 0
-6285 41 0
-6285 77 0
6286 -11 -39 -47 -62 0
-6286 11 0
-6286 39 0
-6286 47 0
-6286 62 0
6287 -11 -39 -50 -59 0
-6287 11 0
-6287 39 0
-6287 50 0
-6287 59 0
6288 -14 -39 -41 -71 0
-6288 14 0
-6288 39 0
-6288 41 0
-6288 71 0
6289 -14 -39 -44 -62 0
-6289 14 0
-6289 39 0
-6289 44 0
-6289 62 0
6290 -14 -39 -50 -56 0
-6290 14 0
-6290 39 0
-6290 50 0
-6290 56 0
6291 -17 -39 -41 -68 0
-6291 17 0
-6291 39 0
-6291 41 0
-6291 68 0
6292 -17 -39 -44 -59 0
-6292 17 0
-6292 39 0
-6292 44 0
-6292 59 0
6293 -17 -39 -47 -56 0
-6293 17 0
-6293 39 0
-6293 47 0
-6293 56 0
-6279 6280 6281 6282 6283 6284 6285 6286 6287 6288 6289 6290 6291 6292 6293 0
-6280 6279 6281 6282 6283 6284 6285 6286 6287 6288 6289 6290 6291 6292 6293 0
-6281 6279 6280 6282 6283 6284 6285 6286 6287 6288 6289 6290 6291 6292 6293 0
-6282 6279 6280 6281 6283 6284 6285 6286 6287 6288 6289 6290 6291 6292 6293 0
-6283 6279 6280 6281 6282 6284 6285 6286 6287 6288 6289 6290 6291 6292 6293 0
-6284 6279 6280 6281 6282 6283 6285 6286 6287 6288 6289 6290 6291 6292 6293 0
-6285 6279 6280 6281 6282 6283 6284 6286 6287 6288 6289 6290 6291 6292 6293 0
-6286 6279 6280 6281 6282 6283 6284 6285 6287 6288 6289 6290 6291 6292 6293 0
-6287 6279 6280 6281 6282 6283 6284 6285 6286 6288 6289 6290 6291 6292 6293 0
-6288 6279 6280 6281 6282 6283 6284 6285 6286 6287 6289 6290 6291 6292 6293 0
-6289 6279 6280 6281 6282 6283 6284 6285 6286 6287 6288 6290 6291 6292 6293 0
-6290 6279 6280 6281 6282 6283 6284 6285 6286 6287 6288 6289 6291 6292 6293 0
-6291 6279 6280 6281 6282 6283 6284 6285 6286 6287 6288 6289 6290 6292 6293 0
-6292 6279 6280 6281 6282 6283 6284 6285 6286 6287 6288 6289 6290 6291 6293 0
-6293 6279 6280 6281 6282 6283 6284 6285 6286 6287 6288 6289 6290 6291 6292 0
6294 -6 -37 -56 -77 0
-6294 6 0
-6294 37 0
-6294 56 0
-6294 77 0
6295 -6 -37 -59 -71 0
-6295 6 0
-6295 37 0
-6295 59 0
-6295 71 0
6296 -6 -37 -62 -68 0
-6296 6 0
-6296 37 0
-6296 62 0
-6296 68 0
-6294 6295 6296 0
-6295 6294 6296 0
-6296 6294 6295 0
6297 -6 -37 -56 -78 0
-6297 6 0
-6297 37 0
-6297 56 0
-6297 78 0
6298 -15 -37 -51 -56 0
-6298 15 0
-6298 37 0
-6298 51 0
-6298 56 0
6299 -18 -37 -48 -56 0
-6299 18 0
-6299 37 0
-6299 48 0
-6299 56 0
-6297 6298 6299 0
-6298 6297 6299 0
-6299 6297 6298 0
6300 -6 -37 -57 -77 0
-6300 6 0
-6300 37 0
-6300 57 0
-6300 77 0
6301 -9 -37 -45 -77 0
-6301 9 0
-6301 37 0
-6301 45 0
-6301 77 0
6302 -12 -37 -42 -77 0
-6302 12 0
-6302 37 0
-6302 42 0
-6302 77 0
-6300 6301 6302 0
-6301 6300 6302 0
-6302 6300 6301 0
6303 -6 -37 -57 -78 0
-6303 6 0
-6303 37 0
-6303 57 0
-6303 78 0
6304 -6 -37 -60 -72 0
-6304 6 0
-6304 37 0
-6304 60 0
-6304 72 0
6305 -6 -37 -63 -69 0
-6305 6 0
-6305 37 0
-6305 63 0
-6305 69 0
6306 -9 -37 -45 -78 0
-6306 9 0
-6306 37 0
-6306 45 0
-6306 78 0
6307 -9 -37 -48 -72 0
-6307 9 0
-6307 37 0
-6307 48 0
-6307 72 0
6308 -9 -37 -51 -69 0
-6308 9 0
-6308 37 0
-6308 51 0
-6308 69 0
6309 -12 -37 -42 -78 0
-6309 12 0
-6309 37 0
-6309 42 0
-6309 78 0
6310 -12 -37 -48 -63 0
-6310 12 0
-6310 37 0
-6310 48 0
-6310 63 0
6311 -12 -37 -51 -60 0
-6311 12 0
-6311 37 0
-6311 51 0
-6311 60 0
6312 -15 -37 -42 -72 0
-6312 15 0
-6312 37 0
-6312 42 0
-6312 72 0
6313 -15 -37 -45 -63 0
-6313 15 0
-6313 37 0
-6313 45 0
-6313 63 0
6314 -15 -37 -51 -57 0
-6314 15 0
-6314 37 0
-6314 51 0
-6314 57 0
6315 -18 -37 -42 -69 0
-6315 18 0
-6315 37 0
-6315 42 0
-6315 69 0
6316 -18 -37 -45 -60 0
-6316 18 0
-6316 37 0
-6316 45 0
-6316 60 0
6317 -18 -37 -48 -57 0
-6317 18 0
-6317 37 0
-6317 48 0
-6317 57 0
-6303 6304 6305 6306 6307 6308 6309 6310 6311 6312 6313 6314 6315 6316 6317 0
-6304 6303 6305 6306 6307 6308 6309 6310 6311 6312 6313 6314 6315 6316 6317 0
-6305 6303 6304 6306 6307 6308 6309 6310 6311 6312 6313 6314 6315 6316 6317 0
-6306 6303 6304 6305 6307 6308 6309 6310 6311 6312 6313 6314 6315 6316 6317 0
-6307 6303 6304 6305 6306 6308 6309 6310 6311 6312 6313 6314 6315 6316 6317 0
-6308 6303 6304 6305 6306 6307 6309 6310 6311 6312 6313 6314 6315 6316 6317 0
-6309 6303 6304 6305 6306 6307 6308 6310 6311 6312 6313 6314 6315 6316 6317 0
-6310 6303 6304 6305 6306 6307 6308 6309 6311 6312 6313 6314 6315 6316 6317 0
-6311 6303 6304 6305 6306 6307 6308 6309 6310 6312 6313 6314 6315 6316 6317 0
-6312 6303 6304 6305 6306 6307 6308 6309 6310 6311 6313 6314 6315 6316 6317 0
-6313 6303 6304 6305 6306 6307 6308 6309 6310 6311 6312 6314 6315 6316 6317 0
-6314 6303 6304 6305 6306 6307 6308 6309 6310 6311 6312 6313 6315 6316 6317 0
-6315 6303 6304 6305 6306 6307 6308 6309 6310 6311 6312 6313 6314 6316 6317 0
-6316 6303 6304 6305 6306 6307 6308 6309 6310 6311 6312 6313 6314 6315 6317 0
-6317 6303 6304 6305 6306 6307 6308 6309 6310 6311 6312 6313 6314 6315 6316 0
6318 -6 -38 -55 -76 0
-6318 6 0
-6318 38 0
-6318 55 0
-6318 76 0
6319 -6 -38 -58 -70 0
-6319 6 0
-6319 38 0
-6319 58 0
-6319 70 0
6320 -6 -38 -61 -67 0
-6320 6 0
-6320 38 0
-6320 61 0
-6320 67 0
-6318 6319 6320 0
-6319 6318 6320 0
-6320 6318 6319 0
6321 -6 -38 -55 -78 0
-6321 6 0
-6321 38 0
-6321 55 0
-6321 78 0
6322 -15 -38 -51 -55 0
-6322 15 0
-6322 38 0
-6322 51 0
-6322 55 0
6323 -18 -38 -48 -55 0
-6323 18 0
-6323 38 0
-6323 48 0
-6323 55 0
-6321 6322 6323 0
-6322 6321 6323 0
-6323 6321 6322 0
6324 -6 -38 -57 -76 0
-6324 6 0
-6324 38 0
-6324 57 0
-6324 76 0
6325 -9 -38 -45 -76 0
-6325 9 0
-6325 38 0
-6325 45 0
-6325 76 0
6326 -12 -38 -42 -76 0
-6326 12 0
-6326 38 0
-6326 42 0
-6326 76 0
-6324 6325 6326 0
-6325 6324 6326 0
-6326 6324 6325 0
6327 -6 -38 -57 -78 0
-6327 6 0
-6327 38 0
-6327 57 0
-6327 78 0
6328 -6 -38 -60 -72 0
-6328 6 0
-6328 38 0
-6328 60 0
-6328 72 0
6329 -6 -38 -63 -69 0
-6329 6 0
-6329 38 0
-6329 63 0
-6329 69 0
6330 -9 -38 -45 -78 0
-6330 9 0
-6330 38 0
-6330 45 0
-6330 78 0
6331 -9 -38 -48 -72 0
-6331 9 0
-6331 38 0
-6331 48 0
-6331 72 0
6332 -9 -38 -51 -69 0
-6332 9 0
-6332 38 0
-6332 51 0
-6332 69 0
6333 -12 -38 -42 -78 0
-6333 12 0
-6333 38 0
-6333 42 0
-6333 78 0
6334 -12 -38 -48 -63 0
-6334 12 0
-6334 38 0
-6334 48 0
-6334 63 0
6335 -12 -38 -51 -60 0
-6335 12 0
-6335 38 0
-6335 51 0
-6335 60 0
6336 -15 -38 -42 -72 0
-6336 15 0
-6336 38 0
-6336 42 0
-6336 72 0
6337 -15 -38 -45 -63 0
-6337 15 0
-6337 38 0
-6337 45 0
-6337 63 0
6338 -15 -38 -51 -57 0
-6338 15 0
-6338 38 0
-6338 51 0
-6338 57 0
6339 -18 -38 -42 -69 0
-6339 18 0
-6339 38 0
-6339 42 0
-6339 69 0
6340 -18 -38 -45 -60 0
-6340 18 0
-6340 38 0
-6340 45 0
-6340 60 0
6341 -18 -38 -48 -57 0
-6341 18 0
-6341 38 0
-6341 48 0
-6341 57 0
-6327 6328 6329 6330 6331 6332 6333 6334 6335 6336 6337 6338 6339 6340 6341 0
-6328 6327 6329 6330 6331 6332 6333 6334 6335 6336 6337 6338 6339 6340 6341 0
-6329 6327 6328 6330 6331 6332 6333 6334 6335 6336 6337 6338 6339 6340 6341 0
-6330 6327 6328 6329 6331 6332 6333 6334 6335 6336 6337 6338 6339 6340 6341 0
-6331 6327 6328 6329 6330 6332 6333 6334 6335 6336 6337 6338 6339 6340 6341 0
-6332 6327 6328 6329 6330 6331 6333 6334 6335 6336 6337 6338 6339 6340 6341 0
-6333 6327 6328 6329 6330 6331 6332 6334 6335 6336 6337 6338 6339 6340 6341 0
-6334 6327 6328 6329 6330 6331 6332 6333 6335 6336 6337 6338 6339 6340 6341 0
-6335 6327 6328 6329 6330 6331 6332 6333 6334 6336 6337 6338 6339 6340 6341 0
-6336 6327 6328 6329 6330 6331 6332 6333 6334 6335 6337 6338 6339 6340 6341 0
-6337 6327 6328 6329 6330 6331 6332 6333 6334 6335 6336 6338 6339 6340 6341 0
-6338 6327 6328 6329 6330 6331 6332 6333 6334 6335 6336 6337 6339 6340 6341 0
-6339 6327 6328 6329 6330 6331 6332 6333 6334 6335 6336 6337 6338 6340 6341 0
-6340 6327 6328 6329 6330 6331 6332 6333 6334 6335 6336 6337 6338 6339 6341 0
-6341 6327 6328 6329 6330 6331 6332 6333 6334 6335 6336 6337 6338 6339 6340 0
6342 -4 -38 -58 -72 0
-6342 4 0
-6342 38 0
-6342 58 0
-6342 72 0
6343 -7 -38 -46 -72 0
-6343 7 0
-6343 38 0
-6343 46 0
-6343 72 0
6344 -13 -38 -40 -72 0
-6344 13 0
-6344 38 0
-6344 40 0
-6344 72 0
-6342 6343 6344 0
-6343 6342 6344 0
-6344 6342 6343 0
6345 -4 -38 -60 -70 0
-6345 4 0
-6345 38 0
-6345 60 0
-6345 70 0
6346 -10 -38 -49 -60 0
-6346 10 0
-6346 38 0
-6346 49 0
-6346 60 0
6347 -16 -38 -43 -60 0
-6347 16 0
-6347 38 0
-6347 43 0
-6347 60 0
-6345 6346 6347 0
-6346 6345 6347 0
-6347 6345 6346 0
6348 -4 -39 -58 -71 0
-6348 4 0
-6348 39 0
-6348 58 0
-6348 71 0
6349 -7 -39 -46 -71 0
-6349 7 0
-6349 39 0
-6349 46 0
-6349 71 0
6350 -13 -39 -40 -71 0
-6350 13 0
-6350 39 0
-6350 40 0
-6350 71 0
-6348 6349 6350 0
-6349 6348 6350 0
-6350 6348 6349 0
6351 -4 -39 -59 -70 0
-6351 4 0
-6351 39 0
-6351 59 0
-6351 70 0
6352 -10 -39 -49 -59 0
-6352 10 0
-6352 39 0
-6352 49 0
-6352 59 0
6353 -16 -39 -43 -59 0
-6353 16 0
-6353 39 0
-6353 43 0
-6353 59 0
-6351 6352 6353 0
-6352 6351 6353 0
-6353 6351 6352 0
6354 -5 -37 -59 -72 0
-6354 5 0
-6354 37 0
-6354 59 0
-6354 72 0
6355 -8 -37 -47 -72 0
-6355 8 0
-6355 37 0
-6355 47 0
-6355 72 0
6356 -14 -37 -41 -72 0
-6356 14 0
-6356 37 0
-6356 41 0
-6356 72 0
-6354 6355 6356 0
-6355 6354 6356 0
-6356 6354 6355 0
6357 -5 -37 -60 -71 0
-6357 5 0
-6357 37 0
-6357 60 0
-6357 71 0
6358 -11 -37 -50 -60 0
-6358 11 0
-6358 37 0
-6358 50 0
-6358 60 0
6359 -17 -37 -44 -60 0
-6359 17 0
-6359 37 0
-6359 44 0
-6359 60 0
-6357 6358 6359 0
-6358 6357 6359 0
-6359 6357 6358 0
6360 -5 -39 -58 -71 0
-6360 5 0
-6360 39 0
-6360 58 0
-6360 71 0
6361 -11 -39 -50 -58 0
-6361 11 0
-6361 39 0
-6361 50 0
-6361 58 0
6362 -17 -39 -44 -58 0
-6362 17 0
-6362 39 0
-6362 44 0
-6362 58 0
-6360 6361 6362 0
-6361 6360 6362 0
-6362 6360 6361 0
6363 -5 -39 -59 -70 0
-6363 5 0
-6363 39 0
-6363 59 0
-6363 70 0
6364 -8 -39 -47 -70 0
-6364 8 0
-6364 39 0
-6364 47 0
-6364 70 0
6365 -14 -39 -41 -70 0
-6365 14 0
-6365 39 0
-6365 41 0
-6365 70 0
-6363 6364 6365 0
-6364 6363 6365 0
-6365 6363 6364 0
6366 -6 -37 -59 -72 0
-6366 6 0
-6366 37 0
-6366 59 0
-6366 72 0
6367 -12 -37 -51 -59 0
-6367 12 0
-6367 37 0
-6367 51 0
-6367 59 0
6368 -18 -37 -45 -59 0
-6368 18 0
-6368 37 0
-6368 45 0
-6368 59 0
-6366 6367 6368 0
-6367 6366 6368 0
-6368 6366 6367 0
6369 -6 -37 -60 -71 0
-6369 6 0
-6369 37 0
-6369 60 0
-6369 71 0
6370 -9 -37 -48 -71 0
-6370 9 0
-6370 37 0
-6370 48 0
-6370 71 0
6371 -15 -37 -42 -71 0
-6371 15 0
-6371 37 0
-6371 42 0
-6371 71 0
-6369 6370 6371 0
-6370 6369 6371 0
-6371 6369 6370 0
6372 -6 -38 -58 -72 0
-6372 6 0
-6372 38 0
-6372 58 0
-6372 72 0
6373 -12 -38 -51 -58 0
-6373 12 0
-6373 38 0
-6373 51 0
-6373 58 0
6374 -18 -38 -45 -58 0
-6374 18 0
-6374 38 0
-6374 45 0
-6374 58 0
-6372 6373 6374 0
-6373 6372 6374 0
-6374 6372 6373 0
6375 -6 -38 -60 -70 0
-6375 6 0
-6375 38 0
-6375 60 0
-6375 70 0
6376 -9 -38 -48 -70 0
-6376 9 0
-6376 38 0
-6376 48 0
-6376 70 0
6377 -15 -38 -42 -70 0
-6377 15 0
-6377 38 0
-6377 42 0
-6377 70 0
-6375 6376 6377 0
-6376 6375 6377 0
-6377 6375 6376 0
6378 -4 -38 -61 -69 0
-6378 4 0
-6378 38 0
-6378 61 0
-6378 69 0
6379 -7 -38 -49 -69 0
-6379 7 0
-6379 38 0
-6379 49 0
-6379 69 0
6380 -16 -38 -40 -69 0
-6380 16 0
-6380 38 0
-6380 40 0
-6380 69 0
-6378 6379 6380 0
-6379 6378 6380 0
-6380 6378 6379 0
6381 -4 -38 -63 -67 0
-6381 4 0
-6381 38 0
-6381 63 0
-6381 67 0
6382 -10 -38 -46 -63 0
-6382 10 0
-6382 38 0
-6382 46 0
-6382 63 0
6383 -13 -38 -43 -63 0
-6383 13 0
-6383 38 0
-6383 43 0
-6383 63 0
-6381 6382 6383 0
-6382 6381 6383 0
-6383 6381 6382 0
6384 -4 -39 -61 -68 0
-6384 4 0
-6384 39 0
-6384 61 0
-6384 68 0
6385 -7 -39 -49 -68 0
-6385 7 0
-6385 39 0
-6385 49 0
-6385 68 0
6386 -16 -39 -40 -68 0
-6386 16 0
-6386 39 0
-6386 40 0
-6386 68 0
-6384 6385 6386 0
-6385 6384 6386 0
-6386 6384 6385 0
6387 -4 -39 -62 -67 0
-6387 4 0
-6387 39 0
-6387 62 0
-6387 67 0
6388 -10 -39 -46 -62 0
-6388 10 0
-6388 39 0
-6388 46 0
-6388 62 0
6389 -13 -39 -43 -62 0
-6389 13 0
-6389 39 0
-6389 43 0
-6389 62 0
-6387 6388 6389 0
-6388 6387 6389 0
-6389 6387 6388 0
6390 -5 -37 -62 -69 0
-6390 5 0
-6390 37 0
-6390 62 0
-6390 69 0
6391 -8 -37 -50 -69 0
-6391 8 0
-6391 37 0
-6391 50 0
-6391 69 0
6392 -17 -37 -41 -69 0
-6392 17 0
-6392 37 0
-6392 41 0
-6392 69 0
-6390 6391 6392 0
-6391 6390 6392 0
-6392 6390 6391 0
6393 -5 -37 -63 -68 0
-6393 5 0
-6393 37 0
-6393 63 0
-6393 68 0
6394 -11 -37 -47 -63 0
-6394 11 0
-6394 37 0
-6394 47 0
-6394 63 0
6395 -14 -37 -44 -63 0
-6395 14 0
-6395 37 0
-6395 44 0
-6395 63 0
-6393 6394 6395 0
-6394 6393 6395 0
-6395 6393 6394 0
6396 -5 -39 -61 -68 0
-6396 5 0
-6396 39 0
-6396 61 0
-6396 68 0
6397 -11 -39 -47 -61 0
-6397 11 0
-6397 39 0
-6397 47 0
-6397 61 0
6398 -14 -39 -44 -61 0
-6398 14 0
-6398 39 0
-6398 44 0
-6398 61 0
-6396 6397 6398 0
-6397 6396 6398 0
-6398 6396 6397 0
6399 -5 -39 -62 -67 0
-6399 5 0
-6399 39 0
-6399 62 0
-6399 67 0
6400 -8 -39 -50 -67 0
-6400 8 0
-6400 39 0
-6400 50 0
-6400 67 0
6401 -17 -39 -41 -67 0
-6401 17 0
-6401 39 0
-6401 41 0
-6401 67 0
-6399 6400 6401 0
-6400 6399 6401 0
-6401 6399 6400 0
6402 -6 -37 -62 -69 0
-6402 6 0
-6402 37 0
-6402 62 0
-6402 69 0
6403 -12 -37 -48 -62 0
-6403 12 0
-6403 37 0
-6403 48 0
-6403 62 0
6404 -15 -37 -45 -62 0
-6404 15 0
-6404 37 0
-6404 45 0
-6404 62 0
-6402 6403 6404 0
-6403 6402 6404 0
-6404 6402 6403 0
6405 -6 -37 -63 -68 0
-6405 6 0
-6405 37 0
-6405 63 0
-6405 68 0
6406 -9 -37 -51 -68 0
-6406 9 0
-6406 37 0
-6406 51 0
-6406 68 0
6407 -18 -37 -42 -68 0
-6407 18 0
-6407 37 0
-6407 42 0
-6407 68 0
-6405 6406 6407 0
-6406 6405 6407 0
-6407 6405 6406 0
6408 -6 -38 -61 -69 0
-6408 6 0
-6408 38 0
-6408 61 0
-6408 69 0
6409 -12 -38 -48 -61 0
-6409 12 0
-6409 38 0
-6409 48 0
-6409 61 0
6410 -15 -38 -45 -61 0
-6410 15 0
-6410 38 0
-6410 45 0
-6410 61 0
-6408 6409 6410 0
-6409 6408 6410 0
-6410 6408 6409 0
6411 -6 -38 -63 -67 0
-6411 6 0
-6411 38 0
-6411 63 0
-6411 67 0
6412 -9 -38 -51 -67 0
-6412 9 0
-6412 38 0
-6412 51 0
-6412 67 0
6413 -18 -38 -42 -67 0
-6413 18 0
-6413 38 0
-6413 42 0
-6413 67 0
-6411 6412 6413 0
-6412 6411 6413 0
-6413 6411 6412 0
6414 -7 -23 -67 -82 0
-6414 7 0
-6414 23 0
-6414 67 0
-6414 82 0
6415 -7 -23 -70 -79 0
-6415 7 0
-6415 23 0
-6415 70 0
-6415 79 0
6416 -7 -23 -73 -76 0
-6416 7 0
-6416 23 0
-6416 73 0
-6416 76 0
6417 -10 -23 -58 -82 0
-6417 10 0
-6417 23 0
-6417 58 0
-6417 82 0
6418 -10 -23 -61 -79 0
-6418 10 0
-6418 23 0
-6418 61 0
-6418 79 0
6419 -10 -23 -64 -76 0
-6419 10 0
-6419 23 0
-6419 64 0
-6419 76 0
6420 -13 -23 -55 -82 0
-6420 13 0
-6420 23 0
-6420 55 0
-6420 82 0
6421 -13 -23 -61 -73 0
-6421 13 0
-6421 23 0
-6421 61 0
-6421 73 0
6422 -13 -23 -64 -70 0
-6422 13 0
-6422 23 0
-6422 64 0
-6422 70 0
6423 -16 -23 -55 -79 0
-6423 16 0
-6423 23 0
-6423 55 0
-6423 79 0
6424 -16 -23 -58 -73 0
-6424 16 0
-6424 23 0
-6424 58 0
-6424 73 0
6425 -16 -23 -64 -67 0
-6425 16 0
-6425 23 0
-6425 64 0
-6425 67 0
6426 -19 -23 -55 -76 0
-6426 19 0
-6426 23 0
-6426 55 0
-6426 76 0
6427 -19 -23 -58 -70 0
-6427 19 0
-6427 23 0
-6427 58 0
-6427 70 0
6428 -19 -23 -61 -67 0
-6428 19 0
-6428 23 0
-6428 61 0
-6428 67 0
-6414 6415 6416 6417 6418 6419 6420 6421 6422 6423 6424 6425 6426 6427 6428 0
-6415 6414 6416 6417 6418 6419 6420 6421 6422 6423 6424 6425 6426 6427 6428 0
-6416 6414 6415 6417 6418 6419 6420 6421 6422 6423 6424 6425 6426 6427 6428 0
-6417 6414 6415 6416 6418 6419 6420 6421 6422 6423 6424 6425 6426 6427 6428 0
-6418 6414 6415 6416 6417 6419 6420 6421 6422 6423 6424 6425 6426 6427 6428 0
-6419 6414 6415 6416 6417 6418 6420 6421 6422 6423 6424 6425 6426 6427 6428 0
-6420 6414 6415 6416 6417 6418 6419 6421 6422 6423 6424 6425 6426 6427 6428 0
-6421 6414 6415 6416 6417 6418 6419 6420 6422 6423 6424 6425 6426 6427 6428 0
-6422 6414 6415 6416 6417 6418 6419 6420 6421 6423 6424 6425 6426 6427 6428 0
-6423 6414 6415 6416 6417 6418 6419 6420 6421 6422 6424 6425 6426 6427 6428 0
-6424 6414 6415 6416 6417 6418 6419 6420 6421 6422 6423 6425 6426 6427 6428 0
-6425 6414 6415 6416 6417 6418 6419 6420 6421 6422 6423 6424 6426 6427 6428 0
-6426 6414 6415 6416 6417 6418 6419 6420 6421 6422 6423 6424 6425 6427 6428 0
-6427 6414 6415 6416 6417 6418 6419 6420 6421 6422 6423 6424 6425 6426 6428 0
-6428 6414 6415 6416 6417 6418 6419 6420 6421 6422 6423 6424 6425 6426 6427 0
6429 -7 -23 -67 -83 0
-6429 7 0
-6429 23 0
-6429 67 0
-6429 83 0
6430 -7 -35 -53 -67 0
-6430 7 0
-6430 35 0
-6430 53 0
-6430 67 0
6431 -7 -38 -50 -67 0
-6431 7 0
-6431 38 0
-6431 50 0
-6431 67 0
6432 -10 -23 -58 -83 0
-6432 10 0
-6432 23 0
-6432 58 0
-6432 83 0
6433 -10 -35 -53 -58 0
-6433 10 0
-6433 35 0
-6433 53 0
-6433 58 0
6434 -10 -38 -50 -58 0
-6434 10 0
-6434 38 0
-6434 50 0
-6434 58 0
6435 -13 -23 -55 -83 0
-6435 13 0
-6435 23 0
-6435 55 0
-6435 83 0
6436 -13 -35 -53 -55 0
-6436 13 0
-6436 35 0
-6436 53 0
-6436 55 0
6437 -13 -38 -50 -55 0
-6437 13 0
-6437 38 0
-6437 50 0
-6437 55 0
-6429 6430 6431 6432 6433 6434 6435 6436 6437 0
-6430 6429 6431 6432 6433 6434 6435 6436 6437 0
-6431 6429 6430 6432 6433 6434 6435 6436 6437 0
-6432 6429 6430 6431 6433 6434 6435 6436 6437 0
-6433 6429 6430 6431 6432 6434 6435 6436 6437 0
-6434 6429 6430 6431 6432 6433 6435 6436 6437 0
-6435 6429 6430 6431 6432 6433 6434 6436 6437 0
-6436 6429 6430 6431 6432 6433 6434 6435 6437 0
-6437 6429 6430 6431 6432 6433 6434 6435 6436 0
6438 -7 -23 -67 -84 0
-6438 7 0
-6438 23 0
-6438 67 0
-6438 84 0
6439 -10 -23 -58 -84 0
-6439 10 0
-6439 23 0
-6439 58 0
-6439 84 0
6440 -13 -23 -55 -84 0
-6440 13 0
-6440 23 0
-6440 55 0
-6440 84 0
-6438 6439 6440 0
-6439 6438 6440 0
-6440 6438 6439 0
6441 -7 -23 -68 -82 0
-6441 7 0
-6441 23 0
-6441 68 0
-6441 82 0
6442 -7 -29 -47 -82 0
-6442 7 0
-6442 29 0
-6442 47 0
-6442 82 0
6443 -7 -32 -44 -82 0
-6443 7 0
-6443 32 0
-6443 44 0
-6443 82 0
6444 -16 -23 -64 -68 0
-6444 16 0
-6444 23 0
-6444 64 0
-6444 68 0
6445 -16 -29 -47 -64 0
-6445 16 0
-6445 29 0
-6445 47 0
-6445 64 0
6446 -16 -32 -44 -64 0
-6446 16 0
-6446 32 0
-6446 44 0
-6446 64 0
6447 -19 -23 -61 -68 0
-6447 19 0
-6447 23 0
-6447 61 0
-6447 68 0
6448 -19 -29 -47 -61 0
-6448 19 0
-6448 29 0
-6448 47 0
-6448 61 0
6449 -19 -32 -44 -61 0
-6449 19 0
-6449 32 0
-6449 44 0
-6449 61 0
-6441 6442 6443 6444 6445 6446 6447 6448 6449 0
-6442 6441 6443 6444 6445 6446 6447 6448 6449 0
-6443 6441 6442 6444 6445 6446 6447 6448 6449 0
-6444 6441 6442 6443 6445 6446 6447 6448 6449 0
-6445 6441 6442 6443 6444 6446 6447 6448 6449 0
-6446 6441 6442 6443 6444 6445 6447 6448 6449 0
-6447 6441 6442 6443 6444 6445 6446 6448 6449 0
-6448 6441 6442 6443 6444 6445 6446 6447 6449 0
-6449 6441 6442 6443 6444 6445 6446 6447 6448 0
6450 -7 -23 -68 -83 0
-6450 7 0
-6450 23 0
-6450 68 0
-6450 83 0
6451 -7 -23 -71 -80 0
-6451 7 0
-6451 23 0
-6451 71 0
-6451 80 0
6452 -7 -23 -74 -77 0
-6452 7 0
-6452 23 0
-6452 74 0
-6452 77 0
6453 -7 -29 -47 -83 0
-6453 7 0
-6453 29 0
-6453 47 0
-6453 83 0
6454 -7 -29 -50 -80 0
-6454 7 0
-6454 29 0
-6454 50 0
-6454 80 0
6455 -7 -29 -53 -77 0
-6455 7 0
-6455 29 0
-6455 53 0
-6455 77 0
6456 -7 -32 -44 -83 0
-6456 7 0
-6456 32 0
-6456 44 0
-6456 83 0
6457 -7 -32 -50 -74 0
-6457 7 0
-6457 32 0
-6457 50 0
-6457 74 0
6458 -7 -32 -53 -71 0
-6458 7 0
-6458 32 0
-6458 53 0
-6458 71 0
6459 -7 -35 -44 -80 0
-6459 7 0
-6459 35 0
-6459 44 0
-6459 80 0
6460 -7 -35 -47 -74 0
-6460 7 0
-6460 35 0
-6460 47 0
-6460 74 0
6461 -7 -35 -53 -68 0
-6461 7 0
-6461 35 0
-6461 53 0
-6461 68 0
6462 -7 -38 -44 -77 0
-6462 7 0
-6462 38 0
-6462 44 0
-6462 77 0
6463 -7 -38 -47 -71 0
-6463 7 0
-6463 38 0
-6463 47 0
-6463 71 0
6464 -7 -38 -50 -68 0
-6464 7 0
-6464 38 0
-6464 50 0
-6464 68 0
-6450 6451 6452 6453 6454 6455 6456 6457 6458 6459 6460 6461 6462 6463 6464 0
-6451 6450 6452 6453 6454 6455 6456 6457 6458 6459 6460 6461 6462 6463 6464 0
-6452 6450 6451 6453 6454 6455 6456 6457 6458 6459 6460 6461 6462 6463 6464 0
-6453 6450 6451 6452 6454 6455 6456 6457 6458 6459 6460 6461 6462 6463 6464 0
-6454 6450 6451 6452 6453 6455 6456 6457 6458 6459 6460 6461 6462 6463 6464 0
-6455 6450 6451 6452 6453 6454 6456 6457 6458 6459 6460 6461 6462 6463 6464 0
-6456 6450 6451 6452 6453 6454 6455 6457 6458 6459 6460 6461 6462 6463 6464 0
-6457 6450 6451 6452 6453 6454 6455 6456 6458 6459 6460 6461 6462 6463 6464 0
-6458 6450 6451 6452 6453 6454 6455 6456 6457 6459 6460 6461 6462 6463 6464 0
-6459 6450 6451 6452 6453 6454 6455 6456 6457 6458 6460 6461 6462 6463 6464 0
-6460 6450 6451 6452 6453 6454 6455 6456 6457 6458 6459 6461 6462 6463 6464 0
-6461 6450 6451 6452 6453 6454 6455 6456 6457 6458 6459 6460 6462 6463 6464 0
-6462 6450 6451 6452 6453 6454 6455 6456 6457 6458 6459 6460 6461 6463 6464 0
-6463 6450 6451 6452 6453 6454 6455 6456 6457 6458 6459 6460 6461 6462 6464 0
-6464 6450 6451 6452 6453 6454 6455 6456 6457 6458 6459 6460 6461 6462 6463 0
6465 -7 -23 -68 -84 0
-6465 7 0
-6465 23 0
-6465 68 0
-6465 84 0
6466 -7 -29 -47 -84 0
-6466 7 0
-6466 29 0
-6466 47 0
-6466 84 0
6467 -7 -32 -44 -84 0
-6467 7 0
-6467 32 0
-6467 44 0
-6467 84 0
-6465 6466 6467 0
-6466 6465 6467 0
-6467 6465 6466 0
6468 -7 -23 -69 -82 0
-6468 7 0
-6468 23 0
-6468 69 0
-6468 82 0
6469 -16 -23 -64 -69 0
-6469 16 0
-6469 23 0
-6469 64 0
-6469 69 0
6470 -19 -23 -61 -69 0
-6470 19 0
-6470 23 0
-6470 61 0
-6470 69 0
-6468 6469 6470 0
-6469 6468 6470 0
-6470 6468 6469 0
6471 -7 -23 -69 -83 0
-6471 7 0
-6471 23 0
-6471 69 0
-6471 83 0
6472 -7 -35 -53 -69 0
-6472 7 0
-6472 35 0
-6472 53 0
-6472 69 0
6473 -7 -38 -50 -69 0
-6473 7 0
-6473 38 0
-6473 50 0
-6473 69 0
-6471 6472 6473 0
-6472 6471 6473 0
-6473 6471 6472 0
6474 -7 -23 -69 -84 0
-6474 7 0
-6474 23 0
-6474 69 0
-6474 84 0
6475 -7 -23 -72 -81 0
-6475 7 0
-6475 23 0
-6475 72 0
-6475 81 0
6476 -7 -23 -75 -78 0
-6476 7 0
-6476 23 0
-6476 75 0
-6476 78 0
-6474 6475 6476 0
-6475 6474 6476 0
-6476 6474 6475 0
6477 -7 -24 -67 -82 0
-6477 7 0
-6477 24 0
-6477 67 0
-6477 82 0
6478 -7 -24 -70 -79 0
-6478 7 0
-6478 24 0
-6478 70 0
-6478 79 0
6479 -7 -24 -73 -76 0
-6479 7 0
-6479 24 0
-6479 73 0
-6479 76 0
6480 -10 -24 -58 -82 0
-6480 10 0
-6480 24 0
-6480 58 0
-6480 82 0
6481 -10 -24 -61 -79 0
-6481 10 0
-6481 24 0
-6481 61 0
-6481 79 0
6482 -10 -24 -64 -76 0
-6482 10 0
-6482 24 0
-6482 64 0
-6482 76 0
6483 -13 -24 -55 -82 0
-6483 13 0
-6483 24 0
-6483 55 0
-6483 82 0
6484 -13 -24 -61 -73 0
-6484 13 0
-6484 24 0
-6484 61 0
-6484 73 0
6485 -13 -24 -64 -70 0
-6485 13 0
-6485 24 0
-6485 64 0
-6485 70 0
6486 -16 -24 -55 -79 0
-6486 16 0
-6486 24 0
-6486 55 0
-6486 79 0
6487 -16 -24 -58 -73 0
-6487 16 0
-6487 24 0
-6487 58 0
-6487 73 0
6488 -16 -24 -64 -67 0
-6488 16 0
-6488 24 0
-6488 64 0
-6488 67 0
6489 -19 -24 -55 -76 0
-6489 19 0
-6489 24 0
-6489 55 0
-6489 76 0
6490 -19 -24 -58 -70 0
-6490 19 0
-6490 24 0
-6490 58 0
-6490 70 0
6491 -19 -24 -61 -67 0
-6491 19 0
-6491 24 0
-6491 61 0
-6491 67 0
-6477 6478 6479 6480 6481 6482 6483 6484 6485 6486 6487 6488 6489 6490 6491 0
-6478 6477 6479 6480 6481 6482 6483 6484 6485 6486 6487 6488 6489 6490 6491 0
-6479 6477 6478 6480 6481 6482 6483 6484 6485 6486 6487 6488 6489 6490 6491 0
-6480 6477 6478 6479 6481 6482 6483 6484 6485 6486 6487 6488 6489 6490 6491 0
-6481 6477 6478 6479 6480 6482 6483 6484 6485 6486 6487 6488 6489 6490 6491 0
-6482 6477 6478 6479 6480 6481 6483 6484 6485 6486 6487 6488 6489 6490 6491 0
-6483 6477 6478 6479 6480 6481 6482 6484 6485 6486 6487 6488 6489 6490 6491 0
-6484 6477 6478 6479 6480 6481 6482 6483 6485 6486 6487 6488 6489 6490 6491 0
-6485 6477 6478 6479 6480 6481 6482 6483 6484 6486 6487 6488 6489 6490 6491 0
-6486 6477 6478 6479 6480 6481 6482 6483 6484 6485 6487 6488 6489 6490 6491 0
-6487 6477 6478 6479 6480 6481 6482 6483 6484 6485 6486 6488 6489 6490 6491 0
-6488 6477 6478 6479 6480 6481 6482 6483 6484 6485 6486 6487 6489 6490 6491 0
-6489 6477 6478 6479 6480 6481 6482 6483 6484 6485 6486 6487 6488 6490 6491 0
-6490 6477 6478 6479 6480 6481 6482 6483 6484 6485 6486 6487 6488 6489 6491 0
-6491 6477 6478 6479 6480 6481 6482 6483 6484 6485 6486 6487 6488 6489 6490 0
6492 -7 -24 -67 -83 0
-6492 7 0
-6492 24 0
-6492 67 0
-6492 83 0
6493 -10 -24 -58 -83 0
-6493 10 0
-6493 24 0
-6493 58 0
-6493 83 0
6494 -13 -24 -55 -83 0
-6494 13 0
-6494 24 0
-6494 55 0
-6494 83 0
-6492 6493 6494 0
-6493 6492 6494 0
-6494 6492 6493 0
6495 -7 -24 -67 -84 0
-6495 7 0
-6495 24 0
-6495 67 0
-6495 84 0
6496 -7 -36 -54 -67 0
-6496 7 0
-6496 36 0
-6496 54 0
-6496 67 0
6497 -7 -39 -51 -67 0
-6497 7 0
-6497 39 0
-6497 51 0
-6497 67 0
6498 -10 -24 -58 -84 0
-6498 10 0
-6498 24 0
-6498 58 0
-6498 84 0
6499 -10 -36 -54 -58 0
-6499 10 0
-6499 36 0
-6499 54 0
-6499 58 0
6500 -10 -39 -51 -58 0
-6500 10 0
-6500 39 0
-6500 51 0
-6500 58 0
6501 -13 -24 -55 -84 0
-6501 13 0
-6501 24 0
-6501 55 0
-6501 84 0
6502 -13 -36 -54 -55 0
-6502 13 0
-6502 36 0
-6502 54 0
-6502 55 0
6503 -13 -39 -51 -55 0
-6503 13 0
-6503 39 0
-6503 51 0
-6503 55 0
-6495 6496 6497 6498 6499 6500 6501 6502 6503 0
-6496 6495 6497 6498 6499 6500 6501 6502 6503 0
-6497 6495 6496 6498 6499 6500 6501 6502 6503 0
-6498 6495 6496 6497 6499 6500 6501 6502 6503 0
-6499 6495 6496 6497 6498 6500 6501 6502 6503 0
-6500 6495 6496 6497 6498 6499 6501 6502 6503 0
-6501 6495 6496 6497 6498 6499 6500 6502 6503 0
-6502 6495 6496 6497 6498 6499 6500 6501 6503 0
-6503 6495 6496 6497 6498 6499 6500 6501 6502 0
6504 -7 -24 -68 -82 0
-6504 7 0
-6504 24 0
-6504 68 0
-6504 82 0
6505 -16 -24 -64 -68 0
-6505 16 0
-6505 24 0
-6505 64 0
-6505 68 0
6506 -19 -24 -61 -68 0
-6506 19 0
-6506 24 0
-6506 61 0
-6506 68 0
-6504 6505 6506 0
-6505 6504 6506 0
-6506 6504 6505 0
6507 -7 -24 -68 -83 0
-6507 7 0
-6507 24 0
-6507 68 0
-6507 83 0
6508 -7 -24 -71 -80 0
-6508 7 0
-6508 24 0
-6508 71 0
-6508 80 0
6509 -7 -24 -74 -77 0
-6509 7 0
-6509 24 0
-6509 74 0
-6509 77 0
-6507 6508 6509 0
-6508 6507 6509 0
-6509 6507 6508 0
6510 -7 -24 -68 -84 0
-6510 7 0
-6510 24 0
-6510 68 0
-6510 84 0
6511 -7 -36 -54 -68 0
-6511 7 0
-6511 36 0
-6511 54 0
-6511 68 0
6512 -7 -39 -51 -68 0
-6512 7 0
-6512 39 0
-6512 51 0
-6512 68 0
-6510 6511 6512 0
-6511 6510 6512 0
-6512 6510 6511 0
6513 -7 -24 -69 -82 0
-6513 7 0
-6513 24 0
-6513 69 0
-6513 82 0
6514 -7 -30 -48 -82 0
-6514 7 0
-6514 30 0
-6514 48 0
-6514 82 0
6515 -7 -33 -45 -82 0
-6515 7 0
-6515 33 0
-6515 45 0
-6515 82 0
6516 -16 -24 -64 -69 0
-6516 16 0
-6516 24 0
-6516 64 0
-6516 69 0
6517 -16 -30 -48 -64 0
-6517 16 0
-6517 30 0
-6517 48 0
-6517 64 0
6518 -16 -33 -45 -64 0
-6518 16 0
-6518 33 0
-6518 45 0
-6518 64 0
6519 -19 -24 -61 -69 0
-6519 19 0
-6519 24 0
-6519 61 0
-6519 69 0
6520 -19 -30 -48 -61 0
-6520 19 0
-6520 30 0
-6520 48 0
-6520 61 0
6521 -19 -33 -45 -61 0
-6521 19 0
-6521 33 0
-6521 45 0
-6521 61 0
-6513 6514 6515 6516 6517 6518 6519 6520 6521 0
-6514 6513 6515 6516 6517 6518 6519 6520 6521 0
-6515 6513 6514 6516 6517 6518 6519 6520 6521 0
-6516 6513 6514 6515 6517 6518 6519 6520 6521 0
-6517 6513 6514 6515 6516 6518 6519 6520 6521 0
-6518 6513 6514 6515 6516 6517 6519 6520 6521 0
-6519 6513 6514 6515 6516 6517 6518 6520 6521 0
-6520 6513 6514 6515 6516 6517 6518 6519 6521 0
-6521 6513 6514 6515 6516 6517 6518 6519 6520 0
6522 -7 -24 -69 -83 0
-6522 7 0
-6522 24 0
-6522 69 0
-6522 83 0
6523 -7 -30 -48 -83 0
-6523 7 0
-6523 30 0
-6523 48 0
-6523 83 0
6524 -7 -33 -45 -83 0
-6524 7 0
-6524 33 0
-6524 45 0
-6524 83 0
-6522 6523 6524 0
-6523 6522 6524 0
-6524 6522 6523 0
6525 -7 -24 -69 -84 0
-6525 7 0
-6525 24 0
-6525 69 0
-6525 84 0
6526 -7 -24 -72 -81 0
-6526 7 0
-6526 24 0
-6526 72 0
-6526 81 0
6527 -7 -24 -75 -78 0
-6527 7 0
-6527 24 0
-6527 75 0
-6527 78 0
6528 -7 -30 -48 -84 0
-6528 7 0
-6528 30 0
-6528 48 0
-6528 84 0
6529 -7 -30 -51 -81 0
-6529 7 0
-6529 30 0
-6529 51 0
-6529 81 0
6530 -7 -30 -54 -78 0
-6530 7 0
-6530 30 0
-6530 54 0
-6530 78 0
6531 -7 -33 -45 -84 0
-6531 7 0
-6531 33 0
-6531 45 0
-6531 84 0
6532 -7 -33 -51 -75 0
-6532 7 0
-6532 33 0
-6532 51 0
-6532 75 0
6533 -7 -33 -54 -72 0
-6533 7 0
-6533 33 0
-6533 54 0
-6533 72 0
6534 -7 -36 -45 -81 0
-6534 7 0
-6534 36 0
-6534 45 0
-6534 81 0
6535 -7 -36 -48 -75 0
-6535 7 0
-6535 36 0
-6535 48 0
-6535 75 0
6536 -7 -36 -54 -69 0
-6536 7 0
-6536 36 0
-6536 54 0
-6536 69 0
6537 -7 -39 -45 -78 0
-6537 7 0
-6537 39 0
-6537 45 0
-6537 78 0
6538 -7 -39 -48 -72 0
-6538 7 0
-6538 39 0
-6538 48 0
-6538 72 0
6539 -7 -39 -51 -69 0
-6539 7 0
-6539 39 0
-6539 51 0
-6539 69 0
-6525 6526 6527 6528 6529 6530 6531 6532 6533 6534 6535 6536 6537 6538 6539 0
-6526 6525 6527 6528 6529 6530 6531 6532 6533 6534 6535 6536 6537 6538 6539 0
-6527 6525 6526 6528 6529 6530 6531 6532 6533 6534 6535 6536 6537 6538 6539 0
-6528 6525 6526 6527 6529 6530 6531 6532 6533 6534 6535 6536 6537 6538 6539 0
-6529 6525 6526 6527 6528 6530 6531 6532 6533 6534 6535 6536 6537 6538 6539 0
-6530 6525 6526 6527 6528 6529 6531 6532 6533 6534 6535 6536 6537 6538 6539 0
-6531 6525 6526 6527 6528 6529 6530 6532 6533 6534 6535 6536 6537 6538 6539 0
-6532 6525 6526 6527 6528 6529 6530 6531 6533 6534 6535 6536 6537 6538 6539 0
-6533 6525 6526 6527 6528 6529 6530 6531 6532 6534 6535 6536 6537 6538 6539 0
-6534 6525 6526 6527 6528 6529 6530 6531 6532 6533 6535 6536 6537 6538 6539 0
-6535 6525 6526 6527 6528 6529 6530 6531 6532 6533 6534 6536 6537 6538 6539 0
-6536 6525 6526 6527 6528 6529 6530 6531 6532 6533 6534 6535 6537 6538 6539 0
-6537 6525 6526 6527 6528 6529 6530 6531 6532 6533 6534 6535 6536 6538 6539 0
-6538 6525 6526 6527 6528 6529 6530 6531 6532 6533 6534 6535 6536 6537 6539 0
-6539 6525 6526 6527 6528 6529 6530 6531 6532 6533 6534 6535 6536 6537 6538 0
6540 -8 -22 -67 -82 0
-6540 8 0
-6540 22 0
-6540 67 0
-6540 82 0
6541 -8 -22 -70 -79 0
-6541 8 0
-6541 22 0
-6541 70 0
-6541 79 0
6542 -8 -22 -73 -76 0
-6542 8 0
-6542 22 0
-6542 73 0
-6542 76 0
6543 -8 -28 -46 -82 0
-6543 8 0
-6543 28 0
-6543 46 0
-6543 82 0
6544 -8 -28 -49 -79 0
-6544 8 0
-6544 28 0
-6544 49 0
-6544 79 0
6545 -8 -28 -52 -76 0
-6545 8 0
-6545 28 0
-6545 52 0
-6545 76 0
6546 -8 -31 -43 -82 0
-6546 8 0
-6546 31 0
-6546 43 0
-6546 82 0
6547 -8 -31 -49 -73 0
-6547 8 0
-6547 31 0
-6547 49 0
-6547 73 0
6548 -8 -31 -52 -70 0
-6548 8 0
-6548 31 0
-6548 52 0
-6548 70 0
6549 -8 -34 -43 -79 0
-6549 8 0
-6549 34 0
-6549 43 0
-6549 79 0
6550 -8 -34 -46 -73 0
-6550 8 0
-6550 34 0
-6550 46 0
-6550 73 0
6551 -8 -34 -52 -67 0
-6551 8 0
-6551 34 0
-6551 52 0
-6551 67 0
6552 -8 -37 -43 -76 0
-6552 8 0
-6552 37 0
-6552 43 0
-6552 76 0
6553 -8 -37 -46 -70 0
-6553 8 0
-6553 37 0
-6553 46 0
-6553 70 0
6554 -8 -37 -49 -67 0
-6554 8 0
-6554 37 0
-6554 49 0
-6554 67 0
-6540 6541 6542 6543 6544 6545 6546 6547 6548 6549 6550 6551 6552 6553 6554 0
-6541 6540 6542 6543 6544 6545 6546 6547 6548 6549 6550 6551 6552 6553 6554 0
-6542 6540 6541 6543 6544 6545 6546 6547 6548 6549 6550 6551 6552 6553 6554 0
-6543 6540 6541 6542 6544 6545 6546 6547 6548 6549 6550 6551 6552 6553 6554 0
-6544 6540 6541 6542 6543 6545 6546 6547 6548 6549 6550 6551 6552 6553 6554 0
-6545 6540 6541 6542 6543 6544 6546 6547 6548 6549 6550 6551 6552 6553 6554 0
-6546 6540 6541 6542 6543 6544 6545 6547 6548 6549 6550 6551 6552 6553 6554 0
-6547 6540 6541 6542 6543 6544 6545 6546 6548 6549 6550 6551 6552 6553 6554 0
-6548 6540 6541 6542 6543 6544 6545 6546 6547 6549 6550 6551 6552 6553 6554 0
-6549 6540 6541 6542 6543 6544 6545 6546 6547 6548 6550 6551 6552 6553 6554 0
-6550 6540 6541 6542 6543 6544 6545 6546 6547 6548 6549 6551 6552 6553 6554 0
-6551 6540 6541 6542 6543 6544 6545 6546 6547 6548 6549 6550 6552 6553 6554 0
-6552 6540 6541 6542 6543 6544 6545 6546 6547 6548 6549 6550 6551 6553 6554 0
-6553 6540 6541 6542 6543 6544 6545 6546 6547 6548 6549 6550 6551 6552 6554 0
-6554 6540 6541 6542 6543 6544 6545 6546 6547 6548 6549 6550 6551 6552 6553 0
6555 -8 -22 -67 -83 0
-6555 8 0
-6555 22 0
-6555 67 0
-6555 83 0
6556 -8 -28 -46 -83 0
-6556 8 0
-6556 28 0
-6556 46 0
-6556 83 0
6557 -8 -31 -43 -83 0
-6557 8 0
-6557 31 0
-6557 43 0
-6557 83 0
6558 -17 -22 -65 -67 0
-6558 17 0
-6558 22 0
-6558 65 0
-6558 67 0
6559 -17 -28 -46 -65 0
-6559 17 0
-6559 28 0
-6559 46 0
-6559 65 0
6560 -17 -31 -43 -65 0
-6560 17 0
-6560 31 0
-6560 43 0
-6560 65 0
6561 -20 -22 -62 -67 0
-6561 20 0
-6561 22 0
-6561 62 0
-6561 67 0
6562 -20 -28 -46 -62 0
-6562 20 0
-6562 28 0
-6562 46 0
-6562 62 0
6563 -20 -31 -43 -62 0
-6563 20 0
-6563 31 0
-6563 43 0
-6563 62 0
-6555 6556 6557 6558 6559 6560 6561 6562 6563 0
-6556 6555 6557 6558 6559 6560 6561 6562 6563 0
-6557 6555 6556 6558 6559 6560 6561 6562 6563 0
-6558 6555 6556 6557 6559 6560 6561 6562 6563 0
-6559 6555 6556 6557 6558 6560 6561 6562 6563 0
-6560 6555 6556 6557 6558 6559 6561 6562 6563 0
-6561 6555 6556 6557 6558 6559 6560 6562 6563 0
-6562 6555 6556 6557 6558 6559 6560 6561 6563 0
-6563 6555 6556 6557 6558 6559 6560 6561 6562 0
6564 -8 -22 -67 -84 0
-6564 8 0
-6564 22 0
-6564 67 0
-6564 84 0
6565 -8 -28 -46 -84 0
-6565 8 0
-6565 28 0
-6565 46 0
-6565 84 0
6566 -8 -31 -43 -84 0
-6566 8 0
-6566 31 0
-6566 43 0
-6566 84 0
-6564 6565 6566 0
-6565 6564 6566 0
-6566 6564 6565 0
6567 -8 -22 -68 -82 0
-6567 8 0
-6567 22 0
-6567 68 0
-6567 82 0
6568 -8 -34 -52 -68 0
-6568 8 0
-6568 34 0
-6568 52 0
-6568 68 0
6569 -8 -37 -49 -68 0
-6569 8 0
-6569 37 0
-6569 49 0
-6569 68 0
6570 -11 -22 -59 -82 0
-6570 11 0
-6570 22 0
-6570 59 0
-6570 82 0
6571 -11 -34 -52 -59 0
-6571 11 0
-6571 34 0
-6571 52 0
-6571 59 0
6572 -11 -37 -49 -59 0
-6572 11 0
-6572 37 0
-6572 49 0
-6572 59 0
6573 -14 -22 -56 -82 0
-6573 14 0
-6573 22 0
-6573 56 0
-6573 82 0
6574 -14 -34 -52 -56 0
-6574 14 0
-6574 34 0
-6574 52 0
-6574 56 0
6575 -14 -37 -49 -56 0
-6575 14 0
-6575 37 0
-6575 49 0
-6575 56 0
-6567 6568 6569 6570 6571 6572 6573 6574 6575 0
-6568 6567 6569 6570 6571 6572 6573 6574 6575 0
-6569 6567 6568 6570 6571 6572 6573 6574 6575 0
-6570 6567 6568 6569 6571 6572 6573 6574 6575 0
-6571 6567 6568 6569 6570 6572 6573 6574 6575 0
-6572 6567 6568 6569 6570 6571 6573 6574 6575 0
-6573 6567 6568 6569 6570 6571 6572 6574 6575 0
-6574 6567 6568 6569 6570 6571 6572 6573 6575 0
-6575 6567 6568 6569 6570 6571 6572 6573 6574 0
6576 -8 -22 -68 -83 0
-6576 8 0
-6576 22 0
-6576 68 0
-6576 83 0
6577 -8 -22 -71 -80 0
-6577 8 0
-6577 22 0
-6577 71 0
-6577 80 0
6578 -8 -22 -74 -77 0
-6578 8 0
-6578 22 0
-6578 74 0
-6578 77 0
6579 -11 -22 -59 -83 0
-6579 11 0
-6579 22 0
-6579 59 0
-6579 83 0
6580 -11 -22 -62 -80 0
-6580 11 0
-6580 22 0
-6580 62 0
-6580 80 0
6581 -11 -22 -65 -77 0
-6581 11 0
-6581 22 0
-6581 65 0
-6581 77 0
6582 -14 -22 -56 -83 0
-6582 14 0
-6582 22 0
-6582 56 0
-6582 83 0
6583 -14 -22 -62 -74 0
-6583 14 0
-6583 22 0
-6583 62 0
-6583 74 0
6584 -14 -22 -65 -71 0
-6584 14 0
-6584 22 0
-6584 65 0
-6584 71 0
6585 -17 -22 -56 -80 0
-6585 17 0
-6585 22 0
-6585 56 0
-6585 80 0
6586 -17 -22 -59 -74 0
-6586 17 0
-6586 22 0
-6586 59 0
-6586 74 0
6587 -17 -22 -65 -68 0
-6587 17 0
-6587 22 0
-6587 65 0
-6587 68 0
6588 -20 -22 -56 -77 0
-6588 20 0
-6588 22 0
-6588 56 0
-6588 77 0
6589 -20 -22 -59 -71 0
-6589 20 0
-6589 22 0
-6589 59 0
-6589 71 0
6590 -20 -22 -62 -68 0
-6590 20 0
-6590 22 0
-6590 62 0
-6590 68 0
-6576 6577 6578 6579 6580 6581 6582 6583 6584 6585 6586 6587 6588 6589 6590 0
-6577 6576 6578 6579 6580 6581 6582 6583 6584 6585 6586 6587 6588 6589 6590 0
-6578 6576 6577 6579 6580 6581 6582 6583 6584 6585 6586 6587 6588 6589 6590 0
-6579 6576 6577 6578 6580 6581 6582 6583 6584 6585 6586 6587 6588 6589 6590 0
-6580 6576 6577 6578 6579 6581 6582 6583 6584 6585 6586 6587 6588 6589 6590 0
-6581 6576 6577 6578 6579 6580 6582 6583 6584 6585 6586 6587 6588 6589 6590 0
-6582 6576 6577 6578 6579 6580 6581 6583 6584 6585 6586 6587 6588 6589 6590 0
-6583 6576 6577 6578 6579 6580 6581 6582 6584 6585 6586 6587 6588 6589 6590 0
-6584 6576 6577 6578 6579 6580 6581 6582 6583 6585 6586 6587 6588 6589 6590 0
-6585 6576 6577 6578 6579 6580 6581 6582 6583 6584 6586 6587 6588 6589 6590 0
-6586 6576 6577 6578 6579 6580 6581 6582 6583 6584 6585 6587 6588 6589 6590 0
-6587 6576 6577 6578 6579 6580 6581 6582 6583 6584 6585 6586 6588 6589 6590 0
-6588 6576 6577 6578 6579 6580 6581 6582 6583 6584 6585 6586 6587 6589 6590 0
-6589 6576 6577 6578 6579 6580 6581 6582 6583 6584 6585 6586 6587 6588 6590 0
-6590 6576 6577 6578 6579 6580 6581 6582 6583 6584 6585 6586 6587 6588 6589 0
6591 -8 -22 -68 -84 0
-6591 8 0
-6591 22 0
-6591 68 0
-6591 84 0
6592 -11 -22 -59 -84 0
-6592 11 0
-6592 22 0
-6592 59 0
-6592 84 0
6593 -14 -22 -56 -84 0
-6593 14 0
-6593 22 0
-6593 56 0
-6593 84 0
-6591 6592 6593 0
-6592 6591 6593 0
-6593 6591 6592 0
6594 -8 -22 -69 -82 0
-6594 8 0
-6594 22 0
-6594 69 0
-6594 82 0
6595 -8 -34 -52 -69 0
-6595 8 0
-6595 34 0
-6595 52 0
-6595 69 0
6596 -8 -37 -49 -69 0
-6596 8 0
-6596 37 0
-6596 49 0
-6596 69 0
-6594 6595 6596 0
-6595 6594 6596 0
-6596 6594 6595 0
6597 -8 -22 -69 -83 0
-6597 8 0
-6597 22 0
-6597 69 0
-6597 83 0
6598 -17 -22 -65 -69 0
-6598 17 0
-6598 22 0
-6598 65 0
-6598 69 0
6599 -20 -22 -62 -69 0
-6599 20 0
-6599 22 0
-6599 62 0
-6599 69 0
-6597 6598 6599 0
-6598 6597 6599 0
-6599 6597 6598 0
6600 -8 -22 -69 -84 0
-6600 8 0
-6600 22 0
-6600 69 0
-6600 84 0
6601 -8 -22 -72 -81 0
-6601 8 0
-6601 22 0
-6601 72 0
-6601 81 0
6602 -8 -22 -75 -78 0
-6602 8 0
-6602 22 0
-6602 75 0
-6602 78 0
-6600 6601 6602 0
-6601 6600 6602 0
-6602 6600 6601 0
6603 -8 -24 -67 -82 0
-6603 8 0
-6603 24 0
-6603 67 0
-6603 82 0
6604 -8 -24 -70 -79 0
-6604 8 0
-6604 24 0
-6604 70 0
-6604 79 0
6605 -8 -24 -73 -76 0
-6605 8 0
-6605 24 0
-6605 73 0
-6605 76 0
-6603 6604 6605 0
-6604 6603 6605 0
-6605 6603 6604 0
6606 -8 -24 -67 -83 0
-6606 8 0
-6606 24 0
-6606 67 0
-6606 83 0
6607 -17 -24 -65 -67 0
-6607 17 0
-6607 24 0
-6607 65 0
-6607 67 0
6608 -20 -24 -62 -67 0
-6608 20 0
-6608 24 0
-6608 62 0
-6608 67 0
-6606 6607 6608 0
-6607 6606 6608 0
-6608 6606 6607 0
6609 -8 -24 -67 -84 0
-6609 8 0
-6609 24 0
-6609 67 0
-6609 84 0
6610 -8 -36 -54 -67 0
-6610 8 0
-6610 36 0
-6610 54 0
-6610 67 0
6611 -8 -39 -51 -67 0
-6611 8 0
-6611 39 0
-6611 51 0
-6611 67 0
-6609 6610 6611 0
-6610 6609 6611 0
-6611 6609 6610 0
6612 -8 -24 -68 -82 0
-6612 8 0
-6612 24 0
-6612 68 0
-6612 82 0
6613 -11 -24 -59 -82 0
-6613 11 0
-6613 24 0
-6613 59 0
-6613 82 0
6614 -14 -24 -56 -82 0
-6614 14 0
-6614 24 0
-6614 56 0
-6614 82 0
-6612 6613 6614 0
-6613 6612 6614 0
-6614 6612 6613 0
6615 -8 -24 -68 -83 0
-6615 8 0
-6615 24 0
-6615 68 0
-6615 83 0
6616 -8 -24 -71 -80 0
-6616 8 0
-6616 24 0
-6616 71 0
-6616 80 0
6617 -8 -24 -74 -77 0
-6617 8 0
-6617 24 0
-6617 74 0
-6617 77 0
6618 -11 -24 -59 -83 0
-6618 11 0
-6618 24 0
-6618 59 0
-6618 83 0
6619 -11 -24 -62 -80 0
-6619 11 0
-6619 24 0
-6619 62 0
-6619 80 0
6620 -11 -24 -65 -77 0
-6620 11 0
-6620 24 0
-6620 65 0
-6620 77 0
6621 -14 -24 -56 -83 0
-6621 14 0
-6621 24 0
-6621 56 0
-6621 83 0
6622 -14 -24 -62 -74 0
-6622 14 0
-6622 24 0
-6622 62 0
-6622 74 0
6623 -14 -24 -65 -71 0
-6623 14 0
-6623 24 0
-6623 65 0
-6623 71 0
6624 -17 -24 -56 -80 0
-6624 17 0
-6624 24 0
-6624 56 0
-6624 80 0
6625 -17 -24 -59 -74 0
-6625 17 0
-6625 24 0
-6625 59 0
-6625 74 0
6626 -17 -24 -65 -68 0
-6626 17 0
-6626 24 0
-6626 65 0
-6626 68 0
6627 -20 -24 -56 -77 0
-6627 20 0
-6627 24 0
-6627 56 0
-6627 77 0
6628 -20 -24 -59 -71 0
-6628 20 0
-6628 24 0
-6628 59 0
-6628 71 0
6629 -20 -24 -62 -68 0
-6629 20 0
-6629 24 0
-6629 62 0
-6629 68 0
-6615 6616 6617 6618 6619 6620 6621 6622 6623 6624 6625 6626 6627 6628 6629 0
-6616 6615 6617 6618 6619 6620 6621 6622 6623 6624 6625 6626 6627 6628 6629 0
-6617 6615 6616 6618 6619 6620 6621 6622 6623 6624 6625 6626 6627 6628 6629 0
-6618 6615 6616 6617 6619 6620 6621 6622 6623 6624 6625 6626 6627 6628 6629 0
-6619 6615 6616 6617 6618 6620 6621 6622 6623 6624 6625 6626 6627 6628 6629 0
-6620 6615 6616 6617 6618 6619 6621 6622 6623 6624 6625 6626 6627 6628 6629 0
-6621 6615 6616 6617 6618 6619 6620 6622 6623 6624 6625 6626 6627 6628 6629 0
-6622 6615 6616 6617 6618 6619 6620 6621 6623 6624 6625 6626 6627 6628 6629 0
-6623 6615 6616 6617 6618 6619 6620 6621 6622 6624 6625 6626 6627 6628 6629 0
-6624 6615 6616 6617 6618 6619 6620 6621 6622 6623 6625 6626 6627 6628 6629 0
-6625 6615 6616 6617 6618 6619 6620 6621 6622 6623 6624 6626 6627 6628 6629 0
-6626 6615 6616 6617 6618 6619 6620 6621 6622 6623 6624 6625 6627 6628 6629 0
-6627 6615 6616 6617 6618 6619 6620 6621 6622 6623 6624 6625 6626 6628 6629 0
-6628 6615 6616 6617 6618 6619 6620 6621 6622 6623 6624 6625 6626 6627 6629 0
-6629 6615 6616 6617 6618 6619 6620 6621 6622 6623 6624 6625 6626 6627 6628 0
6630 -8 -24 -68 -84 0
-6630 8 0
-6630 24 0
-6630 68 0
-6630 84 0
6631 -8 -36 -54 -68 0
-6631 8 0
-6631 36 0
-6631 54 0
-6631 68 0
6632 -8 -39 -51 -68 0
-6632 8 0
-6632 39 0
-6632 51 0
-6632 68 0
6633 -11 -24 -59 -84 0
-6633 11 0
-6633 24 0
-6633 59 0
-6633 84 0
6634 -11 -36 -54 -59 0
-6634 11 0
-6634 36 0
-6634 54 0
-6634 59 0
6635 -11 -39 -51 -59 0
-6635 11 0
-6635 39 0
-6635 51 0
-6635 59 0
6636 -14 -24 -56 -84 0
-6636 14 0
-6636 24 0
-6636 56 0
-6636 84 0
6637 -14 -36 -54 -56 0
-6637 14 0
-6637 36 0
-6637 54 0
-6637 56 0
6638 -14 -39 -51 -56 0
-6638 14 0
-6638 39 0
-6638 51 0
-6638 56 0
-6630 6631 6632 6633 6634 6635 6636 6637 6638 0
-6631 6630 6632 6633 6634 6635 6636 6637 6638 0
-6632 6630 6631 6633 6634 6635 6636 6637 6638 0
-6633 6630 6631 6632 6634 6635 6636 6637 6638 0
-6634 6630 6631 6632 6633 6635 6636 6637 6638 0
-6635 6630 6631 6632 6633 6634 6636 6637 6638 0
-6636 6630 6631 6632 6633 6634 6635 6637 6638 0
-6637 6630 6631 6632 6633 6634 6635 6636 6638 0
-6638 6630 6631 6632 6633 6634 6635 6636 6637 0
6639 -8 -24 -69 -82 0
-6639 8 0
-6639 24 0
-6639 69 0
-6639 82 0
6640 -8 -30 -48 -82 0
-6640 8 0
-6640 30 0
-6640 48 0
-6640 82 0
6641 -8 -33 -45 -82 0
-6641 8 0
-6641 33 0
-6641 45 0
-6641 82 0
-6639 6640 6641 0
-6640 6639 6641 0
-6641 6639 6640 0
6642 -8 -24 -69 -83 0
-6642 8 0
-6642 24 0
-6642 69 0
-6642 83 0
6643 -8 -30 -48 -83 0
-6643 8 0
-6643 30 0
-6643 48 0
-6643 83 0
6644 -8 -33 -45 -83 0
-6644 8 0
-6644 33 0
-6644 45 0
-6644 83 0
6645 -17 -24 -65 -69 0
-6645 17 0
-6645 24 0
-6645 65 0
-6645 69 0
6646 -17 -30 -48 -65 0
-6646 17 0
-6646 30 0
-6646 48 0
-6646 65 0
6647 -17 -33 -45 -65 0
-6647 17 0
-6647 33 0
-6647 45 0
-6647 65 0
6648 -20 -24 -62 -69 0
-6648 20 0
-6648 24 0
-6648 62 0
-6648 69 0
6649 -20 -30 -48 -62 0
-6649 20 0
-6649 30 0
-6649 48 0
-6649 62 0
6650 -20 -33 -45 -62 0
-6650 20 0
-6650 33 0
-6650 45 0
-6650 62 0
-6642 6643 6644 6645 6646 6647 6648 6649 6650 0
-6643 6642 6644 6645 6646 6647 6648 6649 6650 0
-6644 6642 6643 6645 6646 6647 6648 6649 6650 0
-6645 6642 6643 6644 6646 6647 6648 6649 6650 0
-6646 6642 6643 6644 6645 6647 6648 6649 6650 0
-6647 6642 6643 6644 6645 6646 6648 6649 6650 0
-6648 6642 6643 6644 6645 6646 6647 6649 6650 0
-6649 6642 6643 6644 6645 6646 6647 6648 6650 0
-6650 6642 6643 6644 6645 6646 6647 6648 6649 0
6651 -8 -24 -69 -84 0
-6651 8 0
-6651 24 0
-6651 69 0
-6651 84 0
6652 -8 -24 -72 -81 0
-6652 8 0
-6652 24 0
-6652 72 0
-6652 81 0
6653 -8 -24 -75 -78 0
-6653 8 0
-6653 24 0
-6653 75 0
-6653 78 0
6654 -8 -30 -48 -84 0
-6654 8 0
-6654 30 0
-6654 48 0
-6654 84 0
6655 -8 -30 -51 -81 0
-6655 8 0
-6655 30 0
-6655 51 0
-6655 81 0
6656 -8 -30 -54 -78 0
-6656 8 0
-6656 30 0
-6656 54 0
-6656 78 0
6657 -8 -33 -45 -84 0
-6657 8 0
-6657 33 0
-6657 45 0
-6657 84 0
6658 -8 -33 -51 -75 0
-6658 8 0
-6658 33 0
-6658 51 0
-6658 75 0
6659 -8 -33 -54 -72 0
-6659 8 0
-6659 33 0
-6659 54 0
-6659 72 0
6660 -8 -36 -45 -81 0
-6660 8 0
-6660 36 0
-6660 45 0
-6660 81 0
6661 -8 -36 -48 -75 0
-6661 8 0
-6661 36 0
-6661 48 0
-6661 75 0
6662 -8 -36 -54 -69 0
-6662 8 0
-6662 36 0
-6662 54 0
-6662 69 0
6663 -8 -39 -45 -78 0
-6663 8 0
-6663 39 0
-6663 45 0
-6663 78 0
6664 -8 -39 -48 -72 0
-6664 8 0
-6664 39 0
-6664 48 0
-6664 72 0
6665 -8 -39 -51 -69 0
-6665 8 0
-6665 39 0
-6665 51 0
-6665 69 0
-6651 6652 6653 6654 6655 6656 6657 6658 6659 6660 6661 6662 6663 6664 6665 0
-6652 6651 6653 6654 6655 6656 6657 6658 6659 6660 6661 6662 6663 6664 6665 0
-6653 6651 6652 6654 6655 6656 6657 6658 6659 6660 6661 6662 6663 6664 6665 0
-6654 6651 6652 6653 6655 6656 6657 6658 6659 6660 6661 6662 6663 6664 6665 0
-6655 6651 6652 6653 6654 6656 6657 6658 6659 6660 6661 6662 6663 6664 6665 0
-6656 6651 6652 6653 6654 6655 6657 6658 6659 6660 6661 6662 6663 6664 6665 0
-6657 6651 6652 6653 6654 6655 6656 6658 6659 6660 6661 6662 6663 6664 6665 0
-6658 6651 6652 6653 6654 6655 6656 6657 6659 6660 6661 6662 6663 6664 6665 0
-6659 6651 6652 6653 6654 6655 6656 6657 6658 6660 6661 6662 6663 6664 6665 0
-6660 6651 6652 6653 6654 6655 6656 6657 6658 6659 6661 6662 6663 6664 6665 0
-6661 6651 6652 6653 6654 6655 6656 6657 6658 6659 6660 6662 6663 6664 6665 0
-6662 6651 6652 6653 6654 6655 6656 6657 6658 6659 6660 6661 6663 6664 6665 0
-6663 6651 6652 6653 6654 6655 6656 6657 6658 6659 6660 6661 6662 6664 6665 0
-6664 6651 6652 6653 6654 6655 6656 6657 6658 6659 6660 6661 6662 6663 6665 0
-6665 6651 6652 6653 6654 6655 6656 6657 6658 6659 6660 6661 6662 6663 6664 0
6666 -9 -22 -67 -82 0
-6666 9 0
-6666 22 0
-6666 67 0
-6666 82 0
6667 -9 -22 -70 -79 0
-6667 9 0
-6667 22 0
-6667 70 0
-6667 79 0
6668 -9 -22 -73 -76 0
-6668 9 0
-6668 22 0
-6668 73 0
-6668 76 0
6669 -9 -28 -46 -82 0
-6669 9 0
-6669 28 0
-6669 46 0
-6669 82 0
6670 -9 -28 -49 -79 0
-6670 9 0
-6670 28 0
-6670 49 0
-6670 79 0
6671 -9 -28 -52 -76 0
-6671 9 0
-6671 28 0
-6671 52 0
-6671 76 0
6672 -9 -31 -43 -82 0
-6672 9 0
-6672 31 0
-6672 43 0
-6672 82 0
6673 -9 -31 -49 -73 0
-6673 9 0
-6673 31 0
-6673 49 0
-6673 73 0
6674 -9 -31 -52 -70 0
-6674 9 0
-6674 31 0
-6674 52 0
-6674 70 0
6675 -9 -34 -43 -79 0
-6675 9 0
-6675 34 0
-6675 43 0
-6675 79 0
6676 -9 -34 -46 -73 0
-6676 9 0
-6676 34 0
-6676 46 0
-6676 73 0
6677 -9 -34 -52 -67 0
-6677 9 0
-6677 34 0
-6677 52 0
-6677 67 0
6678 -9 -37 -43 -76 0
-6678 9 0
-6678 37 0
-6678 43 0
-6678 76 0
6679 -9 -37 -46 -70 0
-6679 9 0
-6679 37 0
-6679 46 0
-6679 70 0
6680 -9 -37 -49 -67 0
-6680 9 0
-6680 37 0
-6680 49 0
-6680 67 0
-6666 6667 6668 6669 6670 6671 6672 6673 6674 6675 6676 6677 6678 6679 6680 0
-6667 6666 6668 6669 6670 6671 6672 6673 6674 6675 6676 6677 6678 6679 6680 0
-6668 6666 6667 6669 6670 6671 6672 6673 6674 6675 6676 6677 6678 6679 6680 0
-6669 6666 6667 6668 6670 6671 6672 6673 6674 6675 6676 6677 6678 6679 6680 0
-6670 6666 6667 6668 6669 6671 6672 6673 6674 6675 6676 6677 6678 6679 6680 0
-6671 6666 6667 6668 6669 6670 6672 6673 6674 6675 6676 6677 6678 6679 6680 0
-6672 6666 6667 6668 6669 6670 6671 6673 6674 6675 6676 6677 6678 6679 6680 0
-6673 6666 6667 6668 6669 6670 6671 6672 6674 6675 6676 6677 6678 6679 6680 0
-6674 6666 6667 6668 6669 6670 6671 6672 6673 6675 6676 6677 6678 6679 6680 0
-6675 6666 6667 6668 6669 6670 6671 6672 6673 6674 6676 6677 6678 6679 6680 0
-6676 6666 6667 6668 6669 6670 6671 6672 6673 6674 6675 6677 6678 6679 6680 0
-6677 6666 6667 6668 6669 6670 6671 6672 6673 6674 6675 6676 6678 6679 6680 0
-6678 6666 6667 6668 6669 6670 6671 6672 6673 6674 6675 6676 6677 6679 6680 0
-6679 6666 6667 6668 6669 6670 6671 6672 6673 6674 6675 6676 6677 6678 6680 0
-6680 6666 6667 6668 6669 6670 6671 6672 6673 6674 6675 6676 6677 6678 6679 0
6681 -9 -22 -67 -83 0
-6681 9 0
-6681 22 0
-6681 67 0
-6681 83 0
6682 -9 -28 -46 -83 0
-6682 9 0
-6682 28 0
-6682 46 0
-6682 83 0
6683 -9 -31 -43 -83 0
-6683 9 0
-6683 31 0
-6683 43 0
-6683 83 0
-6681 6682 6683 0
-6682 6681 6683 0
-6683 6681 6682 0
6684 -9 -22 -67 -84 0
-6684 9 0
-6684 22 0
-6684 67 0
-6684 84 0
6685 -9 -28 -46 -84 0
-6685 9 0
-6685 28 0
-6685 46 0
-6685 84 0
6686 -9 -31 -43 -84 0
-6686 9 0
-6686 31 0
-6686 43 0
-6686 84 0
6687 -18 -22 -66 -67 0
-6687 18 0
-6687 22 0
-6687 66 0
-6687 67 0
6688 -18 -28 -46 -66 0
-6688 18 0
-6688 28 0
-6688 46 0
-6688 66 0
6689 -18 -31 -43 -66 0
-6689 18 0
-6689 31 0
-6689 43 0
-6689 66 0
6690 -21 -22 -63 -67 0
-6690 21 0
-6690 22 0
-6690 63 0
-6690 67 0
6691 -21 -28 -46 -63 0
-6691 21 0
-6691 28 0
-6691 46 0
-6691 63 0
6692 -21 -31 -43 -63 0
-6692 21 0
-6692 31 0
-6692 43 0
-6692 63 0
-6684 6685 6686 6687 6688 6689 6690 6691 6692 0
-6685 6684 6686 6687 6688 6689 6690 6691 6692 0
-6686 6684 6685 6687 6688 6689 6690 6691 6692 0
-6687 6684 6685 6686 6688 6689 6690 6691 6692 0
-6688 6684 6685 6686 6687 6689 6690 6691 6692 0
-6689 6684 6685 6686 6687 6688 6690 6691 6692 0
-6690 6684 6685 6686 6687 6688 6689 6691 6692 0
-6691 6684 6685 6686 6687 6688 6689 6690 6692 0
-6692 6684 6685 6686 6687 6688 6689 6690 6691 0
6693 -9 -22 -68 -82 0
-6693 9 0
-6693 22 0
-6693 68 0
-6693 82 0
6694 -9 -34 -52 -68 0
-6694 9 0
-6694 34 0
-6694 52 0
-6694 68 0
6695 -9 -37 -49 -68 0
-6695 9 0
-6695 37 0
-6695 49 0
-6695 68 0
-6693 6694 6695 0
-6694 6693 6695 0
-6695 6693 6694 0
6696 -9 -22 -68 -83 0
-6696 9 0
-6696 22 0
-6696 68 0
-6696 83 0
6697 -9 -22 -71 -80 0
-6697 9 0
-6697 22 0
-6697 71 0
-6697 80 0
6698 -9 -22 -74 -77 0
-6698 9 0
-6698 22 0
-6698 74 0
-6698 77 0
-6696 6697 6698 0
-6697 6696 6698 0
-6698 6696 6697 0
6699 -9 -22 -68 -84 0
-6699 9 0
-6699 22 0
-6699 68 0
-6699 84 0
6700 -18 -22 -66 -68 0
-6700 18 0
-6700 22 0
-6700 66 0
-6700 68 0
6701 -21 -22 -63 -68 0
-6701 21 0
-6701 22 0
-6701 63 0
-6701 68 0
-6699 6700 6701 0
-6700 6699 6701 0
-6701 6699 6700 0
6702 -9 -22 -69 -82 0
-6702 9 0
-6702 22 0
-6702 69 0
-6702 82 0
6703 -9 -34 -52 -69 0
-6703 9 0
-6703 34 0
-6703 52 0
-6703 69 0
6704 -9 -37 -49 -69 0
-6704 9 0
-6704 37 0
-6704 49 0
-6704 69 0
6705 -12 -22 -60 -82 0
-6705 12 0
-6705 22 0
-6705 60 0
-6705 82 0
6706 -12 -34 -52 -60 0
-6706 12 0
-6706 34 0
-6706 52 0
-6706 60 0
6707 -12 -37 -49 -60 0
-6707 12 0
-6707 37 0
-6707 49 0
-6707 60 0
6708 -15 -22 -57 -82 0
-6708 15 0
-6708 22 0
-6708 57 0
-6708 82 0
6709 -15 -34 -52 -57 0
-6709 15 0
-6709 34 0
-6709 52 0
-6709 57 0
6710 -15 -37 -49 -57 0
-6710 15 0
-6710 37 0
-6710 49 0
-6710 57 0
-6702 6703 6704 6705 6706 6707 6708 6709 6710 0
-6703 6702 6704 6705 6706 6707 6708 6709 6710 0
-6704 6702 6703 6705 6706 6707 6708 6709 6710 0
-6705 6702 6703 6704 6706 6707 6708 6709 6710 0
-6706 6702 6703 6704 6705 6707 6708 6709 6710 0
-6707 6702 6703 6704 6705 6706 6708 6709 6710 0
-6708 6702 6703 6704 6705 6706 6707 6709 6710 0
-6709 6702 6703 6704 6705 6706 6707 6708 6710 0
-6710 6702 6703 6704 6705 6706 6707 6708 6709 0
6711 -9 -22 -69 -83 0
-6711 9 0
-6711 22 0
-6711 69 0
-6711 83 0
6712 -12 -22 -60 -83 0
-6712 12 0
-6712 22 0
-6712 60 0
-6712 83 0
6713 -15 -22 -57 -83 0
-6713 15 0
-6713 22 0
-6713 57 0
-6713 83 0
-6711 6712 6713 0
-6712 6711 6713 0
-6713 6711 6712 0
6714 -9 -22 -69 -84 0
-6714 9 0
-6714 22 0
-6714 69 0
-6714 84 0
6715 -9 -22 -72 -81 0
-6715 9 0
-6715 22 0
-6715 72 0
-6715 81 0
6716 -9 -22 -75 -78 0
-6716 9 0
-6716 22 0
-6716 75 0
-6716 78 0
6717 -12 -22 -60 -84 0
-6717 12 0
-6717 22 0
-6717 60 0
-6717 84 0
6718 -12 -22 -63 -81 0
-6718 12 0
-6718 22 0
-6718 63 0
-6718 81 0
6719 -12 -22 -66 -78 0
-6719 12 0
-6719 22 0
-6719 66 0
-6719 78 0
6720 -15 -22 -57 -84 0
-6720 15 0
-6720 22 0
-6720 57 0
-6720 84 0
6721 -15 -22 -63 -75 0
-6721 15 0
-6721 22 0
-6721 63 0
-6721 75 0
6722 -15 -22 -66 -72 0
-6722 15 0
-6722 22 0
-6722 66 0
-6722 72 0
6723 -18 -22 -57 -81 0
-6723 18 0
-6723 22 0
-6723 57 0
-6723 81 0
6724 -18 -22 -60 -75 0
-6724 18 0
-6724 22 0
-6724 60 0
-6724 75 0
6725 -18 -22 -66 -69 0
-6725 18 0
-6725 22 0
-6725 66 0
-6725 69 0
6726 -21 -22 -57 -78 0
-6726 21 0
-6726 22 0
-6726 57 0
-6726 78 0
6727 -21 -22 -60 -72 0
-6727 21 0
-6727 22 0
-6727 60 0
-6727 72 0
6728 -21 -22 -63 -69 0
-6728 21 0
-6728 22 0
-6728 63 0
-6728 69 0
-6714 6715 6716 6717 6718 6719 6720 6721 6722 6723 6724 6725 6726 6727 6728 0
-6715 6714 6716 6717 6718 6719 6720 6721 6722 6723 6724 6725 6726 6727 6728 0
-6716 6714 6715 6717 6718 6719 6720 6721 6722 6723 6724 6725 6726 6727 6728 0
-6717 6714 6715 6716 6718 6719 6720 6721 6722 6723 6724 6725 6726 6727 6728 0
-6718 6714 6715 6716 6717 6719 6720 6721 6722 6723 6724 6725 6726 6727 6728 0
-6719 6714 6715 6716 6717 6718 6720 6721 6722 6723 6724 6725 6726 6727 6728 0
-6720 6714 6715 6716 6717 6718 6719 6721 6722 6723 6724 6725 6726 6727 6728 0
-6721 6714 6715 6716 6717 6718 6719 6720 6722 6723 6724 6725 6726 6727 6728 0
-6722 6714 6715 6716 6717 6718 6719 6720 6721 6723 6724 6725 6726 6727 6728 0
-6723 6714 6715 6716 6717 6718 6719 6720 6721 6722 6724 6725 6726 6727 6728 0
-6724 6714 6715 6716 6717 6718 6719 6720 6721 6722 6723 6725 6726 6727 6728 0
-6725 6714 6715 6716 6717 6718 6719 6720 6721 6722 6723 6724 6726 6727 6728 0
-6726 6714 6715 6716 6717 6718 6719 6720 6721 6722 6723 6724 6725 6727 6728 0
-6727 6714 6715 6716 6717 6718 6719 6720 6721 6722 6723 6724 6725 6726 6728 0
-6728 6714 6715 6716 6717 6718 6719 6720 6721 6722 6723 6724 6725 6726 6727 0
6729 -9 -23 -67 -82 0
-6729 9 0
-6729 23 0
-6729 67 0
-6729 82 0
6730 -9 -23 -70 -79 0
-6730 9 0
-6730 23 0
-6730 70 0
-6730 79 0
6731 -9 -23 -73 -76 0
-6731 9 0
-6731 23 0
-6731 73 0
-6731 76 0
-6729 6730 6731 0
-6730 6729 6731 0
-6731 6729 6730 0
6732 -9 -23 -67 -83 0
-6732 9 0
-6732 23 0
-6732 67 0
-6732 83 0
6733 -9 -35 -53 -67 0
-6733 9 0
-6733 35 0
-6733 53 0
-6733 67 0
6734 -9 -38 -50 -67 0
-6734 9 0
-6734 38 0
-6734 50 0
-6734 67 0
-6732 6733 6734 0
-6733 6732 6734 0
-6734 6732 6733 0
6735 -9 -23 -67 -84 0
-6735 9 0
-6735 23 0
-6735 67 0
-6735 84 0
6736 -18 -23 -66 -67 0
-6736 18 0
-6736 23 0
-6736 66 0
-6736 67 0
6737 -21 -23 -63 -67 0
-6737 21 0
-6737 23 0
-6737 63 0
-6737 67 0
-6735 6736 6737 0
-6736 6735 6737 0
-6737 6735 6736 0
6738 -9 -23 -68 -82 0
-6738 9 0
-6738 23 0
-6738 68 0
-6738 82 0
6739 -9 -29 -47 -82 0
-6739 9 0
-6739 29 0
-6739 47 0
-6739 82 0
6740 -9 -32 -44 -82 0
-6740 9 0
-6740 32 0
-6740 44 0
-6740 82 0
-6738 6739 6740 0
-6739 6738 6740 0
-6740 6738 6739 0
6741 -9 -23 -68 -83 0
-6741 9 0
-6741 23 0
-6741 68 0
-6741 83 0
6742 -9 -23 -71 -80 0
-6742 9 0
-6742 23 0
-6742 71 0
-6742 80 0
6743 -9 -23 -74 -77 0
-6743 9 0
-6743 23 0
-6743 74 0
-6743 77 0
6744 -9 -29 -47 -83 0
-6744 9 0
-6744 29 0
-6744 47 0
-6744 83 0
6745 -9 -29 -50 -80 0
-6745 9 0
-6745 29 0
-6745 50 0
-6745 80 0
6746 -9 -29 -53 -77 0
-6746 9 0
-6746 29 0
-6746 53 0
-6746 77 0
6747 -9 -32 -44 -83 0
-6747 9 0
-6747 32 0
-6747 44 0
-6747 83 0
6748 -9 -32 -50 -74 0
-6748 9 0
-6748 32 0
-6748 50 0
-6748 74 0
6749 -9 -32 -53 -71 0
-6749 9 0
-6749 32 0
-6749 53 0
-6749 71 0
6750 -9 -35 -44 -80 0
-6750 9 0
-6750 35 0
-6750 44 0
-6750 80 0
6751 -9 -35 -47 -74 0
-6751 9 0
-6751 35 0
-6751 47 0
-6751 74 0
6752 -9 -35 -53 -68 0
-6752 9 0
-6752 35 0
-6752 53 0
-6752 68 0
6753 -9 -38 -44 -77 0
-6753 9 0
-6753 38 0
-6753 44 0
-6753 77 0
6754 -9 -38 -47 -71 0
-6754 9 0
-6754 38 0
-6754 47 0
-6754 71 0
6755 -9 -38 -50 -68 0
-6755 9 0
-6755 38 0
-6755 50 0
-6755 68 0
-6741 6742 6743 6744 6745 6746 6747 6748 6749 6750 6751 6752 6753 6754 6755 0
-6742 6741 6743 6744 6745 6746 6747 6748 6749 6750 6751 6752 6753 6754 6755 0
-6743 6741 6742 6744 6745 6746 6747 6748 6749 6750 6751 6752 6753 6754 6755 0
-6744 6741 6742 6743 6745 6746 6747 6748 6749 6750 6751 6752 6753 6754 6755 0
-6745 6741 6742 6743 6744 6746 6747 6748 6749 6750 6751 6752 6753 6754 6755 0
-6746 6741 6742 6743 6744 6745 6747 6748 6749 6750 6751 6752 6753 6754 6755 0
-6747 6741 6742 6743 6744 6745 6746 6748 6749 6750 6751 6752 6753 6754 6755 0
-6748 6741 6742 6743 6744 6745 6746 6747 6749 6750 6751 6752 6753 6754 6755 0
-6749 6741 6742 6743 6744 6745 6746 6747 6748 6750 6751 6752 6753 6754 6755 0
-6750 6741 6742 6743 6744 6745 6746 6747 6748 6749 6751 6752 6753 6754 6755 0
-6751 6741 6742 6743 6744 6745 6746 6747 6748 6749 6750 6752 6753 6754 6755 0
-6752 6741 6742 6743 6744 6745 6746 6747 6748 6749 6750 6751 6753 6754 6755 0
-6753 6741 6742 6743 6744 6745 6746 6747 6748 6749 6750 6751 6752 6754 6755 0
-6754 6741 6742 6743 6744 6745 6746 6747 6748 6749 6750 6751 6752 6753 6755 0
-6755 6741 6742 6743 6744 6745 6746 6747 6748 6749 6750 6751 6752 6753 6754 0
6756 -9 -23 -68 -84 0
-6756 9 0
-6756 23 0
-6756 68 0
-6756 84 0
6757 -9 -29 -47 -84 0
-6757 9 0
-6757 29 0
-6757 47 0
-6757 84 0
6758 -9 -32 -44 -84 0
-6758 9 0
-6758 32 0
-6758 44 0
-6758 84 0
6759 -18 -23 -66 -68 0
-6759 18 0
-6759 23 0
-6759 66 0
-6759 68 0
6760 -18 -29 -47 -66 0
-6760 18 0
-6760 29 0
-6760 47 0
-6760 66 0
6761 -18 -32 -44 -66 0
-6761 18 0
-6761 32 0
-6761 44 0
-6761 66 0
6762 -21 -23 -63 -68 0
-6762 21 0
-6762 23 0
-6762 63 0
-6762 68 0
6763 -21 -29 -47 -63 0
-6763 21 0
-6763 29 0
-6763 47 0
-6763 63 0
6764 -21 -32 -44 -63 0
-6764 21 0
-6764 32 0
-6764 44 0
-6764 63 0
-6756 6757 6758 6759 6760 6761 6762 6763 6764 0
-6757 6756 6758 6759 6760 6761 6762 6763 6764 0
-6758 6756 6757 6759 6760 6761 6762 6763 6764 0
-6759 6756 6757 6758 6760 6761 6762 6763 6764 0
-6760 6756 6757 6758 6759 6761 6762 6763 6764 0
-6761 6756 6757 6758 6759 6760 6762 6763 6764 0
-6762 6756 6757 6758 6759 6760 6761 6763 6764 0
-6763 6756 6757 6758 6759 6760 6761 6762 6764 0
-6764 6756 6757 6758 6759 6760 6761 6762 6763 0
6765 -9 -23 -69 -82 0
-6765 9 0
-6765 23 0
-6765 69 0
-6765 82 0
6766 -12 -23 -60 -82 0
-6766 12 0
-6766 23 0
-6766 60 0
-6766 82 0
6767 -15 -23 -57 -82 0
-6767 15 0
-6767 23 0
-6767 57 0
-6767 82 0
-6765 6766 6767 0
-6766 6765 6767 0
-6767 6765 6766 0
6768 -9 -23 -69 -83 0
-6768 9 0
-6768 23 0
-6768 69 0
-6768 83 0
6769 -9 -35 -53 -69 0
-6769 9 0
-6769 35 0
-6769 53 0
-6769 69 0
6770 -9 -38 -50 -69 0
-6770 9 0
-6770 38 0
-6770 50 0
-6770 69 0
6771 -12 -23 -60 -83 0
-6771 12 0
-6771 23 0
-6771 60 0
-6771 83 0
6772 -12 -35 -53 -60 0
-6772 12 0
-6772 35 0
-6772 53 0
-6772 60 0
6773 -12 -38 -50 -60 0
-6773 12 0
-6773 38 0
-6773 50 0
-6773 60 0
6774 -15 -23 -57 -83 0
-6774 15 0
-6774 23 0
-6774 57 0
-6774 83 0
6775 -15 -35 -53 -57 0
-6775 15 0
-6775 35 0
-6775 53 0
-6775 57 0
6776 -15 -38 -50 -57 0
-6776 15 0
-6776 38 0
-6776 50 0
-6776 57 0
-6768 6769 6770 6771 6772 6773 6774 6775 6776 0
-6769 6768 6770 6771 6772 6773 6774 6775 6776 0
-6770 6768 6769 6771 6772 6773 6774 6775 6776 0
-6771 6768 6769 6770 6772 6773 6774 6775 6776 0
-6772 6768 6769 6770 6771 6773 6774 6775 6776 0
-6773 6768 6769 6770 6771 6772 6774 6775 6776 0
-6774 6768 6769 6770 6771 6772 6773 6775 6776 0
-6775 6768 6769 6770 6771 6772 6773 6774 6776 0
-6776 6768 6769 6770 6771 6772 6773 6774 6775 0
6777 -9 -23 -69 -84 0
-6777 9 0
-6777 23 0
-6777 69 0
-6777 84 0
6778 -9 -23 -72 -81 0
-6778 9 0
-6778 23 0
-6778 72 0
-6778 81 0
6779 -9 -23 -75 -78 0
-6779 9 0
-6779 23 0
-6779 75 0
-6779 78 0
6780 -12 -23 -60 -84 0
-6780 12 0
-6780 23 0
-6780 60 0
-6780 84 0
6781 -12 -23 -63 -81 0
-6781 12 0
-6781 23 0
-6781 63 0
-6781 81 0
6782 -12 -23 -66 -78 0
-6782 12 0
-6782 23 0
-6782 66 0
-6782 78 0
6783 -15 -23 -57 -84 0
-6783 15 0
-6783 23 0
-6783 57 0
-6783 84 0
6784 -15 -23 -63 -75 0
-6784 15 0
-6784 23 0
-6784 63 0
-6784 75 0
6785 -15 -23 -66 -72 0
-6785 15 0
-6785 23 0
-6785 66 0
-6785 72 0
6786 -18 -23 -57 -81 0
-6786 18 0
-6786 23 0
-6786 57 0
-6786 81 0
6787 -18 -23 -60 -75 0
-6787 18 0
-6787 23 0
-6787 60 0
-6787 75 0
6788 -18 -23 -66 -69 0
-6788 18 0
-6788 23 0
-6788 66 0
-6788 69 0
6789 -21 -23 -57 -78 0
-6789 21 0
-6789 23 0
-6789 57 0
-6789 78 0
6790 -21 -23 -60 -72 0
-6790 21 0
-6790 23 0
-6790 60 0
-6790 72 0
6791 -21 -23 -63 -69 0
-6791 21 0
-6791 23 0
-6791 63 0
-6791 69 0
-6777 6778 6779 6780 6781 6782 6783 6784 6785 6786 6787 6788 6789 6790 6791 0
-6778 6777 6779 6780 6781 6782 6783 6784 6785 6786 6787 6788 6789 6790 6791 0
-6779 6777 6778 6780 6781 6782 6783 6784 6785 6786 6787 6788 6789 6790 6791 0
-6780 6777 6778 6779 6781 6782 6783 6784 6785 6786 6787 6788 6789 6790 6791 0
-6781 6777 6778 6779 6780 6782 6783 6784 6785 6786 6787 6788 6789 6790 6791 0
-6782 6777 6778 6779 6780 6781 6783 6784 6785 6786 6787 6788 6789 6790 6791 0
-6783 6777 6778 6779 6780 6781 6782 6784 6785 6786 6787 6788 6789 6790 6791 0
-6784 6777 6778 6779 6780 6781 6782 6783 6785 6786 6787 6788 6789 6790 6791 0
-6785 6777 6778 6779 6780 6781 6782 6783 6784 6786 6787 6788 6789 6790 6791 0
-6786 6777 6778 6779 6780 6781 6782 6783 6784 6785 6787 6788 6789 6790 6791 0
-6787 6777 6778 6779 6780 6781 6782 6783 6784 6785 6786 6788 6789 6790 6791 0
-6788 6777 6778 6779 6780 6781 6782 6783 6784 6785 6786 6787 6789 6790 6791 0
-6789 6777 6778 6779 6780 6781 6782 6783 6784 6785 6786 6787 6788 6790 6791 0
-6790 6777 6778 6779 6780 6781 6782 6783 6784 6785 6786 6787 6788 6789 6791 0
-6791 6777 6778 6779 6780 6781 6782 6783 6784 6785 6786 6787 6788 6789 6790 0
6792 -7 -23 -70 -80 0
-6792 7 0
-6792 23 0
-6792 70 0
-6792 80 0
6793 -7 -32 -53 -70 0
-6793 7 0
-6793 32 0
-6793 53 0
-6793 70 0
6794 -7 -38 -47 -70 0
-6794 7 0
-6794 38 0
-6794 47 0
-6794 70 0
6795 -10 -23 -61 -80 0
-6795 10 0
-6795 23 0
-6795 61 0
-6795 80 0
6796 -10 -32 -53 -61 0
-6796 10 0
-6796 32 0
-6796 53 0
-6796 61 0
6797 -10 -38 -47 -61 0
-6797 10 0
-6797 38 0
-6797 47 0
-6797 61 0
6798 -16 -23 -55 -80 0
-6798 16 0
-6798 23 0
-6798 55 0
-6798 80 0
6799 -16 -32 -53 -55 0
-6799 16 0
-6799 32 0
-6799 53 0
-6799 55 0
6800 -16 -38 -47 -55 0
-6800 16 0
-6800 38 0
-6800 47 0
-6800 55 0
-6792 6793 6794 6795 6796 6797 6798 6799 6800 0
-6793 6792 6794 6795 6796 6797 6798 6799 6800 0
-6794 6792 6793 6795 6796 6797 6798 6799 6800 0
-6795 6792 6793 6794 6796 6797 6798 6799 6800 0
-6796 6792 6793 6794 6795 6797 6798 6799 6800 0
-6797 6792 6793 6794 6795 6796 6798 6799 6800 0
-6798 6792 6793 6794 6795 6796 6797 6799 6800 0
-6799 6792 6793 6794 6795 6796 6797 6798 6800 0
-6800 6792 6793 6794 6795 6796 6797 6798 6799 0
6801 -7 -23 -70 -81 0
-6801 7 0
-6801 23 0
-6801 70 0
-6801 81 0
6802 -10 -23 -61 -81 0
-6802 10 0
-6802 23 0
-6802 61 0
-6802 81 0
6803 -16 -23 -55 -81 0
-6803 16 0
-6803 23 0
-6803 55 0
-6803 81 0
-6801 6802 6803 0
-6802 6801 6803 0
-6803 6801 6802 0
6804 -7 -23 -71 -79 0
-6804 7 0
-6804 23 0
-6804 71 0
-6804 79 0
6805 -7 -29 -50 -79 0
-6805 7 0
-6805 29 0
-6805 50 0
-6805 79 0
6806 -7 -35 -44 -79 0
-6806 7 0
-6806 35 0
-6806 44 0
-6806 79 0
6807 -13 -23 -64 -71 0
-6807 13 0
-6807 23 0
-6807 64 0
-6807 71 0
6808 -13 -29 -50 -64 0
-6808 13 0
-6808 29 0
-6808 50 0
-6808 64 0
6809 -13 -35 -44 -64 0
-6809 13 0
-6809 35 0
-6809 44 0
-6809 64 0
6810 -19 -23 -58 -71 0
-6810 19 0
-6810 23 0
-6810 58 0
-6810 71 0
6811 -19 -29 -50 -58 0
-6811 19 0
-6811 29 0
-6811 50 0
-6811 58 0
6812 -19 -35 -44 -58 0
-6812 19 0
-6812 35 0
-6812 44 0
-6812 58 0
-6804 6805 6806 6807 6808 6809 6810 6811 6812 0
-6805 6804 6806 6807 6808 6809 6810 6811 6812 0
-6806 6804 6805 6807 6808 6809 6810 6811 6812 0
-6807 6804 6805 6806 6808 6809 6810 6811 6812 0
-6808 6804 6805 6806 6807 6809 6810 6811 6812 0
-6809 6804 6805 6806 6807 6808 6810 6811 6812 0
-6810 6804 6805 6806 6807 6808 6809 6811 6812 0
-6811 6804 6805 6806 6807 6808 6809 6810 6812 0
-6812 6804 6805 6806 6807 6808 6809 6810 6811 0
6813 -7 -23 -71 -81 0
-6813 7 0
-6813 23 0
-6813 71 0
-6813 81 0
6814 -7 -29 -50 -81 0
-6814 7 0
-6814 29 0
-6814 50 0
-6814 81 0
6815 -7 -35 -44 -81 0
-6815 7 0
-6815 35 0
-6815 44 0
-6815 81 0
-6813 6814 6815 0
-6814 6813 6815 0
-6815 6813 6814 0
6816 -7 -23 -72 -79 0
-6816 7 0
-6816 23 0
-6816 72 0
-6816 79 0
6817 -13 -23 -64 -72 0
-6817 13 0
-6817 23 0
-6817 64 0
-6817 72 0
6818 -19 -23 -58 -72 0
-6818 19 0
-6818 23 0
-6818 58 0
-6818 72 0
-6816 6817 6818 0
-6817 6816 6818 0
-6818 6816 6817 0
6819 -7 -23 -72 -80 0
-6819 7 0
-6819 23 0
-6819 72 0
-6819 80 0
6820 -7 -32 -53 -72 0
-6820 7 0
-6820 32 0
-6820 53 0
-6820 72 0
6821 -7 -38 -47 -72 0
-6821 7 0
-6821 38 0
-6821 47 0
-6821 72 0
-6819 6820 6821 0
-6820 6819 6821 0
-6821 6819 6820 0
6822 -7 -24 -70 -80 0
-6822 7 0
-6822 24 0
-6822 70 0
-6822 80 0
6823 -10 -24 -61 -80 0
-6823 10 0
-6823 24 0
-6823 61 0
-6823 80 0
6824 -16 -24 -55 -80 0
-6824 16 0
-6824 24 0
-6824 55 0
-6824 80 0
-6822 6823 6824 0
-6823 6822 6824 0
-6824 6822 6823 0
6825 -7 -24 -70 -81 0
-6825 7 0
-6825 24 0
-6825 70 0
-6825 81 0
6826 -7 -33 -54 -70 0
-6826 7 0
-6826 33 0
-6826 54 0
-6826 70 0
6827 -7 -39 -48 -70 0
-6827 7 0
-6827 39 0
-6827 48 0
-6827 70 0
6828 -10 -24 -61 -81 0
-6828 10 0
-6828 24 0
-6828 61 0
-6828 81 0
6829 -10 -33 -54 -61 0
-6829 10 0
-6829 33 0
-6829 54 0
-6829 61 0
6830 -10 -39 -48 -61 0
-6830 10 0
-6830 39 0
-6830 48 0
-6830 61 0
6831 -16 -24 -55 -81 0
-6831 16 0
-6831 24 0
-6831 55 0
-6831 81 0
6832 -16 -33 -54 -55 0
-6832 16 0
-6832 33 0
-6832 54 0
-6832 55 0
6833 -16 -39 -48 -55 0
-6833 16 0
-6833 39 0
-6833 48 0
-6833 55 0
-6825 6826 6827 6828 6829 6830 6831 6832 6833 0
-6826 6825 6827 6828 6829 6830 6831 6832 6833 0
-6827 6825 6826 6828 6829 6830 6831 6832 6833 0
-6828 6825 6826 6827 6829 6830 6831 6832 6833 0
-6829 6825 6826 6827 6828 6830 6831 6832 6833 0
-6830 6825 6826 6827 6828 6829 6831 6832 6833 0
-6831 6825 6826 6827 6828 6829 6830 6832 6833 0
-6832 6825 6826 6827 6828 6829 6830 6831 6833 0
-6833 6825 6826 6827 6828 6829 6830 6831 6832 0
6834 -7 -24 -71 -79 0
-6834 7 0
-6834 24 0
-6834 71 0
-6834 79 0
6835 -13 -24 -64 -71 0
-6835 13 0
-6835 24 0
-6835 64 0
-6835 71 0
6836 -19 -24 -58 -71 0
-6836 19 0
-6836 24 0
-6836 58 0
-6836 71 0
-6834 6835 6836 0
-6835 6834 6836 0
-6836 6834 6835 0
6837 -7 -24 -71 -81 0
-6837 7 0
-6837 24 0
-6837 71 0
-6837 81 0
6838 -7 -33 -54 -71 0
-6838 7 0
-6838 33 0
-6838 54 0
-6838 71 0
6839 -7 -39 -48 -71 0
-6839 7 0
-6839 39 0
-6839 48 0
-6839 71 0
-6837 6838 6839 0
-6838 6837 6839 0
-6839 6837 6838 0
6840 -7 -24 -72 -79 0
-6840 7 0
-6840 24 0
-6840 72 0
-6840 79 0
6841 -7 -30 -51 -79 0
-6841 7 0
-6841 30 0
-6841 51 0
-6841 79 0
6842 -7 -36 -45 -79 0
-6842 7 0
-6842 36 0
-6842 45 0
-6842 79 0
6843 -13 -24 -64 -72 0
-6843 13 0
-6843 24 0
-6843 64 0
-6843 72 0
6844 -13 -30 -51 -64 0
-6844 13 0
-6844 30 0
-6844 51 0
-6844 64 0
6845 -13 -36 -45 -64 0
-6845 13 0
-6845 36 0
-6845 45 0
-6845 64 0
6846 -19 -24 -58 -72 0
-6846 19 0
-6846 24 0
-6846 58 0
-6846 72 0
6847 -19 -30 -51 -58 0
-6847 19 0
-6847 30 0
-6847 51 0
-6847 58 0
6848 -19 -36 -45 -58 0
-6848 19 0
-6848 36 0
-6848 45 0
-6848 58 0
-6840 6841 6842 6843 6844 6845 6846 6847 6848 0
-6841 6840 6842 6843 6844 6845 6846 6847 6848 0
-6842 6840 6841 6843 6844 6845 6846 6847 6848 0
-6843 6840 6841 6842 6844 6845 6846 6847 6848 0
-6844 6840 6841 6842 6843 6845 6846 6847 6848 0
-6845 6840 6841 6842 6843 6844 6846 6847 6848 0
-6846 6840 6841 6842 6843 6844 6845 6847 6848 0
-6847 6840 6841 6842 6843 6844 6845 6846 6848 0
-6848 6840 6841 6842 6843 6844 6845 6846 6847 0
6849 -7 -24 -72 -80 0
-6849 7 0
-6849 24 0
-6849 72 0
-6849 80 0
6850 -7 -30 -51 -80 0
-6850 7 0
-6850 30 0
-6850 51 0
-6850 80 0
6851 -7 -36 -45 -80 0
-6851 7 0
-6851 36 0
-6851 45 0
-6851 80 0
-6849 6850 6851 0
-6850 6849 6851 0
-6851 6849 6850 0
6852 -8 -22 -70 -80 0
-6852 8 0
-6852 22 0
-6852 70 0
-6852 80 0
6853 -8 -28 -49 -80 0
-6853 8 0
-6853 28 0
-6853 49 0
-6853 80 0
6854 -8 -34 -43 -80 0
-6854 8 0
-6854 34 0
-6854 43 0
-6854 80 0
6855 -14 -22 -65 -70 0
-6855 14 0
-6855 22 0
-6855 65 0
-6855 70 0
6856 -14 -28 -49 -65 0
-6856 14 0
-6856 28 0
-6856 49 0
-6856 65 0
6857 -14 -34 -43 -65 0
-6857 14 0
-6857 34 0
-6857 43 0
-6857 65 0
6858 -20 -22 -59 -70 0
-6858 20 0
-6858 22 0
-6858 59 0
-6858 70 0
6859 -20 -28 -49 -59 0
-6859 20 0
-6859 28 0
-6859 49 0
-6859 59 0
6860 -20 -34 -43 -59 0
-6860 20 0
-6860 34 0
-6860 43 0
-6860 59 0
-6852 6853 6854 6855 6856 6857 6858 6859 6860 0
-6853 6852 6854 6855 6856 6857 6858 6859 6860 0
-6854 6852 6853 6855 6856 6857 6858 6859 6860 0
-6855 6852 6853 6854 6856 6857 6858 6859 6860 0
-6856 6852 6853 6854 6855 6857 6858 6859 6860 0
-6857 6852 6853 6854 6855 6856 6858 6859 6860 0
-6858 6852 6853 6854 6855 6856 6857 6859 6860 0
-6859 6852 6853 6854 6855 6856 6857 6858 6860 0
-6860 6852 6853 6854 6855 6856 6857 6858 6859 0
6861 -8 -22 -70 -81 0
-6861 8 0
-6861 22 0
-6861 70 0
-6861 81 0
6862 -8 -28 -49 -81 0
-6862 8 0
-6862 28 0
-6862 49 0
-6862 81 0
6863 -8 -34 -43 -81 0
-6863 8 0
-6863 34 0
-6863 43 0
-6863 81 0
-6861 6862 6863 0
-6862 6861 6863 0
-6863 6861 6862 0
6864 -8 -22 -71 -79 0
-6864 8 0
-6864 22 0
-6864 71 0
-6864 79 0
6865 -8 -31 -52 -71 0
-6865 8 0
-6865 31 0
-6865 52 0
-6865 71 0
6866 -8 -37 -46 -71 0
-6866 8 0
-6866 37 0
-6866 46 0
-6866 71 0
6867 -11 -22 -62 -79 0
-6867 11 0
-6867 22 0
-6867 62 0
-6867 79 0
6868 -11 -31 -52 -62 0
-6868 11 0
-6868 31 0
-6868 52 0
-6868 62 0
6869 -11 -37 -46 -62 0
-6869 11 0
-6869 37 0
-6869 46 0
-6869 62 0
6870 -17 -22 -56 -79 0
-6870 17 0
-6870 22 0
-6870 56 0
-6870 79 0
6871 -17 -31 -52 -56 0
-6871 17 0
-6871 31 0
-6871 52 0
-6871 56 0
6872 -17 -37 -46 -56 0
-6872 17 0
-6872 37 0
-6872 46 0
-6872 56 0
-6864 6865 6866 6867 6868 6869 6870 6871 6872 0
-6865 6864 6866 6867 6868 6869 6870 6871 6872 0
-6866 6864 6865 6867 6868 6869 6870 6871 6872 0
-6867 6864 6865 6866 6868 6869 6870 6871 6872 0
-6868 6864 6865 6866 6867 6869 6870 6871 6872 0
-6869 6864 6865 6866 6867 6868 6870 6871 6872 0
-6870 6864 6865 6866 6867 6868 6869 6871 6872 0
-6871 6864 6865 6866 6867 6868 6869 6870 6872 0
-6872 6864 6865 6866 6867 6868 6869 6870 6871 0
6873 -8 -22 -71 -81 0
-6873 8 0
-6873 22 0
-6873 71 0
-6873 81 0
6874 -11 -22 -62 -81 0
-6874 11 0
-6874 22 0
-6874 62 0
-6874 81 0
6875 -17 -22 -56 -81 0
-6875 17 0
-6875 22 0
-6875 56 0
-6875 81 0
-6873 6874 6875 0
-6874 6873 6875 0
-6875 6873 6874 0
6876 -8 -22 -72 -79 0
-6876 8 0
-6876 22 0
-6876 72 0
-6876 79 0
6877 -8 -31 -52 -72 0
-6877 8 0
-6877 31 0
-6877 52 0
-6877 72 0
6878 -8 -37 -46 -72 0
-6878 8 0
-6878 37 0
-6878 46 0
-6878 72 0
-6876 6877 6878 0
-6877 6876 6878 0
-6878 6876 6877 0
6879 -8 -22 -72 -80 0
-6879 8 0
-6879 22 0
-6879 72 0
-6879 80 0
6880 -14 -22 -65 -72 0
-6880 14 0
-6880 22 0
-6880 65 0
-6880 72 0
6881 -20 -22 -59 -72 0
-6881 20 0
-6881 22 0
-6881 59 0
-6881 72 0
-6879 6880 6881 0
-6880 6879 6881 0
-6881 6879 6880 0
6882 -8 -24 -70 -80 0
-6882 8 0
-6882 24 0
-6882 70 0
-6882 80 0
6883 -14 -24 -65 -70 0
-6883 14 0
-6883 24 0
-6883 65 0
-6883 70 0
6884 -20 -24 -59 -70 0
-6884 20 0
-6884 24 0
-6884 59 0
-6884 70 0
-6882 6883 6884 0
-6883 6882 6884 0
-6884 6882 6883 0
6885 -8 -24 -70 -81 0
-6885 8 0
-6885 24 0
-6885 70 0
-6885 81 0
6886 -8 -33 -54 -70 0
-6886 8 0
-6886 33 0
-6886 54 0
-6886 70 0
6887 -8 -39 -48 -70 0
-6887 8 0
-6887 39 0
-6887 48 0
-6887 70 0
-6885 6886 6887 0
-6886 6885 6887 0
-6887 6885 6886 0
6888 -8 -24 -71 -79 0
-6888 8 0
-6888 24 0
-6888 71 0
-6888 79 0
6889 -11 -24 -62 -79 0
-6889 11 0
-6889 24 0
-6889 62 0
-6889 79 0
6890 -17 -24 -56 -79 0
-6890 17 0
-6890 24 0
-6890 56 0
-6890 79 0
-6888 6889 6890 0
-6889 6888 6890 0
-6890 6888 6889 0
6891 -8 -24 -71 -81 0
-6891 8 0
-6891 24 0
-6891 71 0
-6891 81 0
6892 -8 -33 -54 -71 0
-6892 8 0
-6892 33 0
-6892 54 0
-6892 71 0
6893 -8 -39 -48 -71 0
-6893 8 0
-6893 39 0
-6893 48 0
-6893 71 0
6894 -11 -24 -62 -81 0
-6894 11 0
-6894 24 0
-6894 62 0
-6894 81 0
6895 -11 -33 -54 -62 0
-6895 11 0
-6895 33 0
-6895 54 0
-6895 62 0
6896 -11 -39 -48 -62 0
-6896 11 0
-6896 39 0
-6896 48 0
-6896 62 0
6897 -17 -24 -56 -81 0
-6897 17 0
-6897 24 0
-6897 56 0
-6897 81 0
6898 -17 -33 -54 -56 0
-6898 17 0
-6898 33 0
-6898 54 0
-6898 56 0
6899 -17 -39 -48 -56 0
-6899 17 0
-6899 39 0
-6899 48 0
-6899 56 0
-6891 6892 6893 6894 6895 6896 6897 6898 6899 0
-6892 6891 6893 6894 6895 6896 6897 6898 6899 0
-6893 6891 6892 6894 6895 6896 6897 6898 6899 0
-6894 6891 6892 6893 6895 6896 6897 6898 6899 0
-6895 6891 6892 6893 6894 6896 6897 6898 6899 0
-6896 6891 6892 6893 6894 6895 6897 6898 6899 0
-6897 6891 6892 6893 6894 6895 6896 6898 6899 0
-6898 6891 6892 6893 6894 6895 6896 6897 6899 0
-6899 6891 6892 6893 6894 6895 6896 6897 6898 0
6900 -8 -24 -72 -79 0
-6900 8 0
-6900 24 0
-6900 72 0
-6900 79 0
6901 -8 -30 -51 -79 0
-6901 8 0
-6901 30 0
-6901 51 0
-6901 79 0
6902 -8 -36 -45 -79 0
-6902 8 0
-6902 36 0
-6902 45 0
-6902 79 0
-6900 6901 6902 0
-6901 6900 6902 0
-6902 6900 6901 0
6903 -8 -24 -72 -80 0
-6903 8 0
-6903 24 0
-6903 72 0
-6903 80 0
6904 -8 -30 -51 -80 0
-6904 8 0
-6904 30 0
-6904 51 0
-6904 80 0
6905 -8 -36 -45 -80 0
-6905 8 0
-6905 36 0
-6905 45 0
-6905 80 0
6906 -14 -24 -65 -72 0
-6906 14 0
-6906 24 0
-6906 65 0
-6906 72 0
6907 -14 -30 -51 -65 0
-6907 14 0
-6907 30 0
-6907 51 0
-6907 65 0
6908 -14 -36 -45 -65 0
-6908 14 0
-6908 36 0
-6908 45 0
-6908 65 0
6909 -20 -24 -59 -72 0
-6909 20 0
-6909 24 0
-6909 59 0
-6909 72 0
6910 -20 -30 -51 -59 0
-6910 20 0
-6910 30 0
-6910 51 0
-6910 59 0
6911 -20 -36 -45 -59 0
-6911 20 0
-6911 36 0
-6911 45 0
-6911 59 0
-6903 6904 6905 6906 6907 6908 6909 6910 6911 0
-6904 6903 6905 6906 6907 6908 6909 6910 6911 0
-6905 6903 6904 6906 6907 6908 6909 6910 6911 0
-6906 6903 6904 6905 6907 6908 6909 6910 6911 0
-6907 6903 6904 6905 6906 6908 6909 6910 6911 0
-6908 6903 6904 6905 6906 6907 6909 6910 6911 0
-6909 6903 6904 6905 6906 6907 6908 6910 6911 0
-6910 6903 6904 6905 6906 6907 6908 6909 6911 0
-6911 6903 6904 6905 6906 6907 6908 6909 6910 0
6912 -9 -22 -70 -80 0
-6912 9 0
-6912 22 0
-6912 70 0
-6912 80 0
6913 -9 -28 -49 -80 0
-6913 9 0
-6913 28 0
-6913 49 0
-6913 80 0
6914 -9 -34 -43 -80 0
-6914 9 0
-6914 34 0
-6914 43 0
-6914 80 0
-6912 6913 6914 0
-6913 6912 6914 0
-6914 6912 6913 0
6915 -9 -22 -70 -81 0
-6915 9 0
-6915 22 0
-6915 70 0
-6915 81 0
6916 -9 -28 -49 -81 0
-6916 9 0
-6916 28 0
-6916 49 0
-6916 81 0
6917 -9 -34 -43 -81 0
-6917 9 0
-6917 34 0
-6917 43 0
-6917 81 0
6918 -15 -22 -66 -70 0
-6918 15 0
-6918 22 0
-6918 66 0
-6918 70 0
6919 -15 -28 -49 -66 0
-6919 15 0
-6919 28 0
-6919 49 0
-6919 66 0
6920 -15 -34 -43 -66 0
-6920 15 0
-6920 34 0
-6920 43 0
-6920 66 0
6921 -21 -22 -60 -70 0
-6921 21 0
-6921 22 0
-6921 60 0
-6921 70 0
6922 -21 -28 -49 -60 0
-6922 21 0
-6922 28 0
-6922 49 0
-6922 60 0
6923 -21 -34 -43 -60 0
-6923 21 0
-6923 34 0
-6923 43 0
-6923 60 0
-6915 6916 6917 6918 6919 6920 6921 6922 6923 0
-6916 6915 6917 6918 6919 6920 6921 6922 6923 0
-6917 6915 6916 6918 6919 6920 6921 6922 6923 0
-6918 6915 6916 6917 6919 6920 6921 6922 6923 0
-6919 6915 6916 6917 6918 6920 6921 6922 6923 0
-6920 6915 6916 6917 6918 6919 6921 6922 6923 0
-6921 6915 6916 6917 6918 6919 6920 6922 6923 0
-6922 6915 6916 6917 6918 6919 6920 6921 6923 0
-6923 6915 6916 6917 6918 6919 6920 6921 6922 0
6924 -9 -22 -71 -79 0
-6924 9 0
-6924 22 0
-6924 71 0
-6924 79 0
6925 -9 -31 -52 -71 0
-6925 9 0
-6925 31 0
-6925 52 0
-6925 71 0
6926 -9 -37 -46 -71 0
-6926 9 0
-6926 37 0
-6926 46 0
-6926 71 0
-6924 6925 6926 0
-6925 6924 6926 0
-6926 6924 6925 0
6927 -9 -22 -71 -81 0
-6927 9 0
-6927 22 0
-6927 71 0
-6927 81 0
6928 -15 -22 -66 -71 0
-6928 15 0
-6928 22 0
-6928 66 0
-6928 71 0
6929 -21 -22 -60 -71 0
-6929 21 0
-6929 22 0
-6929 60 0
-6929 71 0
-6927 6928 6929 0
-6928 6927 6929 0
-6929 6927 6928 0
6930 -9 -22 -72 -79 0
-6930 9 0
-6930 22 0
-6930 72 0
-6930 79 0
6931 -9 -31 -52 -72 0
-6931 9 0
-6931 31 0
-6931 52 0
-6931 72 0
6932 -9 -37 -46 -72 0
-6932 9 0
-6932 37 0
-6932 46 0
-6932 72 0
6933 -12 -22 -63 -79 0
-6933 12 0
-6933 22 0
-6933 63 0
-6933 79 0
6934 -12 -31 -52 -63 0
-6934 12 0
-6934 31 0
-6934 52 0
-6934 63 0
6935 -12 -37 -46 -63 0
-6935 12 0
-6935 37 0
-6935 46 0
-6935 63 0
6936 -18 -22 -57 -79 0
-6936 18 0
-6936 22 0
-6936 57 0
-6936 79 0
6937 -18 -31 -52 -57 0
-6937 18 0
-6937 31 0
-6937 52 0
-6937 57 0
6938 -18 -37 -46 -57 0
-6938 18 0
-6938 37 0
-6938 46 0
-6938 57 0
-6930 6931 6932 6933 6934 6935 6936 6937 6938 0
-6931 6930 6932 6933 6934 6935 6936 6937 6938 0
-6932 6930 6931 6933 6934 6935 6936 6937 6938 0
-6933 6930 6931 6932 6934 6935 6936 6937 6938 0
-6934 6930 6931 6932 6933 6935 6936 6937 6938 0
-6935 6930 6931 6932 6933 6934 6936 6937 6938 0
-6936 6930 6931 6932 6933 6934 6935 6937 6938 0
-6937 6930 6931 6932 6933 6934 6935 6936 6938 0
-6938 6930 6931 6932 6933 6934 6935 6936 6937 0
6939 -9 -22 -72 -80 0
-6939 9 0
-6939 22 0
-6939 72 0
-6939 80 0
6940 -12 -22 -63 -80 0
-6940 12 0
-6940 22 0
-6940 63 0
-6940 80 0
6941 -18 -22 -57 -80 0
-6941 18 0
-6941 22 0
-6941 57 0
-6941 80 0
-6939 6940 6941 0
-6940 6939 6941 0
-6941 6939 6940 0
6942 -9 -23 -70 -80 0
-6942 9 0
-6942 23 0
-6942 70 0
-6942 80 0
6943 -9 -32 -53 -70 0
-6943 9 0
-6943 32 0
-6943 53 0
-6943 70 0
6944 -9 -38 -47 -70 0
-6944 9 0
-6944 38 0
-6944 47 0
-6944 70 0
-6942 6943 6944 0
-6943 6942 6944 0
-6944 6942 6943 0
6945 -9 -23 -70 -81 0
-6945 9 0
-6945 23 0
-6945 70 0
-6945 81 0
6946 -15 -23 -66 -70 0
-6946 15 0
-6946 23 0
-6946 66 0
-6946 70 0
6947 -21 -23 -60 -70 0
-6947 21 0
-6947 23 0
-6947 60 0
-6947 70 0
-6945 6946 6947 0
-6946 6945 6947 0
-6947 6945 6946 0
6948 -9 -23 -71 -79 0
-6948 9 0
-6948 23 0
-6948 71 0
-6948 79 0
6949 -9 -29 -50 -79 0
-6949 9 0
-6949 29 0
-6949 50 0
-6949 79 0
6950 -9 -35 -44 -79 0
-6950 9 0
-6950 35 0
-6950 44 0
-6950 79 0
-6948 6949 6950 0
-6949 6948 6950 0
-6950 6948 6949 0
6951 -9 -23 -71 -81 0
-6951 9 0
-6951 23 0
-6951 71 0
-6951 81 0
6952 -9 -29 -50 -81 0
-6952 9 0
-6952 29 0
-6952 50 0
-6952 81 0
6953 -9 -35 -44 -81 0
-6953 9 0
-6953 35 0
-6953 44 0
-6953 81 0
6954 -15 -23 -66 -71 0
-6954 15 0
-6954 23 0
-6954 66 0
-6954 71 0
6955 -15 -29 -50 -66 0
-6955 15 0
-6955 29 0
-6955 50 0
-6955 66 0
6956 -15 -35 -44 -66 0
-6956 15 0
-6956 35 0
-6956 44 0
-6956 66 0
6957 -21 -23 -60 -71 0
-6957 21 0
-6957 23 0
-6957 60 0
-6957 71 0
6958 -21 -29 -50 -60 0
-6958 21 0
-6958 29 0
-6958 50 0
-6958 60 0
6959 -21 -35 -44 -60 0
-6959 21 0
-6959 35 0
-6959 44 0
-6959 60 0
-6951 6952 6953 6954 6955 6956 6957 6958 6959 0
-6952 6951 6953 6954 6955 6956 6957 6958 6959 0
-6953 6951 6952 6954 6955 6956 6957 6958 6959 0
-6954 6951 6952 6953 6955 6956 6957 6958 6959 0
-6955 6951 6952 6953 6954 6956 6957 6958 6959 0
-6956 6951 6952 6953 6954 6955 6957 6958 6959 0
-6957 6951 6952 6953 6954 6955 6956 6958 6959 0
-6958 6951 6952 6953 6954 6955 6956 6957 6959 0
-6959 6951 6952 6953 6954 6955 6956 6957 6958 0
6960 -9 -23 -72 -79 0
-6960 9 0
-6960 23 0
-6960 72 0
-6960 79 0
6961 -12 -23 -63 -79 0
-6961 12 0
-6961 23 0
-6961 63 0
-6961 79 0
6962 -18 -23 -57 -79 0
-6962 18 0
-6962 23 0
-6962 57 0
-6962 79 0
-6960 6961 6962 0
-6961 6960 6962 0
-6962 6960 6961 0
6963 -9 -23 -72 -80 0
-6963 9 0
-6963 23 0
-6963 72 0
-6963 80 0
6964 -9 -32 -53 -72 0
-6964 9 0
-6964 32 0
-6964 53 0
-6964 72 0
6965 -9 -38 -47 -72 0
-6965 9 0
-6965 38 0
-6965 47 0
-6965 72 0
6966 -12 -23 -63 -80 0
-6966 12 0
-6966 23 0
-6966 63 0
-6966 80 0
6967 -12 -32 -53 -63 0
-6967 12 0
-6967 32 0
-6967 53 0
-6967 63 0
6968 -12 -38 -47 -63 0
-6968 12 0
-6968 38 0
-6968 47 0
-6968 63 0
6969 -18 -23 -57 -80 0
-6969 18 0
-6969 23 0
-6969 57 0
-6969 80 0
6970 -18 -32 -53 -57 0
-6970 18 0
-6970 32 0
-6970 53 0
-6970 57 0
6971 -18 -38 -47 -57 0
-6971 18 0
-6971 38 0
-6971 47 0
-6971 57 0
-6963 6964 6965 6966 6967 6968 6969 6970 6971 0
-6964 6963 6965 6966 6967 6968 6969 6970 6971 0
-6965 6963 6964 6966 6967 6968 6969 6970 6971 0
-6966 6963 6964 6965 6967 6968 6969 6970 6971 0
-6967 6963 6964 6965 6966 6968 6969 6970 6971 0
-6968 6963 6964 6965 6966 6967 6969 6970 6971 0
-6969 6963 6964 6965 6966 6967 6968 6970 6971 0
-6970 6963 6964 6965 6966 6967 6968 6969 6971 0
-6971 6963 6964 6965 6966 6967 6968 6969 6970 0
6972 -7 -23 -73 -77 0
-6972 7 0
-6972 23 0
-6972 73 0
-6972 77 0
6973 -7 -32 -50 -73 0
-6973 7 0
-6973 32 0
-6973 50 0
-6973 73 0
6974 -7 -35 -47 -73 0
-6974 7 0
-6974 35 0
-6974 47 0
-6974 73 0
6975 -10 -23 -64 -77 0
-6975 10 0
-6975 23 0
-6975 64 0
-6975 77 0
6976 -10 -32 -50 -64 0
-6976 10 0
-6976 32 0
-6976 50 0
-6976 64 0
6977 -10 -35 -47 -64 0
-6977 10 0
-6977 35 0
-6977 47 0
-6977 64 0
6978 -19 -23 -55 -77 0
-6978 19 0
-6978 23 0
-6978 55 0
-6978 77 0
6979 -19 -32 -50 -55 0
-6979 19 0
-6979 32 0
-6979 50 0
-6979 55 0
6980 -19 -35 -47 -55 0
-6980 19 0
-6980 35 0
-6980 47 0
-6980 55 0
-6972 6973 6974 6975 6976 6977 6978 6979 6980 0
-6973 6972 6974 6975 6976 6977 6978 6979 6980 0
-6974 6972 6973 6975 6976 6977 6978 6979 6980 0
-6975 6972 6973 6974 6976 6977 6978 6979 6980 0
-6976 6972 6973 6974 6975 6977 6978 6979 6980 0
-6977 6972 6973 6974 6975 6976 6978 6979 6980 0
-6978 6972 6973 6974 6975 6976 6977 6979 6980 0
-6979 6972 6973 6974 6975 6976 6977 6978 6980 0
-6980 6972 6973 6974 6975 6976 6977 6978 6979 0
6981 -7 -23 -73 -78 0
-6981 7 0
-6981 23 0
-6981 73 0
-6981 78 0
6982 -10 -23 -64 -78 0
-6982 10 0
-6982 23 0
-6982 64 0
-6982 78 0
6983 -19 -23 -55 -78 0
-6983 19 0
-6983 23 0
-6983 55 0
-6983 78 0
-6981 6982 6983 0
-6982 6981 6983 0
-6983 6981 6982 0
6984 -7 -23 -74 -76 0
-6984 7 0
-6984 23 0
-6984 74 0
-6984 76 0
6985 -7 -29 -53 -76 0
-6985 7 0
-6985 29 0
-6985 53 0
-6985 76 0
6986 -7 -38 -44 -76 0
-6986 7 0
-6986 38 0
-6986 44 0
-6986 76 0
6987 -13 -23 -61 -74 0
-6987 13 0
-6987 23 0
-6987 61 0
-6987 74 0
6988 -13 -29 -53 -61 0
-6988 13 0
-6988 29 0
-6988 53 0
-6988 61 0
6989 -13 -38 -44 -61 0
-6989 13 0
-6989 38 0
-6989 44 0
-6989 61 0
6990 -16 -23 -58 -74 0
-6990 16 0
-6990 23 0
-6990 58 0
-6990 74 0
6991 -16 -29 -53 -58 0
-6991 16 0
-6991 29 0
-6991 53 0
-6991 58 0
6992 -16 -38 -44 -58 0
-6992 16 0
-6992 38 0
-6992 44 0
-6992 58 0
-6984 6985 6986 6987 6988 6989 6990 6991 6992 0
-6985 6984 6986 6987 6988 6989 6990 6991 6992 0
-6986 6984 6985 6987 6988 6989 6990 6991 6992 0
-6987 6984 6985 6986 6988 6989 6990 6991 6992 0
-6988 6984 6985 6986 6987 6989 6990 6991 6992 0
-6989 6984 6985 6986 6987 6988 6990 6991 6992 0
-6990 6984 6985 6986 6987 6988 6989 6991 6992 0
-6991 6984 6985 6986 6987 6988 6989 6990 6992 0
-6992 6984 6985 6986 6987 6988 6989 6990 6991 0
6993 -7 -23 -74 -78 0
-6993 7 0
-6993 23 0
-6993 74 0
-6993 78 0
6994 -7 -29 -53 -78 0
-6994 7 0
-6994 29 0
-6994 53 0
-6994 78 0
6995 -7 -38 -44 -78 0
-6995 7 0
-6995 38 0
-6995 44 0
-6995 78 0
-6993 6994 6995 0
-6994 6993 6995 0
-6995 6993 6994 0
6996 -7 -23 -75 -76 0
-6996 7 0
-6996 23 0
-6996 75 0
-6996 76 0
6997 -13 -23 -61 -75 0
-6997 13 0
-6997 23 0
-6997 61 0
-6997 75 0
6998 -16 -23 -58 -75 0
-6998 16 0
-6998 23 0
-6998 58 0
-6998 75 0
-6996 6997 6998 0
-6997 6996 6998 0
-6998 6996 6997 0
6999 -7 -23 -75 -77 0
-6999 7 0
-6999 23 0
-6999 75 0
-6999 77 0
7000 -7 -32 -50 -75 0
-7000 7 0
-7000 32 0
-7000 50 0
-7000 75 0
7001 -7 -35 -47 -75 0
-7001 7 0
-7001 35 0
-7001 47 0
-7001 75 0
-6999 7000 7001 0
-7000 6999 7001 0
-7001 6999 7000 0
7002 -7 -24 -73 -77 0
-7002 7 0
-7002 24 0
-7002 73 0
-7002 77 0
7003 -10 -24 -64 -77 0
-7003 10 0
-7003 24 0
-7003 64 0
-7003 77 0
7004 -19 -24 -55 -77 0
-7004 19 0
-7004 24 0
-7004 55 0
-7004 77 0
-7002 7003 7004 0
-7003 7002 7004 0
-7004 7002 7003 0
7005 -7 -24 -73 -78 0
-7005 7 0
-7005 24 0
-7005 73 0
-7005 78 0
7006 -7 -33 -51 -73 0
-7006 7 0
-7006 33 0
-7006 51 0
-7006 73 0
7007 -7 -36 -48 -73 0
-7007 7 0
-7007 36 0
-7007 48 0
-7007 73 0
7008 -10 -24 -64 -78 0
-7008 10 0
-7008 24 0
-7008 64 0
-7008 78 0
7009 -10 -33 -51 -64 0
-7009 10 0
-7009 33 0
-7009 51 0
-7009 64 0
7010 -10 -36 -48 -64 0
-7010 10 0
-7010 36 0
-7010 48 0
-7010 64 0
7011 -19 -24 -55 -78 0
-7011 19 0
-7011 24 0
-7011 55 0
-7011 78 0
7012 -19 -33 -51 -55 0
-7012 19 0
-7012 33 0
-7012 51 0
-7012 55 0
7013 -19 -36 -48 -55 0
-7013 19 0
-7013 36 0
-7013 48 0
-7013 55 0
-7005 7006 7007 7008 7009 7010 7011 7012 7013 0
-7006 7005 7007 7008 7009 7010 7011 7012 7013 0
-7007 7005 7006 7008 7009 7010 7011 7012 7013 0
-7008 7005 7006 7007 7009 7010 7011 7012 7013 0
-7009 7005 7006 7007 7008 7010 7011 7012 7013 0
-7010 7005 7006 7007 7008 7009 7011 7012 7013 0
-7011 7005 7006 7007 7008 7009 7010 7012 7013 0
-7012 7005 7006 7007 7008 7009 7010 7011 7013 0
-7013 7005 7006 7007 7008 7009 7010 7011 7012 0
7014 -7 -24 -74 -76 0
-7014 7 0
-7014 24 0
-7014 74 0
-7014 76 0
7015 -13 -24 -61 -74 0
-7015 13 0
-7015 24 0
-7015 61 0
-7015 74 0
7016 -16 -24 -58 -74 0
-7016 16 0
-7016 24 0
-7016 58 0
-7016 74 0
-7014 7015 7016 0
-7015 7014 7016 0
-7016 7014 7015 0
7017 -7 -24 -74 -78 0
-7017 7 0
-7017 24 0
-7017 74 0
-7017 78 0
7018 -7 -33 -51 -74 0
-7018 7 0
-7018 33 0
-7018 51 0
-7018 74 0
7019 -7 -36 -48 -74 0
-7019 7 0
-7019 36 0
-7019 48 0
-7019 74 0
-7017 7018 7019 0
-7018 7017 7019 0
-7019 7017 7018 0
7020 -7 -24 -75 -76 0
-7020 7 0
-7020 24 0
-7020 75 0
-7020 76 0
7021 -7 -30 -54 -76 0
-7021 7 0
-7021 30 0
-7021 54 0
-7021 76 0
7022 -7 -39 -45 -76 0
-7022 7 0
-7022 39 0
-7022 45 0
-7022 76 0
7023 -13 -24 -61 -75 0
-7023 13 0
-7023 24 0
-7023 61 0
-7023 75 0
7024 -13 -30 -54 -61 0
-7024 13 0
-7024 30 0
-7024 54 0
-7024 61 0
7025 -13 -39 -45 -61 0
-7025 13 0
-7025 39 0
-7025 45 0
-7025 61 0
7026 -16 -24 -58 -75 0
-7026 16 0
-7026 24 0
-7026 58 0
-7026 75 0
7027 -16 -30 -54 -58 0
-7027 16 0
-7027 30 0
-7027 54 0
-7027 58 0
7028 -16 -39 -45 -58 0
-7028 16 0
-7028 39 0
-7028 45 0
-7028 58 0
-7020 7021 7022 7023 7024 7025 7026 7027 7028 0
-7021 7020 7022 7023 7024 7025 7026 7027 7028 0
-7022 7020 7021 7023 7024 7025 7026 7027 7028 0
-7023 7020 7021 7022 7024 7025 7026 7027 7028 0
-7024 7020 7021 7022 7023 7025 7026 7027 7028 0
-7025 7020 7021 7022 7023 7024 7026 7027 7028 0
-7026 7020 7021 7022 7023 7024 7025 7027 7028 0
-7027 7020 7021 7022 7023 7024 7025 7026 7028 0
-7028 7020 7021 7022 7023 7024 7025 7026 7027 0
7029 -7 -24 -75 -77 0
-7029 7 0
-7029 24 0
-7029 75 0
-7029 77 0
7030 -7 -30 -54 -77 0
-7030 7 0
-7030 30 0
-7030 54 0
-7030 77 0
7031 -7 -39 -45 -77 0
-7031 7 0
-7031 39 0
-7031 45 0
-7031 77 0
-7029 7030 7031 0
-7030 7029 7031 0
-7031 7029 7030 0
7032 -8 -22 -73 -77 0
-7032 8 0
-7032 22 0
-7032 73 0
-7032 77 0
7033 -8 -28 -52 -77 0
-7033 8 0
-7033 28 0
-7033 52 0
-7033 77 0
7034 -8 -37 -43 -77 0
-7034 8 0
-7034 37 0
-7034 43 0
-7034 77 0
7035 -14 -22 -62 -73 0
-7035 14 0
-7035 22 0
-7035 62 0
-7035 73 0
7036 -14 -28 -52 -62 0
-7036 14 0
-7036 28 0
-7036 52 0
-7036 62 0
7037 -14 -37 -43 -62 0
-7037 14 0
-7037 37 0
-7037 43 0
-7037 62 0
7038 -17 -22 -59 -73 0
-7038 17 0
-7038 22 0
-7038 59 0
-7038 73 0
7039 -17 -28 -52 -59 0
-7039 17 0
-7039 28 0
-7039 52 0
-7039 59 0
7040 -17 -37 -43 -59 0
-7040 17 0
-7040 37 0
-7040 43 0
-7040 59 0
-7032 7033 7034 7035 7036 7037 7038 7039 7040 0
-7033 7032 7034 7035 7036 7037 7038 7039 7040 0
-7034 7032 7033 7035 7036 7037 7038 7039 7040 0
-7035 7032 7033 7034 7036 7037 7038 7039 7040 0
-7036 7032 7033 7034 7035 7037 7038 7039 7040 0
-7037 7032 7033 7034 7035 7036 7038 7039 7040 0
-7038 7032 7033 7034 7035 7036 7037 7039 7040 0
-7039 7032 7033 7034 7035 7036 7037 7038 7040 0
-7040 7032 7033 7034 7035 7036 7037 7038 7039 0
7041 -8 -22 -73 -78 0
-7041 8 0
-7041 22 0
-7041 73 0
-7041 78 0
7042 -8 -28 -52 -78 0
-7042 8 0
-7042 28 0
-7042 52 0
-7042 78 0
7043 -8 -37 -43 -78 0
-7043 8 0
-7043 37 0
-7043 43 0
-7043 78 0
-7041 7042 7043 0
-7042 7041 7043 0
-7043 7041 7042 0
7044 -8 -22 -74 -76 0
-7044 8 0
-7044 22 0
-7044 74 0
-7044 76 0
7045 -8 -31 -49 -74 0
-7045 8 0
-7045 31 0
-7045 49 0
-7045 74 0
7046 -8 -34 -46 -74 0
-7046 8 0
-7046 34 0
-7046 46 0
-7046 74 0
7047 -11 -22 -65 -76 0
-7047 11 0
-7047 22 0
-7047 65 0
-7047 76 0
7048 -11 -31 -49 -65 0
-7048 11 0
-7048 31 0
-7048 49 0
-7048 65 0
7049 -11 -34 -46 -65 0
-7049 11 0
-7049 34 0
-7049 46 0
-7049 65 0
7050 -20 -22 -56 -76 0
-7050 20 0
-7050 22 0
-7050 56 0
-7050 76 0
7051 -20 -31 -49 -56 0
-7051 20 0
-7051 31 0
-7051 49 0
-7051 56 0
7052 -20 -34 -46 -56 0
-7052 20 0
-7052 34 0
-7052 46 0
-7052 56 0
-7044 7045 7046 7047 7048 7049 7050 7051 7052 0
-7045 7044 7046 7047 7048 7049 7050 7051 7052 0
-7046 7044 7045 7047 7048 7049 7050 7051 7052 0
-7047 7044 7045 7046 7048 7049 7050 7051 7052 0
-7048 7044 7045 7046 7047 7049 7050 7051 7052 0
-7049 7044 7045 7046 7047 7048 7050 7051 7052 0
-7050 7044 7045 7046 7047 7048 7049 7051 7052 0
-7051 7044 7045 7046 7047 7048 7049 7050 7052 0
-7052 7044 7045 7046 7047 7048 7049 7050 7051 0
7053 -8 -22 -74 -78 0
-7053 8 0
-7053 22 0
-7053 74 0
-7053 78 0
7054 -11 -22 -65 -78 0
-7054 11 0
-7054 22 0
-7054 65 0
-7054 78 0
7055 -20 -22 -56 -78 0
-7055 20 0
-7055 22 0
-7055 56 0
-7055 78 0
-7053 7054 7055 0
-7054 7053 7055 0
-7055 7053 7054 0
7056 -8 -22 -75 -76 0
-7056 8 0
-7056 22 0
-7056 75 0
-7056 76 0
7057 -8 -31 -49 -75 0
-7057 8 0
-7057 31 0
-7057 49 0
-7057 75 0
7058 -8 -34 -46 -75 0
-7058 8 0
-7058 34 0
-7058 46 0
-7058 75 0
-7056 7057 7058 0
-7057 7056 7058 0
-7058 7056 7057 0
7059 -8 -22 -75 -77 0
-7059 8 0
-7059 22 0
-7059 75 0
-7059 77 0
7060 -14 -22 -62 -75 0
-7060 14 0
-7060 22 0
-7060 62 0
-7060 75 0
7061 -17 -22 -59 -75 0
-7061 17 0
-7061 22 0
-7061 59 0
-7061 75 0
-7059 7060 7061 0
-7060 7059 7061 0
-7061 7059 7060 0
7062 -8 -24 -73 -77 0
-7062 8 0
-7062 24 0
-7062 73 0
-7062 77 0
7063 -14 -24 -62 -73 0
-7063 14 0
-7063 24 0
-7063 62 0
-7063 73 0
7064 -17 -24 -59 -73 0
-7064 17 0
-7064 24 0
-7064 59 0
-7064 73 0
-7062 7063 7064 0
-7063 7062 7064 0
-7064 7062 7063 0
7065 -8 -24 -73 -78 0
-7065 8 0
-7065 24 0
-7065 73 0
-7065 78 0
7066 -8 -33 -51 -73 0
-7066 8 0
-7066 33 0
-7066 51 0
-7066 73 0
7067 -8 -36 -48 -73 0
-7067 8 0
-7067 36 0
-7067 48 0
-7067 73 0
-7065 7066 7067 0
-7066 7065 7067 0
-7067 7065 7066 0
7068 -8 -24 -74 -76 0
-7068 8 0
-7068 24 0
-7068 74 0
-7068 76 0
7069 -11 -24 -65 -76 0
-7069 11 0
-7069 24 0
-7069 65 0
-7069 76 0
7070 -20 -24 -56 -76 0
-7070 20 0
-7070 24 0
-7070 56 0
-7070 76 0
-7068 7069 7070 0
-7069 7068 7070 0
-7070 7068 7069 0
7071 -8 -24 -74 -78 0
-7071 8 0
-7071 24 0
-7071 74 0
-7071 78 0
7072 -8 -33 -51 -74 0
-7072 8 0
-7072 33 0
-7072 51 0
-7072 74 0
7073 -8 -36 -48 -74 0
-7073 8 0
-7073 36 0
-7073 48 0
-7073 74 0
7074 -11 -24 -65 -78 0
-7074 11 0
-7074 24 0
-7074 65 0
-7074 78 0
7075 -11 -33 -51 -65 0
-7075 11 0
-7075 33 0
-7075 51 0
-7075 65 0
7076 -11 -36 -48 -65 0
-7076 11 0
-7076 36 0
-7076 48 0
-7076 65 0
7077 -20 -24 -56 -78 0
-7077 20 0
-7077 24 0
-7077 56 0
-7077 78 0
7078 -20 -33 -51 -56 0
-7078 20 0
-7078 33 0
-7078 51 0
-7078 56 0
7079 -20 -36 -48 -56 0
-7079 20 0
-7079 36 0
-7079 48 0
-7079 56 0
-7071 7072 7073 7074 7075 7076 7077 7078 7079 0
-7072 7071 7073 7074 7075 7076 7077 7078 7079 0
-7073 7071 7072 7074 7075 7076 7077 7078 7079 0
-7074 7071 7072 7073 7075 7076 7077 7078 7079 0
-7075 7071 7072 7073 7074 7076 7077 7078 7079 0
-7076 7071 7072 7073 7074 7075 7077 7078 7079 0
-7077 7071 7072 7073 7074 7075 7076 7078 7079 0
-7078 7071 7072 7073 7074 7075 7076 7077 7079 0
-7079 7071 7072 7073 7074 7075 7076 7077 7078 0
7080 -8 -24 -75 -76 0
-7080 8 0
-7080 24 0
-7080 75 0
-7080 76 0
7081 -8 -30 -54 -76 0
-7081 8 0
-7081 30 0
-7081 54 0
-7081 76 0
7082 -8 -39 -45 -76 0
-7082 8 0
-7082 39 0
-7082 45 0
-7082 76 0
-7080 7081 7082 0
-7081 7080 7082 0
-7082 7080 7081 0
7083 -8 -24 -75 -77 0
-7083 8 0
-7083 24 0
-7083 75 0
-7083 77 0
7084 -8 -30 -54 -77 0
-7084 8 0
-7084 30 0
-7084 54 0
-7084 77 0
7085 -8 -39 -45 -77 0
-7085 8 0
-7085 39 0
-7085 45 0
-7085 77 0
7086 -14 -24 -62 -75 0
-7086 14 0
-7086 24 0
-7086 62 0
-7086 75 0
7087 -14 -30 -54 -62 0
-7087 14 0
-7087 30 0
-7087 54 0
-7087 62 0
7088 -14 -39 -45 -62 0
-7088 14 0
-7088 39 0
-7088 45 0
-7088 62 0
7089 -17 -24 -59 -75 0
-7089 17 0
-7089 24 0
-7089 59 0
-7089 75 0
7090 -17 -30 -54 -59 0
-7090 17 0
-7090 30 0
-7090 54 0
-7090 59 0
7091 -17 -39 -45 -59 0
-7091 17 0
-7091 39 0
-7091 45 0
-7091 59 0
-7083 7084 7085 7086 7087 7088 7089 7090 7091 0
-7084 7083 7085 7086 7087 7088 7089 7090 7091 0
-7085 7083 7084 7086 7087 7088 7089 7090 7091 0
-7086 7083 7084 7085 7087 7088 7089 7090 7091 0
-7087 7083 7084 7085 7086 7088 7089 7090 7091 0
-7088 7083 7084 7085 7086 7087 7089 7090 7091 0
-7089 7083 7084 7085 7086 7087 7088 7090 7091 0
-7090 7083 7084 7085 7086 7087 7088 7089 7091 0
-7091 7083 7084 7085 7086 7087 7088 7089 7090 0
7092 -9 -22 -73 -77 0
-7092 9 0
-7092 22 0
-7092 73 0
-7092 77 0
7093 -9 -28 -52 -77 0
-7093 9 0
-7093 28 0
-7093 52 0
-7093 77 0
7094 -9 -37 -43 -77 0
-7094 9 0
-7094 37 0
-7094 43 0
-7094 77 0
-7092 7093 7094 0
-7093 7092 7094 0
-7094 7092 7093 0
7095 -9 -22 -73 -78 0
-7095 9 0
-7095 22 0
-7095 73 0
-7095 78 0
7096 -9 -28 -52 -78 0
-7096 9 0
-7096 28 0
-7096 52 0
-7096 78 0
7097 -9 -37 -43 -78 0
-7097 9 0
-7097 37 0
-7097 43 0
-7097 78 0
7098 -15 -22 -63 -73 0
-7098 15 0
-7098 22 0
-7098 63 0
-7098 73 0
7099 -15 -28 -52 -63 0
-7099 15 0
-7099 28 0
-7099 52 0
-7099 63 0
7100 -15 -37 -43 -63 0
-7100 15 0
-7100 37 0
-7100 43 0
-7100 63 0
7101 -18 -22 -60 -73 0
-7101 18 0
-7101 22 0
-7101 60 0
-7101 73 0
7102 -18 -28 -52 -60 0
-7102 18 0
-7102 28 0
-7102 52 0
-7102 60 0
7103 -18 -37 -43 -60 0
-7103 18 0
-7103 37 0
-7103 43 0
-7103 60 0
-7095 7096 7097 7098 7099 7100 7101 7102 7103 0
-7096 7095 7097 7098 7099 7100 7101 7102 7103 0
-7097 7095 7096 7098 7099 7100 7101 7102 7103 0
-7098 7095 7096 7097 7099 7100 7101 7102 7103 0
-7099 7095 7096 7097 7098 7100 7101 7102 7103 0
-7100 7095 7096 7097 7098 7099 7101 7102 7103 0
-7101 7095 7096 7097 7098 7099 7100 7102 7103 0
-7102 7095 7096 7097 7098 7099 7100 7101 7103 0
-7103 7095 7096 7097 7098 7099 7100 7101 7102 0
7104 -9 -22 -74 -76 0
-7104 9 0
-7104 22 0
-7104 74 0
-7104 76 0
7105 -9 -31 -49 -74 0
-7105 9 0
-7105 31 0
-7105 49 0
-7105 74 0
7106 -9 -34 -46 -74 0
-7106 9 0
-7106 34 0
-7106 46 0
-7106 74 0
-7104 7105 7106 0
-7105 7104 7106 0
-7106 7104 7105 0
7107 -9 -22 -74 -78 0
-7107 9 0
-7107 22 0
-7107 74 0
-7107 78 0
7108 -15 -22 -63 -74 0
-7108 15 0
-7108 22 0
-7108 63 0
-7108 74 0
7109 -18 -22 -60 -74 0
-7109 18 0
-7109 22 0
-7109 60 0
-7109 74 0
-7107 7108 7109 0
-7108 7107 7109 0
-7109 7107 7108 0
7110 -9 -22 -75 -76 0
-7110 9 0
-7110 22 0
-7110 75 0
-7110 76 0
7111 -9 -31 -49 -75 0
-7111 9 0
-7111 31 0
-7111 49 0
-7111 75 0
7112 -9 -34 -46 -75 0
-7112 9 0
-7112 34 0
-7112 46 0
-7112 75 0
7113 -12 -22 -66 -76 0
-7113 12 0
-7113 22 0
-7113 66 0
-7113 76 0
7114 -12 -31 -49 -66 0
-7114 12 0
-7114 31 0
-7114 49 0
-7114 66 0
7115 -12 -34 -46 -66 0
-7115 12 0
-7115 34 0
-7115 46 0
-7115 66 0
7116 -21 -22 -57 -76 0
-7116 21 0
-7116 22 0
-7116 57 0
-7116 76 0
7117 -21 -31 -49 -57 0
-7117 21 0
-7117 31 0
-7117 49 0
-7117 57 0
7118 -21 -34 -46 -57 0
-7118 21 0
-7118 34 0
-7118 46 0
-7118 57 0
-7110 7111 7112 7113 7114 7115 7116 7117 7118 0
-7111 7110 7112 7113 7114 7115 7116 7117 7118 0
-7112 7110 7111 7113 7114 7115 7116 7117 7118 0
-7113 7110 7111 7112 7114 7115 7116 7117 7118 0
-7114 7110 7111 7112 7113 7115 7116 7117 7118 0
-7115 7110 7111 7112 7113 7114 7116 7117 7118 0
-7116 7110 7111 7112 7113 7114 7115 7117 7118 0
-7117 7110 7111 7112 7113 7114 7115 7116 7118 0
-7118 7110 7111 7112 7113 7114 7115 7116 7117 0
7119 -9 -22 -75 -77 0
-7119 9 0
-7119 22 0
-7119 75 0
-7119 77 0
7120 -12 -22 -66 -77 0
-7120 12 0
-7120 22 0
-7120 66 0
-7120 77 0
7121 -21 -22 -57 -77 0
-7121 21 0
-7121 22 0
-7121 57 0
-7121 77 0
-7119 7120 7121 0
-7120 7119 7121 0
-7121 7119 7120 0
7122 -9 -23 -73 -77 0
-7122 9 0
-7122 23 0
-7122 73 0
-7122 77 0
7123 -9 -32 -50 -73 0
-7123 9 0
-7123 32 0
-7123 50 0
-7123 73 0
7124 -9 -35 -47 -73 0
-7124 9 0
-7124 35 0
-7124 47 0
-7124 73 0
-7122 7123 7124 0
-7123 7122 7124 0
-7124 7122 7123 0
7125 -9 -23 -73 -78 0
-7125 9 0
-7125 23 0
-7125 73 0
-7125 78 0
7126 -15 -23 -63 -73 0
-7126 15 0
-7126 23 0
-7126 63 0
-7126 73 0
7127 -18 -23 -60 -73 0
-7127 18 0
-7127 23 0
-7127 60 0
-7127 73 0
-7125 7126 7127 0
-7126 7125 7127 0
-7127 7125 7126 0
7128 -9 -23 -74 -76 0
-7128 9 0
-7128 23 0
-7128 74 0
-7128 76 0
7129 -9 -29 -53 -76 0
-7129 9 0
-7129 29 0
-7129 53 0
-7129 76 0
7130 -9 -38 -44 -76 0
-7130 9 0
-7130 38 0
-7130 44 0
-7130 76 0
-7128 7129 7130 0
-7129 7128 7130 0
-7130 7128 7129 0
7131 -9 -23 -74 -78 0
-7131 9 0
-7131 23 0
-7131 74 0
-7131 78 0
7132 -9 -29 -53 -78 0
-7132 9 0
-7132 29 0
-7132 53 0
-7132 78 0
7133 -9 -38 -44 -78 0
-7133 9 0
-7133 38 0
-7133 44 0
-7133 78 0
7134 -15 -23 -63 -74 0
-7134 15 0
-7134 23 0
-7134 63 0
-7134 74 0
7135 -15 -29 -53 -63 0
-7135 15 0
-7135 29 0
-7135 53 0
-7135 63 0
7136 -15 -38 -44 -63 0
-7136 15 0
-7136 38 0
-7136 44 0
-7136 63 0
7137 -18 -23 -60 -74 0
-7137 18 0
-7137 23 0
-7137 60 0
-7137 74 0
7138 -18 -29 -53 -60 0
-7138 18 0
-7138 29 0
-7138 53 0
-7138 60 0
7139 -18 -38 -44 -60 0
-7139 18 0
-7139 38 0
-7139 44 0
-7139 60 0
-7131 7132 7133 7134 7135 7136 7137 7138 7139 0
-7132 7131 7133 7134 7135 7136 7137 7138 7139 0
-7133 7131 7132 7134 7135 7136 7137 7138 7139 0
-7134 7131 7132 7133 7135 7136 7137 7138 7139 0
-7135 7131 7132 7133 7134 7136 7137 7138 7139 0
-7136 7131 7132 7133 7134 7135 7137 7138 7139 0
-7137 7131 7132 7133 7134 7135 7136 7138 7139 0
-7138 7131 7132 7133 7134 7135 7136 7137 7139 0
-7139 7131 7132 7133 7134 7135 7136 7137 7138 0
7140 -9 -23 -75 -76 0
-7140 9 0
-7140 23 0
-7140 75 0
-7140 76 0
7141 -12 -23 -66 -76 0
-7141 12 0
-7141 23 0
-7141 66 0
-7141 76 0
7142 -21 -23 -57 -76 0
-7142 21 0
-7142 23 0
-7142 57 0
-7142 76 0
-7140 7141 7142 0
-7141 7140 7142 0
-7142 7140 7141 0
7143 -9 -23 -75 -77 0
-7143 9 0
-7143 23 0
-7143 75 0
-7143 77 0
7144 -9 -32 -50 -75 0
-7144 9 0
-7144 32 0
-7144 50 0
-7144 75 0
7145 -9 -35 -47 -75 0
-7145 9 0
-7145 35 0
-7145 47 0
-7145 75 0
7146 -12 -23 -66 -77 0
-7146 12 0
-7146 23 0
-7146 66 0
-7146 77 0
7147 -12 -32 -50 -66 0
-7147 12 0
-7147 32 0
-7147 50 0
-7147 66 0
7148 -12 -35 -47 -66 0
-7148 12 0
-7148 35 0
-7148 47 0
-7148 66 0
7149 -21 -23 -57 -77 0
-7149 21 0
-7149 23 0
-7149 57 0
-7149 77 0
7150 -21 -32 -50 -57 0
-7150 21 0
-7150 32 0
-7150 50 0
-7150 57 0
7151 -21 -35 -47 -57 0
-7151 21 0
-7151 35 0
-7151 47 0
-7151 57 0
-7143 7144 7145 7146 7147 7148 7149 7150 7151 0
-7144 7143 7145 7146 7147 7148 7149 7150 7151 0
-7145 7143 7144 7146 7147 7148 7149 7150 7151 0
-7146 7143 7144 7145 7147 7148 7149 7150 7151 0
-7147 7143 7144 7145 7146 7148 7149 7150 7151 0
-7148 7143 7144 7145 7146 7147 7149 7150 7151 0
-7149 7143 7144 7145 7146 7147 7148 7150 7151 0
-7150 7143 7144 7145 7146 7147 7148 7149 7151 0
-7151 7143 7144 7145 7146 7147 7148 7149 7150 0
7152 -7 -29 -48 -82 0
-7152 7 0
-7152 29 0
-7152 48 0
-7152 82 0
7153 -16 -29 -48 -64 0
-7153 16 0
-7153 29 0
-7153 48 0
-7153 64 0
7154 -19 -29 -48 -61 0
-7154 19 0
-7154 29 0
-7154 48 0
-7154 61 0
-7152 7153 7154 0
-7153 7152 7154 0
-7154 7152 7153 0
7155 -7 -29 -48 -83 0
-7155 7 0
-7155 29 0
-7155 48 0
-7155 83 0
7156 -7 -35 -48 -74 0
-7156 7 0
-7156 35 0
-7156 48 0
-7156 74 0
7157 -7 -38 -48 -71 0
-7157 7 0
-7157 38 0
-7157 48 0
-7157 71 0
-7155 7156 7157 0
-7156 7155 7157 0
-7157 7155 7156 0
7158 -7 -29 -48 -84 0
-7158 7 0
-7158 29 0
-7158 48 0
-7158 84 0
7159 -7 -29 -51 -81 0
-7159 7 0
-7159 29 0
-7159 51 0
-7159 81 0
7160 -7 -29 -54 -78 0
-7160 7 0
-7160 29 0
-7160 54 0
-7160 78 0
-7158 7159 7160 0
-7159 7158 7160 0
-7160 7158 7159 0
7161 -7 -30 -47 -82 0
-7161 7 0
-7161 30 0
-7161 47 0
-7161 82 0
7162 -16 -30 -47 -64 0
-7162 16 0
-7162 30 0
-7162 47 0
-7162 64 0
7163 -19 -30 -47 -61 0
-7163 19 0
-7163 30 0
-7163 47 0
-7163 61 0
-7161 7162 7163 0
-7162 7161 7163 0
-7163 7161 7162 0
7164 -7 -30 -47 -83 0
-7164 7 0
-7164 30 0
-7164 47 0
-7164 83 0
7165 -7 -30 -50 -80 0
-7165 7 0
-7165 30 0
-7165 50 0
-7165 80 0
7166 -7 -30 -53 -77 0
-7166 7 0
-7166 30 0
-7166 53 0
-7166 77 0
-7164 7165 7166 0
-7165 7164 7166 0
-7166 7164 7165 0
7167 -7 -30 -47 -84 0
-7167 7 0
-7167 30 0
-7167 47 0
-7167 84 0
7168 -7 -36 -47 -75 0
-7168 7 0
-7168 36 0
-7168 47 0
-7168 75 0
7169 -7 -39 -47 -72 0
-7169 7 0
-7169 39 0
-7169 47 0
-7169 72 0
-7167 7168 7169 0
-7168 7167 7169 0
-7169 7167 7168 0
7170 -8 -28 -48 -82 0
-7170 8 0
-7170 28 0
-7170 48 0
-7170 82 0
7171 -8 -34 -48 -73 0
-7171 8 0
-7171 34 0
-7171 48 0
-7171 73 0
7172 -8 -37 -48 -70 0
-7172 8 0
-7172 37 0
-7172 48 0
-7172 70 0
-7170 7171 7172 0
-7171 7170 7172 0
-7172 7170 7171 0
7173 -8 -28 -48 -83 0
-7173 8 0
-7173 28 0
-7173 48 0
-7173 83 0
7174 -17 -28 -48 -65 0
-7174 17 0
-7174 28 0
-7174 48 0
-7174 65 0
7175 -20 -28 -48 -62 0
-7175 20 0
-7175 28 0
-7175 48 0
-7175 62 0
-7173 7174 7175 0
-7174 7173 7175 0
-7175 7173 7174 0
7176 -8 -28 -48 -84 0
-7176 8 0
-7176 28 0
-7176 48 0
-7176 84 0
7177 -8 -28 -51 -81 0
-7177 8 0
-7177 28 0
-7177 51 0
-7177 81 0
7178 -8 -28 -54 -78 0
-7178 8 0
-7178 28 0
-7178 54 0
-7178 78 0
-7176 7177 7178 0
-7177 7176 7178 0
-7178 7176 7177 0
7179 -8 -30 -46 -82 0
-7179 8 0
-7179 30 0
-7179 46 0
-7179 82 0
7180 -8 -30 -49 -79 0
-7180 8 0
-7180 30 0
-7180 49 0
-7180 79 0
7181 -8 -30 -52 -76 0
-7181 8 0
-7181 30 0
-7181 52 0
-7181 76 0
-7179 7180 7181 0
-7180 7179 7181 0
-7181 7179 7180 0
7182 -8 -30 -46 -83 0
-7182 8 0
-7182 30 0
-7182 46 0
-7182 83 0
7183 -17 -30 -46 -65 0
-7183 17 0
-7183 30 0
-7183 46 0
-7183 65 0
7184 -20 -30 -46 -62 0
-7184 20 0
-7184 30 0
-7184 46 0
-7184 62 0
-7182 7183 7184 0
-7183 7182 7184 0
-7184 7182 7183 0
7185 -8 -30 -46 -84 0
-7185 8 0
-7185 30 0
-7185 46 0
-7185 84 0
7186 -8 -36 -46 -75 0
-7186 8 0
-7186 36 0
-7186 46 0
-7186 75 0
7187 -8 -39 -46 -72 0
-7187 8 0
-7187 39 0
-7187 46 0
-7187 72 0
-7185 7186 7187 0
-7186 7185 7187 0
-7187 7185 7186 0
7188 -9 -28 -47 -82 0
-7188 9 0
-7188 28 0
-7188 47 0
-7188 82 0
7189 -9 -34 -47 -73 0
-7189 9 0
-7189 34 0
-7189 47 0
-7189 73 0
7190 -9 -37 -47 -70 0
-7190 9 0
-7190 37 0
-7190 47 0
-7190 70 0
-7188 7189 7190 0
-7189 7188 7190 0
-7190 7188 7189 0
7191 -9 -28 -47 -83 0
-7191 9 0
-7191 28 0
-7191 47 0
-7191 83 0
7192 -9 -28 -50 -80 0
-7192 9 0
-7192 28 0
-7192 50 0
-7192 80 0
7193 -9 -28 -53 -77 0
-7193 9 0
-7193 28 0
-7193 53 0
-7193 77 0
-7191 7192 7193 0
-7192 7191 7193 0
-7193 7191 7192 0
7194 -9 -28 -47 -84 0
-7194 9 0
-7194 28 0
-7194 47 0
-7194 84 0
7195 -18 -28 -47 -66 0
-7195 18 0
-7195 28 0
-7195 47 0
-7195 66 0
7196 -21 -28 -47 -63 0
-7196 21 0
-7196 28 0
-7196 47 0
-7196 63 0
-7194 7195 7196 0
-7195 7194 7196 0
-7196 7194 7195 0
7197 -9 -29 -46 -82 0
-7197 9 0
-7197 29 0
-7197 46 0
-7197 82 0
7198 -9 -29 -49 -79 0
-7198 9 0
-7198 29 0
-7198 49 0
-7198 79 0
7199 -9 -29 -52 -76 0
-7199 9 0
-7199 29 0
-7199 52 0
-7199 76 0
-7197 7198 7199 0
-7198 7197 7199 0
-7199 7197 7198 0
7200 -9 -29 -46 -83 0
-7200 9 0
-7200 29 0
-7200 46 0
-7200 83 0
7201 -9 -35 -46 -74 0
-7201 9 0
-7201 35 0
-7201 46 0
-7201 74 0
7202 -9 -38 -46 -71 0
-7202 9 0
-7202 38 0
-7202 46 0
-7202 71 0
-7200 7201 7202 0
-7201 7200 7202 0
-7202 7200 7201 0
7203 -9 -29 -46 -84 0
-7203 9 0
-7203 29 0
-7203 46 0
-7203 84 0
7204 -18 -29 -46 -66 0
-7204 18 0
-7204 29 0
-7204 46 0
-7204 66 0
7205 -21 -29 -46 -63 0
-7205 21 0
-7205 29 0
-7205 46 0
-7205 63 0
-7203 7204 7205 0
-7204 7203 7205 0
-7205 7203 7204 0
7206 -7 -29 -51 -79 0
-7206 7 0
-7206 29 0
-7206 51 0
-7206 79 0
7207 -13 -29 -51 -64 0
-7207 13 0
-7207 29 0
-7207 51 0
-7207 64 0
7208 -19 -29 -51 -58 0
-7208 19 0
-7208 29 0
-7208 51 0
-7208 58 0
-7206 7207 7208 0
-7207 7206 7208 0
-7208 7206 7207 0
7209 -7 -29 -51 -80 0
-7209 7 0
-7209 29 0
-7209 51 0
-7209 80 0
7210 -7 -32 -51 -74 0
-7210 7 0
-7210 32 0
-7210 51 0
-7210 74 0
7211 -7 -38 -51 -68 0
-7211 7 0
-7211 38 0
-7211 51 0
-7211 68 0
-7209 7210 7211 0
-7210 7209 7211 0
-7211 7209 7210 0
7212 -7 -30 -50 -79 0
-7212 7 0
-7212 30 0
-7212 50 0
-7212 79 0
7213 -13 -30 -50 -64 0
-7213 13 0
-7213 30 0
-7213 50 0
-7213 64 0
7214 -19 -30 -50 -58 0
-7214 19 0
-7214 30 0
-7214 50 0
-7214 58 0
-7212 7213 7214 0
-7213 7212 7214 0
-7214 7212 7213 0
7215 -7 -30 -50 -81 0
-7215 7 0
-7215 30 0
-7215 50 0
-7215 81 0
7216 -7 -33 -50 -75 0
-7216 7 0
-7216 33 0
-7216 50 0
-7216 75 0
7217 -7 -39 -50 -69 0
-7217 7 0
-7217 39 0
-7217 50 0
-7217 69 0
-7215 7216 7217 0
-7216 7215 7217 0
-7217 7215 7216 0
7218 -8 -28 -51 -79 0
-7218 8 0
-7218 28 0
-7218 51 0
-7218 79 0
7219 -8 -31 -51 -73 0
-7219 8 0
-7219 31 0
-7219 51 0
-7219 73 0
7220 -8 -37 -51 -67 0
-7220 8 0
-7220 37 0
-7220 51 0
-7220 67 0
-7218 7219 7220 0
-7219 7218 7220 0
-7220 7218 7219 0
7221 -8 -28 -51 -80 0
-7221 8 0
-7221 28 0
-7221 51 0
-7221 80 0
7222 -14 -28 -51 -65 0
-7222 14 0
-7222 28 0
-7222 51 0
-7222 65 0
7223 -20 -28 -51 -59 0
-7223 20 0
-7223 28 0
-7223 51 0
-7223 59 0
-7221 7222 7223 0
-7222 7221 7223 0
-7223 7221 7222 0
7224 -8 -30 -49 -80 0
-7224 8 0
-7224 30 0
-7224 49 0
-7224 80 0
7225 -14 -30 -49 -65 0
-7225 14 0
-7225 30 0
-7225 49 0
-7225 65 0
7226 -20 -30 -49 -59 0
-7226 20 0
-7226 30 0
-7226 49 0
-7226 59 0
-7224 7225 7226 0
-7225 7224 7226 0
-7226 7224 7225 0
7227 -8 -30 -49 -81 0
-7227 8 0
-7227 30 0
-7227 49 0
-7227 81 0
7228 -8 -33 -49 -75 0
-7228 8 0
-7228 33 0
-7228 49 0
-7228 75 0
7229 -8 -39 -49 -69 0
-7229 8 0
-7229 39 0
-7229 49 0
-7229 69 0
-7227 7228 7229 0
-7228 7227 7229 0
-7229 7227 7228 0
7230 -9 -28 -50 -79 0
-7230 9 0
-7230 28 0
-7230 50 0
-7230 79 0
7231 -9 -31 -50 -73 0
-7231 9 0
-7231 31 0
-7231 50 0
-7231 73 0
7232 -9 -37 -50 -67 0
-7232 9 0
-7232 37 0
-7232 50 0
-7232 67 0
-7230 7231 7232 0
-7231 7230 7232 0
-7232 7230 7231 0
7233 -9 -28 -50 -81 0
-7233 9 0
-7233 28 0
-7233 50 0
-7233 81 0
7234 -15 -28 -50 -66 0
-7234 15 0
-7234 28 0
-7234 50 0
-7234 66 0
7235 -21 -28 -50 -60 0
-7235 21 0
-7235 28 0
-7235 50 0
-7235 60 0
-7233 7234 7235 0
-7234 7233 7235 0
-7235 7233 7234 0
7236 -9 -29 -49 -80 0
-7236 9 0
-7236 29 0
-7236 49 0
-7236 80 0
7237 -9 -32 -49 -74 0
-7237 9 0
-7237 32 0
-7237 49 0
-7237 74 0
7238 -9 -38 -49 -68 0
-7238 9 0
-7238 38 0
-7238 49 0
-7238 68 0
-7236 7237 7238 0
-7237 7236 7238 0
-7238 7236 7237 0
7239 -9 -29 -49 -81 0
-7239 9 0
-7239 29 0
-7239 49 0
-7239 81 0
7240 -15 -29 -49 -66 0
-7240 15 0
-7240 29 0
-7240 49 0
-7240 66 0
7241 -21 -29 -49 -60 0
-7241 21 0
-7241 29 0
-7241 49 0
-7241 60 0
-7239 7240 7241 0
-7240 7239 7241 0
-7241 7239 7240 0
7242 -7 -29 -54 -76 0
-7242 7 0
-7242 29 0
-7242 54 0
-7242 76 0
7243 -13 -29 -54 -61 0
-7243 13 0
-7243 29 0
-7243 54 0
-7243 61 0
7244 -16 -29 -54 -58 0
-7244 16 0
-7244 29 0
-7244 54 0
-7244 58 0
-7242 7243 7244 0
-7243 7242 7244 0
-7244 7242 7243 0
7245 -7 -29 -54 -77 0
-7245 7 0
-7245 29 0
-7245 54 0
-7245 77 0
7246 -7 -32 -54 -71 0
-7246 7 0
-7246 32 0
-7246 54 0
-7246 71 0
7247 -7 -35 -54 -68 0
-7247 7 0
-7247 35 0
-7247 54 0
-7247 68 0
-7245 7246 7247 0
-7246 7245 7247 0
-7247 7245 7246 0
7248 -7 -30 -53 -76 0
-7248 7 0
-7248 30 0
-7248 53 0
-7248 76 0
7249 -13 -30 -53 -61 0
-7249 13 0
-7249 30 0
-7249 53 0
-7249 61 0
7250 -16 -30 -53 -58 0
-7250 16 0
-7250 30 0
-7250 53 0
-7250 58 0
-7248 7249 7250 0
-7249 7248 7250 0
-7250 7248 7249 0
7251 -7 -30 -53 -78 0
-7251 7 0
-7251 30 0
-7251 53 0
-7251 78 0
7252 -7 -33 -53 -72 0
-7252 7 0
-7252 33 0
-7252 53 0
-7252 72 0
7253 -7 -36 -53 -69 0
-7253 7 0
-7253 36 0
-7253 53 0
-7253 69 0
-7251 7252 7253 0
-7252 7251 7253 0
-7253 7251 7252 0
7254 -8 -28 -54 -76 0
-7254 8 0
-7254 28 0
-7254 54 0
-7254 76 0
7255 -8 -31 -54 -70 0
-7255 8 0
-7255 31 0
-7255 54 0
-7255 70 0
7256 -8 -34 -54 -67 0
-7256 8 0
-7256 34 0
-7256 54 0
-7256 67 0
-7254 7255 7256 0
-7255 7254 7256 0
-7256 7254 7255 0
7257 -8 -28 -54 -77 0
-7257 8 0
-7257 28 0
-7257 54 0
-7257 77 0
7258 -14 -28 -54 -62 0
-7258 14 0
-7258 28 0
-7258 54 0
-7258 62 0
7259 -17 -28 -54 -59 0
-7259 17 0
-7259 28 0
-7259 54 0
-7259 59 0
-7257 7258 7259 0
-7258 7257 7259 0
-7259 7257 7258 0
7260 -8 -30 -52 -77 0
-7260 8 0
-7260 30 0
-7260 52 0
-7260 77 0
7261 -14 -30 -52 -62 0
-7261 14 0
-7261 30 0
-7261 52 0
-7261 62 0
7262 -17 -30 -52 -59 0
-7262 17 0
-7262 30 0
-7262 52 0
-7262 59 0
-7260 7261 7262 0
-7261 7260 7262 0
-7262 7260 7261 0
7263 -8 -30 -52 -78 0
-7263 8 0
-7263 30 0
-7263 52 0
-7263 78 0
7264 -8 -33 -52 -72 0
-7264 8 0
-7264 33 0
-7264 52 0
-7264 72 0
7265 -8 -36 -52 -69 0
-7265 8 0
-7265 36 0
-7265 52 0
-7265 69 0
-7263 7264 7265 0
-7264 7263 7265 0
-7265 7263 7264 0
7266 -9 -28 -53 -76 0
-7266 9 0
-7266 28 0
-7266 53 0
-7266 76 0
7267 -9 -31 -53 -70 0
-7267 9 0
-7267 31 0
-7267 53 0
-7267 70 0
7268 -9 -34 -53 -67 0
-7268 9 0
-7268 34 0
-7268 53 0
-7268 67 0
-7266 7267 7268 0
-7267 7266 7268 0
-7268 7266 7267 0
7269 -9 -28 -53 -78 0
-7269 9 0
-7269 28 0
-7269 53 0
-7269 78 0
7270 -15 -28 -53 -63 0
-7270 15 0
-7270 28 0
-7270 53 0
-7270 63 0
7271 -18 -28 -53 -60 0
-7271 18 0
-7271 28 0
-7271 53 0
-7271 60 0
-7269 7270 7271 0
-7270 7269 7271 0
-7271 7269 7270 0
7272 -9 -29 -52 -77 0
-7272 9 0
-7272 29 0
-7272 52 0
-7272 77 0
7273 -9 -32 -52 -71 0
-7273 9 0
-7273 32 0
-7273 52 0
-7273 71 0
7274 -9 -35 -52 -68 0
-7274 9 0
-7274 35 0
-7274 52 0
-7274 68 0
-7272 7273 7274 0
-7273 7272 7274 0
-7274 7272 7273 0
7275 -9 -29 -52 -78 0
-7275 9 0
-7275 29 0
-7275 52 0
-7275 78 0
7276 -15 -29 -52 -63 0
-7276 15 0
-7276 29 0
-7276 52 0
-7276 63 0
7277 -18 -29 -52 -60 0
-7277 18 0
-7277 29 0
-7277 52 0
-7277 60 0
-7275 7276 7277 0
-7276 7275 7277 0
-7277 7275 7276 0
7278 -7 -32 -45 -82 0
-7278 7 0
-7278 32 0
-7278 45 0
-7278 82 0
7279 -16 -32 -45 -64 0
-7279 16 0
-7279 32 0
-7279 45 0
-7279 64 0
7280 -19 -32 -45 -61 0
-7280 19 0
-7280 32 0
-7280 45 0
-7280 61 0
-7278 7279 7280 0
-7279 7278 7280 0
-7280 7278 7279 0
7281 -7 -32 -45 -83 0
-7281 7 0
-7281 32 0
-7281 45 0
-7281 83 0
7282 -7 -35 -45 -80 0
-7282 7 0
-7282 35 0
-7282 45 0
-7282 80 0
7283 -7 -38 -45 -77 0
-7283 7 0
-7283 38 0
-7283 45 0
-7283 77 0
-7281 7282 7283 0
-7282 7281 7283 0
-7283 7281 7282 0
7284 -7 -32 -45 -84 0
-7284 7 0
-7284 32 0
-7284 45 0
-7284 84 0
7285 -7 -32 -51 -75 0
-7285 7 0
-7285 32 0
-7285 51 0
-7285 75 0
7286 -7 -32 -54 -72 0
-7286 7 0
-7286 32 0
-7286 54 0
-7286 72 0
-7284 7285 7286 0
-7285 7284 7286 0
-7286 7284 7285 0
7287 -7 -33 -44 -82 0
-7287 7 0
-7287 33 0
-7287 44 0
-7287 82 0
7288 -16 -33 -44 -64 0
-7288 16 0
-7288 33 0
-7288 44 0
-7288 64 0
7289 -19 -33 -44 -61 0
-7289 19 0
-7289 33 0
-7289 44 0
-7289 61 0
-7287 7288 7289 0
-7288 7287 7289 0
-7289 7287 7288 0
7290 -7 -33 -44 -83 0
-7290 7 0
-7290 33 0
-7290 44 0
-7290 83 0
7291 -7 -33 -50 -74 0
-7291 7 0
-7291 33 0
-7291 50 0
-7291 74 0
7292 -7 -33 -53 -71 0
-7292 7 0
-7292 33 0
-7292 53 0
-7292 71 0
-7290 7291 7292 0
-7291 7290 7292 0
-7292 7290 7291 0
7293 -7 -33 -44 -84 0
-7293 7 0
-7293 33 0
-7293 44 0
-7293 84 0
7294 -7 -36 -44 -81 0
-7294 7 0
-7294 36 0
-7294 44 0
-7294 81 0
7295 -7 -39 -44 -78 0
-7295 7 0
-7295 39 0
-7295 44 0
-7295 78 0
-7293 7294 7295 0
-7294 7293 7295 0
-7295 7293 7294 0
7296 -8 -31 -45 -82 0
-7296 8 0
-7296 31 0
-7296 45 0
-7296 82 0
7297 -8 -34 -45 -79 0
-7297 8 0
-7297 34 0
-7297 45 0
-7297 79 0
7298 -8 -37 -45 -76 0
-7298 8 0
-7298 37 0
-7298 45 0
-7298 76 0
-7296 7297 7298 0
-7297 7296 7298 0
-7298 7296 7297 0
7299 -8 -31 -45 -83 0
-7299 8 0
-7299 31 0
-7299 45 0
-7299 83 0
7300 -17 -31 -45 -65 0
-7300 17 0
-7300 31 0
-7300 45 0
-7300 65 0
7301 -20 -31 -45 -62 0
-7301 20 0
-7301 31 0
-7301 45 0
-7301 62 0
-7299 7300 7301 0
-7300 7299 7301 0
-7301 7299 7300 0
7302 -8 -31 -45 -84 0
-7302 8 0
-7302 31 0
-7302 45 0
-7302 84 0
7303 -8 -31 -51 -75 0
-7303 8 0
-7303 31 0
-7303 51 0
-7303 75 0
7304 -8 -31 -54 -72 0
-7304 8 0
-7304 31 0
-7304 54 0
-7304 72 0
-7302 7303 7304 0
-7303 7302 7304 0
-7304 7302 7303 0
7305 -8 -33 -43 -82 0
-7305 8 0
-7305 33 0
-7305 43 0
-7305 82 0
7306 -8 -33 -49 -73 0
-7306 8 0
-7306 33 0
-7306 49 0
-7306 73 0
7307 -8 -33 -52 -70 0
-7307 8 0
-7307 33 0
-7307 52 0
-7307 70 0
-7305 7306 7307 0
-7306 7305 7307 0
-7307 7305 7306 0
7308 -8 -33 -43 -83 0
-7308 8 0
-7308 33 0
-7308 43 0
-7308 83 0
7309 -17 -33 -43 -65 0
-7309 17 0
-7309 33 0
-7309 43 0
-7309 65 0
7310 -20 -33 -43 -62 0
-7310 20 0
-7310 33 0
-7310 43 0
-7310 62 0
-7308 7309 7310 0
-7309 7308 7310 0
-7310 7308 7309 0
7311 -8 -33 -43 -84 0
-7311 8 0
-7311 33 0
-7311 43 0
-7311 84 0
7312 -8 -36 -43 -81 0
-7312 8 0
-7312 36 0
-7312 43 0
-7312 81 0
7313 -8 -39 -43 -78 0
-7313 8 0
-7313 39 0
-7313 43 0
-7313 78 0
-7311 7312 7313 0
-7312 7311 7313 0
-7313 7311 7312 0
7314 -9 -31 -44 -82 0
-7314 9 0
-7314 31 0
-7314 44 0
-7314 82 0
7315 -9 -34 -44 -79 0
-7315 9 0
-7315 34 0
-7315 44 0
-7315 79 0
7316 -9 -37 -44 -76 0
-7316 9 0
-7316 37 0
-7316 44 0
-7316 76 0
-7314 7315 7316 0
-7315 7314 7316 0
-7316 7314 7315 0
7317 -9 -31 -44 -83 0
-7317 9 0
-7317 31 0
-7317 44 0
-7317 83 0
7318 -9 -31 -50 -74 0
-7318 9 0
-7318 31 0
-7318 50 0
-7318 74 0
7319 -9 -31 -53 -71 0
-7319 9 0
-7319 31 0
-7319 53 0
-7319 71 0
-7317 7318 7319 0
-7318 7317 7319 0
-7319 7317 7318 0
7320 -9 -31 -44 -84 0
-7320 9 0
-7320 31 0
-7320 44 0
-7320 84 0
7321 -18 -31 -44 -66 0
-7321 18 0
-7321 31 0
-7321 44 0
-7321 66 0
7322 -21 -31 -44 -63 0
-7322 21 0
-7322 31 0
-7322 44 0
-7322 63 0
-7320 7321 7322 0
-7321 7320 7322 0
-7322 7320 7321 0
7323 -9 -32 -43 -82 0
-7323 9 0
-7323 32 0
-7323 43 0
-7323 82 0
7324 -9 -32 -49 -73 0
-7324 9 0
-7324 32 0
-7324 49 0
-7324 73 0
7325 -9 -32 -52 -70 0
-7325 9 0
-7325 32 0
-7325 52 0
-7325 70 0
-7323 7324 7325 0
-7324 7323 7325 0
-7325 7323 7324 0
7326 -9 -32 -43 -83 0
-7326 9 0
-7326 32 0
-7326 43 0
-7326 83 0
7327 -9 -35 -43 -80 0
-7327 9 0
-7327 35 0
-7327 43 0
-7327 80 0
7328 -9 -38 -43 -77 0
-7328 9 0
-7328 38 0
-7328 43 0
-7328 77 0
-7326 7327 7328 0
-7327 7326 7328 0
-7328 7326 7327 0
7329 -9 -32 -43 -84 0
-7329 9 0
-7329 32 0
-7329 43 0
-7329 84 0
7330 -18 -32 -43 -66 0
-7330 18 0
-7330 32 0
-7330 43 0
-7330 66 0
7331 -21 -32 -43 -63 0
-7331 21 0
-7331 32 0
-7331 43 0
-7331 63 0
-7329 7330 7331 0
-7330 7329 7331 0
-7331 7329 7330 0
7332 -7 -32 -51 -73 0
-7332 7 0
-7332 32 0
-7332 51 0
-7332 73 0
7333 -10 -32 -51 -64 0
-7333 10 0
-7333 32 0
-7333 51 0
-7333 64 0
7334 -19 -32 -51 -55 0
-7334 19 0
-7334 32 0
-7334 51 0
-7334 55 0
-7332 7333 7334 0
-7333 7332 7334 0
-7334 7332 7333 0
7335 -7 -33 -50 -73 0
-7335 7 0
-7335 33 0
-7335 50 0
-7335 73 0
7336 -10 -33 -50 -64 0
-7336 10 0
-7336 33 0
-7336 50 0
-7336 64 0
7337 -19 -33 -50 -55 0
-7337 19 0
-7337 33 0
-7337 50 0
-7337 55 0
-7335 7336 7337 0
-7336 7335 7337 0
-7337 7335 7336 0
7338 -8 -31 -51 -74 0
-7338 8 0
-7338 31 0
-7338 51 0
-7338 74 0
7339 -11 -31 -51 -65 0
-7339 11 0
-7339 31 0
-7339 51 0
-7339 65 0
7340 -20 -31 -51 -56 0
-7340 20 0
-7340 31 0
-7340 51 0
-7340 56 0
-7338 7339 7340 0
-7339 7338 7340 0
-7340 7338 7339 0
7341 -8 -33 -49 -74 0
-7341 8 0
-7341 33 0
-7341 49 0
-7341 74 0
7342 -11 -33 -49 -65 0
-7342 11 0
-7342 33 0
-7342 49 0
-7342 65 0
7343 -20 -33 -49 -56 0
-7343 20 0
-7343 33 0
-7343 49 0
-7343 56 0
-7341 7342 7343 0
-7342 7341 7343 0
-7343 7341 7342 0
7344 -9 -31 -50 -75 0
-7344 9 0
-7344 31 0
-7344 50 0
-7344 75 0
7345 -12 -31 -50 -66 0
-7345 12 0
-7345 31 0
-7345 50 0
-7345 66 0
7346 -21 -31 -50 -57 0
-7346 21 0
-7346 31 0
-7346 50 0
-7346 57 0
-7344 7345 7346 0
-7345 7344 7346 0
-7346 7344 7345 0
7347 -9 -32 -49 -75 0
-7347 9 0
-7347 32 0
-7347 49 0
-7347 75 0
7348 -12 -32 -49 -66 0
-7348 12 0
-7348 32 0
-7348 49 0
-7348 66 0
7349 -21 -32 -49 -57 0
-7349 21 0
-7349 32 0
-7349 49 0
-7349 57 0
-7347 7348 7349 0
-7348 7347 7349 0
-7349 7347 7348 0
7350 -7 -32 -54 -70 0
-7350 7 0
-7350 32 0
-7350 54 0
-7350 70 0
7351 -10 -32 -54 -61 0
-7351 10 0
-7351 32 0
-7351 54 0
-7351 61 0
7352 -16 -32 -54 -55 0
-7352 16 0
-7352 32 0
-7352 54 0
-7352 55 0
-7350 7351 7352 0
-7351 7350 7352 0
-7352 7350 7351 0
7353 -7 -33 -53 -70 0
-7353 7 0
-7353 33 0
-7353 53 0
-7353 70 0
7354 -10 -33 -53 -61 0
-7354 10 0
-7354 33 0
-7354 53 0
-7354 61 0
7355 -16 -33 -53 -55 0
-7355 16 0
-7355 33 0
-7355 53 0
-7355 55 0
-7353 7354 7355 0
-7354 7353 7355 0
-7355 7353 7354 0
7356 -8 -31 -54 -71 0
-7356 8 0
-7356 31 0
-7356 54 0
-7356 71 0
7357 -11 -31 -54 -62 0
-7357 11 0
-7357 31 0
-7357 54 0
-7357 62 0
7358 -17 -31 -54 -56 0
-7358 17 0
-7358 31 0
-7358 54 0
-7358 56 0
-7356 7357 7358 0
-7357 7356 7358 0
-7358 7356 7357 0
7359 -8 -33 -52 -71 0
-7359 8 0
-7359 33 0
-7359 52 0
-7359 71 0
7360 -11 -33 -52 -62 0
-7360 11 0
-7360 33 0
-7360 52 0
-7360 62 0
7361 -17 -33 -52 -56 0
-7361 17 0
-7361 33 0
-7361 52 0
-7361 56 0
-7359 7360 7361 0
-7360 7359 7361 0
-7361 7359 7360 0
7362 -9 -31 -53 -72 0
-7362 9 0
-7362 31 0
-7362 53 0
-7362 72 0
7363 -12 -31 -53 -63 0
-7363 12 0
-7363 31 0
-7363 53 0
-7363 63 0
7364 -18 -31 -53 -57 0
-7364 18 0
-7364 31 0
-7364 53 0
-7364 57 0
-7362 7363 7364 0
-7363 7362 7364 0
-7364 7362 7363 0
7365 -9 -32 -52 -72 0
-7365 9 0
-7365 32 0
-7365 52 0
-7365 72 0
7366 -12 -32 -52 -63 0
-7366 12 0
-7366 32 0
-7366 52 0
-7366 63 0
7367 -18 -32 -52 -57 0
-7367 18 0
-7367 32 0
-7367 52 0
-7367 57 0
-7365 7366 7367 0
-7366 7365 7367 0
-7367 7365 7366 0
7368 -7 -35 -45 -79 0
-7368 7 0
-7368 35 0
-7368 45 0
-7368 79 0
7369 -13 -35 -45 -64 0
-7369 13 0
-7369 35 0
-7369 45 0
-7369 64 0
7370 -19 -35 -45 -58 0
-7370 19 0
-7370 35 0
-7370 45 0
-7370 58 0
-7368 7369 7370 0
-7369 7368 7370 0
-7370 7368 7369 0
7371 -7 -35 -45 -81 0
-7371 7 0
-7371 35 0
-7371 45 0
-7371 81 0
7372 -7 -35 -48 -75 0
-7372 7 0
-7372 35 0
-7372 48 0
-7372 75 0
7373 -7 -35 -54 -69 0
-7373 7 0
-7373 35 0
-7373 54 0
-7373 69 0
-7371 7372 7373 0
-7372 7371 7373 0
-7373 7371 7372 0
7374 -7 -36 -44 -79 0
-7374 7 0
-7374 36 0
-7374 44 0
-7374 79 0
7375 -13 -36 -44 -64 0
-7375 13 0
-7375 36 0
-7375 44 0
-7375 64 0
7376 -19 -36 -44 -58 0
-7376 19 0
-7376 36 0
-7376 44 0
-7376 58 0
-7374 7375 7376 0
-7375 7374 7376 0
-7376 7374 7375 0
7377 -7 -36 -44 -80 0
-7377 7 0
-7377 36 0
-7377 44 0
-7377 80 0
7378 -7 -36 -47 -74 0
-7378 7 0
-7378 36 0
-7378 47 0
-7378 74 0
7379 -7 -36 -53 -68 0
-7379 7 0
-7379 36 0
-7379 53 0
-7379 68 0
-7377 7378 7379 0
-7378 7377 7379 0
-7379 7377 7378 0
7380 -8 -34 -45 -80 0
-7380 8 0
-7380 34 0
-7380 45 0
-7380 80 0
7381 -14 -34 -45 -65 0
-7381 14 0
-7381 34 0
-7381 45 0
-7381 65 0
7382 -20 -34 -45 -59 0
-7382 20 0
-7382 34 0
-7382 45 0
-7382 59 0
-7380 7381 7382 0
-7381 7380 7382 0
-7382 7380 7381 0
7383 -8 -34 -45 -81 0
-7383 8 0
-7383 34 0
-7383 45 0
-7383 81 0
7384 -8 -34 -48 -75 0
-7384 8 0
-7384 34 0
-7384 48 0
-7384 75 0
7385 -8 -34 -54 -69 0
-7385 8 0
-7385 34 0
-7385 54 0
-7385 69 0
-7383 7384 7385 0
-7384 7383 7385 0
-7385 7383 7384 0
7386 -8 -36 -43 -79 0
-7386 8 0
-7386 36 0
-7386 43 0
-7386 79 0
7387 -8 -36 -46 -73 0
-7387 8 0
-7387 36 0
-7387 46 0
-7387 73 0
7388 -8 -36 -52 -67 0
-7388 8 0
-7388 36 0
-7388 52 0
-7388 67 0
-7386 7387 7388 0
-7387 7386 7388 0
-7388 7386 7387 0
7389 -8 -36 -43 -80 0
-7389 8 0
-7389 36 0
-7389 43 0
-7389 80 0
7390 -14 -36 -43 -65 0
-7390 14 0
-7390 36 0
-7390 43 0
-7390 65 0
7391 -20 -36 -43 -59 0
-7391 20 0
-7391 36 0
-7391 43 0
-7391 59 0
-7389 7390 7391 0
-7390 7389 7391 0
-7391 7389 7390 0
7392 -9 -34 -44 -80 0
-7392 9 0
-7392 34 0
-7392 44 0
-7392 80 0
7393 -9 -34 -47 -74 0
-7393 9 0
-7393 34 0
-7393 47 0
-7393 74 0
7394 -9 -34 -53 -68 0
-7394 9 0
-7394 34 0
-7394 53 0
-7394 68 0
-7392 7393 7394 0
-7393 7392 7394 0
-7394 7392 7393 0
7395 -9 -34 -44 -81 0
-7395 9 0
-7395 34 0
-7395 44 0
-7395 81 0
7396 -15 -34 -44 -66 0
-7396 15 0
-7396 34 0
-7396 44 0
-7396 66 0
7397 -21 -34 -44 -60 0
-7397 21 0
-7397 34 0
-7397 44 0
-7397 60 0
-7395 7396 7397 0
-7396 7395 7397 0
-7397 7395 7396 0
7398 -9 -35 -43 -79 0
-7398 9 0
-7398 35 0
-7398 43 0
-7398 79 0
7399 -9 -35 -46 -73 0
-7399 9 0
-7399 35 0
-7399 46 0
-7399 73 0
7400 -9 -35 -52 -67 0
-7400 9 0
-7400 35 0
-7400 52 0
-7400 67 0
-7398 7399 7400 0
-7399 7398 7400 0
-7400 7398 7399 0
7401 -9 -35 -43 -81 0
-7401 9 0
-7401 35 0
-7401 43 0
-7401 81 0
7402 -15 -35 -43 -66 0
-7402 15 0
-7402 35 0
-7402 43 0
-7402 66 0
7403 -21 -35 -43 -60 0
-7403 21 0
-7403 35 0
-7403 43 0
-7403 60 0
-7401 7402 7403 0
-7402 7401 7403 0
-7403 7401 7402 0
7404 -7 -35 -48 -73 0
-7404 7 0
-7404 35 0
-7404 48 0
-7404 73 0
7405 -10 -35 -48 -64 0
-7405 10 0
-7405 35 0
-7405 48 0
-7405 64 0
7406 -19 -35 -48 -55 0
-7406 19 0
-7406 35 0
-7406 48 0
-7406 55 0
-7404 7405 7406 0
-7405 7404 7406 0
-7406 7404 7405 0
7407 -7 -36 -47 -73 0
-7407 7 0
-7407 36 0
-7407 47 0
-7407 73 0
7408 -10 -36 -47 -64 0
-7408 10 0
-7408 36 0
-7408 47 0
-7408 64 0
7409 -19 -36 -47 -55 0
-7409 19 0
-7409 36 0
-7409 47 0
-7409 55 0
-7407 7408 7409 0
-7408 7407 7409 0
-7409 7407 7408 0
7410 -8 -34 -48 -74 0
-7410 8 0
-7410 34 0
-7410 48 0
-7410 74 0
7411 -11 -34 -48 -65 0
-7411 11 0
-7411 34 0
-7411 48 0
-7411 65 0
7412 -20 -34 -48 -56 0
-7412 20 0
-7412 34 0
-7412 48 0
-7412 56 0
-7410 7411 7412 0
-7411 7410 7412 0
-7412 7410 7411 0
7413 -8 -36 -46 -74 0
-7413 8 0
-7413 36 0
-7413 46 0
-7413 74 0
7414 -11 -36 -46 -65 0
-7414 11 0
-7414 36 0
-7414 46 0
-7414 65 0
7415 -20 -36 -46 -56 0
-7415 20 0
-7415 36 0
-7415 46 0
-7415 56 0
-7413 7414 7415 0
-7414 7413 7415 0
-7415 7413 7414 0
7416 -9 -34 -47 -75 0
-7416 9 0
-7416 34 0
-7416 47 0
-7416 75 0
7417 -12 -34 -47 -66 0
-7417 12 0
-7417 34 0
-7417 47 0
-7417 66 0
7418 -21 -34 -47 -57 0
-7418 21 0
-7418 34 0
-7418 47 0
-7418 57 0
-7416 7417 7418 0
-7417 7416 7418 0
-7418 7416 7417 0
7419 -9 -35 -46 -75 0
-7419 9 0
-7419 35 0
-7419 46 0
-7419 75 0
7420 -12 -35 -46 -66 0
-7420 12 0
-7420 35 0
-7420 46 0
-7420 66 0
7421 -21 -35 -46 -57 0
-7421 21 0
-7421 35 0
-7421 46 0
-7421 57 0
-7419 7420 7421 0
-7420 7419 7421 0
-7421 7419 7420 0
7422 -7 -35 -54 -67 0
-7422 7 0
-7422 35 0
-7422 54 0
-7422 67 0
7423 -10 -35 -54 -58 0
-7423 10 0
-7423 35 0
-7423 54 0
-7423 58 0
7424 -13 -35 -54 -55 0
-7424 13 0
-7424 35 0
-7424 54 0
-7424 55 0
-7422 7423 7424 0
-7423 7422 7424 0
-7424 7422 7423 0
7425 -7 -36 -53 -67 0
-7425 7 0
-7425 36 0
-7425 53 0
-7425 67 0
7426 -10 -36 -53 -58 0
-7426 10 0
-7426 36 0
-7426 53 0
-7426 58 0
7427 -13 -36 -53 -55 0
-7427 13 0
-7427 36 0
-7427 53 0
-7427 55 0
-7425 7426 7427 0
-7426 7425 7427 0
-7427 7425 7426 0
7428 -8 -34 -54 -68 0
-7428 8 0
-7428 34 0
-7428 54 0
-7428 68 0
7429 -11 -34 -54 -59 0
-7429 11 0
-7429 34 0
-7429 54 0
-7429 59 0
7430 -14 -34 -54 -56 0
-7430 14 0
-7430 34 0
-7430 54 0
-7430 56 0
-7428 7429 7430 0
-7429 7428 7430 0
-7430 7428 7429 0
7431 -8 -36 -52 -68 0
-7431 8 0
-7431 36 0
-7431 52 0
-7431 68 0
7432 -11 -36 -52 -59 0
-7432 11 0
-7432 36 0
-7432 52 0
-7432 59 0
7433 -14 -36 -52 -56 0
-7433 14 0
-7433 36 0
-7433 52 0
-7433 56 0
-7431 7432 7433 0
-7432 7431 7433 0
-7433 7431 7432 0
7434 -9 -34 -53 -69 0
-7434 9 0
-7434 34 0
-7434 53 0
-7434 69 0
7435 -12 -34 -53 -60 0
-7435 12 0
-7435 34 0
-7435 53 0
-7435 60 0
7436 -15 -34 -53 -57 0
-7436 15 0
-7436 34 0
-7436 53 0
-7436 57 0
-7434 7435 7436 0
-7435 7434 7436 0
-7436 7434 7435 0
7437 -9 -35 -52 -69 0
-7437 9 0
-7437 35 0
-7437 52 0
-7437 69 0
7438 -12 -35 -52 -60 0
-7438 12 0
-7438 35 0
-7438 52 0
-7438 60 0
7439 -15 -35 -52 -57 0
-7439 15 0
-7439 35 0
-7439 52 0
-7439 57 0
-7437 7438 7439 0
-7438 7437 7439 0
-7439 7437 7438 0
7440 -7 -38 -45 -76 0
-7440 7 0
-7440 38 0
-7440 45 0
-7440 76 0
7441 -13 -38 -45 -61 0
-7441 13 0
-7441 38 0
-7441 45 0
-7441 61 0
7442 -16 -38 -45 -58 0
-7442 16 0
-7442 38 0
-7442 45 0
-7442 58 0
-7440 7441 7442 0
-7441 7440 7442 0
-7442 7440 7441 0
7443 -7 -38 -45 -78 0
-7443 7 0
-7443 38 0
-7443 45 0
-7443 78 0
7444 -7 -38 -48 -72 0
-7444 7 0
-7444 38 0
-7444 48 0
-7444 72 0
7445 -7 -38 -51 -69 0
-7445 7 0
-7445 38 0
-7445 51 0
-7445 69 0
-7443 7444 7445 0
-7444 7443 7445 0
-7445 7443 7444 0
7446 -7 -39 -44 -76 0
-7446 7 0
-7446 39 0
-7446 44 0
-7446 76 0
7447 -13 -39 -44 -61 0
-7447 13 0
-7447 39 0
-7447 44 0
-7447 61 0
7448 -16 -39 -44 -58 0
-7448 16 0
-7448 39 0
-7448 44 0
-7448 58 0
-7446 7447 7448 0
-7447 7446 7448 0
-7448 7446 7447 0
7449 -7 -39 -44 -77 0
-7449 7 0
-7449 39 0
-7449 44 0
-7449 77 0
7450 -7 -39 -47 -71 0
-7450 7 0
-7450 39 0
-7450 47 0
-7450 71 0
7451 -7 -39 -50 -68 0
-7451 7 0
-7451 39 0
-7451 50 0
-7451 68 0
-7449 7450 7451 0
-7450 7449 7451 0
-7451 7449 7450 0
7452 -8 -37 -45 -77 0
-7452 8 0
-7452 37 0
-7452 45 0
-7452 77 0
7453 -14 -37 -45 -62 0
-7453 14 0
-7453 37 0
-7453 45 0
-7453 62 0
7454 -17 -37 -45 -59 0
-7454 17 0
-7454 37 0
-7454 45 0
-7454 59 0
-7452 7453 7454 0
-7453 7452 7454 0
-7454 7452 7453 0
7455 -8 -37 -45 -78 0
-7455 8 0
-7455 37 0
-7455 45 0
-7455 78 0
7456 -8 -37 -48 -72 0
-7456 8 0
-7456 37 0
-7456 48 0
-7456 72 0
7457 -8 -37 -51 -69 0
-7457 8 0
-7457 37 0
-7457 51 0
-7457 69 0
-7455 7456 7457 0
-7456 7455 7457 0
-7457 7455 7456 0
7458 -8 -39 -43 -76 0
-7458 8 0
-7458 39 0
-7458 43 0
-7458 76 0
7459 -8 -39 -46 -70 0
-7459 8 0
-7459 39 0
-7459 46 0
-7459 70 0
7460 -8 -39 -49 -67 0
-7460 8 0
-7460 39 0
-7460 49 0
-7460 67 0
-7458 7459 7460 0
-7459 7458 7460 0
-7460 7458 7459 0
7461 -8 -39 -43 -77 0
-7461 8 0
-7461 39 0
-7461 43 0
-7461 77 0
7462 -14 -39 -43 -62 0
-7462 14 0
-7462 39 0
-7462 43 0
-7462 62 0
7463 -17 -39 -43 -59 0
-7463 17 0
-7463 39 0
-7463 43 0
-7463 59 0
-7461 7462 7463 0
-7462 7461 7463 0
-7463 7461 7462 0
7464 -9 -37 -44 -77 0
-7464 9 0
-7464 37 0
-7464 44 0
-7464 77 0
7465 -9 -37 -47 -71 0
-7465 9 0
-7465 37 0
-7465 47 0
-7465 71 0
7466 -9 -37 -50 -68 0
-7466 9 0
-7466 37 0
-7466 50 0
-7466 68 0
-7464 7465 7466 0
-7465 7464 7466 0
-7466 7464 7465 0
7467 -9 -37 -44 -78 0
-7467 9 0
-7467 37 0
-7467 44 0
-7467 78 0
7468 -15 -37 -44 -63 0
-7468 15 0
-7468 37 0
-7468 44 0
-7468 63 0
7469 -18 -37 -44 -60 0
-7469 18 0
-7469 37 0
-7469 44 0
-7469 60 0
-7467 7468 7469 0
-7468 7467 7469 0
-7469 7467 7468 0
7470 -9 -38 -43 -76 0
-7470 9 0
-7470 38 0
-7470 43 0
-7470 76 0
7471 -9 -38 -46 -70 0
-7471 9 0
-7471 38 0
-7471 46 0
-7471 70 0
7472 -9 -38 -49 -67 0
-7472 9 0
-7472 38 0
-7472 49 0
-7472 67 0
-7470 7471 7472 0
-7471 7470 7472 0
-7472 7470 7471 0
7473 -9 -38 -43 -78 0
-7473 9 0
-7473 38 0
-7473 43 0
-7473 78 0
7474 -15 -38 -43 -63 0
-7474 15 0
-7474 38 0
-7474 43 0
-7474 63 0
7475 -18 -38 -43 -60 0
-7475 18 0
-7475 38 0
-7475 43 0
-7475 60 0
-7473 7474 7475 0
-7474 7473 7475 0
-7475 7473 7474 0
7476 -7 -38 -48 -70 0
-7476 7 0
-7476 38 0
-7476 48 0
-7476 70 0
7477 -10 -38 -48 -61 0
-7477 10 0
-7477 38 0
-7477 48 0
-7477 61 0
7478 -16 -38 -48 -55 0
-7478 16 0
-7478 38 0
-7478 48 0
-7478 55 0
-7476 7477 7478 0
-7477 7476 7478 0
-7478 7476 7477 0
7479 -7 -39 -47 -70 0
-7479 7 0
-7479 39 0
-7479 47 0
-7479 70 0
7480 -10 -39 -47 -61 0
-7480 10 0
-7480 39 0
-7480 47 0
-7480 61 0
7481 -16 -39 -47 -55 0
-7481 16 0
-7481 39 0
-7481 47 0
-7481 55 0
-7479 7480 7481 0
-7480 7479 7481 0
-7481 7479 7480 0
7482 -8 -37 -48 -71 0
-7482 8 0
-7482 37 0
-7482 48 0
-7482 71 0
7483 -11 -37 -48 -62 0
-7483 11 0
-7483 37 0
-7483 48 0
-7483 62 0
7484 -17 -37 -48 -56 0
-7484 17 0
-7484 37 0
-7484 48 0
-7484 56 0
-7482 7483 7484 0
-7483 7482 7484 0
-7484 7482 7483 0
7485 -8 -39 -46 -71 0
-7485 8 0
-7485 39 0
-7485 46 0
-7485 71 0
7486 -11 -39 -46 -62 0
-7486 11 0
-7486 39 0
-7486 46 0
-7486 62 0
7487 -17 -39 -46 -56 0
-7487 17 0
-7487 39 0
-7487 46 0
-7487 56 0
-7485 7486 7487 0
-7486 7485 7487 0
-7487 7485 7486 0
7488 -9 -37 -47 -72 0
-7488 9 0
-7488 37 0
-7488 47 0
-7488 72 0
7489 -12 -37 -47 -63 0
-7489 12 0
-7489 37 0
-7489 47 0
-7489 63 0
7490 -18 -37 -47 -57 0
-7490 18 0
-7490 37 0
-7490 47 0
-7490 57 0
-7488 7489 7490 0
-7489 7488 7490 0
-7490 7488 7489 0
7491 -9 -38 -46 -72 0
-7491 9 0
-7491 38 0
-7491 46 0
-7491 72 0
7492 -12 -38 -46 -63 0
-7492 12 0
-7492 38 0
-7492 46 0
-7492 63 0
7493 -18 -38 -46 -57 0
-7493 18 0
-7493 38 0
-7493 46 0
-7493 57 0
-7491 7492 7493 0
-7492 7491 7493 0
-7493 7491 7492 0
7494 -7 -38 -51 -67 0
-7494 7 0
-7494 38 0
-7494 51 0
-7494 67 0
7495 -10 -38 -51 -58 0
-7495 10 0
-7495 38 0
-7495 51 0
-7495 58 0
7496 -13 -38 -51 -55 0
-7496 13 0
-7496 38 0
-7496 51 0
-7496 55 0
-7494 7495 7496 0
-7495 7494 7496 0
-7496 7494 7495 0
7497 -7 -39 -50 -67 0
-7497 7 0
-7497 39 0
-7497 50 0
-7497 67 0
7498 -10 -39 -50 -58 0
-7498 10 0
-7498 39 0
-7498 50 0
-7498 58 0
7499 -13 -39 -50 -55 0
-7499 13 0
-7499 39 0
-7499 50 0
-7499 55 0
-7497 7498 7499 0
-7498 7497 7499 0
-7499 7497 7498 0
7500 -8 -37 -51 -68 0
-7500 8 0
-7500 37 0
-7500 51 0
-7500 68 0
7501 -11 -37 -51 -59 0
-7501 11 0
-7501 37 0
-7501 51 0
-7501 59 0
7502 -14 -37 -51 -56 0
-7502 14 0
-7502 37 0
-7502 51 0
-7502 56 0
-7500 7501 7502 0
-7501 7500 7502 0
-7502 7500 7501 0
7503 -8 -39 -49 -68 0
-7503 8 0
-7503 39 0
-7503 49 0
-7503 68 0
7504 -11 -39 -49 -59 0
-7504 11 0
-7504 39 0
-7504 49 0
-7504 59 0
7505 -14 -39 -49 -56 0
-7505 14 0
-7505 39 0
-7505 49 0
-7505 56 0
-7503 7504 7505 0
-7504 7503 7505 0
-7505 7503 7504 0
7506 -9 -37 -50 -69 0
-7506 9 0
-7506 37 0
-7506 50 0
-7506 69 0
7507 -12 -37 -50 -60 0
-7507 12 0
-7507 37 0
-7507 50 0
-7507 60 0
7508 -15 -37 -50 -57 0
-7508 15 0
-7508 37 0
-7508 50 0
-7508 57 0
-7506 7507 7508 0
-7507 7506 7508 0
-7508 7506 7507 0
7509 -9 -38 -49 -69 0
-7509 9 0
-7509 38 0
-7509 49 0
-7509 69 0
7510 -12 -38 -49 -60 0
-7510 12 0
-7510 38 0
-7510 49 0
-7510 60 0
7511 -15 -38 -49 -57 0
-7511 15 0
-7511 38 0
-7511 49 0
-7511 57 0
-7509 7510 7511 0
-7510 7509 7511 0
-7511 7509 7510 0
7512 -10 -23 -59 -82 0
-7512 10 0
-7512 23 0
-7512 59 0
-7512 82 0
7513 -10 -26 -47 -82 0
-7513 10 0
-7513 26 0
-7513 47 0
-7513 82 0
7514 -10 -32 -41 -82 0
-7514 10 0
-7514 32 0
-7514 41 0
-7514 82 0
7515 -16 -23 -59 -73 0
-7515 16 0
-7515 23 0
-7515 59 0
-7515 73 0
7516 -16 -26 -47 -73 0
-7516 16 0
-7516 26 0
-7516 47 0
-7516 73 0
7517 -16 -32 -41 -73 0
-7517 16 0
-7517 32 0
-7517 41 0
-7517 73 0
7518 -19 -23 -59 -70 0
-7518 19 0
-7518 23 0
-7518 59 0
-7518 70 0
7519 -19 -26 -47 -70 0
-7519 19 0
-7519 26 0
-7519 47 0
-7519 70 0
7520 -19 -32 -41 -70 0
-7520 19 0
-7520 32 0
-7520 41 0
-7520 70 0
-7512 7513 7514 7515 7516 7517 7518 7519 7520 0
-7513 7512 7514 7515 7516 7517 7518 7519 7520 0
-7514 7512 7513 7515 7516 7517 7518 7519 7520 0
-7515 7512 7513 7514 7516 7517 7518 7519 7520 0
-7516 7512 7513 7514 7515 7517 7518 7519 7520 0
-7517 7512 7513 7514 7515 7516 7518 7519 7520 0
-7518 7512 7513 7514 7515 7516 7517 7519 7520 0
-7519 7512 7513 7514 7515 7516 7517 7518 7520 0
-7520 7512 7513 7514 7515 7516 7517 7518 7519 0
7521 -10 -23 -59 -83 0
-7521 10 0
-7521 23 0
-7521 59 0
-7521 83 0
7522 -10 -23 -62 -80 0
-7522 10 0
-7522 23 0
-7522 62 0
-7522 80 0
7523 -10 -23 -65 -77 0
-7523 10 0
-7523 23 0
-7523 65 0
-7523 77 0
7524 -10 -26 -47 -83 0
-7524 10 0
-7524 26 0
-7524 47 0
-7524 83 0
7525 -10 -26 -50 -80 0
-7525 10 0
-7525 26 0
-7525 50 0
-7525 80 0
7526 -10 -26 -53 -77 0
-7526 10 0
-7526 26 0
-7526 53 0
-7526 77 0
7527 -10 -32 -41 -83 0
-7527 10 0
-7527 32 0
-7527 41 0
-7527 83 0
7528 -10 -32 -50 -65 0
-7528 10 0
-7528 32 0
-7528 50 0
-7528 65 0
7529 -10 -32 -53 -62 0
-7529 10 0
-7529 32 0
-7529 53 0
-7529 62 0
7530 -10 -35 -41 -80 0
-7530 10 0
-7530 35 0
-7530 41 0
-7530 80 0
7531 -10 -35 -47 -65 0
-7531 10 0
-7531 35 0
-7531 47 0
-7531 65 0
7532 -10 -35 -53 -59 0
-7532 10 0
-7532 35 0
-7532 53 0
-7532 59 0
7533 -10 -38 -41 -77 0
-7533 10 0
-7533 38 0
-7533 41 0
-7533 77 0
7534 -10 -38 -47 -62 0
-7534 10 0
-7534 38 0
-7534 47 0
-7534 62 0
7535 -10 -38 -50 -59 0
-7535 10 0
-7535 38 0
-7535 50 0
-7535 59 0
-7521 7522 7523 7524 7525 7526 7527 7528 7529 7530 7531 7532 7533 7534 7535 0
-7522 7521 7523 7524 7525 7526 7527 7528 7529 7530 7531 7532 7533 7534 7535 0
-7523 7521 7522 7524 7525 7526 7527 7528 7529 7530 7531 7532 7533 7534 7535 0
-7524 7521 7522 7523 7525 7526 7527 7528 7529 7530 7531 7532 7533 7534 7535 0
-7525 7521 7522 7523 7524 7526 7527 7528 7529 7530 7531 7532 7533 7534 7535 0
-7526 7521 7522 7523 7524 7525 7527 7528 7529 7530 7531 7532 7533 7534 7535 0
-7527 7521 7522 7523 7524 7525 7526 7528 7529 7530 7531 7532 7533 7534 7535 0
-7528 7521 7522 7523 7524 7525 7526 7527 7529 7530 7531 7532 7533 7534 7535 0
-7529 7521 7522 7523 7524 7525 7526 7527 7528 7530 7531 7532 7533 7534 7535 0
-7530 7521 7522 7523 7524 7525 7526 7527 7528 7529 7531 7532 7533 7534 7535 0
-7531 7521 7522 7523 7524 7525 7526 7527 7528 7529 7530 7532 7533 7534 7535 0
-7532 7521 7522 7523 7524 7525 7526 7527 7528 7529 7530 7531 7533 7534 7535 0
-7533 7521 7522 7523 7524 7525 7526 7527 7528 7529 7530 7531 7532 7534 7535 0
-7534 7521 7522 7523 7524 7525 7526 7527 7528 7529 7530 7531 7532 7533 7535 0
-7535 7521 7522 7523 7524 7525 7526 7527 7528 7529 7530 7531 7532 7533 7534 0
7536 -10 -23 -59 -84 0
-7536 10 0
-7536 23 0
-7536 59 0
-7536 84 0
7537 -10 -26 -47 -84 0
-7537 10 0
-7537 26 0
-7537 47 0
-7537 84 0
7538 -10 -32 -41 -84 0
-7538 10 0
-7538 32 0
-7538 41 0
-7538 84 0
-7536 7537 7538 0
-7537 7536 7538 0
-7538 7536 7537 0
7539 -10 -23 -60 -82 0
-7539 10 0
-7539 23 0
-7539 60 0
-7539 82 0
7540 -16 -23 -60 -73 0
-7540 16 0
-7540 23 0
-7540 60 0
-7540 73 0
7541 -19 -23 -60 -70 0
-7541 19 0
-7541 23 0
-7541 60 0
-7541 70 0
-7539 7540 7541 0
-7540 7539 7541 0
-7541 7539 7540 0
7542 -10 -23 -60 -83 0
-7542 10 0
-7542 23 0
-7542 60 0
-7542 83 0
7543 -10 -35 -53 -60 0
-7543 10 0
-7543 35 0
-7543 53 0
-7543 60 0
7544 -10 -38 -50 -60 0
-7544 10 0
-7544 38 0
-7544 50 0
-7544 60 0
-7542 7543 7544 0
-7543 7542 7544 0
-7544 7542 7543 0
7545 -10 -23 -60 -84 0
-7545 10 0
-7545 23 0
-7545 60 0
-7545 84 0
7546 -10 -23 -63 -81 0
-7546 10 0
-7546 23 0
-7546 63 0
-7546 81 0
7547 -10 -23 -66 -78 0
-7547 10 0
-7547 23 0
-7547 66 0
-7547 78 0
-7545 7546 7547 0
-7546 7545 7547 0
-7547 7545 7546 0
7548 -10 -24 -59 -82 0
-7548 10 0
-7548 24 0
-7548 59 0
-7548 82 0
7549 -16 -24 -59 -73 0
-7549 16 0
-7549 24 0
-7549 59 0
-7549 73 0
7550 -19 -24 -59 -70 0
-7550 19 0
-7550 24 0
-7550 59 0
-7550 70 0
-7548 7549 7550 0
-7549 7548 7550 0
-7550 7548 7549 0
7551 -10 -24 -59 -83 0
-7551 10 0
-7551 24 0
-7551 59 0
-7551 83 0
7552 -10 -24 -62 -80 0
-7552 10 0
-7552 24 0
-7552 62 0
-7552 80 0
7553 -10 -24 -65 -77 0
-7553 10 0
-7553 24 0
-7553 65 0
-7553 77 0
-7551 7552 7553 0
-7552 7551 7553 0
-7553 7551 7552 0
7554 -10 -24 -59 -84 0
-7554 10 0
-7554 24 0
-7554 59 0
-7554 84 0
7555 -10 -36 -54 -59 0
-7555 10 0
-7555 36 0
-7555 54 0
-7555 59 0
7556 -10 -39 -51 -59 0
-7556 10 0
-7556 39 0
-7556 51 0
-7556 59 0
-7554 7555 7556 0
-7555 7554 7556 0
-7556 7554 7555 0
7557 -10 -24 -60 -82 0
-7557 10 0
-7557 24 0
-7557 60 0
-7557 82 0
7558 -10 -27 -48 -82 0
-7558 10 0
-7558 27 0
-7558 48 0
-7558 82 0
7559 -10 -33 -42 -82 0
-7559 10 0
-7559 33 0
-7559 42 0
-7559 82 0
7560 -16 -24 -60 -73 0
-7560 16 0
-7560 24 0
-7560 60 0
-7560 73 0
7561 -16 -27 -48 -73 0
-7561 16 0
-7561 27 0
-7561 48 0
-7561 73 0
7562 -16 -33 -42 -73 0
-7562 16 0
-7562 33 0
-7562 42 0
-7562 73 0
7563 -19 -24 -60 -70 0
-7563 19 0
-7563 24 0
-7563 60 0
-7563 70 0
7564 -19 -27 -48 -70 0
-7564 19 0
-7564 27 0
-7564 48 0
-7564 70 0
7565 -19 -33 -42 -70 0
-7565 19 0
-7565 33 0
-7565 42 0
-7565 70 0
-7557 7558 7559 7560 7561 7562 7563 7564 7565 0
-7558 7557 7559 7560 7561 7562 7563 7564 7565 0
-7559 7557 7558 7560 7561 7562 7563 7564 7565 0
-7560 7557 7558 7559 7561 7562 7563 7564 7565 0
-7561 7557 7558 7559 7560 7562 7563 7564 7565 0
-7562 7557 7558 7559 7560 7561 7563 7564 7565 0
-7563 7557 7558 7559 7560 7561 7562 7564 7565 0
-7564 7557 7558 7559 7560 7561 7562 7563 7565 0
-7565 7557 7558 7559 7560 7561 7562 7563 7564 0
7566 -10 -24 -60 -83 0
-7566 10 0
-7566 24 0
-7566 60 0
-7566 83 0
7567 -10 -27 -48 -83 0
-7567 10 0
-7567 27 0
-7567 48 0
-7567 83 0
7568 -10 -33 -42 -83 0
-7568 10 0
-7568 33 0
-7568 42 0
-7568 83 0
-7566 7567 7568 0
-7567 7566 7568 0
-7568 7566 7567 0
7569 -10 -24 -60 -84 0
-7569 10 0
-7569 24 0
-7569 60 0
-7569 84 0
7570 -10 -24 -63 -81 0
-7570 10 0
-7570 24 0
-7570 63 0
-7570 81 0
7571 -10 -24 -66 -78 0
-7571 10 0
-7571 24 0
-7571 66 0
-7571 78 0
7572 -10 -27 -48 -84 0
-7572 10 0
-7572 27 0
-7572 48 0
-7572 84 0
7573 -10 -27 -51 -81 0
-7573 10 0
-7573 27 0
-7573 51 0
-7573 81 0
7574 -10 -27 -54 -78 0
-7574 10 0
-7574 27 0
-7574 54 0
-7574 78 0
7575 -10 -33 -42 -84 0
-7575 10 0
-7575 33 0
-7575 42 0
-7575 84 0
7576 -10 -33 -51 -66 0
-7576 10 0
-7576 33 0
-7576 51 0
-7576 66 0
7577 -10 -33 -54 -63 0
-7577 10 0
-7577 33 0
-7577 54 0
-7577 63 0
7578 -10 -36 -42 -81 0
-7578 10 0
-7578 36 0
-7578 42 0
-7578 81 0
7579 -10 -36 -48 -66 0
-7579 10 0
-7579 36 0
-7579 48 0
-7579 66 0
7580 -10 -36 -54 -60 0
-7580 10 0
-7580 36 0
-7580 54 0
-7580 60 0
7581 -10 -39 -42 -78 0
-7581 10 0
-7581 39 0
-7581 42 0
-7581 78 0
7582 -10 -39 -48 -63 0
-7582 10 0
-7582 39 0
-7582 48 0
-7582 63 0
7583 -10 -39 -51 -60 0
-7583 10 0
-7583 39 0
-7583 51 0
-7583 60 0
-7569 7570 7571 7572 7573 7574 7575 7576 7577 7578 7579 7580 7581 7582 7583 0
-7570 7569 7571 7572 7573 7574 7575 7576 7577 7578 7579 7580 7581 7582 7583 0
-7571 7569 7570 7572 7573 7574 7575 7576 7577 7578 7579 7580 7581 7582 7583 0
-7572 7569 7570 7571 7573 7574 7575 7576 7577 7578 7579 7580 7581 7582 7583 0
-7573 7569 7570 7571 7572 7574 7575 7576 7577 7578 7579 7580 7581 7582 7583 0
-7574 7569 7570 7571 7572 7573 7575 7576 7577 7578 7579 7580 7581 7582 7583 0
-7575 7569 7570 7571 7572 7573 7574 7576 7577 7578 7579 7580 7581 7582 7583 0
-7576 7569 7570 7571 7572 7573 7574 7575 7577 7578 7579 7580 7581 7582 7583 0
-7577 7569 7570 7571 7572 7573 7574 7575 7576 7578 7579 7580 7581 7582 7583 0
-7578 7569 7570 7571 7572 7573 7574 7575 7576 7577 7579 7580 7581 7582 7583 0
-7579 7569 7570 7571 7572 7573 7574 7575 7576 7577 7578 7580 7581 7582 7583 0
-7580 7569 7570 7571 7572 7573 7574 7575 7576 7577 7578 7579 7581 7582 7583 0
-7581 7569 7570 7571 7572 7573 7574 7575 7576 7577 7578 7579 7580 7582 7583 0
-7582 7569 7570 7571 7572 7573 7574 7575 7576 7577 7578 7579 7580 7581 7583 0
-7583 7569 7570 7571 7572 7573 7574 7575 7576 7577 7578 7579 7580 7581 7582 0
7584 -11 -22 -58 -82 0
-7584 11 0
-7584 22 0
-7584 58 0
-7584 82 0
7585 -11 -22 -61 -79 0
-7585 11 0
-7585 22 0
-7585 61 0
-7585 79 0
7586 -11 -22 -64 -76 0
-7586 11 0
-7586 22 0
-7586 64 0
-7586 76 0
7587 -11 -25 -46 -82 0
-7587 11 0
-7587 25 0
-7587 46 0
-7587 82 0
7588 -11 -25 -49 -79 0
-7588 11 0
-7588 25 0
-7588 49 0
-7588 79 0
7589 -11 -25 -52 -76 0
-7589 11 0
-7589 25 0
-7589 52 0
-7589 76 0
7590 -11 -31 -40 -82 0
-7590 11 0
-7590 31 0
-7590 40 0
-7590 82 0
7591 -11 -31 -49 -64 0
-7591 11 0
-7591 31 0
-7591 49 0
-7591 64 0
7592 -11 -31 -52 -61 0
-7592 11 0
-7592 31 0
-7592 52 0
-7592 61 0
7593 -11 -34 -40 -79 0
-7593 11 0
-7593 34 0
-7593 40 0
-7593 79 0
7594 -11 -34 -46 -64 0
-7594 11 0
-7594 34 0
-7594 46 0
-7594 64 0
7595 -11 -34 -52 -58 0
-7595 11 0
-7595 34 0
-7595 52 0
-7595 58 0
7596 -11 -37 -40 -76 0
-7596 11 0
-7596 37 0
-7596 40 0
-7596 76 0
7597 -11 -37 -46 -61 0
-7597 11 0
-7597 37 0
-7597 46 0
-7597 61 0
7598 -11 -37 -49 -58 0
-7598 11 0
-7598 37 0
-7598 49 0
-7598 58 0
-7584 7585 7586 7587 7588 7589 7590 7591 7592 7593 7594 7595 7596 7597 7598 0
-7585 7584 7586 7587 7588 7589 7590 7591 7592 7593 7594 7595 7596 7597 7598 0
-7586 7584 7585 7587 7588 7589 7590 7591 7592 7593 7594 7595 7596 7597 7598 0
-7587 7584 7585 7586 7588 7589 7590 7591 7592 7593 7594 7595 7596 7597 7598 0
-7588 7584 7585 7586 7587 7589 7590 7591 7592 7593 7594 7595 7596 7597 7598 0
-7589 7584 7585 7586 7587 7588 7590 7591 7592 7593 7594 7595 7596 7597 7598 0
-7590 7584 7585 7586 7587 7588 7589 7591 7592 7593 7594 7595 7596 7597 7598 0
-7591 7584 7585 7586 7587 7588 7589 7590 7592 7593 7594 7595 7596 7597 7598 0
-7592 7584 7585 7586 7587 7588 7589 7590 7591 7593 7594 7595 7596 7597 7598 0
-7593 7584 7585 7586 7587 7588 7589 7590 7591 7592 7594 7595 7596 7597 7598 0
-7594 7584 7585 7586 7587 7588 7589 7590 7591 7592 7593 7595 7596 7597 7598 0
-7595 7584 7585 7586 7587 7588 7589 7590 7591 7592 7593 7594 7596 7597 7598 0
-7596 7584 7585 7586 7587 7588 7589 7590 7591 7592 7593 7594 7595 7597 7598 0
-7597 7584 7585 7586 7587 7588 7589 7590 7591 7592 7593 7594 7595 7596 7598 0
-7598 7584 7585 7586 7587 7588 7589 7590 7591 7592 7593 7594 7595 7596 7597 0
7599 -11 -22 -58 -83 0
-7599 11 0
-7599 22 0
-7599 58 0
-7599 83 0
7600 -11 -25 -46 -83 0
-7600 11 0
-7600 25 0
-7600 46 0
-7600 83 0
7601 -11 -31 -40 -83 0
-7601 11 0
-7601 31 0
-7601 40 0
-7601 83 0
7602 -17 -22 -58 -74 0
-7602 17 0
-7602 22 0
-7602 58 0
-7602 74 0
7603 -17 -25 -46 -74 0
-7603 17 0
-7603 25 0
-7603 46 0
-7603 74 0
7604 -17 -31 -40 -74 0
-7604 17 0
-7604 31 0
-7604 40 0
-7604 74 0
7605 -20 -22 -58 -71 0
-7605 20 0
-7605 22 0
-7605 58 0
-7605 71 0
7606 -20 -25 -46 -71 0
-7606 20 0
-7606 25 0
-7606 46 0
-7606 71 0
7607 -20 -31 -40 -71 0
-7607 20 0
-7607 31 0
-7607 40 0
-7607 71 0
-7599 7600 7601 7602 7603 7604 7605 7606 7607 0
-7600 7599 7601 7602 7603 7604 7605 7606 7607 0
-7601 7599 7600 7602 7603 7604 7605 7606 7607 0
-7602 7599 7600 7601 7603 7604 7605 7606 7607 0
-7603 7599 7600 7601 7602 7604 7605 7606 7607 0
-7604 7599 7600 7601 7602 7603 7605 7606 7607 0
-7605 7599 7600 7601 7602 7603 7604 7606 7607 0
-7606 7599 7600 7601 7602 7603 7604 7605 7607 0
-7607 7599 7600 7601 7602 7603 7604 7605 7606 0
7608 -11 -22 -58 -84 0
-7608 11 0
-7608 22 0
-7608 58 0
-7608 84 0
7609 -11 -25 -46 -84 0
-7609 11 0
-7609 25 0
-7609 46 0
-7609 84 0
7610 -11 -31 -40 -84 0
-7610 11 0
-7610 31 0
-7610 40 0
-7610 84 0
-7608 7609 7610 0
-7609 7608 7610 0
-7610 7608 7609 0
7611 -11 -22 -60 -82 0
-7611 11 0
-7611 22 0
-7611 60 0
-7611 82 0
7612 -11 -34 -52 -60 0
-7612 11 0
-7612 34 0
-7612 52 0
-7612 60 0
7613 -11 -37 -49 -60 0
-7613 11 0
-7613 37 0
-7613 49 0
-7613 60 0
-7611 7612 7613 0
-7612 7611 7613 0
-7613 7611 7612 0
7614 -11 -22 -60 -83 0
-7614 11 0
-7614 22 0
-7614 60 0
-7614 83 0
7615 -17 -22 -60 -74 0
-7615 17 0
-7615 22 0
-7615 60 0
-7615 74 0
7616 -20 -22 -60 -71 0
-7616 20 0
-7616 22 0
-7616 60 0
-7616 71 0
-7614 7615 7616 0
-7615 7614 7616 0
-7616 7614 7615 0
7617 -11 -22 -60 -84 0
-7617 11 0
-7617 22 0
-7617 60 0
-7617 84 0
7618 -11 -22 -63 -81 0
-7618 11 0
-7618 22 0
-7618 63 0
-7618 81 0
7619 -11 -22 -66 -78 0
-7619 11 0
-7619 22 0
-7619 66 0
-7619 78 0
-7617 7618 7619 0
-7618 7617 7619 0
-7619 7617 7618 0
7620 -11 -24 -58 -82 0
-7620 11 0
-7620 24 0
-7620 58 0
-7620 82 0
7621 -11 -24 -61 -79 0
-7621 11 0
-7621 24 0
-7621 61 0
-7621 79 0
7622 -11 -24 -64 -76 0
-7622 11 0
-7622 24 0
-7622 64 0
-7622 76 0
-7620 7621 7622 0
-7621 7620 7622 0
-7622 7620 7621 0
7623 -11 -24 -58 -83 0
-7623 11 0
-7623 24 0
-7623 58 0
-7623 83 0
7624 -17 -24 -58 -74 0
-7624 17 0
-7624 24 0
-7624 58 0
-7624 74 0
7625 -20 -24 -58 -71 0
-7625 20 0
-7625 24 0
-7625 58 0
-7625 71 0
-7623 7624 7625 0
-7624 7623 7625 0
-7625 7623 7624 0
7626 -11 -24 -58 -84 0
-7626 11 0
-7626 24 0
-7626 58 0
-7626 84 0
7627 -11 -36 -54 -58 0
-7627 11 0
-7627 36 0
-7627 54 0
-7627 58 0
7628 -11 -39 -51 -58 0
-7628 11 0
-7628 39 0
-7628 51 0
-7628 58 0
-7626 7627 7628 0
-7627 7626 7628 0
-7628 7626 7627 0
7629 -11 -24 -60 -82 0
-7629 11 0
-7629 24 0
-7629 60 0
-7629 82 0
7630 -11 -27 -48 -82 0
-7630 11 0
-7630 27 0
-7630 48 0
-7630 82 0
7631 -11 -33 -42 -82 0
-7631 11 0
-7631 33 0
-7631 42 0
-7631 82 0
-7629 7630 7631 0
-7630 7629 7631 0
-7631 7629 7630 0
7632 -11 -24 -60 -83 0
-7632 11 0
-7632 24 0
-7632 60 0
-7632 83 0
7633 -11 -27 -48 -83 0
-7633 11 0
-7633 27 0
-7633 48 0
-7633 83 0
7634 -11 -33 -42 -83 0
-7634 11 0
-7634 33 0
-7634 42 0
-7634 83 0
7635 -17 -24 -60 -74 0
-7635 17 0
-7635 24 0
-7635 60 0
-7635 74 0
7636 -17 -27 -48 -74 0
-7636 17 0
-7636 27 0
-7636 48 0
-7636 74 0
7637 -17 -33 -42 -74 0
-7637 17 0
-7637 33 0
-7637 42 0
-7637 74 0
7638 -20 -24 -60 -71 0
-7638 20 0
-7638 24 0
-7638 60 0
-7638 71 0
7639 -20 -27 -48 -71 0
-7639 20 0
-7639 27 0
-7639 48 0
-7639 71 0
7640 -20 -33 -42 -71 0
-7640 20 0
-7640 33 0
-7640 42 0
-7640 71 0
-7632 7633 7634 7635 7636 7637 7638 7639 7640 0
-7633 7632 7634 7635 7636 7637 7638 7639 7640 0
-7634 7632 7633 7635 7636 7637 7638 7639 7640 0
-7635 7632 7633 7634 7636 7637 7638 7639 7640 0
-7636 7632 7633 7634 7635 7637 7638 7639 7640 0
-7637 7632 7633 7634 7635 7636 7638 7639 7640 0
-7638 7632 7633 7634 7635 7636 7637 7639 7640 0
-7639 7632 7633 7634 7635 7636 7637 7638 7640 0
-7640 7632 7633 7634 7635 7636 7637 7638 7639 0
7641 -11 -24 -60 -84 0
-7641 11 0
-7641 24 0
-7641 60 0
-7641 84 0
7642 -11 -24 -63 -81 0
-7642 11 0
-7642 24 0
-7642 63 0
-7642 81 0
7643 -11 -24 -66 -78 0
-7643 11 0
-7643 24 0
-7643 66 0
-7643 78 0
7644 -11 -27 -48 -84 0
-7644 11 0
-7644 27 0
-7644 48 0
-7644 84 0
7645 -11 -27 -51 -81 0
-7645 11 0
-7645 27 0
-7645 51 0
-7645 81 0
7646 -11 -27 -54 -78 0
-7646 11 0
-7646 27 0
-7646 54 0
-7646 78 0
7647 -11 -33 -42 -84 0
-7647 11 0
-7647 33 0
-7647 42 0
-7647 84 0
7648 -11 -33 -51 -66 0
-7648 11 0
-7648 33 0
-7648 51 0
-7648 66 0
7649 -11 -33 -54 -63 0
-7649 11 0
-7649 33 0
-7649 54 0
-7649 63 0
7650 -11 -36 -42 -81 0
-7650 11 0
-7650 36 0
-7650 42 0
-7650 81 0
7651 -11 -36 -48 -66 0
-7651 11 0
-7651 36 0
-7651 48 0
-7651 66 0
7652 -11 -36 -54 -60 0
-7652 11 0
-7652 36 0
-7652 54 0
-7652 60 0
7653 -11 -39 -42 -78 0
-7653 11 0
-7653 39 0
-7653 42 0
-7653 78 0
7654 -11 -39 -48 -63 0
-7654 11 0
-7654 39 0
-7654 48 0
-7654 63 0
7655 -11 -39 -51 -60 0
-7655 11 0
-7655 39 0
-7655 51 0
-7655 60 0
-7641 7642 7643 7644 7645 7646 7647 7648 7649 7650 7651 7652 7653 7654 7655 0
-7642 7641 7643 7644 7645 7646 7647 7648 7649 7650 7651 7652 7653 7654 7655 0
-7643 7641 7642 7644 7645 7646 7647 7648 7649 7650 7651 7652 7653 7654 7655 0
-7644 7641 7642 7643 7645 7646 7647 7648 7649 7650 7651 7652 7653 7654 7655 0
-7645 7641 7642 7643 7644 7646 7647 7648 7649 7650 7651 7652 7653 7654 7655 0
-7646 7641 7642 7643 7644 7645 7647 7648 7649 7650 7651 7652 7653 7654 7655 0
-7647 7641 7642 7643 7644 7645 7646 7648 7649 7650 7651 7652 7653 7654 7655 0
-7648 7641 7642 7643 7644 7645 7646 7647 7649 7650 7651 7652 7653 7654 7655 0
-7649 7641 7642 7643 7644 7645 7646 7647 7648 7650 7651 7652 7653 7654 7655 0
-7650 7641 7642 7643 7644 7645 7646 7647 7648 7649 7651 7652 7653 7654 7655 0
-7651 7641 7642 7643 7644 7645 7646 7647 7648 7649 7650 7652 7653 7654 7655 0
-7652 7641 7642 7643 7644 7645 7646 7647 7648 7649 7650 7651 7653 7654 7655 0
-7653 7641 7642 7643 7644 7645 7646 7647 7648 7649 7650 7651 7652 7654 7655 0
-7654 7641 7642 7643 7644 7645 7646 7647 7648 7649 7650 7651 7652 7653 7655 0
-7655 7641 7642 7643 7644 7645 7646 7647 7648 7649 7650 7651 7652 7653 7654 0
7656 -12 -22 -58 -82 0
-7656 12 0
-7656 22 0
-7656 58 0
-7656 82 0
7657 -12 -22 -61 -79 0
-7657 12 0
-7657 22 0
-7657 61 0
-7657 79 0
7658 -12 -22 -64 -76 0
-7658 12 0
-7658 22 0
-7658 64 0
-7658 76 0
7659 -12 -25 -46 -82 0
-7659 12 0
-7659 25 0
-7659 46 0
-7659 82 0
7660 -12 -25 -49 -79 0
-7660 12 0
-7660 25 0
-7660 49 0
-7660 79 0
7661 -12 -25 -52 -76 0
-7661 12 0
-7661 25 0
-7661 52 0
-7661 76 0
7662 -12 -31 -40 -82 0
-7662 12 0
-7662 31 0
-7662 40 0
-7662 82 0
7663 -12 -31 -49 -64 0
-7663 12 0
-7663 31 0
-7663 49 0
-7663 64 0
7664 -12 -31 -52 -61 0
-7664 12 0
-7664 31 0
-7664 52 0
-7664 61 0
7665 -12 -34 -40 -79 0
-7665 12 0
-7665 34 0
-7665 40 0
-7665 79 0
7666 -12 -34 -46 -64 0
-7666 12 0
-7666 34 0
-7666 46 0
-7666 64 0
7667 -12 -34 -52 -58 0
-7667 12 0
-7667 34 0
-7667 52 0
-7667 58 0
7668 -12 -37 -40 -76 0
-7668 12 0
-7668 37 0
-7668 40 0
-7668 76 0
7669 -12 -37 -46 -61 0
-7669 12 0
-7669 37 0
-7669 46 0
-7669 61 0
7670 -12 -37 -49 -58 0
-7670 12 0
-7670 37 0
-7670 49 0
-7670 58 0
-7656 7657 7658 7659 7660 7661 7662 7663 7664 7665 7666 7667 7668 7669 7670 0
-7657 7656 7658 7659 7660 7661 7662 7663 7664 7665 7666 7667 7668 7669 7670 0
-7658 7656 7657 7659 7660 7661 7662 7663 7664 7665 7666 7667 7668 7669 7670 0
-7659 7656 7657 7658 7660 7661 7662 7663 7664 7665 7666 7667 7668 7669 7670 0
-7660 7656 7657 7658 7659 7661 7662 7663 7664 7665 7666 7667 7668 7669 7670 0
-7661 7656 7657 7658 7659 7660 7662 7663 7664 7665 7666 7667 7668 7669 7670 0
-7662 7656 7657 7658 7659 7660 7661 7663 7664 7665 7666 7667 7668 7669 7670 0
-7663 7656 7657 7658 7659 7660 7661 7662 7664 7665 7666 7667 7668 7669 7670 0
-7664 7656 7657 7658 7659 7660 7661 7662 7663 7665 7666 7667 7668 7669 7670 0
-7665 7656 7657 7658 7659 7660 7661 7662 7663 7664 7666 7667 7668 7669 7670 0
-7666 7656 7657 7658 7659 7660 7661 7662 7663 7664 7665 7667 7668 7669 7670 0
-7667 7656 7657 7658 7659 7660 7661 7662 7663 7664 7665 7666 7668 7669 7670 0
-7668 7656 7657 7658 7659 7660 7661 7662 7663 7664 7665 7666 7667 7669 7670 0
-7669 7656 7657 7658 7659 7660 7661 7662 7663 7664 7665 7666 7667 7668 7670 0
-7670 7656 7657 7658 7659 7660 7661 7662 7663 7664 7665 7666 7667 7668 7669 0
7671 -12 -22 -58 -83 0
-7671 12 0
-7671 22 0
-7671 58 0
-7671 83 0
7672 -12 -25 -46 -83 0
-7672 12 0
-7672 25 0
-7672 46 0
-7672 83 0
7673 -12 -31 -40 -83 0
-7673 12 0
-7673 31 0
-7673 40 0
-7673 83 0
-7671 7672 7673 0
-7672 7671 7673 0
-7673 7671 7672 0
7674 -12 -22 -58 -84 0
-7674 12 0
-7674 22 0
-7674 58 0
-7674 84 0
7675 -12 -25 -46 -84 0
-7675 12 0
-7675 25 0
-7675 46 0
-7675 84 0
7676 -12 -31 -40 -84 0
-7676 12 0
-7676 31 0
-7676 40 0
-7676 84 0
7677 -18 -22 -58 -75 0
-7677 18 0
-7677 22 0
-7677 58 0
-7677 75 0
7678 -18 -25 -46 -75 0
-7678 18 0
-7678 25 0
-7678 46 0
-7678 75 0
7679 -18 -31 -40 -75 0
-7679 18 0
-7679 31 0
-7679 40 0
-7679 75 0
7680 -21 -22 -58 -72 0
-7680 21 0
-7680 22 0
-7680 58 0
-7680 72 0
7681 -21 -25 -46 -72 0
-7681 21 0
-7681 25 0
-7681 46 0
-7681 72 0
7682 -21 -31 -40 -72 0
-7682 21 0
-7682 31 0
-7682 40 0
-7682 72 0
-7674 7675 7676 7677 7678 7679 7680 7681 7682 0
-7675 7674 7676 7677 7678 7679 7680 7681 7682 0
-7676 7674 7675 7677 7678 7679 7680 7681 7682 0
-7677 7674 7675 7676 7678 7679 7680 7681 7682 0
-7678 7674 7675 7676 7677 7679 7680 7681 7682 0
-7679 7674 7675 7676 7677 7678 7680 7681 7682 0
-7680 7674 7675 7676 7677 7678 7679 7681 7682 0
-7681 7674 7675 7676 7677 7678 7679 7680 7682 0
-7682 7674 7675 7676 7677 7678 7679 7680 7681 0
7683 -12 -22 -59 -82 0
-7683 12 0
-7683 22 0
-7683 59 0
-7683 82 0
7684 -12 -34 -52 -59 0
-7684 12 0
-7684 34 0
-7684 52 0
-7684 59 0
7685 -12 -37 -49 -59 0
-7685 12 0
-7685 37 0
-7685 49 0
-7685 59 0
-7683 7684 7685 0
-7684 7683 7685 0
-7685 7683 7684 0
7686 -12 -22 -59 -83 0
-7686 12 0
-7686 22 0
-7686 59 0
-7686 83 0
7687 -12 -22 -62 -80 0
-7687 12 0
-7687 22 0
-7687 62 0
-7687 80 0
7688 -12 -22 -65 -77 0
-7688 12 0
-7688 22 0
-7688 65 0
-7688 77 0
-7686 7687 7688 0
-7687 7686 7688 0
-7688 7686 7687 0
7689 -12 -22 -59 -84 0
-7689 12 0
-7689 22 0
-7689 59 0
-7689 84 0
7690 -18 -22 -59 -75 0
-7690 18 0
-7690 22 0
-7690 59 0
-7690 75 0
7691 -21 -22 -59 -72 0
-7691 21 0
-7691 22 0
-7691 59 0
-7691 72 0
-7689 7690 7691 0
-7690 7689 7691 0
-7691 7689 7690 0
7692 -12 -23 -58 -82 0
-7692 12 0
-7692 23 0
-7692 58 0
-7692 82 0
7693 -12 -23 -61 -79 0
-7693 12 0
-7693 23 0
-7693 61 0
-7693 79 0
7694 -12 -23 -64 -76 0
-7694 12 0
-7694 23 0
-7694 64 0
-7694 76 0
-7692 7693 7694 0
-7693 7692 7694 0
-7694 7692 7693 0
7695 -12 -23 -58 -83 0
-7695 12 0
-7695 23 0
-7695 58 0
-7695 83 0
7696 -12 -35 -53 -58 0
-7696 12 0
-7696 35 0
-7696 53 0
-7696 58 0
7697 -12 -38 -50 -58 0
-7697 12 0
-7697 38 0
-7697 50 0
-7697 58 0
-7695 7696 7697 0
-7696 7695 7697 0
-7697 7695 7696 0
7698 -12 -23 -58 -84 0
-7698 12 0
-7698 23 0
-7698 58 0
-7698 84 0
7699 -18 -23 -58 -75 0
-7699 18 0
-7699 23 0
-7699 58 0
-7699 75 0
7700 -21 -23 -58 -72 0
-7700 21 0
-7700 23 0
-7700 58 0
-7700 72 0
-7698 7699 7700 0
-7699 7698 7700 0
-7700 7698 7699 0
7701 -12 -23 -59 -82 0
-7701 12 0
-7701 23 0
-7701 59 0
-7701 82 0
7702 -12 -26 -47 -82 0
-7702 12 0
-7702 26 0
-7702 47 0
-7702 82 0
7703 -12 -32 -41 -82 0
-7703 12 0
-7703 32 0
-7703 41 0
-7703 82 0
-7701 7702 7703 0
-7702 7701 7703 0
-7703 7701 7702 0
7704 -12 -23 -59 -83 0
-7704 12 0
-7704 23 0
-7704 59 0
-7704 83 0
7705 -12 -23 -62 -80 0
-7705 12 0
-7705 23 0
-7705 62 0
-7705 80 0
7706 -12 -23 -65 -77 0
-7706 12 0
-7706 23 0
-7706 65 0
-7706 77 0
7707 -12 -26 -47 -83 0
-7707 12 0
-7707 26 0
-7707 47 0
-7707 83 0
7708 -12 -26 -50 -80 0
-7708 12 0
-7708 26 0
-7708 50 0
-7708 80 0
7709 -12 -26 -53 -77 0
-7709 12 0
-7709 26 0
-7709 53 0
-7709 77 0
7710 -12 -32 -41 -83 0
-7710 12 0
-7710 32 0
-7710 41 0
-7710 83 0
7711 -12 -32 -50 -65 0
-7711 12 0
-7711 32 0
-7711 50 0
-7711 65 0
7712 -12 -32 -53 -62 0
-7712 12 0
-7712 32 0
-7712 53 0
-7712 62 0
7713 -12 -35 -41 -80 0
-7713 12 0
-7713 35 0
-7713 41 0
-7713 80 0
7714 -12 -35 -47 -65 0
-7714 12 0
-7714 35 0
-7714 47 0
-7714 65 0
7715 -12 -35 -53 -59 0
-7715 12 0
-7715 35 0
-7715 53 0
-7715 59 0
7716 -12 -38 -41 -77 0
-7716 12 0
-7716 38 0
-7716 41 0
-7716 77 0
7717 -12 -38 -47 -62 0
-7717 12 0
-7717 38 0
-7717 47 0
-7717 62 0
7718 -12 -38 -50 -59 0
-7718 12 0
-7718 38 0
-7718 50 0
-7718 59 0
-7704 7705 7706 7707 7708 7709 7710 7711 7712 7713 7714 7715 7716 7717 7718 0
-7705 7704 7706 7707 7708 7709 7710 7711 7712 7713 7714 7715 7716 7717 7718 0
-7706 7704 7705 7707 7708 7709 7710 7711 7712 7713 7714 7715 7716 7717 7718 0
-7707 7704 7705 7706 7708 7709 7710 7711 7712 7713 7714 7715 7716 7717 7718 0
-7708 7704 7705 7706 7707 7709 7710 7711 7712 7713 7714 7715 7716 7717 7718 0
-7709 7704 7705 7706 7707 7708 7710 7711 7712 7713 7714 7715 7716 7717 7718 0
-7710 7704 7705 7706 7707 7708 7709 7711 7712 7713 7714 7715 7716 7717 7718 0
-7711 7704 7705 7706 7707 7708 7709 7710 7712 7713 7714 7715 7716 7717 7718 0
-7712 7704 7705 7706 7707 7708 7709 7710 7711 7713 7714 7715 7716 7717 7718 0
-7713 7704 7705 7706 7707 7708 7709 7710 7711 7712 7714 7715 7716 7717 7718 0
-7714 7704 7705 7706 7707 7708 7709 7710 7711 7712 7713 7715 7716 7717 7718 0
-7715 7704 7705 7706 7707 7708 7709 7710 7711 7712 7713 7714 7716 7717 7718 0
-7716 7704 7705 7706 7707 7708 7709 7710 7711 7712 7713 7714 7715 7717 7718 0
-7717 7704 7705 7706 7707 7708 7709 7710 7711 7712 7713 7714 7715 7716 7718 0
-7718 7704 7705 7706 7707 7708 7709 7710 7711 7712 7713 7714 7715 7716 7717 0
7719 -12 -23 -59 -84 0
-7719 12 0
-7719 23 0
-7719 59 0
-7719 84 0
7720 -12 -26 -47 -84 0
-7720 12 0
-7720 26 0
-7720 47 0
-7720 84 0
7721 -12 -32 -41 -84 0
-7721 12 0
-7721 32 0
-7721 41 0
-7721 84 0
7722 -18 -23 -59 -75 0
-7722 18 0
-7722 23 0
-7722 59 0
-7722 75 0
7723 -18 -26 -47 -75 0
-7723 18 0
-7723 26 0
-7723 47 0
-7723 75 0
7724 -18 -32 -41 -75 0
-7724 18 0
-7724 32 0
-7724 41 0
-7724 75 0
7725 -21 -23 -59 -72 0
-7725 21 0
-7725 23 0
-7725 59 0
-7725 72 0
7726 -21 -26 -47 -72 0
-7726 21 0
-7726 26 0
-7726 47 0
-7726 72 0
7727 -21 -32 -41 -72 0
-7727 21 0
-7727 32 0
-7727 41 0
-7727 72 0
-7719 7720 7721 7722 7723 7724 7725 7726 7727 0
-7720 7719 7721 7722 7723 7724 7725 7726 7727 0
-7721 7719 7720 7722 7723 7724 7725 7726 7727 0
-7722 7719 7720 7721 7723 7724 7725 7726 7727 0
-7723 7719 7720 7721 7722 7724 7725 7726 7727 0
-7724 7719 7720 7721 7722 7723 7725 7726 7727 0
-7725 7719 7720 7721 7722 7723 7724 7726 7727 0
-7726 7719 7720 7721 7722 7723 7724 7725 7727 0
-7727 7719 7720 7721 7722 7723 7724 7725 7726 0
7728 -10 -23 -62 -79 0
-7728 10 0
-7728 23 0
-7728 62 0
-7728 79 0
7729 -10 -26 -50 -79 0
-7729 10 0
-7729 26 0
-7729 50 0
-7729 79 0
7730 -10 -35 -41 -79 0
-7730 10 0
-7730 35 0
-7730 41 0
-7730 79 0
7731 -13 -23 -62 -73 0
-7731 13 0
-7731 23 0
-7731 62 0
-7731 73 0
7732 -13 -26 -50 -73 0
-7732 13 0
-7732 26 0
-7732 50 0
-7732 73 0
7733 -13 -35 -41 -73 0
-7733 13 0
-7733 35 0
-7733 41 0
-7733 73 0
7734 -19 -23 -62 -67 0
-7734 19 0
-7734 23 0
-7734 62 0
-7734 67 0
7735 -19 -26 -50 -67 0
-7735 19 0
-7735 26 0
-7735 50 0
-7735 67 0
7736 -19 -35 -41 -67 0
-7736 19 0
-7736 35 0
-7736 41 0
-7736 67 0
-7728 7729 7730 7731 7732 7733 7734 7735 7736 0
-7729 7728 7730 7731 7732 7733 7734 7735 7736 0
-7730 7728 7729 7731 7732 7733 7734 7735 7736 0
-7731 7728 7729 7730 7732 7733 7734 7735 7736 0
-7732 7728 7729 7730 7731 7733 7734 7735 7736 0
-7733 7728 7729 7730 7731 7732 7734 7735 7736 0
-7734 7728 7729 7730 7731 7732 7733 7735 7736 0
-7735 7728 7729 7730 7731 7732 7733 7734 7736 0
-7736 7728 7729 7730 7731 7732 7733 7734 7735 0
7737 -10 -23 -62 -81 0
-7737 10 0
-7737 23 0
-7737 62 0
-7737 81 0
7738 -10 -26 -50 -81 0
-7738 10 0
-7738 26 0
-7738 50 0
-7738 81 0
7739 -10 -35 -41 -81 0
-7739 10 0
-7739 35 0
-7739 41 0
-7739 81 0
-7737 7738 7739 0
-7738 7737 7739 0
-7739 7737 7738 0
7740 -10 -23 -63 -79 0
-7740 10 0
-7740 23 0
-7740 63 0
-7740 79 0
7741 -13 -23 -63 -73 0
-7741 13 0
-7741 23 0
-7741 63 0
-7741 73 0
7742 -19 -23 -63 -67 0
-7742 19 0
-7742 23 0
-7742 63 0
-7742 67 0
-7740 7741 7742 0
-7741 7740 7742 0
-7742 7740 7741 0
7743 -10 -23 -63 -80 0
-7743 10 0
-7743 23 0
-7743 63 0
-7743 80 0
7744 -10 -32 -53 -63 0
-7744 10 0
-7744 32 0
-7744 53 0
-7744 63 0
7745 -10 -38 -47 -63 0
-7745 10 0
-7745 38 0
-7745 47 0
-7745 63 0
-7743 7744 7745 0
-7744 7743 7745 0
-7745 7743 7744 0
7746 -10 -24 -62 -79 0
-7746 10 0
-7746 24 0
-7746 62 0
-7746 79 0
7747 -13 -24 -62 -73 0
-7747 13 0
-7747 24 0
-7747 62 0
-7747 73 0
7748 -19 -24 -62 -67 0
-7748 19 0
-7748 24 0
-7748 62 0
-7748 67 0
-7746 7747 7748 0
-7747 7746 7748 0
-7748 7746 7747 0
7749 -10 -24 -62 -81 0
-7749 10 0
-7749 24 0
-7749 62 0
-7749 81 0
7750 -10 -33 -54 -62 0
-7750 10 0
-7750 33 0
-7750 54 0
-7750 62 0
7751 -10 -39 -48 -62 0
-7751 10 0
-7751 39 0
-7751 48 0
-7751 62 0
-7749 7750 7751 0
-7750 7749 7751 0
-7751 7749 7750 0
7752 -10 -24 -63 -79 0
-7752 10 0
-7752 24 0
-7752 63 0
-7752 79 0
7753 -10 -27 -51 -79 0
-7753 10 0
-7753 27 0
-7753 51 0
-7753 79 0
7754 -10 -36 -42 -79 0
-7754 10 0
-7754 36 0
-7754 42 0
-7754 79 0
7755 -13 -24 -63 -73 0
-7755 13 0
-7755 24 0
-7755 63 0
-7755 73 0
7756 -13 -27 -51 -73 0
-7756 13 0
-7756 27 0
-7756 51 0
-7756 73 0
7757 -13 -36 -42 -73 0
-7757 13 0
-7757 36 0
-7757 42 0
-7757 73 0
7758 -19 -24 -63 -67 0
-7758 19 0
-7758 24 0
-7758 63 0
-7758 67 0
7759 -19 -27 -51 -67 0
-7759 19 0
-7759 27 0
-7759 51 0
-7759 67 0
7760 -19 -36 -42 -67 0
-7760 19 0
-7760 36 0
-7760 42 0
-7760 67 0
-7752 7753 7754 7755 7756 7757 7758 7759 7760 0
-7753 7752 7754 7755 7756 7757 7758 7759 7760 0
-7754 7752 7753 7755 7756 7757 7758 7759 7760 0
-7755 7752 7753 7754 7756 7757 7758 7759 7760 0
-7756 7752 7753 7754 7755 7757 7758 7759 7760 0
-7757 7752 7753 7754 7755 7756 7758 7759 7760 0
-7758 7752 7753 7754 7755 7756 7757 7759 7760 0
-7759 7752 7753 7754 7755 7756 7757 7758 7760 0
-7760 7752 7753 7754 7755 7756 7757 7758 7759 0
7761 -10 -24 -63 -80 0
-7761 10 0
-7761 24 0
-7761 63 0
-7761 80 0
7762 -10 -27 -51 -80 0
-7762 10 0
-7762 27 0
-7762 51 0
-7762 80 0
7763 -10 -36 -42 -80 0
-7763 10 0
-7763 36 0
-7763 42 0
-7763 80 0
-7761 7762 7763 0
-7762 7761 7763 0
-7763 7761 7762 0
7764 -11 -22 -61 -80 0
-7764 11 0
-7764 22 0
-7764 61 0
-7764 80 0
7765 -11 -25 -49 -80 0
-7765 11 0
-7765 25 0
-7765 49 0
-7765 80 0
7766 -11 -34 -40 -80 0
-7766 11 0
-7766 34 0
-7766 40 0
-7766 80 0
7767 -14 -22 -61 -74 0
-7767 14 0
-7767 22 0
-7767 61 0
-7767 74 0
7768 -14 -25 -49 -74 0
-7768 14 0
-7768 25 0
-7768 49 0
-7768 74 0
7769 -14 -34 -40 -74 0
-7769 14 0
-7769 34 0
-7769 40 0
-7769 74 0
7770 -20 -22 -61 -68 0
-7770 20 0
-7770 22 0
-7770 61 0
-7770 68 0
7771 -20 -25 -49 -68 0
-7771 20 0
-7771 25 0
-7771 49 0
-7771 68 0
7772 -20 -34 -40 -68 0
-7772 20 0
-7772 34 0
-7772 40 0
-7772 68 0
-7764 7765 7766 7767 7768 7769 7770 7771 7772 0
-7765 7764 7766 7767 7768 7769 7770 7771 7772 0
-7766 7764 7765 7767 7768 7769 7770 7771 7772 0
-7767 7764 7765 7766 7768 7769 7770 7771 7772 0
-7768 7764 7765 7766 7767 7769 7770 7771 7772 0
-7769 7764 7765 7766 7767 7768 7770 7771 7772 0
-7770 7764 7765 7766 7767 7768 7769 7771 7772 0
-7771 7764 7765 7766 7767 7768 7769 7770 7772 0
-7772 7764 7765 7766 7767 7768 7769 7770 7771 0
7773 -11 -22 -61 -81 0
-7773 11 0
-7773 22 0
-7773 61 0
-7773 81 0
7774 -11 -25 -49 -81 0
-7774 11 0
-7774 25 0
-7774 49 0
-7774 81 0
7775 -11 -34 -40 -81 0
-7775 11 0
-7775 34 0
-7775 40 0
-7775 81 0
-7773 7774 7775 0
-7774 7773 7775 0
-7775 7773 7774 0
7776 -11 -22 -63 -79 0
-7776 11 0
-7776 22 0
-7776 63 0
-7776 79 0
7777 -11 -31 -52 -63 0
-7777 11 0
-7777 31 0
-7777 52 0
-7777 63 0
7778 -11 -37 -46 -63 0
-7778 11 0
-7778 37 0
-7778 46 0
-7778 63 0
-7776 7777 7778 0
-7777 7776 7778 0
-7778 7776 7777 0
7779 -11 -22 -63 -80 0
-7779 11 0
-7779 22 0
-7779 63 0
-7779 80 0
7780 -14 -22 -63 -74 0
-7780 14 0
-7780 22 0
-7780 63 0
-7780 74 0
7781 -20 -22 -63 -68 0
-7781 20 0
-7781 22 0
-7781 63 0
-7781 68 0
-7779 7780 7781 0
-7780 7779 7781 0
-7781 7779 7780 0
7782 -11 -24 -61 -80 0
-7782 11 0
-7782 24 0
-7782 61 0
-7782 80 0
7783 -14 -24 -61 -74 0
-7783 14 0
-7783 24 0
-7783 61 0
-7783 74 0
7784 -20 -24 -61 -68 0
-7784 20 0
-7784 24 0
-7784 61 0
-7784 68 0
-7782 7783 7784 0
-7783 7782 7784 0
-7784 7782 7783 0
7785 -11 -24 -61 -81 0
-7785 11 0
-7785 24 0
-7785 61 0
-7785 81 0
7786 -11 -33 -54 -61 0
-7786 11 0
-7786 33 0
-7786 54 0
-7786 61 0
7787 -11 -39 -48 -61 0
-7787 11 0
-7787 39 0
-7787 48 0
-7787 61 0
-7785 7786 7787 0
-7786 7785 7787 0
-7787 7785 7786 0
7788 -11 -24 -63 -79 0
-7788 11 0
-7788 24 0
-7788 63 0
-7788 79 0
7789 -11 -27 -51 -79 0
-7789 11 0
-7789 27 0
-7789 51 0
-7789 79 0
7790 -11 -36 -42 -79 0
-7790 11 0
-7790 36 0
-7790 42 0
-7790 79 0
-7788 7789 7790 0
-7789 7788 7790 0
-7790 7788 7789 0
7791 -11 -24 -63 -80 0
-7791 11 0
-7791 24 0
-7791 63 0
-7791 80 0
7792 -11 -27 -51 -80 0
-7792 11 0
-7792 27 0
-7792 51 0
-7792 80 0
7793 -11 -36 -42 -80 0
-7793 11 0
-7793 36 0
-7793 42 0
-7793 80 0
7794 -14 -24 -63 -74 0
-7794 14 0
-7794 24 0
-7794 63 0
-7794 74 0
7795 -14 -27 -51 -74 0
-7795 14 0
-7795 27 0
-7795 51 0
-7795 74 0
7796 -14 -36 -42 -74 0
-7796 14 0
-7796 36 0
-7796 42 0
-7796 74 0
7797 -20 -24 -63 -68 0
-7797 20 0
-7797 24 0
-7797 63 0
-7797 68 0
7798 -20 -27 -51 -68 0
-7798 20 0
-7798 27 0
-7798 51 0
-7798 68 0
7799 -20 -36 -42 -68 0
-7799 20 0
-7799 36 0
-7799 42 0
-7799 68 0
-7791 7792 7793 7794 7795 7796 7797 7798 7799 0
-7792 7791 7793 7794 7795 7796 7797 7798 7799 0
-7793 7791 7792 7794 7795 7796 7797 7798 7799 0
-7794 7791 7792 7793 7795 7796 7797 7798 7799 0
-7795 7791 7792 7793 7794 7796 7797 7798 7799 0
-7796 7791 7792 7793 7794 7795 7797 7798 7799 0
-7797 7791 7792 7793 7794 7795 7796 7798 7799 0
-7798 7791 7792 7793 7794 7795 7796 7797 7799 0
-7799 7791 7792 7793 7794 7795 7796 7797 7798 0
7800 -12 -22 -61 -80 0
-7800 12 0
-7800 22 0
-7800 61 0
-7800 80 0
7801 -12 -25 -49 -80 0
-7801 12 0
-7801 25 0
-7801 49 0
-7801 80 0
7802 -12 -34 -40 -80 0
-7802 12 0
-7802 34 0
-7802 40 0
-7802 80 0
-7800 7801 7802 0
-7801 7800 7802 0
-7802 7800 7801 0
7803 -12 -22 -61 -81 0
-7803 12 0
-7803 22 0
-7803 61 0
-7803 81 0
7804 -12 -25 -49 -81 0
-7804 12 0
-7804 25 0
-7804 49 0
-7804 81 0
7805 -12 -34 -40 -81 0
-7805 12 0
-7805 34 0
-7805 40 0
-7805 81 0
7806 -15 -22 -61 -75 0
-7806 15 0
-7806 22 0
-7806 61 0
-7806 75 0
7807 -15 -25 -49 -75 0
-7807 15 0
-7807 25 0
-7807 49 0
-7807 75 0
7808 -15 -34 -40 -75 0
-7808 15 0
-7808 34 0
-7808 40 0
-7808 75 0
7809 -21 -22 -61 -69 0
-7809 21 0
-7809 22 0
-7809 61 0
-7809 69 0
7810 -21 -25 -49 -69 0
-7810 21 0
-7810 25 0
-7810 49 0
-7810 69 0
7811 -21 -34 -40 -69 0
-7811 21 0
-7811 34 0
-7811 40 0
-7811 69 0
-7803 7804 7805 7806 7807 7808 7809 7810 7811 0
-7804 7803 7805 7806 7807 7808 7809 7810 7811 0
-7805 7803 7804 7806 7807 7808 7809 7810 7811 0
-7806 7803 7804 7805 7807 7808 7809 7810 7811 0
-7807 7803 7804 7805 7806 7808 7809 7810 7811 0
-7808 7803 7804 7805 7806 7807 7809 7810 7811 0
-7809 7803 7804 7805 7806 7807 7808 7810 7811 0
-7810 7803 7804 7805 7806 7807 7808 7809 7811 0
-7811 7803 7804 7805 7806 7807 7808 7809 7810 0
7812 -12 -22 -62 -79 0
-7812 12 0
-7812 22 0
-7812 62 0
-7812 79 0
7813 -12 -31 -52 -62 0
-7813 12 0
-7813 31 0
-7813 52 0
-7813 62 0
7814 -12 -37 -46 -62 0
-7814 12 0
-7814 37 0
-7814 46 0
-7814 62 0
-7812 7813 7814 0
-7813 7812 7814 0
-7814 7812 7813 0
7815 -12 -22 -62 -81 0
-7815 12 0
-7815 22 0
-7815 62 0
-7815 81 0
7816 -15 -22 -62 -75 0
-7816 15 0
-7816 22 0
-7816 62 0
-7816 75 0
7817 -21 -22 -62 -69 0
-7817 21 0
-7817 22 0
-7817 62 0
-7817 69 0
-7815 7816 7817 0
-7816 7815 7817 0
-7817 7815 7816 0
7818 -12 -23 -61 -80 0
-7818 12 0
-7818 23 0
-7818 61 0
-7818 80 0
7819 -12 -32 -53 -61 0
-7819 12 0
-7819 32 0
-7819 53 0
-7819 61 0
7820 -12 -38 -47 -61 0
-7820 12 0
-7820 38 0
-7820 47 0
-7820 61 0
-7818 7819 7820 0
-7819 7818 7820 0
-7820 7818 7819 0
7821 -12 -23 -61 -81 0
-7821 12 0
-7821 23 0
-7821 61 0
-7821 81 0
7822 -15 -23 -61 -75 0
-7822 15 0
-7822 23 0
-7822 61 0
-7822 75 0
7823 -21 -23 -61 -69 0
-7823 21 0
-7823 23 0
-7823 61 0
-7823 69 0
-7821 7822 7823 0
-7822 7821 7823 0
-7823 7821 7822 0
7824 -12 -23 -62 -79 0
-7824 12 0
-7824 23 0
-7824 62 0
-7824 79 0
7825 -12 -26 -50 -79 0
-7825 12 0
-7825 26 0
-7825 50 0
-7825 79 0
7826 -12 -35 -41 -79 0
-7826 12 0
-7826 35 0
-7826 41 0
-7826 79 0
-7824 7825 7826 0
-7825 7824 7826 0
-7826 7824 7825 0
7827 -12 -23 -62 -81 0
-7827 12 0
-7827 23 0
-7827 62 0
-7827 81 0
7828 -12 -26 -50 -81 0
-7828 12 0
-7828 26 0
-7828 50 0
-7828 81 0
7829 -12 -35 -41 -81 0
-7829 12 0
-7829 35 0
-7829 41 0
-7829 81 0
7830 -15 -23 -62 -75 0
-7830 15 0
-7830 23 0
-7830 62 0
-7830 75 0
7831 -15 -26 -50 -75 0
-7831 15 0
-7831 26 0
-7831 50 0
-7831 75 0
7832 -15 -35 -41 -75 0
-7832 15 0
-7832 35 0
-7832 41 0
-7832 75 0
7833 -21 -23 -62 -69 0
-7833 21 0
-7833 23 0
-7833 62 0
-7833 69 0
7834 -21 -26 -50 -69 0
-7834 21 0
-7834 26 0
-7834 50 0
-7834 69 0
7835 -21 -35 -41 -69 0
-7835 21 0
-7835 35 0
-7835 41 0
-7835 69 0
-7827 7828 7829 7830 7831 7832 7833 7834 7835 0
-7828 7827 7829 7830 7831 7832 7833 7834 7835 0
-7829 7827 7828 7830 7831 7832 7833 7834 7835 0
-7830 7827 7828 7829 7831 7832 7833 7834 7835 0
-7831 7827 7828 7829 7830 7832 7833 7834 7835 0
-7832 7827 7828 7829 7830 7831 7833 7834 7835 0
-7833 7827 7828 7829 7830 7831 7832 7834 7835 0
-7834 7827 7828 7829 7830 7831 7832 7833 7835 0
-7835 7827 7828 7829 7830 7831 7832 7833 7834 0
7836 -10 -23 -65 -76 0
-7836 10 0
-7836 23 0
-7836 65 0
-7836 76 0
7837 -10 -26 -53 -76 0
-7837 10 0
-7837 26 0
-7837 53 0
-7837 76 0
7838 -10 -38 -41 -76 0
-7838 10 0
-7838 38 0
-7838 41 0
-7838 76 0
7839 -13 -23 -65 -70 0
-7839 13 0
-7839 23 0
-7839 65 0
-7839 70 0
7840 -13 -26 -53 -70 0
-7840 13 0
-7840 26 0
-7840 53 0
-7840 70 0
7841 -13 -38 -41 -70 0
-7841 13 0
-7841 38 0
-7841 41 0
-7841 70 0
7842 -16 -23 -65 -67 0
-7842 16 0
-7842 23 0
-7842 65 0
-7842 67 0
7843 -16 -26 -53 -67 0
-7843 16 0
-7843 26 0
-7843 53 0
-7843 67 0
7844 -16 -38 -41 -67 0
-7844 16 0
-7844 38 0
-7844 41 0
-7844 67 0
-7836 7837 7838 7839 7840 7841 7842 7843 7844 0
-7837 7836 7838 7839 7840 7841 7842 7843 7844 0
-7838 7836 7837 7839 7840 7841 7842 7843 7844 0
-7839 7836 7837 7838 7840 7841 7842 7843 7844 0
-7840 7836 7837 7838 7839 7841 7842 7843 7844 0
-7841 7836 7837 7838 7839 7840 7842 7843 7844 0
-7842 7836 7837 7838 7839 7840 7841 7843 7844 0
-7843 7836 7837 7838 7839 7840 7841 7842 7844 0
-7844 7836 7837 7838 7839 7840 7841 7842 7843 0
7845 -10 -23 -65 -78 0
-7845 10 0
-7845 23 0
-7845 65 0
-7845 78 0
7846 -10 -26 -53 -78 0
-7846 10 0
-7846 26 0
-7846 53 0
-7846 78 0
7847 -10 -38 -41 -78 0
-7847 10 0
-7847 38 0
-7847 41 0
-7847 78 0
-7845 7846 7847 0
-7846 7845 7847 0
-7847 7845 7846 0
7848 -10 -23 -66 -76 0
-7848 10 0
-7848 23 0
-7848 66 0
-7848 76 0
7849 -13 -23 -66 -70 0
-7849 13 0
-7849 23 0
-7849 66 0
-7849 70 0
7850 -16 -23 -66 -67 0
-7850 16 0
-7850 23 0
-7850 66 0
-7850 67 0
-7848 7849 7850 0
-7849 7848 7850 0
-7850 7848 7849 0
7851 -10 -23 -66 -77 0
-7851 10 0
-7851 23 0
-7851 66 0
-7851 77 0
7852 -10 -32 -50 -66 0
-7852 10 0
-7852 32 0
-7852 50 0
-7852 66 0
7853 -10 -35 -47 -66 0
-7853 10 0
-7853 35 0
-7853 47 0
-7853 66 0
-7851 7852 7853 0
-7852 7851 7853 0
-7853 7851 7852 0
7854 -10 -24 -65 -76 0
-7854 10 0
-7854 24 0
-7854 65 0
-7854 76 0
7855 -13 -24 -65 -70 0
-7855 13 0
-7855 24 0
-7855 65 0
-7855 70 0
7856 -16 -24 -65 -67 0
-7856 16 0
-7856 24 0
-7856 65 0
-7856 67 0
-7854 7855 7856 0
-7855 7854 7856 0
-7856 7854 7855 0
7857 -10 -24 -65 -78 0
-7857 10 0
-7857 24 0
-7857 65 0
-7857 78 0
7858 -10 -33 -51 -65 0
-7858 10 0
-7858 33 0
-7858 51 0
-7858 65 0
7859 -10 -36 -48 -65 0
-7859 10 0
-7859 36 0
-7859 48 0
-7859 65 0
-7857 7858 7859 0
-7858 7857 7859 0
-7859 7857 7858 0
7860 -10 -24 -66 -76 0
-7860 10 0
-7860 24 0
-7860 66 0
-7860 76 0
7861 -10 -27 -54 -76 0
-7861 10 0
-7861 27 0
-7861 54 0
-7861 76 0
7862 -10 -39 -42 -76 0
-7862 10 0
-7862 39 0
-7862 42 0
-7862 76 0
7863 -13 -24 -66 -70 0
-7863 13 0
-7863 24 0
-7863 66 0
-7863 70 0
7864 -13 -27 -54 -70 0
-7864 13 0
-7864 27 0
-7864 54 0
-7864 70 0
7865 -13 -39 -42 -70 0
-7865 13 0
-7865 39 0
-7865 42 0
-7865 70 0
7866 -16 -24 -66 -67 0
-7866 16 0
-7866 24 0
-7866 66 0
-7866 67 0
7867 -16 -27 -54 -67 0
-7867 16 0
-7867 27 0
-7867 54 0
-7867 67 0
7868 -16 -39 -42 -67 0
-7868 16 0
-7868 39 0
-7868 42 0
-7868 67 0
-7860 7861 7862 7863 7864 7865 7866 7867 7868 0
-7861 7860 7862 7863 7864 7865 7866 7867 7868 0
-7862 7860 7861 7863 7864 7865 7866 7867 7868 0
-7863 7860 7861 7862 7864 7865 7866 7867 7868 0
-7864 7860 7861 7862 7863 7865 7866 7867 7868 0
-7865 7860 7861 7862 7863 7864 7866 7867 7868 0
-7866 7860 7861 7862 7863 7864 7865 7867 7868 0
-7867 7860 7861 7862 7863 7864 7865 7866 7868 0
-7868 7860 7861 7862 7863 7864 7865 7866 7867 0
7869 -10 -24 -66 -77 0
-7869 10 0
-7869 24 0
-7869 66 0
-7869 77 0
7870 -10 -27 -54 -77 0
-7870 10 0
-7870 27 0
-7870 54 0
-7870 77 0
7871 -10 -39 -42 -77 0
-7871 10 0
-7871 39 0
-7871 42 0
-7871 77 0
-7869 7870 7871 0
-7870 7869 7871 0
-7871 7869 7870 0
7872 -11 -22 -64 -77 0
-7872 11 0
-7872 22 0
-7872 64 0
-7872 77 0
7873 -11 -25 -52 -77 0
-7873 11 0
-7873 25 0
-7873 52 0
-7873 77 0
7874 -11 -37 -40 -77 0
-7874 11 0
-7874 37 0
-7874 40 0
-7874 77 0
7875 -14 -22 -64 -71 0
-7875 14 0
-7875 22 0
-7875 64 0
-7875 71 0
7876 -14 -25 -52 -71 0
-7876 14 0
-7876 25 0
-7876 52 0
-7876 71 0
7877 -14 -37 -40 -71 0
-7877 14 0
-7877 37 0
-7877 40 0
-7877 71 0
7878 -17 -22 -64 -68 0
-7878 17 0
-7878 22 0
-7878 64 0
-7878 68 0
7879 -17 -25 -52 -68 0
-7879 17 0
-7879 25 0
-7879 52 0
-7879 68 0
7880 -17 -37 -40 -68 0
-7880 17 0
-7880 37 0
-7880 40 0
-7880 68 0
-7872 7873 7874 7875 7876 7877 7878 7879 7880 0
-7873 7872 7874 7875 7876 7877 7878 7879 7880 0
-7874 7872 7873 7875 7876 7877 7878 7879 7880 0
-7875 7872 7873 7874 7876 7877 7878 7879 7880 0
-7876 7872 7873 7874 7875 7877 7878 7879 7880 0
-7877 7872 7873 7874 7875 7876 7878 7879 7880 0
-7878 7872 7873 7874 7875 7876 7877 7879 7880 0
-7879 7872 7873 7874 7875 7876 7877 7878 7880 0
-7880 7872 7873 7874 7875 7876 7877 7878 7879 0
7881 -11 -22 -64 -78 0
-7881 11 0
-7881 22 0
-7881 64 0
-7881 78 0
7882 -11 -25 -52 -78 0
-7882 11 0
-7882 25 0
-7882 52 0
-7882 78 0
7883 -11 -37 -40 -78 0
-7883 11 0
-7883 37 0
-7883 40 0
-7883 78 0
-7881 7882 7883 0
-7882 7881 7883 0
-7883 7881 7882 0
7884 -11 -22 -66 -76 0
-7884 11 0
-7884 22 0
-7884 66 0
-7884 76 0
7885 -11 -31 -49 -66 0
-7885 11 0
-7885 31 0
-7885 49 0
-7885 66 0
7886 -11 -34 -46 -66 0
-7886 11 0
-7886 34 0
-7886 46 0
-7886 66 0
-7884 7885 7886 0
-7885 7884 7886 0
-7886 7884 7885 0
7887 -11 -22 -66 -77 0
-7887 11 0
-7887 22 0
-7887 66 0
-7887 77 0
7888 -14 -22 -66 -71 0
-7888 14 0
-7888 22 0
-7888 66 0
-7888 71 0
7889 -17 -22 -66 -68 0
-7889 17 0
-7889 22 0
-7889 66 0
-7889 68 0
-7887 7888 7889 0
-7888 7887 7889 0
-7889 7887 7888 0
7890 -11 -24 -64 -77 0
-7890 11 0
-7890 24 0
-7890 64 0
-7890 77 0
7891 -14 -24 -64 -71 0
-7891 14 0
-7891 24 0
-7891 64 0
-7891 71 0
7892 -17 -24 -64 -68 0
-7892 17 0
-7892 24 0
-7892 64 0
-7892 68 0
-7890 7891 7892 0
-7891 7890 7892 0
-7892 7890 7891 0
7893 -11 -24 -64 -78 0
-7893 11 0
-7893 24 0
-7893 64 0
-7893 78 0
7894 -11 -33 -51 -64 0
-7894 11 0
-7894 33 0
-7894 51 0
-7894 64 0
7895 -11 -36 -48 -64 0
-7895 11 0
-7895 36 0
-7895 48 0
-7895 64 0
-7893 7894 7895 0
-7894 7893 7895 0
-7895 7893 7894 0
7896 -11 -24 -66 -76 0
-7896 11 0
-7896 24 0
-7896 66 0
-7896 76 0
7897 -11 -27 -54 -76 0
-7897 11 0
-7897 27 0
-7897 54 0
-7897 76 0
7898 -11 -39 -42 -76 0
-7898 11 0
-7898 39 0
-7898 42 0
-7898 76 0
-7896 7897 7898 0
-7897 7896 7898 0
-7898 7896 7897 0
7899 -11 -24 -66 -77 0
-7899 11 0
-7899 24 0
-7899 66 0
-7899 77 0
7900 -11 -27 -54 -77 0
-7900 11 0
-7900 27 0
-7900 54 0
-7900 77 0
7901 -11 -39 -42 -77 0
-7901 11 0
-7901 39 0
-7901 42 0
-7901 77 0
7902 -14 -24 -66 -71 0
-7902 14 0
-7902 24 0
-7902 66 0
-7902 71 0
7903 -14 -27 -54 -71 0
-7903 14 0
-7903 27 0
-7903 54 0
-7903 71 0
7904 -14 -39 -42 -71 0
-7904 14 0
-7904 39 0
-7904 42 0
-7904 71 0
7905 -17 -24 -66 -68 0
-7905 17 0
-7905 24 0
-7905 66 0
-7905 68 0
7906 -17 -27 -54 -68 0
-7906 17 0
-7906 27 0
-7906 54 0
-7906 68 0
7907 -17 -39 -42 -68 0
-7907 17 0
-7907 39 0
-7907 42 0
-7907 68 0
-7899 7900 7901 7902 7903 7904 7905 7906 7907 0
-7900 7899 7901 7902 7903 7904 7905 7906 7907 0
-7901 7899 7900 7902 7903 7904 7905 7906 7907 0
-7902 7899 7900 7901 7903 7904 7905 7906 7907 0
-7903 7899 7900 7901 7902 7904 7905 7906 7907 0
-7904 7899 7900 7901 7902 7903 7905 7906 7907 0
-7905 7899 7900 7901 7902 7903 7904 7906 7907 0
-7906 7899 7900 7901 7902 7903 7904 7905 7907 0
-7907 7899 7900 7901 7902 7903 7904 7905 7906 0
7908 -12 -22 -64 -77 0
-7908 12 0
-7908 22 0
-7908 64 0
-7908 77 0
7909 -12 -25 -52 -77 0
-7909 12 0
-7909 25 0
-7909 52 0
-7909 77 0
7910 -12 -37 -40 -77 0
-7910 12 0
-7910 37 0
-7910 40 0
-7910 77 0
-7908 7909 7910 0
-7909 7908 7910 0
-7910 7908 7909 0
7911 -12 -22 -64 -78 0
-7911 12 0
-7911 22 0
-7911 64 0
-7911 78 0
7912 -12 -25 -52 -78 0
-7912 12 0
-7912 25 0
-7912 52 0
-7912 78 0
7913 -12 -37 -40 -78 0
-7913 12 0
-7913 37 0
-7913 40 0
-7913 78 0
7914 -15 -22 -64 -72 0
-7914 15 0
-7914 22 0
-7914 64 0
-7914 72 0
7915 -15 -25 -52 -72 0
-7915 15 0
-7915 25 0
-7915 52 0
-7915 72 0
7916 -15 -37 -40 -72 0
-7916 15 0
-7916 37 0
-7916 40 0
-7916 72 0
7917 -18 -22 -64 -69 0
-7917 18 0
-7917 22 0
-7917 64 0
-7917 69 0
7918 -18 -25 -52 -69 0
-7918 18 0
-7918 25 0
-7918 52 0
-7918 69 0
7919 -18 -37 -40 -69 0
-7919 18 0
-7919 37 0
-7919 40 0
-7919 69 0
-7911 7912 7913 7914 7915 7916 7917 7918 7919 0
-7912 7911 7913 7914 7915 7916 7917 7918 7919 0
-7913 7911 7912 7914 7915 7916 7917 7918 7919 0
-7914 7911 7912 7913 7915 7916 7917 7918 7919 0
-7915 7911 7912 7913 7914 7916 7917 7918 7919 0
-7916 7911 7912 7913 7914 7915 7917 7918 7919 0
-7917 7911 7912 7913 7914 7915 7916 7918 7919 0
-7918 7911 7912 7913 7914 7915 7916 7917 7919 0
-7919 7911 7912 7913 7914 7915 7916 7917 7918 0
7920 -12 -22 -65 -76 0
-7920 12 0
-7920 22 0
-7920 65 0
-7920 76 0
7921 -12 -31 -49 -65 0
-7921 12 0
-7921 31 0
-7921 49 0
-7921 65 0
7922 -12 -34 -46 -65 0
-7922 12 0
-7922 34 0
-7922 46 0
-7922 65 0
-7920 7921 7922 0
-7921 7920 7922 0
-7922 7920 7921 0
7923 -12 -22 -65 -78 0
-7923 12 0
-7923 22 0
-7923 65 0
-7923 78 0
7924 -15 -22 -65 -72 0
-7924 15 0
-7924 22 0
-7924 65 0
-7924 72 0
7925 -18 -22 -65 -69 0
-7925 18 0
-7925 22 0
-7925 65 0
-7925 69 0
-7923 7924 7925 0
-7924 7923 7925 0
-7925 7923 7924 0
7926 -12 -23 -64 -77 0
-7926 12 0
-7926 23 0
-7926 64 0
-7926 77 0
7927 -12 -32 -50 -64 0
-7927 12 0
-7927 32 0
-7927 50 0
-7927 64 0
7928 -12 -35 -47 -64 0
-7928 12 0
-7928 35 0
-7928 47 0
-7928 64 0
-7926 7927 7928 0
-7927 7926 7928 0
-7928 7926 7927 0
7929 -12 -23 -64 -78 0
-7929 12 0
-7929 23 0
-7929 64 0
-7929 78 0
7930 -15 -23 -64 -72 0
-7930 15 0
-7930 23 0
-7930 64 0
-7930 72 0
7931 -18 -23 -64 -69 0
-7931 18 0
-7931 23 0
-7931 64 0
-7931 69 0
-7929 7930 7931 0
-7930 7929 7931 0
-7931 7929 7930 0
7932 -12 -23 -65 -76 0
-7932 12 0
-7932 23 0
-7932 65 0
-7932 76 0
7933 -12 -26 -53 -76 0
-7933 12 0
-7933 26 0
-7933 53 0
-7933 76 0
7934 -12 -38 -41 -76 0
-7934 12 0
-7934 38 0
-7934 41 0
-7934 76 0
-7932 7933 7934 0
-7933 7932 7934 0
-7934 7932 7933 0
7935 -12 -23 -65 -78 0
-7935 12 0
-7935 23 0
-7935 65 0
-7935 78 0
7936 -12 -26 -53 -78 0
-7936 12 0
-7936 26 0
-7936 53 0
-7936 78 0
7937 -12 -38 -41 -78 0
-7937 12 0
-7937 38 0
-7937 41 0
-7937 78 0
7938 -15 -23 -65 -72 0
-7938 15 0
-7938 23 0
-7938 65 0
-7938 72 0
7939 -15 -26 -53 -72 0
-7939 15 0
-7939 26 0
-7939 53 0
-7939 72 0
7940 -15 -38 -41 -72 0
-7940 15 0
-7940 38 0
-7940 41 0
-7940 72 0
7941 -18 -23 -65 -69 0
-7941 18 0
-7941 23 0
-7941 65 0
-7941 69 0
7942 -18 -26 -53 -69 0
-7942 18 0
-7942 26 0
-7942 53 0
-7942 69 0
7943 -18 -38 -41 -69 0
-7943 18 0
-7943 38 0
-7943 41 0
-7943 69 0
-7935 7936 7937 7938 7939 7940 7941 7942 7943 0
-7936 7935 7937 7938 7939 7940 7941 7942 7943 0
-7937 7935 7936 7938 7939 7940 7941 7942 7943 0
-7938 7935 7936 7937 7939 7940 7941 7942 7943 0
-7939 7935 7936 7937 7938 7940 7941 7942 7943 0
-7940 7935 7936 7937 7938 7939 7941 7942 7943 0
-7941 7935 7936 7937 7938 7939 7940 7942 7943 0
-7942 7935 7936 7937 7938 7939 7940 7941 7943 0
-7943 7935 7936 7937 7938 7939 7940 7941 7942 0
7944 -10 -26 -48 -82 0
-7944 10 0
-7944 26 0
-7944 48 0
-7944 82 0
7945 -16 -26 -48 -73 0
-7945 16 0
-7945 26 0
-7945 48 0
-7945 73 0
7946 -19 -26 -48 -70 0
-7946 19 0
-7946 26 0
-7946 48 0
-7946 70 0
-7944 7945 7946 0
-7945 7944 7946 0
-7946 7944 7945 0
7947 -10 -26 -48 -83 0
-7947 10 0
-7947 26 0
-7947 48 0
-7947 83 0
7948 -10 -35 -48 -65 0
-7948 10 0
-7948 35 0
-7948 48 0
-7948 65 0
7949 -10 -38 -48 -62 0
-7949 10 0
-7949 38 0
-7949 48 0
-7949 62 0
-7947 7948 7949 0
-7948 7947 7949 0
-7949 7947 7948 0
7950 -10 -26 -48 -84 0
-7950 10 0
-7950 26 0
-7950 48 0
-7950 84 0
7951 -10 -26 -51 -81 0
-7951 10 0
-7951 26 0
-7951 51 0
-7951 81 0
7952 -10 -26 -54 -78 0
-7952 10 0
-7952 26 0
-7952 54 0
-7952 78 0
-7950 7951 7952 0
-7951 7950 7952 0
-7952 7950 7951 0
7953 -10 -27 -47 -82 0
-7953 10 0
-7953 27 0
-7953 47 0
-7953 82 0
7954 -16 -27 -47 -73 0
-7954 16 0
-7954 27 0
-7954 47 0
-7954 73 0
7955 -19 -27 -47 -70 0
-7955 19 0
-7955 27 0
-7955 47 0
-7955 70 0
-7953 7954 7955 0
-7954 7953 7955 0
-7955 7953 7954 0
7956 -10 -27 -47 -83 0
-7956 10 0
-7956 27 0
-7956 47 0
-7956 83 0
7957 -10 -27 -50 -80 0
-7957 10 0
-7957 27 0
-7957 50 0
-7957 80 0
7958 -10 -27 -53 -77 0
-7958 10 0
-7958 27 0
-7958 53 0
-7958 77 0
-7956 7957 7958 0
-7957 7956 7958 0
-7958 7956 7957 0
7959 -10 -27 -47 -84 0
-7959 10 0
-7959 27 0
-7959 47 0
-7959 84 0
7960 -10 -36 -47 -66 0
-7960 10 0
-7960 36 0
-7960 47 0
-7960 66 0
7961 -10 -39 -47 -63 0
-7961 10 0
-7961 39 0
-7961 47 0
-7961 63 0
-7959 7960 7961 0
-7960 7959 7961 0
-7961 7959 7960 0
7962 -11 -25 -48 -82 0
-7962 11 0
-7962 25 0
-7962 48 0
-7962 82 0
7963 -11 -34 -48 -64 0
-7963 11 0
-7963 34 0
-7963 48 0
-7963 64 0
7964 -11 -37 -48 -61 0
-7964 11 0
-7964 37 0
-7964 48 0
-7964 61 0
-7962 7963 7964 0
-7963 7962 7964 0
-7964 7962 7963 0
7965 -11 -25 -48 -83 0
-7965 11 0
-7965 25 0
-7965 48 0
-7965 83 0
7966 -17 -25 -48 -74 0
-7966 17 0
-7966 25 0
-7966 48 0
-7966 74 0
7967 -20 -25 -48 -71 0
-7967 20 0
-7967 25 0
-7967 48 0
-7967 71 0
-7965 7966 7967 0
-7966 7965 7967 0
-7967 7965 7966 0
7968 -11 -25 -48 -84 0
-7968 11 0
-7968 25 0
-7968 48 0
-7968 84 0
7969 -11 -25 -51 -81 0
-7969 11 0
-7969 25 0
-7969 51 0
-7969 81 0
7970 -11 -25 -54 -78 0
-7970 11 0
-7970 25 0
-7970 54 0
-7970 78 0
-7968 7969 7970 0
-7969 7968 7970 0
-7970 7968 7969 0
7971 -11 -27 -46 -82 0
-7971 11 0
-7971 27 0
-7971 46 0
-7971 82 0
7972 -11 -27 -49 -79 0
-7972 11 0
-7972 27 0
-7972 49 0
-7972 79 0
7973 -11 -27 -52 -76 0
-7973 11 0
-7973 27 0
-7973 52 0
-7973 76 0
-7971 7972 7973 0
-7972 7971 7973 0
-7973 7971 7972 0
7974 -11 -27 -46 -83 0
-7974 11 0
-7974 27 0
-7974 46 0
-7974 83 0
7975 -17 -27 -46 -74 0
-7975 17 0
-7975 27 0
-7975 46 0
-7975 74 0
7976 -20 -27 -46 -71 0
-7976 20 0
-7976 27 0
-7976 46 0
-7976 71 0
-7974 7975 7976 0
-7975 7974 7976 0
-7976 7974 7975 0
7977 -11 -27 -46 -84 0
-7977 11 0
-7977 27 0
-7977 46 0
-7977 84 0
7978 -11 -36 -46 -66 0
-7978 11 0
-7978 36 0
-7978 46 0
-7978 66 0
7979 -11 -39 -46 -63 0
-7979 11 0
-7979 39 0
-7979 46 0
-7979 63 0
-7977 7978 7979 0
-7978 7977 7979 0
-7979 7977 7978 0
7980 -12 -25 -47 -82 0
-7980 12 0
-7980 25 0
-7980 47 0
-7980 82 0
7981 -12 -34 -47 -64 0
-7981 12 0
-7981 34 0
-7981 47 0
-7981 64 0
7982 -12 -37 -47 -61 0
-7982 12 0
-7982 37 0
-7982 47 0
-7982 61 0
-7980 7981 7982 0
-7981 7980 7982 0
-7982 7980 7981 0
7983 -12 -25 -47 -83 0
-7983 12 0
-7983 25 0
-7983 47 0
-7983 83 0
7984 -12 -25 -50 -80 0
-7984 12 0
-7984 25 0
-7984 50 0
-7984 80 0
7985 -12 -25 -53 -77 0
-7985 12 0
-7985 25 0
-7985 53 0
-7985 77 0
-7983 7984 7985 0
-7984 7983 7985 0
-7985 7983 7984 0
7986 -12 -25 -47 -84 0
-7986 12 0
-7986 25 0
-7986 47 0
-7986 84 0
7987 -18 -25 -47 -75 0
-7987 18 0
-7987 25 0
-7987 47 0
-7987 75 0
7988 -21 -25 -47 -72 0
-7988 21 0
-7988 25 0
-7988 47 0
-7988 72 0
-7986 7987 7988 0
-7987 7986 7988 0
-7988 7986 7987 0
7989 -12 -26 -46 -82 0
-7989 12 0
-7989 26 0
-7989 46 0
-7989 82 0
7990 -12 -26 -49 -79 0
-7990 12 0
-7990 26 0
-7990 49 0
-7990 79 0
7991 -12 -26 -52 -76 0
-7991 12 0
-7991 26 0
-7991 52 0
-7991 76 0
-7989 7990 7991 0
-7990 7989 7991 0
-7991 7989 7990 0
7992 -12 -26 -46 -83 0
-7992 12 0
-7992 26 0
-7992 46 0
-7992 83 0
7993 -12 -35 -46 -65 0
-7993 12 0
-7993 35 0
-7993 46 0
-7993 65 0
7994 -12 -38 -46 -62 0
-7994 12 0
-7994 38 0
-7994 46 0
-7994 62 0
-7992 7993 7994 0
-7993 7992 7994 0
-7994 7992 7993 0
7995 -12 -26 -46 -84 0
-7995 12 0
-7995 26 0
-7995 46 0
-7995 84 0
7996 -18 -26 -46 -75 0
-7996 18 0
-7996 26 0
-7996 46 0
-7996 75 0
7997 -21 -26 -46 -72 0
-7997 21 0
-7997 26 0
-7997 46 0
-7997 72 0
-7995 7996 7997 0
-7996 7995 7997 0
-7997 7995 7996 0
7998 -10 -26 -51 -79 0
-7998 10 0
-7998 26 0
-7998 51 0
-7998 79 0
7999 -13 -26 -51 -73 0
-7999 13 0
-7999 26 0
-7999 51 0
-7999 73 0
8000 -19 -26 -51 -67 0
-8000 19 0
-8000 26 0
-8000 51 0
-8000 67 0
-7998 7999 8000 0
-7999 7998 8000 0
-8000 7998 7999 0
8001 -10 -26 -51 -80 0
-8001 10 0
-8001 26 0
-8001 51 0
-8001 80 0
8002 -10 -32 -51 -65 0
-8002 10 0
-8002 32 0
-8002 51 0
-8002 65 0
8003 -10 -38 -51 -59 0
-8003 10 0
-8003 38 0
-8003 51 0
-8003 59 0
-8001 8002 8003 0
-8002 8001 8003 0
-8003 8001 8002 0
8004 -10 -27 -50 -79 0
-8004 10 0
-8004 27 0
-8004 50 0
-8004 79 0
8005 -13 -27 -50 -73 0
-8005 13 0
-8005 27 0
-8005 50 0
-8005 73 0
8006 -19 -27 -50 -67 0
-8006 19 0
-8006 27 0
-8006 50 0
-8006 67 0
-8004 8005 8006 0
-8005 8004 8006 0
-8006 8004 8005 0
8007 -10 -27 -50 -81 0
-8007 10 0
-8007 27 0
-8007 50 0
-8007 81 0
8008 -10 -33 -50 -66 0
-8008 10 0
-8008 33 0
-8008 50 0
-8008 66 0
8009 -10 -39 -50 -60 0
-8009 10 0
-8009 39 0
-8009 50 0
-8009 60 0
-8007 8008 8009 0
-8008 8007 8009 0
-8009 8007 8008 0
8010 -11 -25 -51 -79 0
-8010 11 0
-8010 25 0
-8010 51 0
-8010 79 0
8011 -11 -31 -51 -64 0
-8011 11 0
-8011 31 0
-8011 51 0
-8011 64 0
8012 -11 -37 -51 -58 0
-8012 11 0
-8012 37 0
-8012 51 0
-8012 58 0
-8010 8011 8012 0
-8011 8010 8012 0
-8012 8010 8011 0
8013 -11 -25 -51 -80 0
-8013 11 0
-8013 25 0
-8013 51 0
-8013 80 0
8014 -14 -25 -51 -74 0
-8014 14 0
-8014 25 0
-8014 51 0
-8014 74 0
8015 -20 -25 -51 -68 0
-8015 20 0
-8015 25 0
-8015 51 0
-8015 68 0
-8013 8014 8015 0
-8014 8013 8015 0
-8015 8013 8014 0
8016 -11 -27 -49 -80 0
-8016 11 0
-8016 27 0
-8016 49 0
-8016 80 0
8017 -14 -27 -49 -74 0
-8017 14 0
-8017 27 0
-8017 49 0
-8017 74 0
8018 -20 -27 -49 -68 0
-8018 20 0
-8018 27 0
-8018 49 0
-8018 68 0
-8016 8017 8018 0
-8017 8016 8018 0
-8018 8016 8017 0
8019 -11 -27 -49 -81 0
-8019 11 0
-8019 27 0
-8019 49 0
-8019 81 0
8020 -11 -33 -49 -66 0
-8020 11 0
-8020 33 0
-8020 49 0
-8020 66 0
8021 -11 -39 -49 -60 0
-8021 11 0
-8021 39 0
-8021 49 0
-8021 60 0
-8019 8020 8021 0
-8020 8019 8021 0
-8021 8019 8020 0
8022 -12 -25 -50 -79 0
-8022 12 0
-8022 25 0
-8022 50 0
-8022 79 0
8023 -12 -31 -50 -64 0
-8023 12 0
-8023 31 0
-8023 50 0
-8023 64 0
8024 -12 -37 -50 -58 0
-8024 12 0
-8024 37 0
-8024 50 0
-8024 58 0
-8022 8023 8024 0
-8023 8022 8024 0
-8024 8022 8023 0
8025 -12 -25 -50 -81 0
-8025 12 0
-8025 25 0
-8025 50 0
-8025 81 0
8026 -15 -25 -50 -75 0
-8026 15 0
-8026 25 0
-8026 50 0
-8026 75 0
8027 -21 -25 -50 -69 0
-8027 21 0
-8027 25 0
-8027 50 0
-8027 69 0
-8025 8026 8027 0
-8026 8025 8027 0
-8027 8025 8026 0
8028 -12 -26 -49 -80 0
-8028 12 0
-8028 26 0
-8028 49 0
-8028 80 0
8029 -12 -32 -49 -65 0
-8029 12 0
-8029 32 0
-8029 49 0
-8029 65 0
8030 -12 -38 -49 -59 0
-8030 12 0
-8030 38 0
-8030 49 0
-8030 59 0
-8028 8029 8030 0
-8029 8028 8030 0
-8030 8028 8029 0
8031 -12 -26 -49 -81 0
-8031 12 0
-8031 26 0
-8031 49 0
-8031 81 0
8032 -15 -26 -49 -75 0
-8032 15 0
-8032 26 0
-8032 49 0
-8032 75 0
8033 -21 -26 -49 -69 0
-8033 21 0
-8033 26 0
-8033 49 0
-8033 69 0
-8031 8032 8033 0
-8032 8031 8033 0
-8033 8031 8032 0
8034 -10 -26 -54 -76 0
-8034 10 0
-8034 26 0
-8034 54 0
-8034 76 0
8035 -13 -26 -54 -70 0
-8035 13 0
-8035 26 0
-8035 54 0
-8035 70 0
8036 -16 -26 -54 -67 0
-8036 16 0
-8036 26 0
-8036 54 0
-8036 67 0
-8034 8035 8036 0
-8035 8034 8036 0
-8036 8034 8035 0
8037 -10 -26 -54 -77 0
-8037 10 0
-8037 26 0
-8037 54 0
-8037 77 0
8038 -10 -32 -54 -62 0
-8038 10 0
-8038 32 0
-8038 54 0
-8038 62 0
8039 -10 -35 -54 -59 0
-8039 10 0
-8039 35 0
-8039 54 0
-8039 59 0
-8037 8038 8039 0
-8038 8037 8039 0
-8039 8037 8038 0
8040 -10 -27 -53 -76 0
-8040 10 0
-8040 27 0
-8040 53 0
-8040 76 0
8041 -13 -27 -53 -70 0
-8041 13 0
-8041 27 0
-8041 53 0
-8041 70 0
8042 -16 -27 -53 -67 0
-8042 16 0
-8042 27 0
-8042 53 0
-8042 67 0
-8040 8041 8042 0
-8041 8040 8042 0
-8042 8040 8041 0
8043 -10 -27 -53 -78 0
-8043 10 0
-8043 27 0
-8043 53 0
-8043 78 0
8044 -10 -33 -53 -63 0
-8044 10 0
-8044 33 0
-8044 53 0
-8044 63 0
8045 -10 -36 -53 -60 0
-8045 10 0
-8045 36 0
-8045 53 0
-8045 60 0
-8043 8044 8045 0
-8044 8043 8045 0
-8045 8043 8044 0
8046 -11 -25 -54 -76 0
-8046 11 0
-8046 25 0
-8046 54 0
-8046 76 0
8047 -11 -31 -54 -61 0
-8047 11 0
-8047 31 0
-8047 54 0
-8047 61 0
8048 -11 -34 -54 -58 0
-8048 11 0
-8048 34 0
-8048 54 0
-8048 58 0
-8046 8047 8048 0
-8047 8046 8048 0
-8048 8046 8047 0
8049 -11 -25 -54 -77 0
-8049 11 0
-8049 25 0
-8049 54 0
-8049 77 0
8050 -14 -25 -54 -71 0
-8050 14 0
-8050 25 0
-8050 54 0
-8050 71 0
8051 -17 -25 -54 -68 0
-8051 17 0
-8051 25 0
-8051 54 0
-8051 68 0
-8049 8050 8051 0
-8050 8049 8051 0
-8051 8049 8050 0
8052 -11 -27 -52 -77 0
-8052 11 0
-8052 27 0
-8052 52 0
-8052 77 0
8053 -14 -27 -52 -71 0
-8053 14 0
-8053 27 0
-8053 52 0
-8053 71 0
8054 -17 -27 -52 -68 0
-8054 17 0
-8054 27 0
-8054 52 0
-8054 68 0
-8052 8053 8054 0
-8053 8052 8054 0
-8054 8052 8053 0
8055 -11 -27 -52 -78 0
-8055 11 0
-8055 27 0
-8055 52 0
-8055 78 0
8056 -11 -33 -52 -63 0
-8056 11 0
-8056 33 0
-8056 52 0
-8056 63 0
8057 -11 -36 -52 -60 0
-8057 11 0
-8057 36 0
-8057 52 0
-8057 60 0
-8055 8056 8057 0
-8056 8055 8057 0
-8057 8055 8056 0
8058 -12 -25 -53 -76 0
-8058 12 0
-8058 25 0
-8058 53 0
-8058 76 0
8059 -12 -31 -53 -61 0
-8059 12 0
-8059 31 0
-8059 53 0
-8059 61 0
8060 -12 -34 -53 -58 0
-8060 12 0
-8060 34 0
-8060 53 0
-8060 58 0
-8058 8059 8060 0
-8059 8058 8060 0
-8060 8058 8059 0
8061 -12 -25 -53 -78 0
-8061 12 0
-8061 25 0
-8061 53 0
-8061 78 0
8062 -15 -25 -53 -72 0
-8062 15 0
-8062 25 0
-8062 53 0
-8062 72 0
8063 -18 -25 -53 -69 0
-8063 18 0
-8063 25 0
-8063 53 0
-8063 69 0
-8061 8062 8063 0
-8062 8061 8063 0
-8063 8061 8062 0
8064 -12 -26 -52 -77 0
-8064 12 0
-8064 26 0
-8064 52 0
-8064 77 0
8065 -12 -32 -52 -62 0
-8065 12 0
-8065 32 0
-8065 52 0
-8065 62 0
8066 -12 -35 -52 -59 0
-8066 12 0
-8066 35 0
-8066 52 0
-8066 59 0
-8064 8065 8066 0
-8065 8064 8066 0
-8066 8064 8065 0
8067 -12 -26 -52 -78 0
-8067 12 0
-8067 26 0
-8067 52 0
-8067 78 0
8068 -15 -26 -52 -72 0
-8068 15 0
-8068 26 0
-8068 52 0
-8068 72 0
8069 -18 -26 -52 -69 0
-8069 18 0
-8069 26 0
-8069 52 0
-8069 69 0
-8067 8068 8069 0
-8068 8067 8069 0
-8069 8067 8068 0
8070 -10 -32 -42 -82 0
-8070 10 0
-8070 32 0
-8070 42 0
-8070 82 0
8071 -16 -32 -42 -73 0
-8071 16 0
-8071 32 0
-8071 42 0
-8071 73 0
8072 -19 -32 -42 -70 0
-8072 19 0
-8072 32 0
-8072 42 0
-8072 70 0
-8070 8071 8072 0
-8071 8070 8072 0
-8072 8070 8071 0
8073 -10 -32 -42 -83 0
-8073 10 0
-8073 32 0
-8073 42 0
-8073 83 0
8074 -10 -35 -42 -80 0
-8074 10 0
-8074 35 0
-8074 42 0
-8074 80 0
8075 -10 -38 -42 -77 0
-8075 10 0
-8075 38 0
-8075 42 0
-8075 77 0
-8073 8074 8075 0
-8074 8073 8075 0
-8075 8073 8074 0
8076 -10 -32 -42 -84 0
-8076 10 0
-8076 32 0
-8076 42 0
-8076 84 0
8077 -10 -32 -51 -66 0
-8077 10 0
-8077 32 0
-8077 51 0
-8077 66 0
8078 -10 -32 -54 -63 0
-8078 10 0
-8078 32 0
-8078 54 0
-8078 63 0
-8076 8077 8078 0
-8077 8076 8078 0
-8078 8076 8077 0
8079 -10 -33 -41 -82 0
-8079 10 0
-8079 33 0
-8079 41 0
-8079 82 0
8080 -16 -33 -41 -73 0
-8080 16 0
-8080 33 0
-8080 41 0
-8080 73 0
8081 -19 -33 -41 -70 0
-8081 19 0
-8081 33 0
-8081 41 0
-8081 70 0
-8079 8080 8081 0
-8080 8079 8081 0
-8081 8079 8080 0
8082 -10 -33 -41 -83 0
-8082 10 0
-8082 33 0
-8082 41 0
-8082 83 0
8083 -10 -33 -50 -65 0
-8083 10 0
-8083 33 0
-8083 50 0
-8083 65 0
8084 -10 -33 -53 -62 0
-8084 10 0
-8084 33 0
-8084 53 0
-8084 62 0
-8082 8083 8084 0
-8083 8082 8084 0
-8084 8082 8083 0
8085 -10 -33 -41 -84 0
-8085 10 0
-8085 33 0
-8085 41 0
-8085 84 0
8086 -10 -36 -41 -81 0
-8086 10 0
-8086 36 0
-8086 41 0
-8086 81 0
8087 -10 -39 -41 -78 0
-8087 10 0
-8087 39 0
-8087 41 0
-8087 78 0
-8085 8086 8087 0
-8086 8085 8087 0
-8087 8085 8086 0
8088 -11 -31 -42 -82 0
-8088 11 0
-8088 31 0
-8088 42 0
-8088 82 0
8089 -11 -34 -42 -79 0
-8089 11 0
-8089 34 0
-8089 42 0
-8089 79 0
8090 -11 -37 -42 -76 0
-8090 11 0
-8090 37 0
-8090 42 0
-8090 76 0
-8088 8089 8090 0
-8089 8088 8090 0
-8090 8088 8089 0
8091 -11 -31 -42 -83 0
-8091 11 0
-8091 31 0
-8091 42 0
-8091 83 0
8092 -17 -31 -42 -74 0
-8092 17 0
-8092 31 0
-8092 42 0
-8092 74 0
8093 -20 -31 -42 -71 0
-8093 20 0
-8093 31 0
-8093 42 0
-8093 71 0
-8091 8092 8093 0
-8092 8091 8093 0
-8093 8091 8092 0
8094 -11 -31 -42 -84 0
-8094 11 0
-8094 31 0
-8094 42 0
-8094 84 0
8095 -11 -31 -51 -66 0
-8095 11 0
-8095 31 0
-8095 51 0
-8095 66 0
8096 -11 -31 -54 -63 0
-8096 11 0
-8096 31 0
-8096 54 0
-8096 63 0
-8094 8095 8096 0
-8095 8094 8096 0
-8096 8094 8095 0
8097 -11 -33 -40 -82 0
-8097 11 0
-8097 33 0
-8097 40 0
-8097 82 0
8098 -11 -33 -49 -64 0
-8098 11 0
-8098 33 0
-8098 49 0
-8098 64 0
8099 -11 -33 -52 -61 0
-8099 11 0
-8099 33 0
-8099 52 0
-8099 61 0
-8097 8098 8099 0
-8098 8097 8099 0
-8099 8097 8098 0
8100 -11 -33 -40 -83 0
-8100 11 0
-8100 33 0
-8100 40 0
-8100 83 0
8101 -17 -33 -40 -74 0
-8101 17 0
-8101 33 0
-8101 40 0
-8101 74 0
8102 -20 -33 -40 -71 0
-8102 20 0
-8102 33 0
-8102 40 0
-8102 71 0
-8100 8101 8102 0
-8101 8100 8102 0
-8102 8100 8101 0
8103 -11 -33 -40 -84 0
-8103 11 0
-8103 33 0
-8103 40 0
-8103 84 0
8104 -11 -36 -40 -81 0
-8104 11 0
-8104 36 0
-8104 40 0
-8104 81 0
8105 -11 -39 -40 -78 0
-8105 11 0
-8105 39 0
-8105 40 0
-8105 78 0
-8103 8104 8105 0
-8104 8103 8105 0
-8105 8103 8104 0
8106 -12 -31 -41 -82 0
-8106 12 0
-8106 31 0
-8106 41 0
-8106 82 0
8107 -12 -34 -41 -79 0
-8107 12 0
-8107 34 0
-8107 41 0
-8107 79 0
8108 -12 -37 -41 -76 0
-8108 12 0
-8108 37 0
-8108 41 0
-8108 76 0
-8106 8107 8108 0
-8107 8106 8108 0
-8108 8106 8107 0
8109 -12 -31 -41 -83 0
-8109 12 0
-8109 31 0
-8109 41 0
-8109 83 0
8110 -12 -31 -50 -65 0
-8110 12 0
-8110 31 0
-8110 50 0
-8110 65 0
8111 -12 -31 -53 -62 0
-8111 12 0
-8111 31 0
-8111 53 0
-8111 62 0
-8109 8110 8111 0
-8110 8109 8111 0
-8111 8109 8110 0
8112 -12 -31 -41 -84 0
-8112 12 0
-8112 31 0
-8112 41 0
-8112 84 0
8113 -18 -31 -41 -75 0
-8113 18 0
-8113 31 0
-8113 41 0
-8113 75 0
8114 -21 -31 -41 -72 0
-8114 21 0
-8114 31 0
-8114 41 0
-8114 72 0
-8112 8113 8114 0
-8113 8112 8114 0
-8114 8112 8113 0
8115 -12 -32 -40 -82 0
-8115 12 0
-8115 32 0
-8115 40 0
-8115 82 0
8116 -12 -32 -49 -64 0
-8116 12 0
-8116 32 0
-8116 49 0
-8116 64 0
8117 -12 -32 -52 -61 0
-8117 12 0
-8117 32 0
-8117 52 0
-8117 61 0
-8115 8116 8117 0
-8116 8115 8117 0
-8117 8115 8116 0
8118 -12 -32 -40 -83 0
-8118 12 0
-8118 32 0
-8118 40 0
-8118 83 0
8119 -12 -35 -40 -80 0
-8119 12 0
-8119 35 0
-8119 40 0
-8119 80 0
8120 -12 -38 -40 -77 0
-8120 12 0
-8120 38 0
-8120 40 0
-8120 77 0
-8118 8119 8120 0
-8119 8118 8120 0
-8120 8118 8119 0
8121 -12 -32 -40 -84 0
-8121 12 0
-8121 32 0
-8121 40 0
-8121 84 0
8122 -18 -32 -40 -75 0
-8122 18 0
-8122 32 0
-8122 40 0
-8122 75 0
8123 -21 -32 -40 -72 0
-8123 21 0
-8123 32 0
-8123 40 0
-8123 72 0
-8121 8122 8123 0
-8122 8121 8123 0
-8123 8121 8122 0
8124 -10 -35 -42 -79 0
-8124 10 0
-8124 35 0
-8124 42 0
-8124 79 0
8125 -13 -35 -42 -73 0
-8125 13 0
-8125 35 0
-8125 42 0
-8125 73 0
8126 -19 -35 -42 -67 0
-8126 19 0
-8126 35 0
-8126 42 0
-8126 67 0
-8124 8125 8126 0
-8125 8124 8126 0
-8126 8124 8125 0
8127 -10 -35 -42 -81 0
-8127 10 0
-8127 35 0
-8127 42 0
-8127 81 0
8128 -10 -35 -48 -66 0
-8128 10 0
-8128 35 0
-8128 48 0
-8128 66 0
8129 -10 -35 -54 -60 0
-8129 10 0
-8129 35 0
-8129 54 0
-8129 60 0
-8127 8128 8129 0
-8128 8127 8129 0
-8129 8127 8128 0
8130 -10 -36 -41 -79 0
-8130 10 0
-8130 36 0
-8130 41 0
-8130 79 0
8131 -13 -36 -41 -73 0
-8131 13 0
-8131 36 0
-8131 41 0
-8131 73 0
8132 -19 -36 -41 -67 0
-8132 19 0
-8132 36 0
-8132 41 0
-8132 67 0
-8130 8131 8132 0
-8131 8130 8132 0
-8132 8130 8131 0
8133 -10 -36 -41 -80 0
-8133 10 0
-8133 36 0
-8133 41 0
-8133 80 0
8134 -10 -36 -47 -65 0
-8134 10 0
-8134 36 0
-8134 47 0
-8134 65 0
8135 -10 -36 -53 -59 0
-8135 10 0
-8135 36 0
-8135 53 0
-8135 59 0
-8133 8134 8135 0
-8134 8133 8135 0
-8135 8133 8134 0
8136 -11 -34 -42 -80 0
-8136 11 0
-8136 34 0
-8136 42 0
-8136 80 0
8137 -14 -34 -42 -74 0
-8137 14 0
-8137 34 0
-8137 42 0
-8137 74 0
8138 -20 -34 -42 -68 0
-8138 20 0
-8138 34 0
-8138 42 0
-8138 68 0
-8136 8137 8138 0
-8137 8136 8138 0
-8138 8136 8137 0
8139 -11 -34 -42 -81 0
-8139 11 0
-8139 34 0
-8139 42 0
-8139 81 0
8140 -11 -34 -48 -66 0
-8140 11 0
-8140 34 0
-8140 48 0
-8140 66 0
8141 -11 -34 -54 -60 0
-8141 11 0
-8141 34 0
-8141 54 0
-8141 60 0
-8139 8140 8141 0
-8140 8139 8141 0
-8141 8139 8140 0
8142 -11 -36 -40 -79 0
-8142 11 0
-8142 36 0
-8142 40 0
-8142 79 0
8143 -11 -36 -46 -64 0
-8143 11 0
-8143 36 0
-8143 46 0
-8143 64 0
8144 -11 -36 -52 -58 0
-8144 11 0
-8144 36 0
-8144 52 0
-8144 58 0
-8142 8143 8144 0
-8143 8142 8144 0
-8144 8142 8143 0
8145 -11 -36 -40 -80 0
-8145 11 0
-8145 36 0
-8145 40 0
-8145 80 0
8146 -14 -36 -40 -74 0
-8146 14 0
-8146 36 0
-8146 40 0
-8146 74 0
8147 -20 -36 -40 -68 0
-8147 20 0
-8147 36 0
-8147 40 0
-8147 68 0
-8145 8146 8147 0
-8146 8145 8147 0
-8147 8145 8146 0
8148 -12 -34 -41 -80 0
-8148 12 0
-8148 34 0
-8148 41 0
-8148 80 0
8149 -12 -34 -47 -65 0
-8149 12 0
-8149 34 0
-8149 47 0
-8149 65 0
8150 -12 -34 -53 -59 0
-8150 12 0
-8150 34 0
-8150 53 0
-8150 59 0
-8148 8149 8150 0
-8149 8148 8150 0
-8150 8148 8149 0
8151 -12 -34 -41 -81 0
-8151 12 0
-8151 34 0
-8151 41 0
-8151 81 0
8152 -15 -34 -41 -75 0
-8152 15 0
-8152 34 0
-8152 41 0
-8152 75 0
8153 -21 -34 -41 -69 0
-8153 21 0
-8153 34 0
-8153 41 0
-8153 69 0
-8151 8152 8153 0
-8152 8151 8153 0
-8153 8151 8152 0
8154 -12 -35 -40 -79 0
-8154 12 0
-8154 35 0
-8154 40 0
-8154 79 0
8155 -12 -35 -46 -64 0
-8155 12 0
-8155 35 0
-8155 46 0
-8155 64 0
8156 -12 -35 -52 -58 0
-8156 12 0
-8156 35 0
-8156 52 0
-8156 58 0
-8154 8155 8156 0
-8155 8154 8156 0
-8156 8154 8155 0
8157 -12 -35 -40 -81 0
-8157 12 0
-8157 35 0
-8157 40 0
-8157 81 0
8158 -15 -35 -40 -75 0
-8158 15 0
-8158 35 0
-8158 40 0
-8158 75 0
8159 -21 -35 -40 -69 0
-8159 21 0
-8159 35 0
-8159 40 0
-8159 69 0
-8157 8158 8159 0
-8158 8157 8159 0
-8159 8157 8158 0
8160 -10 -38 -42 -76 0
-8160 10 0
-8160 38 0
-8160 42 0
-8160 76 0
8161 -13 -38 -42 -70 0
-8161 13 0
-8161 38 0
-8161 42 0
-8161 70 0
8162 -16 -38 -42 -67 0
-8162 16 0
-8162 38 0
-8162 42 0
-8162 67 0
-8160 8161 8162 0
-8161 8160 8162 0
-8162 8160 8161 0
8163 -10 -38 -42 -78 0
-8163 10 0
-8163 38 0
-8163 42 0
-8163 78 0
8164 -10 -38 -48 -63 0
-8164 10 0
-8164 38 0
-8164 48 0
-8164 63 0
8165 -10 -38 -51 -60 0
-8165 10 0
-8165 38 0
-8165 51 0
-8165 60 0
-8163 8164 8165 0
-8164 8163 8165 0
-8165 8163 8164 0
8166 -10 -39 -41 -76 0
-8166 10 0
-8166 39 0
-8166 41 0
-8166 76 0
8167 -13 -39 -41 -70 0
-8167 13 0
-8167 39 0
-8167 41 0
-8167 70 0
8168 -16 -39 -41 -67 0
-8168 16 0
-8168 39 0
-8168 41 0
-8168 67 0
-8166 8167 8168 0
-8167 8166 8168 0
-8168 8166 8167 0
8169 -10 -39 -41 -77 0
-8169 10 0
-8169 39 0
-8169 41 0
-8169 77 0
8170 -10 -39 -47 -62 0
-8170 10 0
-8170 39 0
-8170 47 0
-8170 62 0
8171 -10 -39 -50 -59 0
-8171 10 0
-8171 39 0
-8171 50 0
-8171 59 0
-8169 8170 8171 0
-8170 8169 8171 0
-8171 8169 8170 0
8172 -11 -37 -42 -77 0
-8172 11 0
-8172 37 0
-8172 42 0
-8172 77 0
8173 -14 -37 -42 -71 0
-8173 14 0
-8173 37 0
-8173 42 0
-8173 71 0
8174 -17 -37 -42 -68 0
-8174 17 0
-8174 37 0
-8174 42 0
-8174 68 0
-8172 8173 8174 0
-8173 8172 8174 0
-8174 8172 8173 0
8175 -11 -37 -42 -78 0
-8175 11 0
-8175 37 0
-8175 42 0
-8175 78 0
8176 -11 -37 -48 -63 0
-8176 11 0
-8176 37 0
-8176 48 0
-8176 63 0
8177 -11 -37 -51 -60 0
-8177 11 0
-8177 37 0
-8177 51 0
-8177 60 0
-8175 8176 8177 0
-8176 8175 8177 0
-8177 8175 8176 0
8178 -11 -39 -40 -76 0
-8178 11 0
-8178 39 0
-8178 40 0
-8178 76 0
8179 -11 -39 -46 -61 0
-8179 11 0
-8179 39 0
-8179 46 0
-8179 61 0
8180 -11 -39 -49 -58 0
-8180 11 0
-8180 39 0
-8180 49 0
-8180 58 0
-8178 8179 8180 0
-8179 8178 8180 0
-8180 8178 8179 0
8181 -11 -39 -40 -77 0
-8181 11 0
-8181 39 0
-8181 40 0
-8181 77 0
8182 -14 -39 -40 -71 0
-8182 14 0
-8182 39 0
-8182 40 0
-8182 71 0
8183 -17 -39 -40 -68 0
-8183 17 0
-8183 39 0
-8183 40 0
-8183 68 0
-8181 8182 8183 0
-8182 8181 8183 0
-8183 8181 8182 0
8184 -12 -37 -41 -77 0
-8184 12 0
-8184 37 0
-8184 41 0
-8184 77 0
8185 -12 -37 -47 -62 0
-8185 12 0
-8185 37 0
-8185 47 0
-8185 62 0
8186 -12 -37 -50 -59 0
-8186 12 0
-8186 37 0
-8186 50 0
-8186 59 0
-8184 8185 8186 0
-8185 8184 8186 0
-8186 8184 8185 0
8187 -12 -37 -41 -78 0
-8187 12 0
-8187 37 0
-8187 41 0
-8187 78 0
8188 -15 -37 -41 -72 0
-8188 15 0
-8188 37 0
-8188 41 0
-8188 72 0
8189 -18 -37 -41 -69 0
-8189 18 0
-8189 37 0
-8189 41 0
-8189 69 0
-8187 8188 8189 0
-8188 8187 8189 0
-8189 8187 8188 0
8190 -12 -38 -40 -76 0
-8190 12 0
-8190 38 0
-8190 40 0
-8190 76 0
8191 -12 -38 -46 -61 0
-8191 12 0
-8191 38 0
-8191 46 0
-8191 61 0
8192 -12 -38 -49 -58 0
-8192 12 0
-8192 38 0
-8192 49 0
-8192 58 0
-8190 8191 8192 0
-8191 8190 8192 0
-8192 8190 8191 0
8193 -12 -38 -40 -78 0
-8193 12 0
-8193 38 0
-8193 40 0
-8193 78 0
8194 -15 -38 -40 -72 0
-8194 15 0
-8194 38 0
-8194 40 0
-8194 72 0
8195 -18 -38 -40 -69 0
-8195 18 0
-8195 38 0
-8195 40 0
-8195 69 0
-8193 8194 8195 0
-8194 8193 8195 0
-8195 8193 8194 0
8196 -13 -23 -56 -82 0
-8196 13 0
-8196 23 0
-8196 56 0
-8196 82 0
8197 -13 -26 -44 -82 0
-8197 13 0
-8197 26 0
-8197 44 0
-8197 82 0
8198 -13 -29 -41 -82 0
-8198 13 0
-8198 29 0
-8198 41 0
-8198 82 0
8199 -16 -23 -56 -79 0
-8199 16 0
-8199 23 0
-8199 56 0
-8199 79 0
8200 -16 -26 -44 -79 0
-8200 16 0
-8200 26 0
-8200 44 0
-8200 79 0
8201 -16 -29 -41 -79 0
-8201 16 0
-8201 29 0
-8201 41 0
-8201 79 0
8202 -19 -23 -56 -76 0
-8202 19 0
-8202 23 0
-8202 56 0
-8202 76 0
8203 -19 -26 -44 -76 0
-8203 19 0
-8203 26 0
-8203 44 0
-8203 76 0
8204 -19 -29 -41 -76 0
-8204 19 0
-8204 29 0
-8204 41 0
-8204 76 0
-8196 8197 8198 8199 8200 8201 8202 8203 8204 0
-8197 8196 8198 8199 8200 8201 8202 8203 8204 0
-8198 8196 8197 8199 8200 8201 8202 8203 8204 0
-8199 8196 8197 8198 8200 8201 8202 8203 8204 0
-8200 8196 8197 8198 8199 8201 8202 8203 8204 0
-8201 8196 8197 8198 8199 8200 8202 8203 8204 0
-8202 8196 8197 8198 8199 8200 8201 8203 8204 0
-8203 8196 8197 8198 8199 8200 8201 8202 8204 0
-8204 8196 8197 8198 8199 8200 8201 8202 8203 0
8205 -13 -23 -56 -83 0
-8205 13 0
-8205 23 0
-8205 56 0
-8205 83 0
8206 -13 -23 -62 -74 0
-8206 13 0
-8206 23 0
-8206 62 0
-8206 74 0
8207 -13 -23 -65 -71 0
-8207 13 0
-8207 23 0
-8207 65 0
-8207 71 0
8208 -13 -26 -44 -83 0
-8208 13 0
-8208 26 0
-8208 44 0
-8208 83 0
8209 -13 -26 -50 -74 0
-8209 13 0
-8209 26 0
-8209 50 0
-8209 74 0
8210 -13 -26 -53 -71 0
-8210 13 0
-8210 26 0
-8210 53 0
-8210 71 0
8211 -13 -29 -41 -83 0
-8211 13 0
-8211 29 0
-8211 41 0
-8211 83 0
8212 -13 -29 -50 -65 0
-8212 13 0
-8212 29 0
-8212 50 0
-8212 65 0
8213 -13 -29 -53 -62 0
-8213 13 0
-8213 29 0
-8213 53 0
-8213 62 0
8214 -13 -35 -41 -74 0
-8214 13 0
-8214 35 0
-8214 41 0
-8214 74 0
8215 -13 -35 -44 -65 0
-8215 13 0
-8215 35 0
-8215 44 0
-8215 65 0
8216 -13 -35 -53 -56 0
-8216 13 0
-8216 35 0
-8216 53 0
-8216 56 0
8217 -13 -38 -41 -71 0
-8217 13 0
-8217 38 0
-8217 41 0
-8217 71 0
8218 -13 -38 -44 -62 0
-8218 13 0
-8218 38 0
-8218 44 0
-8218 62 0
8219 -13 -38 -50 -56 0
-8219 13 0
-8219 38 0
-8219 50 0
-8219 56 0
-8205 8206 8207 8208 8209 8210 8211 8212 8213 8214 8215 8216 8217 8218 8219 0
-8206 8205 8207 8208 8209 8210 8211 8212 8213 8214 8215 8216 8217 8218 8219 0
-8207 8205 8206 8208 8209 8210 8211 8212 8213 8214 8215 8216 8217 8218 8219 0
-8208 8205 8206 8207 8209 8210 8211 8212 8213 8214 8215 8216 8217 8218 8219 0
-8209 8205 8206 8207 8208 8210 8211 8212 8213 8214 8215 8216 8217 8218 8219 0
-8210 8205 8206 8207 8208 8209 8211 8212 8213 8214 8215 8216 8217 8218 8219 0
-8211 8205 8206 8207 8208 8209 8210 8212 8213 8214 8215 8216 8217 8218 8219 0
-8212 8205 8206 8207 8208 8209 8210 8211 8213 8214 8215 8216 8217 8218 8219 0
-8213 8205 8206 8207 8208 8209 8210 8211 8212 8214 8215 8216 8217 8218 8219 0
-8214 8205 8206 8207 8208 8209 8210 8211 8212 8213 8215 8216 8217 8218 8219 0
-8215 8205 8206 8207 8208 8209 8210 8211 8212 8213 8214 8216 8217 8218 8219 0
-8216 8205 8206 8207 8208 8209 8210 8211 8212 8213 8214 8215 8217 8218 8219 0
-8217 8205 8206 8207 8208 8209 8210 8211 8212 8213 8214 8215 8216 8218 8219 0
-8218 8205 8206 8207 8208 8209 8210 8211 8212 8213 8214 8215 8216 8217 8219 0
-8219 8205 8206 8207 8208 8209 8210 8211 8212 8213 8214 8215 8216 8217 8218 0
8220 -13 -23 -56 -84 0
-8220 13 0
-8220 23 0
-8220 56 0
-8220 84 0
8221 -13 -26 -44 -84 0
-8221 13 0
-8221 26 0
-8221 44 0
-8221 84 0
8222 -13 -29 -41 -84 0
-8222 13 0
-8222 29 0
-8222 41 0
-8222 84 0
-8220 8221 8222 0
-8221 8220 8222 0
-8222 8220 8221 0
8223 -13 -23 -57 -82 0
-8223 13 0
-8223 23 0
-8223 57 0
-8223 82 0
8224 -16 -23 -57 -79 0
-8224 16 0
-8224 23 0
-8224 57 0
-8224 79 0
8225 -19 -23 -57 -76 0
-8225 19 0
-8225 23 0
-8225 57 0
-8225 76 0
-8223 8224 8225 0
-8224 8223 8225 0
-8225 8223 8224 0
8226 -13 -23 -57 -83 0
-8226 13 0
-8226 23 0
-8226 57 0
-8226 83 0
8227 -13 -35 -53 -57 0
-8227 13 0
-8227 35 0
-8227 53 0
-8227 57 0
8228 -13 -38 -50 -57 0
-8228 13 0
-8228 38 0
-8228 50 0
-8228 57 0
-8226 8227 8228 0
-8227 8226 8228 0
-8228 8226 8227 0
8229 -13 -23 -57 -84 0
-8229 13 0
-8229 23 0
-8229 57 0
-8229 84 0
8230 -13 -23 -63 -75 0
-8230 13 0
-8230 23 0
-8230 63 0
-8230 75 0
8231 -13 -23 -66 -72 0
-8231 13 0
-8231 23 0
-8231 66 0
-8231 72 0
-8229 8230 8231 0
-8230 8229 8231 0
-8231 8229 8230 0
8232 -13 -24 -56 -82 0
-8232 13 0
-8232 24 0
-8232 56 0
-8232 82 0
8233 -16 -24 -56 -79 0
-8233 16 0
-8233 24 0
-8233 56 0
-8233 79 0
8234 -19 -24 -56 -76 0
-8234 19 0
-8234 24 0
-8234 56 0
-8234 76 0
-8232 8233 8234 0
-8233 8232 8234 0
-8234 8232 8233 0
8235 -13 -24 -56 -83 0
-8235 13 0
-8235 24 0
-8235 56 0
-8235 83 0
8236 -13 -24 -62 -74 0
-8236 13 0
-8236 24 0
-8236 62 0
-8236 74 0
8237 -13 -24 -65 -71 0
-8237 13 0
-8237 24 0
-8237 65 0
-8237 71 0
-8235 8236 8237 0
-8236 8235 8237 0
-8237 8235 8236 0
8238 -13 -24 -56 -84 0
-8238 13 0
-8238 24 0
-8238 56 0
-8238 84 0
8239 -13 -36 -54 -56 0
-8239 13 0
-8239 36 0
-8239 54 0
-8239 56 0
8240 -13 -39 -51 -56 0
-8240 13 0
-8240 39 0
-8240 51 0
-8240 56 0
-8238 8239 8240 0
-8239 8238 8240 0
-8240 8238 8239 0
8241 -13 -24 -57 -82 0
-8241 13 0
-8241 24 0
-8241 57 0
-8241 82 0
8242 -13 -27 -45 -82 0
-8242 13 0
-8242 27 0
-8242 45 0
-8242 82 0
8243 -13 -30 -42 -82 0
-8243 13 0
-8243 30 0
-8243 42 0
-8243 82 0
8244 -16 -24 -57 -79 0
-8244 16 0
-8244 24 0
-8244 57 0
-8244 79 0
8245 -16 -27 -45 -79 0
-8245 16 0
-8245 27 0
-8245 45 0
-8245 79 0
8246 -16 -30 -42 -79 0
-8246 16 0
-8246 30 0
-8246 42 0
-8246 79 0
8247 -19 -24 -57 -76 0
-8247 19 0
-8247 24 0
-8247 57 0
-8247 76 0
8248 -19 -27 -45 -76 0
-8248 19 0
-8248 27 0
-8248 45 0
-8248 76 0
8249 -19 -30 -42 -76 0
-8249 19 0
-8249 30 0
-8249 42 0
-8249 76 0
-8241 8242 8243 8244 8245 8246 8247 8248 8249 0
-8242 8241 8243 8244 8245 8246 8247 8248 8249 0
-8243 8241 8242 8244 8245 8246 8247 8248 8249 0
-8244 8241 8242 8243 8245 8246 8247 8248 8249 0
-8245 8241 8242 8243 8244 8246 8247 8248 8249 0
-8246 8241 8242 8243 8244 8245 8247 8248 8249 0
-8247 8241 8242 8243 8244 8245 8246 8248 8249 0
-8248 8241 8242 8243 8244 8245 8246 8247 8249 0
-8249 8241 8242 8243 8244 8245 8246 8247 8248 0
8250 -13 -24 -57 -83 0
-8250 13 0
-8250 24 0
-8250 57 0
-8250 83 0
8251 -13 -27 -45 -83 0
-8251 13 0
-8251 27 0
-8251 45 0
-8251 83 0
8252 -13 -30 -42 -83 0
-8252 13 0
-8252 30 0
-8252 42 0
-8252 83 0
-8250 8251 8252 0
-8251 8250 8252 0
-8252 8250 8251 0
8253 -13 -24 -57 -84 0
-8253 13 0
-8253 24 0
-8253 57 0
-8253 84 0
8254 -13 -24 -63 -75 0
-8254 13 0
-8254 24 0
-8254 63 0
-8254 75 0
8255 -13 -24 -66 -72 0
-8255 13 0
-8255 24 0
-8255 66 0
-8255 72 0
8256 -13 -27 -45 -84 0
-8256 13 0
-8256 27 0
-8256 45 0
-8256 84 0
8257 -13 -27 -51 -75 0
-8257 13 0
-8257 27 0
-8257 51 0
-8257 75 0
8258 -13 -27 -54 -72 0
-8258 13 0
-8258 27 0
-8258 54 0
-8258 72 0
8259 -13 -30 -42 -84 0
-8259 13 0
-8259 30 0
-8259 42 0
-8259 84 0
8260 -13 -30 -51 -66 0
-8260 13 0
-8260 30 0
-8260 51 0
-8260 66 0
8261 -13 -30 -54 -63 0
-8261 13 0
-8261 30 0
-8261 54 0
-8261 63 0
8262 -13 -36 -42 -75 0
-8262 13 0
-8262 36 0
-8262 42 0
-8262 75 0
8263 -13 -36 -45 -66 0
-8263 13 0
-8263 36 0
-8263 45 0
-8263 66 0
8264 -13 -36 -54 -57 0
-8264 13 0
-8264 36 0
-8264 54 0
-8264 57 0
8265 -13 -39 -42 -72 0
-8265 13 0
-8265 39 0
-8265 42 0
-8265 72 0
8266 -13 -39 -45 -63 0
-8266 13 0
-8266 39 0
-8266 45 0
-8266 63 0
8267 -13 -39 -51 -57 0
-8267 13 0
-8267 39 0
-8267 51 0
-8267 57 0
-8253 8254 8255 8256 8257 8258 8259 8260 8261 8262 8263 8264 8265 8266 8267 0
-8254 8253 8255 8256 8257 8258 8259 8260 8261 8262 8263 8264 8265 8266 8267 0
-8255 8253 8254 8256 8257 8258 8259 8260 8261 8262 8263 8264 8265 8266 8267 0
-8256 8253 8254 8255 8257 8258 8259 8260 8261 8262 8263 8264 8265 8266 8267 0
-8257 8253 8254 8255 8256 8258 8259 8260 8261 8262 8263 8264 8265 8266 8267 0
-8258 8253 8254 8255 8256 8257 8259 8260 8261 8262 8263 8264 8265 8266 8267 0
-8259 8253 8254 8255 8256 8257 8258 8260 8261 8262 8263 8264 8265 8266 8267 0
-8260 8253 8254 8255 8256 8257 8258 8259 8261 8262 8263 8264 8265 8266 8267 0
-8261 8253 8254 8255 8256 8257 8258 8259 8260 8262 8263 8264 8265 8266 8267 0
-8262 8253 8254 8255 8256 8257 8258 8259 8260 8261 8263 8264 8265 8266 8267 0
-8263 8253 8254 8255 8256 8257 8258 8259 8260 8261 8262 8264 8265 8266 8267 0
-8264 8253 8254 8255 8256 8257 8258 8259 8260 8261 8262 8263 8265 8266 8267 0
-8265 8253 8254 8255 8256 8257 8258 8259 8260 8261 8262 8263 8264 8266 8267 0
-8266 8253 8254 8255 8256 8257 8258 8259 8260 8261 8262 8263 8264 8265 8267 0
-8267 8253 8254 8255 8256 8257 8258 8259 8260 8261 8262 8263 8264 8265 8266 0
8268 -14 -22 -55 -82 0
-8268 14 0
-8268 22 0
-8268 55 0
-8268 82 0
8269 -14 -22 -61 -73 0
-8269 14 0
-8269 22 0
-8269 61 0
-8269 73 0
8270 -14 -22 -64 -70 0
-8270 14 0
-8270 22 0
-8270 64 0
-8270 70 0
8271 -14 -25 -43 -82 0
-8271 14 0
-8271 25 0
-8271 43 0
-8271 82 0
8272 -14 -25 -49 -73 0
-8272 14 0
-8272 25 0
-8272 49 0
-8272 73 0
8273 -14 -25 -52 -70 0
-8273 14 0
-8273 25 0
-8273 52 0
-8273 70 0
8274 -14 -28 -40 -82 0
-8274 14 0
-8274 28 0
-8274 40 0
-8274 82 0
8275 -14 -28 -49 -64 0
-8275 14 0
-8275 28 0
-8275 49 0
-8275 64 0
8276 -14 -28 -52 -61 0
-8276 14 0
-8276 28 0
-8276 52 0
-8276 61 0
8277 -14 -34 -40 -73 0
-8277 14 0
-8277 34 0
-8277 40 0
-8277 73 0
8278 -14 -34 -43 -64 0
-8278 14 0
-8278 34 0
-8278 43 0
-8278 64 0
8279 -14 -34 -52 -55 0
-8279 14 0
-8279 34 0
-8279 52 0
-8279 55 0
8280 -14 -37 -40 -70 0
-8280 14 0
-8280 37 0
-8280 40 0
-8280 70 0
8281 -14 -37 -43 -61 0
-8281 14 0
-8281 37 0
-8281 43 0
-8281 61 0
8282 -14 -37 -49 -55 0
-8282 14 0
-8282 37 0
-8282 49 0
-8282 55 0
-8268 8269 8270 8271 8272 8273 8274 8275 8276 8277 8278 8279 8280 8281 8282 0
-8269 8268 8270 8271 8272 8273 8274 8275 8276 8277 8278 8279 8280 8281 8282 0
-8270 8268 8269 8271 8272 8273 8274 8275 8276 8277 8278 8279 8280 8281 8282 0
-8271 8268 8269 8270 8272 8273 8274 8275 8276 8277 8278 8279 8280 8281 8282 0
-8272 8268 8269 8270 8271 8273 8274 8275 8276 8277 8278 8279 8280 8281 8282 0
-8273 8268 8269 8270 8271 8272 8274 8275 8276 8277 8278 8279 8280 8281 8282 0
-8274 8268 8269 8270 8271 8272 8273 8275 8276 8277 8278 8279 8280 8281 8282 0
-8275 8268 8269 8270 8271 8272 8273 8274 8276 8277 8278 8279 8280 8281 8282 0
-8276 8268 8269 8270 8271 8272 8273 8274 8275 8277 8278 8279 8280 8281 8282 0
-8277 8268 8269 8270 8271 8272 8273 8274 8275 8276 8278 8279 8280 8281 8282 0
-8278 8268 8269 8270 8271 8272 8273 8274 8275 8276 8277 8279 8280 8281 8282 0
-8279 8268 8269 8270 8271 8272 8273 8274 8275 8276 8277 8278 8280 8281 8282 0
-8280 8268 8269 8270 8271 8272 8273 8274 8275 8276 8277 8278 8279 8281 8282 0
-8281 8268 8269 8270 8271 8272 8273 8274 8275 8276 8277 8278 8279 8280 8282 0
-8282 8268 8269 8270 8271 8272 8273 8274 8275 8276 8277 8278 8279 8280 8281 0
8283 -14 -22 -55 -83 0
-8283 14 0
-8283 22 0
-8283 55 0
-8283 83 0
8284 -14 -25 -43 -83 0
-8284 14 0
-8284 25 0
-8284 43 0
-8284 83 0
8285 -14 -28 -40 -83 0
-8285 14 0
-8285 28 0
-8285 40 0
-8285 83 0
8286 -17 -22 -55 -80 0
-8286 17 0
-8286 22 0
-8286 55 0
-8286 80 0
8287 -17 -25 -43 -80 0
-8287 17 0
-8287 25 0
-8287 43 0
-8287 80 0
8288 -17 -28 -40 -80 0
-8288 17 0
-8288 28 0
-8288 40 0
-8288 80 0
8289 -20 -22 -55 -77 0
-8289 20 0
-8289 22 0
-8289 55 0
-8289 77 0
8290 -20 -25 -43 -77 0
-8290 20 0
-8290 25 0
-8290 43 0
-8290 77 0
8291 -20 -28 -40 -77 0
-8291 20 0
-8291 28 0
-8291 40 0
-8291 77 0
-8283 8284 8285 8286 8287 8288 8289 8290 8291 0
-8284 8283 8285 8286 8287 8288 8289 8290 8291 0
-8285 8283 8284 8286 8287 8288 8289 8290 8291 0
-8286 8283 8284 8285 8287 8288 8289 8290 8291 0
-8287 8283 8284 8285 8286 8288 8289 8290 8291 0
-8288 8283 8284 8285 8286 8287 8289 8290 8291 0
-8289 8283 8284 8285 8286 8287 8288 8290 8291 0
-8290 8283 8284 8285 8286 8287 8288 8289 8291 0
-8291 8283 8284 8285 8286 8287 8288 8289 8290 0
8292 -14 -22 -55 -84 0
-8292 14 0
-8292 22 0
-8292 55 0
-8292 84 0
8293 -14 -25 -43 -84 0
-8293 14 0
-8293 25 0
-8293 43 0
-8293 84 0
8294 -14 -28 -40 -84 0
-8294 14 0
-8294 28 0
-8294 40 0
-8294 84 0
-8292 8293 8294 0
-8293 8292 8294 0
-8294 8292 8293 0
8295 -14 -22 -57 -82 0
-8295 14 0
-8295 22 0
-8295 57 0
-8295 82 0
8296 -14 -34 -52 -57 0
-8296 14 0
-8296 34 0
-8296 52 0
-8296 57 0
8297 -14 -37 -49 -57 0
-8297 14 0
-8297 37 0
-8297 49 0
-8297 57 0
-8295 8296 8297 0
-8296 8295 8297 0
-8297 8295 8296 0
8298 -14 -22 -57 -83 0
-8298 14 0
-8298 22 0
-8298 57 0
-8298 83 0
8299 -17 -22 -57 -80 0
-8299 17 0
-8299 22 0
-8299 57 0
-8299 80 0
8300 -20 -22 -57 -77 0
-8300 20 0
-8300 22 0
-8300 57 0
-8300 77 0
-8298 8299 8300 0
-8299 8298 8300 0
-8300 8298 8299 0
8301 -14 -22 -57 -84 0
-8301 14 0
-8301 22 0
-8301 57 0
-8301 84 0
8302 -14 -22 -63 -75 0
-8302 14 0
-8302 22 0
-8302 63 0
-8302 75 0
8303 -14 -22 -66 -72 0
-8303 14 0
-8303 22 0
-8303 66 0
-8303 72 0
-8301 8302 8303 0
-8302 8301 8303 0
-8303 8301 8302 0
8304 -14 -24 -55 -82 0
-8304 14 0
-8304 24 0
-8304 55 0
-8304 82 0
8305 -14 -24 -61 -73 0
-8305 14 0
-8305 24 0
-8305 61 0
-8305 73 0
8306 -14 -24 -64 -70 0
-8306 14 0
-8306 24 0
-8306 64 0
-8306 70 0
-8304 8305 8306 0
-8305 8304 8306 0
-8306 8304 8305 0
8307 -14 -24 -55 -83 0
-8307 14 0
-8307 24 0
-8307 55 0
-8307 83 0
8308 -17 -24 -55 -80 0
-8308 17 0
-8308 24 0
-8308 55 0
-8308 80 0
8309 -20 -24 -55 -77 0
-8309 20 0
-8309 24 0
-8309 55 0
-8309 77 0
-8307 8308 8309 0
-8308 8307 8309 0
-8309 8307 8308 0
8310 -14 -24 -55 -84 0
-8310 14 0
-8310 24 0
-8310 55 0
-8310 84 0
8311 -14 -36 -54 -55 0
-8311 14 0
-8311 36 0
-8311 54 0
-8311 55 0
8312 -14 -39 -51 -55 0
-8312 14 0
-8312 39 0
-8312 51 0
-8312 55 0
-8310 8311 8312 0
-8311 8310 8312 0
-8312 8310 8311 0
8313 -14 -24 -57 -82 0
-8313 14 0
-8313 24 0
-8313 57 0
-8313 82 0
8314 -14 -27 -45 -82 0
-8314 14 0
-8314 27 0
-8314 45 0
-8314 82 0
8315 -14 -30 -42 -82 0
-8315 14 0
-8315 30 0
-8315 42 0
-8315 82 0
-8313 8314 8315 0
-8314 8313 8315 0
-8315 8313 8314 0
8316 -14 -24 -57 -83 0
-8316 14 0
-8316 24 0
-8316 57 0
-8316 83 0
8317 -14 -27 -45 -83 0
-8317 14 0
-8317 27 0
-8317 45 0
-8317 83 0
8318 -14 -30 -42 -83 0
-8318 14 0
-8318 30 0
-8318 42 0
-8318 83 0
8319 -17 -24 -57 -80 0
-8319 17 0
-8319 24 0
-8319 57 0
-8319 80 0
8320 -17 -27 -45 -80 0
-8320 17 0
-8320 27 0
-8320 45 0
-8320 80 0
8321 -17 -30 -42 -80 0
-8321 17 0
-8321 30 0
-8321 42 0
-8321 80 0
8322 -20 -24 -57 -77 0
-8322 20 0
-8322 24 0
-8322 57 0
-8322 77 0
8323 -20 -27 -45 -77 0
-8323 20 0
-8323 27 0
-8323 45 0
-8323 77 0
8324 -20 -30 -42 -77 0
-8324 20 0
-8324 30 0
-8324 42 0
-8324 77 0
-8316 8317 8318 8319 8320 8321 8322 8323 8324 0
-8317 8316 8318 8319 8320 8321 8322 8323 8324 0
-8318 8316 8317 8319 8320 8321 8322 8323 8324 0
-8319 8316 8317 8318 8320 8321 8322 8323 8324 0
-8320 8316 8317 8318 8319 8321 8322 8323 8324 0
-8321 8316 8317 8318 8319 8320 8322 8323 8324 0
-8322 8316 8317 8318 8319 8320 8321 8323 8324 0
-8323 8316 8317 8318 8319 8320 8321 8322 8324 0
-8324 8316 8317 8318 8319 8320 8321 8322 8323 0
8325 -14 -24 -57 -84 0
-8325 14 0
-8325 24 0
-8325 57 0
-8325 84 0
8326 -14 -24 -63 -75 0
-8326 14 0
-8326 24 0
-8326 63 0
-8326 75 0
8327 -14 -24 -66 -72 0
-8327 14 0
-8327 24 0
-8327 66 0
-8327 72 0
8328 -14 -27 -45 -84 0
-8328 14 0
-8328 27 0
-8328 45 0
-8328 84 0
8329 -14 -27 -51 -75 0
-8329 14 0
-8329 27 0
-8329 51 0
-8329 75 0
8330 -14 -27 -54 -72 0
-8330 14 0
-8330 27 0
-8330 54 0
-8330 72 0
8331 -14 -30 -42 -84 0
-8331 14 0
-8331 30 0
-8331 42 0
-8331 84 0
8332 -14 -30 -51 -66 0
-8332 14 0
-8332 30 0
-8332 51 0
-8332 66 0
8333 -14 -30 -54 -63 0
-8333 14 0
-8333 30 0
-8333 54 0
-8333 63 0
8334 -14 -36 -42 -75 0
-8334 14 0
-8334 36 0
-8334 42 0
-8334 75 0
8335 -14 -36 -45 -66 0
-8335 14 0
-8335 36 0
-8335 45 0
-8335 66 0
8336 -14 -36 -54 -57 0
-8336 14 0
-8336 36 0
-8336 54 0
-8336 57 0
8337 -14 -39 -42 -72 0
-8337 14 0
-8337 39 0
-8337 42 0
-8337 72 0
8338 -14 -39 -45 -63 0
-8338 14 0
-8338 39 0
-8338 45 0
-8338 63 0
8339 -14 -39 -51 -57 0
-8339 14 0
-8339 39 0
-8339 51 0
-8339 57 0
-8325 8326 8327 8328 8329 8330 8331 8332 8333 8334 8335 8336 8337 8338 8339 0
-8326 8325 8327 8328 8329 8330 8331 8332 8333 8334 8335 8336 8337 8338 8339 0
-8327 8325 8326 8328 8329 8330 8331 8332 8333 8334 8335 8336 8337 8338 8339 0
-8328 8325 8326 8327 8329 8330 8331 8332 8333 8334 8335 8336 8337 8338 8339 0
-8329 8325 8326 8327 8328 8330 8331 8332 8333 8334 8335 8336 8337 8338 8339 0
-8330 8325 8326 8327 8328 8329 8331 8332 8333 8334 8335 8336 8337 8338 8339 0
-8331 8325 8326 8327 8328 8329 8330 8332 8333 8334 8335 8336 8337 8338 8339 0
-8332 8325 8326 8327 8328 8329 8330 8331 8333 8334 8335 8336 8337 8338 8339 0
-8333 8325 8326 8327 8328 8329 8330 8331 8332 8334 8335 8336 8337 8338 8339 0
-8334 8325 8326 8327 8328 8329 8330 8331 8332 8333 8335 8336 8337 8338 8339 0
-8335 8325 8326 8327 8328 8329 8330 8331 8332 8333 8334 8336 8337 8338 8339 0
-8336 8325 8326 8327 8328 8329 8330 8331 8332 8333 8334 8335 8337 8338 8339 0
-8337 8325 8326 8327 8328 8329 8330 8331 8332 8333 8334 8335 8336 8338 8339 0
-8338 8325 8326 8327 8328 8329 8330 8331 8332 8333 8334 8335 8336 8337 8339 0
-8339 8325 8326 8327 8328 8329 8330 8331 8332 8333 8334 8335 8336 8337 8338 0
8340 -15 -22 -55 -82 0
-8340 15 0
-8340 22 0
-8340 55 0
-8340 82 0
8341 -15 -22 -61 -73 0
-8341 15 0
-8341 22 0
-8341 61 0
-8341 73 0
8342 -15 -22 -64 -70 0
-8342 15 0
-8342 22 0
-8342 64 0
-8342 70 0
8343 -15 -25 -43 -82 0
-8343 15 0
-8343 25 0
-8343 43 0
-8343 82 0
8344 -15 -25 -49 -73 0
-8344 15 0
-8344 25 0
-8344 49 0
-8344 73 0
8345 -15 -25 -52 -70 0
-8345 15 0
-8345 25 0
-8345 52 0
-8345 70 0
8346 -15 -28 -40 -82 0
-8346 15 0
-8346 28 0
-8346 40 0
-8346 82 0
8347 -15 -28 -49 -64 0
-8347 15 0
-8347 28 0
-8347 49 0
-8347 64 0
8348 -15 -28 -52 -61 0
-8348 15 0
-8348 28 0
-8348 52 0
-8348 61 0
8349 -15 -34 -40 -73 0
-8349 15 0
-8349 34 0
-8349 40 0
-8349 73 0
8350 -15 -34 -43 -64 0
-8350 15 0
-8350 34 0
-8350 43 0
-8350 64 0
8351 -15 -34 -52 -55 0
-8351 15 0
-8351 34 0
-8351 52 0
-8351 55 0
8352 -15 -37 -40 -70 0
-8352 15 0
-8352 37 0
-8352 40 0
-8352 70 0
8353 -15 -37 -43 -61 0
-8353 15 0
-8353 37 0
-8353 43 0
-8353 61 0
8354 -15 -37 -49 -55 0
-8354 15 0
-8354 37 0
-8354 49 0
-8354 55 0
-8340 8341 8342 8343 8344 8345 8346 8347 8348 8349 8350 8351 8352 8353 8354 0
-8341 8340 8342 8343 8344 8345 8346 8347 8348 8349 8350 8351 8352 8353 8354 0
-8342 8340 8341 8343 8344 8345 8346 8347 8348 8349 8350 8351 8352 8353 8354 0
-8343 8340 8341 8342 8344 8345 8346 8347 8348 8349 8350 8351 8352 8353 8354 0
-8344 8340 8341 8342 8343 8345 8346 8347 8348 8349 8350 8351 8352 8353 8354 0
-8345 8340 8341 8342 8343 8344 8346 8347 8348 8349 8350 8351 8352 8353 8354 0
-8346 8340 8341 8342 8343 8344 8345 8347 8348 8349 8350 8351 8352 8353 8354 0
-8347 8340 8341 8342 8343 8344 8345 8346 8348 8349 8350 8351 8352 8353 8354 0
-8348 8340 8341 8342 8343 8344 8345 8346 8347 8349 8350 8351 8352 8353 8354 0
-8349 8340 8341 8342 8343 8344 8345 8346 8347 8348 8350 8351 8352 8353 8354 0
-8350 8340 8341 8342 8343 8344 8345 8346 8347 8348 8349 8351 8352 8353 8354 0
-8351 8340 8341 8342 8343 8344 8345 8346 8347 8348 8349 8350 8352 8353 8354 0
-8352 8340 8341 8342 8343 8344 8345 8346 8347 8348 8349 8350 8351 8353 8354 0
-8353 8340 8341 8342 8343 8344 8345 8346 8347 8348 8349 8350 8351 8352 8354 0
-8354 8340 8341 8342 8343 8344 8345 8346 8347 8348 8349 8350 8351 8352 8353 0
8355 -15 -22 -55 -83 0
-8355 15 0
-8355 22 0
-8355 55 0
-8355 83 0
8356 -15 -25 -43 -83 0
-8356 15 0
-8356 25 0
-8356 43 0
-8356 83 0
8357 -15 -28 -40 -83 0
-8357 15 0
-8357 28 0
-8357 40 0
-8357 83 0
-8355 8356 8357 0
-8356 8355 8357 0
-8357 8355 8356 0
8358 -15 -22 -55 -84 0
-8358 15 0
-8358 22 0
-8358 55 0
-8358 84 0
8359 -15 -25 -43 -84 0
-8359 15 0
-8359 25 0
-8359 43 0
-8359 84 0
8360 -15 -28 -40 -84 0
-8360 15 0
-8360 28 0
-8360 40 0
-8360 84 0
8361 -18 -22 -55 -81 0
-8361 18 0
-8361 22 0
-8361 55 0
-8361 81 0
8362 -18 -25 -43 -81 0
-8362 18 0
-8362 25 0
-8362 43 0
-8362 81 0
8363 -18 -28 -40 -81 0
-8363 18 0
-8363 28 0
-8363 40 0
-8363 81 0
8364 -21 -22 -55 -78 0
-8364 21 0
-8364 22 0
-8364 55 0
-8364 78 0
8365 -21 -25 -43 -78 0
-8365 21 0
-8365 25 0
-8365 43 0
-8365 78 0
8366 -21 -28 -40 -78 0
-8366 21 0
-8366 28 0
-8366 40 0
-8366 78 0
-8358 8359 8360 8361 8362 8363 8364 8365 8366 0
-8359 8358 8360 8361 8362 8363 8364 8365 8366 0
-8360 8358 8359 8361 8362 8363 8364 8365 8366 0
-8361 8358 8359 8360 8362 8363 8364 8365 8366 0
-8362 8358 8359 8360 8361 8363 8364 8365 8366 0
-8363 8358 8359 8360 8361 8362 8364 8365 8366 0
-8364 8358 8359 8360 8361 8362 8363 8365 8366 0
-8365 8358 8359 8360 8361 8362 8363 8364 8366 0
-8366 8358 8359 8360 8361 8362 8363 8364 8365 0
8367 -15 -22 -56 -82 0
-8367 15 0
-8367 22 0
-8367 56 0
-8367 82 0
8368 -15 -34 -52 -56 0
-8368 15 0
-8368 34 0
-8368 52 0
-8368 56 0
8369 -15 -37 -49 -56 0
-8369 15 0
-8369 37 0
-8369 49 0
-8369 56 0
-8367 8368 8369 0
-8368 8367 8369 0
-8369 8367 8368 0
8370 -15 -22 -56 -83 0
-8370 15 0
-8370 22 0
-8370 56 0
-8370 83 0
8371 -15 -22 -62 -74 0
-8371 15 0
-8371 22 0
-8371 62 0
-8371 74 0
8372 -15 -22 -65 -71 0
-8372 15 0
-8372 22 0
-8372 65 0
-8372 71 0
-8370 8371 8372 0
-8371 8370 8372 0
-8372 8370 8371 0
8373 -15 -22 -56 -84 0
-8373 15 0
-8373 22 0
-8373 56 0
-8373 84 0
8374 -18 -22 -56 -81 0
-8374 18 0
-8374 22 0
-8374 56 0
-8374 81 0
8375 -21 -22 -56 -78 0
-8375 21 0
-8375 22 0
-8375 56 0
-8375 78 0
-8373 8374 8375 0
-8374 8373 8375 0
-8375 8373 8374 0
8376 -15 -23 -55 -82 0
-8376 15 0
-8376 23 0
-8376 55 0
-8376 82 0
8377 -15 -23 -61 -73 0
-8377 15 0
-8377 23 0
-8377 61 0
-8377 73 0
8378 -15 -23 -64 -70 0
-8378 15 0
-8378 23 0
-8378 64 0
-8378 70 0
-8376 8377 8378 0
-8377 8376 8378 0
-8378 8376 8377 0
8379 -15 -23 -55 -83 0
-8379 15 0
-8379 23 0
-8379 55 0
-8379 83 0
8380 -15 -35 -53 -55 0
-8380 15 0
-8380 35 0
-8380 53 0
-8380 55 0
8381 -15 -38 -50 -55 0
-8381 15 0
-8381 38 0
-8381 50 0
-8381 55 0
-8379 8380 8381 0
-8380 8379 8381 0
-8381 8379 8380 0
8382 -15 -23 -55 -84 0
-8382 15 0
-8382 23 0
-8382 55 0
-8382 84 0
8383 -18 -23 -55 -81 0
-8383 18 0
-8383 23 0
-8383 55 0
-8383 81 0
8384 -21 -23 -55 -78 0
-8384 21 0
-8384 23 0
-8384 55 0
-8384 78 0
-8382 8383 8384 0
-8383 8382 8384 0
-8384 8382 8383 0
8385 -15 -23 -56 -82 0
-8385 15 0
-8385 23 0
-8385 56 0
-8385 82 0
8386 -15 -26 -44 -82 0
-8386 15 0
-8386 26 0
-8386 44 0
-8386 82 0
8387 -15 -29 -41 -82 0
-8387 15 0
-8387 29 0
-8387 41 0
-8387 82 0
-8385 8386 8387 0
-8386 8385 8387 0
-8387 8385 8386 0
8388 -15 -23 -56 -83 0
-8388 15 0
-8388 23 0
-8388 56 0
-8388 83 0
8389 -15 -23 -62 -74 0
-8389 15 0
-8389 23 0
-8389 62 0
-8389 74 0
8390 -15 -23 -65 -71 0
-8390 15 0
-8390 23 0
-8390 65 0
-8390 71 0
8391 -15 -26 -44 -83 0
-8391 15 0
-8391 26 0
-8391 44 0
-8391 83 0
8392 -15 -26 -50 -74 0
-8392 15 0
-8392 26 0
-8392 50 0
-8392 74 0
8393 -15 -26 -53 -71 0
-8393 15 0
-8393 26 0
-8393 53 0
-8393 71 0
8394 -15 -29 -41 -83 0
-8394 15 0
-8394 29 0
-8394 41 0
-8394 83 0
8395 -15 -29 -50 -65 0
-8395 15 0
-8395 29 0
-8395 50 0
-8395 65 0
8396 -15 -29 -53 -62 0
-8396 15 0
-8396 29 0
-8396 53 0
-8396 62 0
8397 -15 -35 -41 -74 0
-8397 15 0
-8397 35 0
-8397 41 0
-8397 74 0
8398 -15 -35 -44 -65 0
-8398 15 0
-8398 35 0
-8398 44 0
-8398 65 0
8399 -15 -35 -53 -56 0
-8399 15 0
-8399 35 0
-8399 53 0
-8399 56 0
8400 -15 -38 -41 -71 0
-8400 15 0
-8400 38 0
-8400 41 0
-8400 71 0
8401 -15 -38 -44 -62 0
-8401 15 0
-8401 38 0
-8401 44 0
-8401 62 0
8402 -15 -38 -50 -56 0
-8402 15 0
-8402 38 0
-8402 50 0
-8402 56 0
-8388 8389 8390 8391 8392 8393 8394 8395 8396 8397 8398 8399 8400 8401 8402 0
-8389 8388 8390 8391 8392 8393 8394 8395 8396 8397 8398 8399 8400 8401 8402 0
-8390 8388 8389 8391 8392 8393 8394 8395 8396 8397 8398 8399 8400 8401 8402 0
-8391 8388 8389 8390 8392 8393 8394 8395 8396 8397 8398 8399 8400 8401 8402 0
-8392 8388 8389 8390 8391 8393 8394 8395 8396 8397 8398 8399 8400 8401 8402 0
-8393 8388 8389 8390 8391 8392 8394 8395 8396 8397 8398 8399 8400 8401 8402 0
-8394 8388 8389 8390 8391 8392 8393 8395 8396 8397 8398 8399 8400 8401 8402 0
-8395 8388 8389 8390 8391 8392 8393 8394 8396 8397 8398 8399 8400 8401 8402 0
-8396 8388 8389 8390 8391 8392 8393 8394 8395 8397 8398 8399 8400 8401 8402 0
-8397 8388 8389 8390 8391 8392 8393 8394 8395 8396 8398 8399 8400 8401 8402 0
-8398 8388 8389 8390 8391 8392 8393 8394 8395 8396 8397 8399 8400 8401 8402 0
-8399 8388 8389 8390 8391 8392 8393 8394 8395 8396 8397 8398 8400 8401 8402 0
-8400 8388 8389 8390 8391 8392 8393 8394 8395 8396 8397 8398 8399 8401 8402 0
-8401 8388 8389 8390 8391 8392 8393 8394 8395 8396 8397 8398 8399 8400 8402 0
-8402 8388 8389 8390 8391 8392 8393 8394 8395 8396 8397 8398 8399 8400 8401 0
8403 -15 -23 -56 -84 0
-8403 15 0
-8403 23 0
-8403 56 0
-8403 84 0
8404 -15 -26 -44 -84 0
-8404 15 0
-8404 26 0
-8404 44 0
-8404 84 0
8405 -15 -29 -41 -84 0
-8405 15 0
-8405 29 0
-8405 41 0
-8405 84 0
8406 -18 -23 -56 -81 0
-8406 18 0
-8406 23 0
-8406 56 0
-8406 81 0
8407 -18 -26 -44 -81 0
-8407 18 0
-8407 26 0
-8407 44 0
-8407 81 0
8408 -18 -29 -41 -81 0
-8408 18 0
-8408 29 0
-8408 41 0
-8408 81 0
8409 -21 -23 -56 -78 0
-8409 21 0
-8409 23 0
-8409 56 0
-8409 78 0
8410 -21 -26 -44 -78 0
-8410 21 0
-8410 26 0
-8410 44 0
-8410 78 0
8411 -21 -29 -41 -78 0
-8411 21 0
-8411 29 0
-8411 41 0
-8411 78 0
-8403 8404 8405 8406 8407 8408 8409 8410 8411 0
-8404 8403 8405 8406 8407 8408 8409 8410 8411 0
-8405 8403 8404 8406 8407 8408 8409 8410 8411 0
-8406 8403 8404 8405 8407 8408 8409 8410 8411 0
-8407 8403 8404 8405 8406 8408 8409 8410 8411 0
-8408 8403 8404 8405 8406 8407 8409 8410 8411 0
-8409 8403 8404 8405 8406 8407 8408 8410 8411 0
-8410 8403 8404 8405 8406 8407 8408 8409 8411 0
-8411 8403 8404 8405 8406 8407 8408 8409 8410 0
8412 -13 -23 -62 -75 0
-8412 13 0
-8412 23 0
-8412 62 0
-8412 75 0
8413 -13 -26 -50 -75 0
-8413 13 0
-8413 26 0
-8413 50 0
-8413 75 0
8414 -13 -35 -41 -75 0
-8414 13 0
-8414 35 0
-8414 41 0
-8414 75 0
-8412 8413 8414 0
-8413 8412 8414 0
-8414 8412 8413 0
8415 -13 -23 -63 -74 0
-8415 13 0
-8415 23 0
-8415 63 0
-8415 74 0
8416 -13 -29 -53 -63 0
-8416 13 0
-8416 29 0
-8416 53 0
-8416 63 0
8417 -13 -38 -44 -63 0
-8417 13 0
-8417 38 0
-8417 44 0
-8417 63 0
-8415 8416 8417 0
-8416 8415 8417 0
-8417 8415 8416 0
8418 -13 -24 -62 -75 0
-8418 13 0
-8418 24 0
-8418 62 0
-8418 75 0
8419 -13 -30 -54 -62 0
-8419 13 0
-8419 30 0
-8419 54 0
-8419 62 0
8420 -13 -39 -45 -62 0
-8420 13 0
-8420 39 0
-8420 45 0
-8420 62 0
-8418 8419 8420 0
-8419 8418 8420 0
-8420 8418 8419 0
8421 -13 -24 -63 -74 0
-8421 13 0
-8421 24 0
-8421 63 0
-8421 74 0
8422 -13 -27 -51 -74 0
-8422 13 0
-8422 27 0
-8422 51 0
-8422 74 0
8423 -13 -36 -42 -74 0
-8423 13 0
-8423 36 0
-8423 42 0
-8423 74 0
-8421 8422 8423 0
-8422 8421 8423 0
-8423 8421 8422 0
8424 -14 -22 -61 -75 0
-8424 14 0
-8424 22 0
-8424 61 0
-8424 75 0
8425 -14 -25 -49 -75 0
-8425 14 0
-8425 25 0
-8425 49 0
-8425 75 0
8426 -14 -34 -40 -75 0
-8426 14 0
-8426 34 0
-8426 40 0
-8426 75 0
-8424 8425 8426 0
-8425 8424 8426 0
-8426 8424 8425 0
8427 -14 -22 -63 -73 0
-8427 14 0
-8427 22 0
-8427 63 0
-8427 73 0
8428 -14 -28 -52 -63 0
-8428 14 0
-8428 28 0
-8428 52 0
-8428 63 0
8429 -14 -37 -43 -63 0
-8429 14 0
-8429 37 0
-8429 43 0
-8429 63 0
-8427 8428 8429 0
-8428 8427 8429 0
-8429 8427 8428 0
8430 -14 -24 -61 -75 0
-8430 14 0
-8430 24 0
-8430 61 0
-8430 75 0
8431 -14 -30 -54 -61 0
-8431 14 0
-8431 30 0
-8431 54 0
-8431 61 0
8432 -14 -39 -45 -61 0
-8432 14 0
-8432 39 0
-8432 45 0
-8432 61 0
-8430 8431 8432 0
-8431 8430 8432 0
-8432 8430 8431 0
8433 -14 -24 -63 -73 0
-8433 14 0
-8433 24 0
-8433 63 0
-8433 73 0
8434 -14 -27 -51 -73 0
-8434 14 0
-8434 27 0
-8434 51 0
-8434 73 0
8435 -14 -36 -42 -73 0
-8435 14 0
-8435 36 0
-8435 42 0
-8435 73 0
-8433 8434 8435 0
-8434 8433 8435 0
-8435 8433 8434 0
8436 -15 -22 -61 -74 0
-8436 15 0
-8436 22 0
-8436 61 0
-8436 74 0
8437 -15 -25 -49 -74 0
-8437 15 0
-8437 25 0
-8437 49 0
-8437 74 0
8438 -15 -34 -40 -74 0
-8438 15 0
-8438 34 0
-8438 40 0
-8438 74 0
-8436 8437 8438 0
-8437 8436 8438 0
-8438 8436 8437 0
8439 -15 -22 -62 -73 0
-8439 15 0
-8439 22 0
-8439 62 0
-8439 73 0
8440 -15 -28 -52 -62 0
-8440 15 0
-8440 28 0
-8440 52 0
-8440 62 0
8441 -15 -37 -43 -62 0
-8441 15 0
-8441 37 0
-8441 43 0
-8441 62 0
-8439 8440 8441 0
-8440 8439 8441 0
-8441 8439 8440 0
8442 -15 -23 -61 -74 0
-8442 15 0
-8442 23 0
-8442 61 0
-8442 74 0
8443 -15 -29 -53 -61 0
-8443 15 0
-8443 29 0
-8443 53 0
-8443 61 0
8444 -15 -38 -44 -61 0
-8444 15 0
-8444 38 0
-8444 44 0
-8444 61 0
-8442 8443 8444 0
-8443 8442 8444 0
-8444 8442 8443 0
8445 -15 -23 -62 -73 0
-8445 15 0
-8445 23 0
-8445 62 0
-8445 73 0
8446 -15 -26 -50 -73 0
-8446 15 0
-8446 26 0
-8446 50 0
-8446 73 0
8447 -15 -35 -41 -73 0
-8447 15 0
-8447 35 0
-8447 41 0
-8447 73 0
-8445 8446 8447 0
-8446 8445 8447 0
-8447 8445 8446 0
8448 -13 -23 -65 -72 0
-8448 13 0
-8448 23 0
-8448 65 0
-8448 72 0
8449 -13 -26 -53 -72 0
-8449 13 0
-8449 26 0
-8449 53 0
-8449 72 0
8450 -13 -38 -41 -72 0
-8450 13 0
-8450 38 0
-8450 41 0
-8450 72 0
-8448 8449 8450 0
-8449 8448 8450 0
-8450 8448 8449 0
8451 -13 -23 -66 -71 0
-8451 13 0
-8451 23 0
-8451 66 0
-8451 71 0
8452 -13 -29 -50 -66 0
-8452 13 0
-8452 29 0
-8452 50 0
-8452 66 0
8453 -13 -35 -44 -66 0
-8453 13 0
-8453 35 0
-8453 44 0
-8453 66 0
-8451 8452 8453 0
-8452 8451 8453 0
-8453 8451 8452 0
8454 -13 -24 -65 -72 0
-8454 13 0
-8454 24 0
-8454 65 0
-8454 72 0
8455 -13 -30 -51 -65 0
-8455 13 0
-8455 30 0
-8455 51 0
-8455 65 0
8456 -13 -36 -45 -65 0
-8456 13 0
-8456 36 0
-8456 45 0
-8456 65 0
-8454 8455 8456 0
-8455 8454 8456 0
-8456 8454 8455 0
8457 -13 -24 -66 -71 0
-8457 13 0
-8457 24 0
-8457 66 0
-8457 71 0
8458 -13 -27 -54 -71 0
-8458 13 0
-8458 27 0
-8458 54 0
-8458 71 0
8459 -13 -39 -42 -71 0
-8459 13 0
-8459 39 0
-8459 42 0
-8459 71 0
-8457 8458 8459 0
-8458 8457 8459 0
-8459 8457 8458 0
8460 -14 -22 -64 -72 0
-8460 14 0
-8460 22 0
-8460 64 0
-8460 72 0
8461 -14 -25 -52 -72 0
-8461 14 0
-8461 25 0
-8461 52 0
-8461 72 0
8462 -14 -37 -40 -72 0
-8462 14 0
-8462 37 0
-8462 40 0
-8462 72 0
-8460 8461 8462 0
-8461 8460 8462 0
-8462 8460 8461 0
8463 -14 -22 -66 -70 0
-8463 14 0
-8463 22 0
-8463 66 0
-8463 70 0
8464 -14 -28 -49 -66 0
-8464 14 0
-8464 28 0
-8464 49 0
-8464 66 0
8465 -14 -34 -43 -66 0
-8465 14 0
-8465 34 0
-8465 43 0
-8465 66 0
-8463 8464 8465 0
-8464 8463 8465 0
-8465 8463 8464 0
8466 -14 -24 -64 -72 0
-8466 14 0
-8466 24 0
-8466 64 0
-8466 72 0
8467 -14 -30 -51 -64 0
-8467 14 0
-8467 30 0
-8467 51 0
-8467 64 0
8468 -14 -36 -45 -64 0
-8468 14 0
-8468 36 0
-8468 45 0
-8468 64 0
-8466 8467 8468 0
-8467 8466 8468 0
-8468 8466 8467 0
8469 -14 -24 -66 -70 0
-8469 14 0
-8469 24 0
-8469 66 0
-8469 70 0
8470 -14 -27 -54 -70 0
-8470 14 0
-8470 27 0
-8470 54 0
-8470 70 0
8471 -14 -39 -42 -70 0
-8471 14 0
-8471 39 0
-8471 42 0
-8471 70 0
-8469 8470 8471 0
-8470 8469 8471 0
-8471 8469 8470 0
8472 -15 -22 -64 -71 0
-8472 15 0
-8472 22 0
-8472 64 0
-8472 71 0
8473 -15 -25 -52 -71 0
-8473 15 0
-8473 25 0
-8473 52 0
-8473 71 0
8474 -15 -37 -40 -71 0
-8474 15 0
-8474 37 0
-8474 40 0
-8474 71 0
-8472 8473 8474 0
-8473 8472 8474 0
-8474 8472 8473 0
8475 -15 -22 -65 -70 0
-8475 15 0
-8475 22 0
-8475 65 0
-8475 70 0
8476 -15 -28 -49 -65 0
-8476 15 0
-8476 28 0
-8476 49 0
-8476 65 0
8477 -15 -34 -43 -65 0
-8477 15 0
-8477 34 0
-8477 43 0
-8477 65 0
-8475 8476 8477 0
-8476 8475 8477 0
-8477 8475 8476 0
8478 -15 -23 -64 -71 0
-8478 15 0
-8478 23 0
-8478 64 0
-8478 71 0
8479 -15 -29 -50 -64 0
-8479 15 0
-8479 29 0
-8479 50 0
-8479 64 0
8480 -15 -35 -44 -64 0
-8480 15 0
-8480 35 0
-8480 44 0
-8480 64 0
-8478 8479 8480 0
-8479 8478 8480 0
-8480 8478 8479 0
8481 -15 -23 -65 -70 0
-8481 15 0
-8481 23 0
-8481 65 0
-8481 70 0
8482 -15 -26 -53 -70 0
-8482 15 0
-8482 26 0
-8482 53 0
-8482 70 0
8483 -15 -38 -41 -70 0
-8483 15 0
-8483 38 0
-8483 41 0
-8483 70 0
-8481 8482 8483 0
-8482 8481 8483 0
-8483 8481 8482 0
8484 -13 -26 -45 -82 0
-8484 13 0
-8484 26 0
-8484 45 0
-8484 82 0
8485 -16 -26 -45 -79 0
-8485 16 0
-8485 26 0
-8485 45 0
-8485 79 0
8486 -19 -26 -45 -76 0
-8486 19 0
-8486 26 0
-8486 45 0
-8486 76 0
-8484 8485 8486 0
-8485 8484 8486 0
-8486 8484 8485 0
8487 -13 -26 -45 -83 0
-8487 13 0
-8487 26 0
-8487 45 0
-8487 83 0
8488 -13 -35 -45 -65 0
-8488 13 0
-8488 35 0
-8488 45 0
-8488 65 0
8489 -13 -38 -45 -62 0
-8489 13 0
-8489 38 0
-8489 45 0
-8489 62 0
-8487 8488 8489 0
-8488 8487 8489 0
-8489 8487 8488 0
8490 -13 -26 -45 -84 0
-8490 13 0
-8490 26 0
-8490 45 0
-8490 84 0
8491 -13 -26 -51 -75 0
-8491 13 0
-8491 26 0
-8491 51 0
-8491 75 0
8492 -13 -26 -54 -72 0
-8492 13 0
-8492 26 0
-8492 54 0
-8492 72 0
-8490 8491 8492 0
-8491 8490 8492 0
-8492 8490 8491 0
8493 -13 -27 -44 -82 0
-8493 13 0
-8493 27 0
-8493 44 0
-8493 82 0
8494 -16 -27 -44 -79 0
-8494 16 0
-8494 27 0
-8494 44 0
-8494 79 0
8495 -19 -27 -44 -76 0
-8495 19 0
-8495 27 0
-8495 44 0
-8495 76 0
-8493 8494 8495 0
-8494 8493 8495 0
-8495 8493 8494 0
8496 -13 -27 -44 -83 0
-8496 13 0
-8496 27 0
-8496 44 0
-8496 83 0
8497 -13 -27 -50 -74 0
-8497 13 0
-8497 27 0
-8497 50 0
-8497 74 0
8498 -13 -27 -53 -71 0
-8498 13 0
-8498 27 0
-8498 53 0
-8498 71 0
-8496 8497 8498 0
-8497 8496 8498 0
-8498 8496 8497 0
8499 -13 -27 -44 -84 0
-8499 13 0
-8499 27 0
-8499 44 0
-8499 84 0
8500 -13 -36 -44 -66 0
-8500 13 0
-8500 36 0
-8500 44 0
-8500 66 0
8501 -13 -39 -44 -63 0
-8501 13 0
-8501 39 0
-8501 44 0
-8501 63 0
-8499 8500 8501 0
-8500 8499 8501 0
-8501 8499 8500 0
8502 -14 -25 -45 -82 0
-8502 14 0
-8502 25 0
-8502 45 0
-8502 82 0
8503 -14 -34 -45 -64 0
-8503 14 0
-8503 34 0
-8503 45 0
-8503 64 0
8504 -14 -37 -45 -61 0
-8504 14 0
-8504 37 0
-8504 45 0
-8504 61 0
-8502 8503 8504 0
-8503 8502 8504 0
-8504 8502 8503 0
8505 -14 -25 -45 -83 0
-8505 14 0
-8505 25 0
-8505 45 0
-8505 83 0
8506 -17 -25 -45 -80 0
-8506 17 0
-8506 25 0
-8506 45 0
-8506 80 0
8507 -20 -25 -45 -77 0
-8507 20 0
-8507 25 0
-8507 45 0
-8507 77 0
-8505 8506 8507 0
-8506 8505 8507 0
-8507 8505 8506 0
8508 -14 -25 -45 -84 0
-8508 14 0
-8508 25 0
-8508 45 0
-8508 84 0
8509 -14 -25 -51 -75 0
-8509 14 0
-8509 25 0
-8509 51 0
-8509 75 0
8510 -14 -25 -54 -72 0
-8510 14 0
-8510 25 0
-8510 54 0
-8510 72 0
-8508 8509 8510 0
-8509 8508 8510 0
-8510 8508 8509 0
8511 -14 -27 -43 -82 0
-8511 14 0
-8511 27 0
-8511 43 0
-8511 82 0
8512 -14 -27 -49 -73 0
-8512 14 0
-8512 27 0
-8512 49 0
-8512 73 0
8513 -14 -27 -52 -70 0
-8513 14 0
-8513 27 0
-8513 52 0
-8513 70 0
-8511 8512 8513 0
-8512 8511 8513 0
-8513 8511 8512 0
8514 -14 -27 -43 -83 0
-8514 14 0
-8514 27 0
-8514 43 0
-8514 83 0
8515 -17 -27 -43 -80 0
-8515 17 0
-8515 27 0
-8515 43 0
-8515 80 0
8516 -20 -27 -43 -77 0
-8516 20 0
-8516 27 0
-8516 43 0
-8516 77 0
-8514 8515 8516 0
-8515 8514 8516 0
-8516 8514 8515 0
8517 -14 -27 -43 -84 0
-8517 14 0
-8517 27 0
-8517 43 0
-8517 84 0
8518 -14 -36 -43 -66 0
-8518 14 0
-8518 36 0
-8518 43 0
-8518 66 0
8519 -14 -39 -43 -63 0
-8519 14 0
-8519 39 0
-8519 43 0
-8519 63 0
-8517 8518 8519 0
-8518 8517 8519 0
-8519 8517 8518 0
8520 -15 -25 -44 -82 0
-8520 15 0
-8520 25 0
-8520 44 0
-8520 82 0
8521 -15 -34 -44 -64 0
-8521 15 0
-8521 34 0
-8521 44 0
-8521 64 0
8522 -15 -37 -44 -61 0
-8522 15 0
-8522 37 0
-8522 44 0
-8522 61 0
-8520 8521 8522 0
-8521 8520 8522 0
-8522 8520 8521 0
8523 -15 -25 -44 -83 0
-8523 15 0
-8523 25 0
-8523 44 0
-8523 83 0
8524 -15 -25 -50 -74 0
-8524 15 0
-8524 25 0
-8524 50 0
-8524 74 0
8525 -15 -25 -53 -71 0
-8525 15 0
-8525 25 0
-8525 53 0
-8525 71 0
-8523 8524 8525 0
-8524 8523 8525 0
-8525 8523 8524 0
8526 -15 -25 -44 -84 0
-8526 15 0
-8526 25 0
-8526 44 0
-8526 84 0
8527 -18 -25 -44 -81 0
-8527 18 0
-8527 25 0
-8527 44 0
-8527 81 0
8528 -21 -25 -44 -78 0
-8528 21 0
-8528 25 0
-8528 44 0
-8528 78 0
-8526 8527 8528 0
-8527 8526 8528 0
-8528 8526 8527 0
8529 -15 -26 -43 -82 0
-8529 15 0
-8529 26 0
-8529 43 0
-8529 82 0
8530 -15 -26 -49 -73 0
-8530 15 0
-8530 26 0
-8530 49 0
-8530 73 0
8531 -15 -26 -52 -70 0
-8531 15 0
-8531 26 0
-8531 52 0
-8531 70 0
-8529 8530 8531 0
-8530 8529 8531 0
-8531 8529 8530 0
8532 -15 -26 -43 -83 0
-8532 15 0
-8532 26 0
-8532 43 0
-8532 83 0
8533 -15 -35 -43 -65 0
-8533 15 0
-8533 35 0
-8533 43 0
-8533 65 0
8534 -15 -38 -43 -62 0
-8534 15 0
-8534 38 0
-8534 43 0
-8534 62 0
-8532 8533 8534 0
-8533 8532 8534 0
-8534 8532 8533 0
8535 -15 -26 -43 -84 0
-8535 15 0
-8535 26 0
-8535 43 0
-8535 84 0
8536 -18 -26 -43 -81 0
-8536 18 0
-8536 26 0
-8536 43 0
-8536 81 0
8537 -21 -26 -43 -78 0
-8537 21 0
-8537 26 0
-8537 43 0
-8537 78 0
-8535 8536 8537 0
-8536 8535 8537 0
-8537 8535 8536 0
8538 -13 -26 -51 -74 0
-8538 13 0
-8538 26 0
-8538 51 0
-8538 74 0
8539 -13 -29 -51 -65 0
-8539 13 0
-8539 29 0
-8539 51 0
-8539 65 0
8540 -13 -38 -51 -56 0
-8540 13 0
-8540 38 0
-8540 51 0
-8540 56 0
-8538 8539 8540 0
-8539 8538 8540 0
-8540 8538 8539 0
8541 -13 -27 -50 -75 0
-8541 13 0
-8541 27 0
-8541 50 0
-8541 75 0
8542 -13 -30 -50 -66 0
-8542 13 0
-8542 30 0
-8542 50 0
-8542 66 0
8543 -13 -39 -50 -57 0
-8543 13 0
-8543 39 0
-8543 50 0
-8543 57 0
-8541 8542 8543 0
-8542 8541 8543 0
-8543 8541 8542 0
8544 -14 -25 -51 -73 0
-8544 14 0
-8544 25 0
-8544 51 0
-8544 73 0
8545 -14 -28 -51 -64 0
-8545 14 0
-8545 28 0
-8545 51 0
-8545 64 0
8546 -14 -37 -51 -55 0
-8546 14 0
-8546 37 0
-8546 51 0
-8546 55 0
-8544 8545 8546 0
-8545 8544 8546 0
-8546 8544 8545 0
8547 -14 -27 -49 -75 0
-8547 14 0
-8547 27 0
-8547 49 0
-8547 75 0
8548 -14 -30 -49 -66 0
-8548 14 0
-8548 30 0
-8548 49 0
-8548 66 0
8549 -14 -39 -49 -57 0
-8549 14 0
-8549 39 0
-8549 49 0
-8549 57 0
-8547 8548 8549 0
-8548 8547 8549 0
-8549 8547 8548 0
8550 -15 -25 -50 -73 0
-8550 15 0
-8550 25 0
-8550 50 0
-8550 73 0
8551 -15 -28 -50 -64 0
-8551 15 0
-8551 28 0
-8551 50 0
-8551 64 0
8552 -15 -37 -50 -55 0
-8552 15 0
-8552 37 0
-8552 50 0
-8552 55 0
-8550 8551 8552 0
-8551 8550 8552 0
-8552 8550 8551 0
8553 -15 -26 -49 -74 0
-8553 15 0
-8553 26 0
-8553 49 0
-8553 74 0
8554 -15 -29 -49 -65 0
-8554 15 0
-8554 29 0
-8554 49 0
-8554 65 0
8555 -15 -38 -49 -56 0
-8555 15 0
-8555 38 0
-8555 49 0
-8555 56 0
-8553 8554 8555 0
-8554 8553 8555 0
-8555 8553 8554 0
8556 -13 -26 -54 -71 0
-8556 13 0
-8556 26 0
-8556 54 0
-8556 71 0
8557 -13 -29 -54 -62 0
-8557 13 0
-8557 29 0
-8557 54 0
-8557 62 0
8558 -13 -35 -54 -56 0
-8558 13 0
-8558 35 0
-8558 54 0
-8558 56 0
-8556 8557 8558 0
-8557 8556 8558 0
-8558 8556 8557 0
8559 -13 -27 -53 -72 0
-8559 13 0
-8559 27 0
-8559 53 0
-8559 72 0
8560 -13 -30 -53 -63 0
-8560 13 0
-8560 30 0
-8560 53 0
-8560 63 0
8561 -13 -36 -53 -57 0
-8561 13 0
-8561 36 0
-8561 53 0
-8561 57 0
-8559 8560 8561 0
-8560 8559 8561 0
-8561 8559 8560 0
8562 -14 -25 -54 -70 0
-8562 14 0
-8562 25 0
-8562 54 0
-8562 70 0
8563 -14 -28 -54 -61 0
-8563 14 0
-8563 28 0
-8563 54 0
-8563 61 0
8564 -14 -34 -54 -55 0
-8564 14 0
-8564 34 0
-8564 54 0
-8564 55 0
-8562 8563 8564 0
-8563 8562 8564 0
-8564 8562 8563 0
8565 -14 -27 -52 -72 0
-8565 14 0
-8565 27 0
-8565 52 0
-8565 72 0
8566 -14 -30 -52 -63 0
-8566 14 0
-8566 30 0
-8566 52 0
-8566 63 0
8567 -14 -36 -52 -57 0
-8567 14 0
-8567 36 0
-8567 52 0
-8567 57 0
-8565 8566 8567 0
-8566 8565 8567 0
-8567 8565 8566 0
8568 -15 -25 -53 -70 0
-8568 15 0
-8568 25 0
-8568 53 0
-8568 70 0
8569 -15 -28 -53 -61 0
-8569 15 0
-8569 28 0
-8569 53 0
-8569 61 0
8570 -15 -34 -53 -55 0
-8570 15 0
-8570 34 0
-8570 53 0
-8570 55 0
-8568 8569 8570 0
-8569 8568 8570 0
-8570 8568 8569 0
8571 -15 -26 -52 -71 0
-8571 15 0
-8571 26 0
-8571 52 0
-8571 71 0
8572 -15 -29 -52 -62 0
-8572 15 0
-8572 29 0
-8572 52 0
-8572 62 0
8573 -15 -35 -52 -56 0
-8573 15 0
-8573 35 0
-8573 52 0
-8573 56 0
-8571 8572 8573 0
-8572 8571 8573 0
-8573 8571 8572 0
8574 -13 -29 -42 -82 0
-8574 13 0
-8574 29 0
-8574 42 0
-8574 82 0
8575 -16 -29 -42 -79 0
-8575 16 0
-8575 29 0
-8575 42 0
-8575 79 0
8576 -19 -29 -42 -76 0
-8576 19 0
-8576 29 0
-8576 42 0
-8576 76 0
-8574 8575 8576 0
-8575 8574 8576 0
-8576 8574 8575 0
8577 -13 -29 -42 -83 0
-8577 13 0
-8577 29 0
-8577 42 0
-8577 83 0
8578 -13 -35 -42 -74 0
-8578 13 0
-8578 35 0
-8578 42 0
-8578 74 0
8579 -13 -38 -42 -71 0
-8579 13 0
-8579 38 0
-8579 42 0
-8579 71 0
-8577 8578 8579 0
-8578 8577 8579 0
-8579 8577 8578 0
8580 -13 -29 -42 -84 0
-8580 13 0
-8580 29 0
-8580 42 0
-8580 84 0
8581 -13 -29 -51 -66 0
-8581 13 0
-8581 29 0
-8581 51 0
-8581 66 0
8582 -13 -29 -54 -63 0
-8582 13 0
-8582 29 0
-8582 54 0
-8582 63 0
-8580 8581 8582 0
-8581 8580 8582 0
-8582 8580 8581 0
8583 -13 -30 -41 -82 0
-8583 13 0
-8583 30 0
-8583 41 0
-8583 82 0
8584 -16 -30 -41 -79 0
-8584 16 0
-8584 30 0
-8584 41 0
-8584 79 0
8585 -19 -30 -41 -76 0
-8585 19 0
-8585 30 0
-8585 41 0
-8585 76 0
-8583 8584 8585 0
-8584 8583 8585 0
-8585 8583 8584 0
8586 -13 -30 -41 -83 0
-8586 13 0
-8586 30 0
-8586 41 0
-8586 83 0
8587 -13 -30 -50 -65 0
-8587 13 0
-8587 30 0
-8587 50 0
-8587 65 0
8588 -13 -30 -53 -62 0
-8588 13 0
-8588 30 0
-8588 53 0
-8588 62 0
-8586 8587 8588 0
-8587 8586 8588 0
-8588 8586 8587 0
8589 -13 -30 -41 -84 0
-8589 13 0
-8589 30 0
-8589 41 0
-8589 84 0
8590 -13 -36 -41 -75 0
-8590 13 0
-8590 36 0
-8590 41 0
-8590 75 0
8591 -13 -39 -41 -72 0
-8591 13 0
-8591 39 0
-8591 41 0
-8591 72 0
-8589 8590 8591 0
-8590 8589 8591 0
-8591 8589 8590 0
8592 -14 -28 -42 -82 0
-8592 14 0
-8592 28 0
-8592 42 0
-8592 82 0
8593 -14 -34 -42 -73 0
-8593 14 0
-8593 34 0
-8593 42 0
-8593 73 0
8594 -14 -37 -42 -70 0
-8594 14 0
-8594 37 0
-8594 42 0
-8594 70 0
-8592 8593 8594 0
-8593 8592 8594 0
-8594 8592 8593 0
8595 -14 -28 -42 -83 0
-8595 14 0
-8595 28 0
-8595 42 0
-8595 83 0
8596 -17 -28 -42 -80 0
-8596 17 0
-8596 28 0
-8596 42 0
-8596 80 0
8597 -20 -28 -42 -77 0
-8597 20 0
-8597 28 0
-8597 42 0
-8597 77 0
-8595 8596 8597 0
-8596 8595 8597 0
-8597 8595 8596 0
8598 -14 -28 -42 -84 0
-8598 14 0
-8598 28 0
-8598 42 0
-8598 84 0
8599 -14 -28 -51 -66 0
-8599 14 0
-8599 28 0
-8599 51 0
-8599 66 0
8600 -14 -28 -54 -63 0
-8600 14 0
-8600 28 0
-8600 54 0
-8600 63 0
-8598 8599 8600 0
-8599 8598 8600 0
-8600 8598 8599 0
8601 -14 -30 -40 -82 0
-8601 14 0
-8601 30 0
-8601 40 0
-8601 82 0
8602 -14 -30 -49 -64 0
-8602 14 0
-8602 30 0
-8602 49 0
-8602 64 0
8603 -14 -30 -52 -61 0
-8603 14 0
-8603 30 0
-8603 52 0
-8603 61 0
-8601 8602 8603 0
-8602 8601 8603 0
-8603 8601 8602 0
8604 -14 -30 -40 -83 0
-8604 14 0
-8604 30 0
-8604 40 0
-8604 83 0
8605 -17 -30 -40 -80 0
-8605 17 0
-8605 30 0
-8605 40 0
-8605 80 0
8606 -20 -30 -40 -77 0
-8606 20 0
-8606 30 0
-8606 40 0
-8606 77 0
-8604 8605 8606 0
-8605 8604 8606 0
-8606 8604 8605 0
8607 -14 -30 -40 -84 0
-8607 14 0
-8607 30 0
-8607 40 0
-8607 84 0
8608 -14 -36 -40 -75 0
-8608 14 0
-8608 36 0
-8608 40 0
-8608 75 0
8609 -14 -39 -40 -72 0
-8609 14 0
-8609 39 0
-8609 40 0
-8609 72 0
-8607 8608 8609 0
-8608 8607 8609 0
-8609 8607 8608 0
8610 -15 -28 -41 -82 0
-8610 15 0
-8610 28 0
-8610 41 0
-8610 82 0
8611 -15 -34 -41 -73 0
-8611 15 0
-8611 34 0
-8611 41 0
-8611 73 0
8612 -15 -37 -41 -70 0
-8612 15 0
-8612 37 0
-8612 41 0
-8612 70 0
-8610 8611 8612 0
-8611 8610 8612 0
-8612 8610 8611 0
8613 -15 -28 -41 -83 0
-8613 15 0
-8613 28 0
-8613 41 0
-8613 83 0
8614 -15 -28 -50 -65 0
-8614 15 0
-8614 28 0
-8614 50 0
-8614 65 0
8615 -15 -28 -53 -62 0
-8615 15 0
-8615 28 0
-8615 53 0
-8615 62 0
-8613 8614 8615 0
-8614 8613 8615 0
-8615 8613 8614 0
8616 -15 -28 -41 -84 0
-8616 15 0
-8616 28 0
-8616 41 0
-8616 84 0
8617 -18 -28 -41 -81 0
-8617 18 0
-8617 28 0
-8617 41 0
-8617 81 0
8618 -21 -28 -41 -78 0
-8618 21 0
-8618 28 0
-8618 41 0
-8618 78 0
-8616 8617 8618 0
-8617 8616 8618 0
-8618 8616 8617 0
8619 -15 -29 -40 -82 0
-8619 15 0
-8619 29 0
-8619 40 0
-8619 82 0
8620 -15 -29 -49 -64 0
-8620 15 0
-8620 29 0
-8620 49 0
-8620 64 0
8621 -15 -29 -52 -61 0
-8621 15 0
-8621 29 0
-8621 52 0
-8621 61 0
-8619 8620 8621 0
-8620 8619 8621 0
-8621 8619 8620 0
8622 -15 -29 -40 -83 0
-8622 15 0
-8622 29 0
-8622 40 0
-8622 83 0
8623 -15 -35 -40 -74 0
-8623 15 0
-8623 35 0
-8623 40 0
-8623 74 0
8624 -15 -38 -40 -71 0
-8624 15 0
-8624 38 0
-8624 40 0
-8624 71 0
-8622 8623 8624 0
-8623 8622 8624 0
-8624 8622 8623 0
8625 -15 -29 -40 -84 0
-8625 15 0
-8625 29 0
-8625 40 0
-8625 84 0
8626 -18 -29 -40 -81 0
-8626 18 0
-8626 29 0
-8626 40 0
-8626 81 0
8627 -21 -29 -40 -78 0
-8627 21 0
-8627 29 0
-8627 40 0
-8627 78 0
-8625 8626 8627 0
-8626 8625 8627 0
-8627 8625 8626 0
8628 -13 -35 -42 -75 0
-8628 13 0
-8628 35 0
-8628 42 0
-8628 75 0
8629 -13 -35 -45 -66 0
-8629 13 0
-8629 35 0
-8629 45 0
-8629 66 0
8630 -13 -35 -54 -57 0
-8630 13 0
-8630 35 0
-8630 54 0
-8630 57 0
-8628 8629 8630 0
-8629 8628 8630 0
-8630 8628 8629 0
8631 -13 -36 -41 -74 0
-8631 13 0
-8631 36 0
-8631 41 0
-8631 74 0
8632 -13 -36 -44 -65 0
-8632 13 0
-8632 36 0
-8632 44 0
-8632 65 0
8633 -13 -36 -53 -56 0
-8633 13 0
-8633 36 0
-8633 53 0
-8633 56 0
-8631 8632 8633 0
-8632 8631 8633 0
-8633 8631 8632 0
8634 -14 -34 -42 -75 0
-8634 14 0
-8634 34 0
-8634 42 0
-8634 75 0
8635 -14 -34 -45 -66 0
-8635 14 0
-8635 34 0
-8635 45 0
-8635 66 0
8636 -14 -34 -54 -57 0
-8636 14 0
-8636 34 0
-8636 54 0
-8636 57 0
-8634 8635 8636 0
-8635 8634 8636 0
-8636 8634 8635 0
8637 -14 -36 -40 -73 0
-8637 14 0
-8637 36 0
-8637 40 0
-8637 73 0
8638 -14 -36 -43 -64 0
-8638 14 0
-8638 36 0
-8638 43 0
-8638 64 0
8639 -14 -36 -52 -55 0
-8639 14 0
-8639 36 0
-8639 52 0
-8639 55 0
-8637 8638 8639 0
-8638 8637 8639 0
-8639 8637 8638 0
8640 -15 -34 -41 -74 0
-8640 15 0
-8640 34 0
-8640 41 0
-8640 74 0
8641 -15 -34 -44 -65 0
-8641 15 0
-8641 34 0
-8641 44 0
-8641 65 0
8642 -15 -34 -53 -56 0
-8642 15 0
-8642 34 0
-8642 53 0
-8642 56 0
-8640 8641 8642 0
-8641 8640 8642 0
-8642 8640 8641 0
8643 -15 -35 -40 -73 0
-8643 15 0
-8643 35 0
-8643 40 0
-8643 73 0
8644 -15 -35 -43 -64 0
-8644 15 0
-8644 35 0
-8644 43 0
-8644 64 0
8645 -15 -35 -52 -55 0
-8645 15 0
-8645 35 0
-8645 52 0
-8645 55 0
-8643 8644 8645 0
-8644 8643 8645 0
-8645 8643 8644 0
8646 -13 -38 -42 -72 0
-8646 13 0
-8646 38 0
-8646 42 0
-8646 72 0
8647 -13 -38 -45 -63 0
-8647 13 0
-8647 38 0
-8647 45 0
-8647 63 0
8648 -13 -38 -51 -57 0
-8648 13 0
-8648 38 0
-8648 51 0
-8648 57 0
-8646 8647 8648 0
-8647 8646 8648 0
-8648 8646 8647 0
8649 -13 -39 -41 -71 0
-8649 13 0
-8649 39 0
-8649 41 0
-8649 71 0
8650 -13 -39 -44 -62 0
-8650 13 0
-8650 39 0
-8650 44 0
-8650 62 0
8651 -13 -39 -50 -56 0
-8651 13 0
-8651 39 0
-8651 50 0
-8651 56 0
-8649 8650 8651 0
-8650 8649 8651 0
-8651 8649 8650 0
8652 -14 -37 -42 -72 0
-8652 14 0
-8652 37 0
-8652 42 0
-8652 72 0
8653 -14 -37 -45 -63 0
-8653 14 0
-8653 37 0
-8653 45 0
-8653 63 0
8654 -14 -37 -51 -57 0
-8654 14 0
-8654 37 0
-8654 51 0
-8654 57 0
-8652 8653 8654 0
-8653 8652 8654 0
-8654 8652 8653 0
8655 -14 -39 -40 -70 0
-8655 14 0
-8655 39 0
-8655 40 0
-8655 70 0
8656 -14 -39 -43 -61 0
-8656 14 0
-8656 39 0
-8656 43 0
-8656 61 0
8657 -14 -39 -49 -55 0
-8657 14 0
-8657 39 0
-8657 49 0
-8657 55 0
-8655 8656 8657 0
-8656 8655 8657 0
-8657 8655 8656 0
8658 -15 -37 -41 -71 0
-8658 15 0
-8658 37 0
-8658 41 0
-8658 71 0
8659 -15 -37 -44 -62 0
-8659 15 0
-8659 37 0
-8659 44 0
-8659 62 0
8660 -15 -37 -50 -56 0
-8660 15 0
-8660 37 0
-8660 50 0
-8660 56 0
-8658 8659 8660 0
-8659 8658 8660 0
-8660 8658 8659 0
8661 -15 -38 -40 -70 0
-8661 15 0
-8661 38 0
-8661 40 0
-8661 70 0
8662 -15 -38 -43 -61 0
-8662 15 0
-8662 38 0
-8662 43 0
-8662 61 0
8663 -15 -38 -49 -55 0
-8663 15 0
-8663 38 0
-8663 49 0
-8663 55 0
-8661 8662 8663 0
-8662 8661 8663 0
-8663 8661 8662 0
8664 -16 -23 -56 -80 0
-8664 16 0
-8664 23 0
-8664 56 0
-8664 80 0
8665 -16 -23 -59 -74 0
-8665 16 0
-8665 23 0
-8665 59 0
-8665 74 0
8666 -16 -23 -65 -68 0
-8666 16 0
-8666 23 0
-8666 65 0
-8666 68 0
8667 -16 -26 -44 -80 0
-8667 16 0
-8667 26 0
-8667 44 0
-8667 80 0
8668 -16 -26 -47 -74 0
-8668 16 0
-8668 26 0
-8668 47 0
-8668 74 0
8669 -16 -26 -53 -68 0
-8669 16 0
-8669 26 0
-8669 53 0
-8669 68 0
8670 -16 -29 -41 -80 0
-8670 16 0
-8670 29 0
-8670 41 0
-8670 80 0
8671 -16 -29 -47 -65 0
-8671 16 0
-8671 29 0
-8671 47 0
-8671 65 0
8672 -16 -29 -53 -59 0
-8672 16 0
-8672 29 0
-8672 53 0
-8672 59 0
8673 -16 -32 -41 -74 0
-8673 16 0
-8673 32 0
-8673 41 0
-8673 74 0
8674 -16 -32 -44 -65 0
-8674 16 0
-8674 32 0
-8674 44 0
-8674 65 0
8675 -16 -32 -53 -56 0
-8675 16 0
-8675 32 0
-8675 53 0
-8675 56 0
8676 -16 -38 -41 -68 0
-8676 16 0
-8676 38 0
-8676 41 0
-8676 68 0
8677 -16 -38 -44 -59 0
-8677 16 0
-8677 38 0
-8677 44 0
-8677 59 0
8678 -16 -38 -47 -56 0
-8678 16 0
-8678 38 0
-8678 47 0
-8678 56 0
-8664 8665 8666 8667 8668 8669 8670 8671 8672 8673 8674 8675 8676 8677 8678 0
-8665 8664 8666 8667 8668 8669 8670 8671 8672 8673 8674 8675 8676 8677 8678 0
-8666 8664 8665 8667 8668 8669 8670 8671 8672 8673 8674 8675 8676 8677 8678 0
-8667 8664 8665 8666 8668 8669 8670 8671 8672 8673 8674 8675 8676 8677 8678 0
-8668 8664 8665 8666 8667 8669 8670 8671 8672 8673 8674 8675 8676 8677 8678 0
-8669 8664 8665 8666 8667 8668 8670 8671 8672 8673 8674 8675 8676 8677 8678 0
-8670 8664 8665 8666 8667 8668 8669 8671 8672 8673 8674 8675 8676 8677 8678 0
-8671 8664 8665 8666 8667 8668 8669 8670 8672 8673 8674 8675 8676 8677 8678 0
-8672 8664 8665 8666 8667 8668 8669 8670 8671 8673 8674 8675 8676 8677 8678 0
-8673 8664 8665 8666 8667 8668 8669 8670 8671 8672 8674 8675 8676 8677 8678 0
-8674 8664 8665 8666 8667 8668 8669 8670 8671 8672 8673 8675 8676 8677 8678 0
-8675 8664 8665 8666 8667 8668 8669 8670 8671 8672 8673 8674 8676 8677 8678 0
-8676 8664 8665 8666 8667 8668 8669 8670 8671 8672 8673 8674 8675 8677 8678 0
-8677 8664 8665 8666 8667 8668 8669 8670 8671 8672 8673 8674 8675 8676 8678 0
-8678 8664 8665 8666 8667 8668 8669 8670 8671 8672 8673 8674 8675 8676 8677 0
8679 -16 -23 -56 -81 0
-8679 16 0
-8679 23 0
-8679 56 0
-8679 81 0
8680 -16 -26 -44 -81 0
-8680 16 0
-8680 26 0
-8680 44 0
-8680 81 0
8681 -16 -29 -41 -81 0
-8681 16 0
-8681 29 0
-8681 41 0
-8681 81 0
-8679 8680 8681 0
-8680 8679 8681 0
-8681 8679 8680 0
8682 -16 -23 -57 -80 0
-8682 16 0
-8682 23 0
-8682 57 0
-8682 80 0
8683 -16 -32 -53 -57 0
-8683 16 0
-8683 32 0
-8683 53 0
-8683 57 0
8684 -16 -38 -47 -57 0
-8684 16 0
-8684 38 0
-8684 47 0
-8684 57 0
-8682 8683 8684 0
-8683 8682 8684 0
-8684 8682 8683 0
8685 -16 -23 -57 -81 0
-8685 16 0
-8685 23 0
-8685 57 0
-8685 81 0
8686 -16 -23 -60 -75 0
-8686 16 0
-8686 23 0
-8686 60 0
-8686 75 0
8687 -16 -23 -66 -69 0
-8687 16 0
-8687 23 0
-8687 66 0
-8687 69 0
-8685 8686 8687 0
-8686 8685 8687 0
-8687 8685 8686 0
8688 -16 -24 -56 -80 0
-8688 16 0
-8688 24 0
-8688 56 0
-8688 80 0
8689 -16 -24 -59 -74 0
-8689 16 0
-8689 24 0
-8689 59 0
-8689 74 0
8690 -16 -24 -65 -68 0
-8690 16 0
-8690 24 0
-8690 65 0
-8690 68 0
-8688 8689 8690 0
-8689 8688 8690 0
-8690 8688 8689 0
8691 -16 -24 -56 -81 0
-8691 16 0
-8691 24 0
-8691 56 0
-8691 81 0
8692 -16 -33 -54 -56 0
-8692 16 0
-8692 33 0
-8692 54 0
-8692 56 0
8693 -16 -39 -48 -56 0
-8693 16 0
-8693 39 0
-8693 48 0
-8693 56 0
-8691 8692 8693 0
-8692 8691 8693 0
-8693 8691 8692 0
8694 -16 -24 -57 -80 0
-8694 16 0
-8694 24 0
-8694 57 0
-8694 80 0
8695 -16 -27 -45 -80 0
-8695 16 0
-8695 27 0
-8695 45 0
-8695 80 0
8696 -16 -30 -42 -80 0
-8696 16 0
-8696 30 0
-8696 42 0
-8696 80 0
-8694 8695 8696 0
-8695 8694 8696 0
-8696 8694 8695 0
8697 -16 -24 -57 -81 0
-8697 16 0
-8697 24 0
-8697 57 0
-8697 81 0
8698 -16 -24 -60 -75 0
-8698 16 0
-8698 24 0
-8698 60 0
-8698 75 0
8699 -16 -24 -66 -69 0
-8699 16 0
-8699 24 0
-8699 66 0
-8699 69 0
8700 -16 -27 -45 -81 0
-8700 16 0
-8700 27 0
-8700 45 0
-8700 81 0
8701 -16 -27 -48 -75 0
-8701 16 0
-8701 27 0
-8701 48 0
-8701 75 0
8702 -16 -27 -54 -69 0
-8702 16 0
-8702 27 0
-8702 54 0
-8702 69 0
8703 -16 -30 -42 -81 0
-8703 16 0
-8703 30 0
-8703 42 0
-8703 81 0
8704 -16 -30 -48 -66 0
-8704 16 0
-8704 30 0
-8704 48 0
-8704 66 0
8705 -16 -30 -54 -60 0
-8705 16 0
-8705 30 0
-8705 54 0
-8705 60 0
8706 -16 -33 -42 -75 0
-8706 16 0
-8706 33 0
-8706 42 0
-8706 75 0
8707 -16 -33 -45 -66 0
-8707 16 0
-8707 33 0
-8707 45 0
-8707 66 0
8708 -16 -33 -54 -57 0
-8708 16 0
-8708 33 0
-8708 54 0
-8708 57 0
8709 -16 -39 -42 -69 0
-8709 16 0
-8709 39 0
-8709 42 0
-8709 69 0
8710 -16 -39 -45 -60 0
-8710 16 0
-8710 39 0
-8710 45 0
-8710 60 0
8711 -16 -39 -48 -57 0
-8711 16 0
-8711 39 0
-8711 48 0
-8711 57 0
-8697 8698 8699 8700 8701 8702 8703 8704 8705 8706 8707 8708 8709 8710 8711 0
-8698 8697 8699 8700 8701 8702 8703 8704 8705 8706 8707 8708 8709 8710 8711 0
-8699 8697 8698 8700 8701 8702 8703 8704 8705 8706 8707 8708 8709 8710 8711 0
-8700 8697 8698 8699 8701 8702 8703 8704 8705 8706 8707 8708 8709 8710 8711 0
-8701 8697 8698 8699 8700 8702 8703 8704 8705 8706 8707 8708 8709 8710 8711 0
-8702 8697 8698 8699 8700 8701 8703 8704 8705 8706 8707 8708 8709 8710 8711 0
-8703 8697 8698 8699 8700 8701 8702 8704 8705 8706 8707 8708 8709 8710 8711 0
-8704 8697 8698 8699 8700 8701 8702 8703 8705 8706 8707 8708 8709 8710 8711 0
-8705 8697 8698 8699 8700 8701 8702 8703 8704 8706 8707 8708 8709 8710 8711 0
-8706 8697 8698 8699 8700 8701 8702 8703 8704 8705 8707 8708 8709 8710 8711 0
-8707 8697 8698 8699 8700 8701 8702 8703 8704 8705 8706 8708 8709 8710 8711 0
-8708 8697 8698 8699 8700 8701 8702 8703 8704 8705 8706 8707 8709 8710 8711 0
-8709 8697 8698 8699 8700 8701 8702 8703 8704 8705 8706 8707 8708 8710 8711 0
-8710 8697 8698 8699 8700 8701 8702 8703 8704 8705 8706 8707 8708 8709 8711 0
-8711 8697 8698 8699 8700 8701 8702 8703 8704 8705 8706 8707 8708 8709 8710 0
8712 -17 -22 -55 -79 0
-8712 17 0
-8712 22 0
-8712 55 0
-8712 79 0
8713 -17 -22 -58 -73 0
-8713 17 0
-8713 22 0
-8713 58 0
-8713 73 0
8714 -17 -22 -64 -67 0
-8714 17 0
-8714 22 0
-8714 64 0
-8714 67 0
8715 -17 -25 -43 -79 0
-8715 17 0
-8715 25 0
-8715 43 0
-8715 79 0
8716 -17 -25 -46 -73 0
-8716 17 0
-8716 25 0
-8716 46 0
-8716 73 0
8717 -17 -25 -52 -67 0
-8717 17 0
-8717 25 0
-8717 52 0
-8717 67 0
8718 -17 -28 -40 -79 0
-8718 17 0
-8718 28 0
-8718 40 0
-8718 79 0
8719 -17 -28 -46 -64 0
-8719 17 0
-8719 28 0
-8719 46 0
-8719 64 0
8720 -17 -28 -52 -58 0
-8720 17 0
-8720 28 0
-8720 52 0
-8720 58 0
8721 -17 -31 -40 -73 0
-8721 17 0
-8721 31 0
-8721 40 0
-8721 73 0
8722 -17 -31 -43 -64 0
-8722 17 0
-8722 31 0
-8722 43 0
-8722 64 0
8723 -17 -31 -52 -55 0
-8723 17 0
-8723 31 0
-8723 52 0
-8723 55 0
8724 -17 -37 -40 -67 0
-8724 17 0
-8724 37 0
-8724 40 0
-8724 67 0
8725 -17 -37 -43 -58 0
-8725 17 0
-8725 37 0
-8725 43 0
-8725 58 0
8726 -17 -37 -46 -55 0
-8726 17 0
-8726 37 0
-8726 46 0
-8726 55 0
-8712 8713 8714 8715 8716 8717 8718 8719 8720 8721 8722 8723 8724 8725 8726 0
-8713 8712 8714 8715 8716 8717 8718 8719 8720 8721 8722 8723 8724 8725 8726 0
-8714 8712 8713 8715 8716 8717 8718 8719 8720 8721 8722 8723 8724 8725 8726 0
-8715 8712 8713 8714 8716 8717 8718 8719 8720 8721 8722 8723 8724 8725 8726 0
-8716 8712 8713 8714 8715 8717 8718 8719 8720 8721 8722 8723 8724 8725 8726 0
-8717 8712 8713 8714 8715 8716 8718 8719 8720 8721 8722 8723 8724 8725 8726 0
-8718 8712 8713 8714 8715 8716 8717 8719 8720 8721 8722 8723 8724 8725 8726 0
-8719 8712 8713 8714 8715 8716 8717 8718 8720 8721 8722 8723 8724 8725 8726 0
-8720 8712 8713 8714 8715 8716 8717 8718 8719 8721 8722 8723 8724 8725 8726 0
-8721 8712 8713 8714 8715 8716 8717 8718 8719 8720 8722 8723 8724 8725 8726 0
-8722 8712 8713 8714 8715 8716 8717 8718 8719 8720 8721 8723 8724 8725 8726 0
-8723 8712 8713 8714 8715 8716 8717 8718 8719 8720 8721 8722 8724 8725 8726 0
-8724 8712 8713 8714 8715 8716 8717 8718 8719 8720 8721 8722 8723 8725 8726 0
-8725 8712 8713 8714 8715 8716 8717 8718 8719 8720 8721 8722 8723 8724 8726 0
-8726 8712 8713 8714 8715 8716 8717 8718 8719 8720 8721 8722 8723 8724 8725 0
8727 -17 -22 -55 -81 0
-8727 17 0
-8727 22 0
-8727 55 0
-8727 81 0
8728 -17 -25 -43 -81 0
-8728 17 0
-8728 25 0
-8728 43 0
-8728 81 0
8729 -17 -28 -40 -81 0
-8729 17 0
-8729 28 0
-8729 40 0
-8729 81 0
-8727 8728 8729 0
-8728 8727 8729 0
-8729 8727 8728 0
8730 -17 -22 -57 -79 0
-8730 17 0
-8730 22 0
-8730 57 0
-8730 79 0
8731 -17 -31 -52 -57 0
-8731 17 0
-8731 31 0
-8731 52 0
-8731 57 0
8732 -17 -37 -46 -57 0
-8732 17 0
-8732 37 0
-8732 46 0
-8732 57 0
-8730 8731 8732 0
-8731 8730 8732 0
-8732 8730 8731 0
8733 -17 -22 -57 -81 0
-8733 17 0
-8733 22 0
-8733 57 0
-8733 81 0
8734 -17 -22 -60 -75 0
-8734 17 0
-8734 22 0
-8734 60 0
-8734 75 0
8735 -17 -22 -66 -69 0
-8735 17 0
-8735 22 0
-8735 66 0
-8735 69 0
-8733 8734 8735 0
-8734 8733 8735 0
-8735 8733 8734 0
8736 -17 -24 -55 -79 0
-8736 17 0
-8736 24 0
-8736 55 0
-8736 79 0
8737 -17 -24 -58 -73 0
-8737 17 0
-8737 24 0
-8737 58 0
-8737 73 0
8738 -17 -24 -64 -67 0
-8738 17 0
-8738 24 0
-8738 64 0
-8738 67 0
-8736 8737 8738 0
-8737 8736 8738 0
-8738 8736 8737 0
8739 -17 -24 -55 -81 0
-8739 17 0
-8739 24 0
-8739 55 0
-8739 81 0
8740 -17 -33 -54 -55 0
-8740 17 0
-8740 33 0
-8740 54 0
-8740 55 0
8741 -17 -39 -48 -55 0
-8741 17 0
-8741 39 0
-8741 48 0
-8741 55 0
-8739 8740 8741 0
-8740 8739 8741 0
-8741 8739 8740 0
8742 -17 -24 -57 -79 0
-8742 17 0
-8742 24 0
-8742 57 0
-8742 79 0
8743 -17 -27 -45 -79 0
-8743 17 0
-8743 27 0
-8743 45 0
-8743 79 0
8744 -17 -30 -42 -79 0
-8744 17 0
-8744 30 0
-8744 42 0
-8744 79 0
-8742 8743 8744 0
-8743 8742 8744 0
-8744 8742 8743 0
8745 -17 -24 -57 -81 0
-8745 17 0
-8745 24 0
-8745 57 0
-8745 81 0
8746 -17 -24 -60 -75 0
-8746 17 0
-8746 24 0
-8746 60 0
-8746 75 0
8747 -17 -24 -66 -69 0
-8747 17 0
-8747 24 0
-8747 66 0
-8747 69 0
8748 -17 -27 -45 -81 0
-8748 17 0
-8748 27 0
-8748 45 0
-8748 81 0
8749 -17 -27 -48 -75 0
-8749 17 0
-8749 27 0
-8749 48 0
-8749 75 0
8750 -17 -27 -54 -69 0
-8750 17 0
-8750 27 0
-8750 54 0
-8750 69 0
8751 -17 -30 -42 -81 0
-8751 17 0
-8751 30 0
-8751 42 0
-8751 81 0
8752 -17 -30 -48 -66 0
-8752 17 0
-8752 30 0
-8752 48 0
-8752 66 0
8753 -17 -30 -54 -60 0
-8753 17 0
-8753 30 0
-8753 54 0
-8753 60 0
8754 -17 -33 -42 -75 0
-8754 17 0
-8754 33 0
-8754 42 0
-8754 75 0
8755 -17 -33 -45 -66 0
-8755 17 0
-8755 33 0
-8755 45 0
-8755 66 0
8756 -17 -33 -54 -57 0
-8756 17 0
-8756 33 0
-8756 54 0
-8756 57 0
8757 -17 -39 -42 -69 0
-8757 17 0
-8757 39 0
-8757 42 0
-8757 69 0
8758 -17 -39 -45 -60 0
-8758 17 0
-8758 39 0
-8758 45 0
-8758 60 0
8759 -17 -39 -48 -57 0
-8759 17 0
-8759 39 0
-8759 48 0
-8759 57 0
-8745 8746 8747 8748 8749 8750 8751 8752 8753 8754 8755 8756 8757 8758 8759 0
-8746 8745 8747 8748 8749 8750 8751 8752 8753 8754 8755 8756 8757 8758 8759 0
-8747 8745 8746 8748 8749 8750 8751 8752 8753 8754 8755 8756 8757 8758 8759 0
-8748 8745 8746 8747 8749 8750 8751 8752 8753 8754 8755 8756 8757 8758 8759 0
-8749 8745 8746 8747 8748 8750 8751 8752 8753 8754 8755 8756 8757 8758 8759 0
-8750 8745 8746 8747 8748 8749 8751 8752 8753 8754 8755 8756 8757 8758 8759 0
-8751 8745 8746 8747 8748 8749 8750 8752 8753 8754 8755 8756 8757 8758 8759 0
-8752 8745 8746 8747 8748 8749 8750 8751 8753 8754 8755 8756 8757 8758 8759 0
-8753 8745 8746 8747 8748 8749 8750 8751 8752 8754 8755 8756 8757 8758 8759 0
-8754 8745 8746 8747 8748 8749 8750 8751 8752 8753 8755 8756 8757 8758 8759 0
-8755 8745 8746 8747 8748 8749 8750 8751 8752 8753 8754 8756 8757 8758 8759 0
-8756 8745 8746 8747 8748 8749 8750 8751 8752 8753 8754 8755 8757 8758 8759 0
-8757 8745 8746 8747 8748 8749 8750 8751 8752 8753 8754 8755 8756 8758 8759 0
-8758 8745 8746 8747 8748 8749 8750 8751 8752 8753 8754 8755 8756 8757 8759 0
-8759 8745 8746 8747 8748 8749 8750 8751 8752 8753 8754 8755 8756 8757 8758 0
8760 -18 -22 -55 -79 0
-8760 18 0
-8760 22 0
-8760 55 0
-8760 79 0
8761 -18 -22 -58 -73 0
-8761 18 0
-8761 22 0
-8761 58 0
-8761 73 0
8762 -18 -22 -64 -67 0
-8762 18 0
-8762 22 0
-8762 64 0
-8762 67 0
8763 -18 -25 -43 -79 0
-8763 18 0
-8763 25 0
-8763 43 0
-8763 79 0
8764 -18 -25 -46 -73 0
-8764 18 0
-8764 25 0
-8764 46 0
-8764 73 0
8765 -18 -25 -52 -67 0
-8765 18 0
-8765 25 0
-8765 52 0
-8765 67 0
8766 -18 -28 -40 -79 0
-8766 18 0
-8766 28 0
-8766 40 0
-8766 79 0
8767 -18 -28 -46 -64 0
-8767 18 0
-8767 28 0
-8767 46 0
-8767 64 0
8768 -18 -28 -52 -58 0
-8768 18 0
-8768 28 0
-8768 52 0
-8768 58 0
8769 -18 -31 -40 -73 0
-8769 18 0
-8769 31 0
-8769 40 0
-8769 73 0
8770 -18 -31 -43 -64 0
-8770 18 0
-8770 31 0
-8770 43 0
-8770 64 0
8771 -18 -31 -52 -55 0
-8771 18 0
-8771 31 0
-8771 52 0
-8771 55 0
8772 -18 -37 -40 -67 0
-8772 18 0
-8772 37 0
-8772 40 0
-8772 67 0
8773 -18 -37 -43 -58 0
-8773 18 0
-8773 37 0
-8773 43 0
-8773 58 0
8774 -18 -37 -46 -55 0
-8774 18 0
-8774 37 0
-8774 46 0
-8774 55 0
-8760 8761 8762 8763 8764 8765 8766 8767 8768 8769 8770 8771 8772 8773 8774 0
-8761 8760 8762 8763 8764 8765 8766 8767 8768 8769 8770 8771 8772 8773 8774 0
-8762 8760 8761 8763 8764 8765 8766 8767 8768 8769 8770 8771 8772 8773 8774 0
-8763 8760 8761 8762 8764 8765 8766 8767 8768 8769 8770 8771 8772 8773 8774 0
-8764 8760 8761 8762 8763 8765 8766 8767 8768 8769 8770 8771 8772 8773 8774 0
-8765 8760 8761 8762 8763 8764 8766 8767 8768 8769 8770 8771 8772 8773 8774 0
-8766 8760 8761 8762 8763 8764 8765 8767 8768 8769 8770 8771 8772 8773 8774 0
-8767 8760 8761 8762 8763 8764 8765 8766 8768 8769 8770 8771 8772 8773 8774 0
-8768 8760 8761 8762 8763 8764 8765 8766 8767 8769 8770 8771 8772 8773 8774 0
-8769 8760 8761 8762 8763 8764 8765 8766 8767 8768 8770 8771 8772 8773 8774 0
-8770 8760 8761 8762 8763 8764 8765 8766 8767 8768 8769 8771 8772 8773 8774 0
-8771 8760 8761 8762 8763 8764 8765 8766 8767 8768 8769 8770 8772 8773 8774 0
-8772 8760 8761 8762 8763 8764 8765 8766 8767 8768 8769 8770 8771 8773 8774 0
-8773 8760 8761 8762 8763 8764 8765 8766 8767 8768 8769 8770 8771 8772 8774 0
-8774 8760 8761 8762 8763 8764 8765 8766 8767 8768 8769 8770 8771 8772 8773 0
8775 -18 -22 -55 -80 0
-8775 18 0
-8775 22 0
-8775 55 0
-8775 80 0
8776 -18 -25 -43 -80 0
-8776 18 0
-8776 25 0
-8776 43 0
-8776 80 0
8777 -18 -28 -40 -80 0
-8777 18 0
-8777 28 0
-8777 40 0
-8777 80 0
-8775 8776 8777 0
-8776 8775 8777 0
-8777 8775 8776 0
8778 -18 -22 -56 -79 0
-8778 18 0
-8778 22 0
-8778 56 0
-8778 79 0
8779 -18 -31 -52 -56 0
-8779 18 0
-8779 31 0
-8779 52 0
-8779 56 0
8780 -18 -37 -46 -56 0
-8780 18 0
-8780 37 0
-8780 46 0
-8780 56 0
-8778 8779 8780 0
-8779 8778 8780 0
-8780 8778 8779 0
8781 -18 -22 -56 -80 0
-8781 18 0
-8781 22 0
-8781 56 0
-8781 80 0
8782 -18 -22 -59 -74 0
-8782 18 0
-8782 22 0
-8782 59 0
-8782 74 0
8783 -18 -22 -65 -68 0
-8783 18 0
-8783 22 0
-8783 65 0
-8783 68 0
-8781 8782 8783 0
-8782 8781 8783 0
-8783 8781 8782 0
8784 -18 -23 -55 -79 0
-8784 18 0
-8784 23 0
-8784 55 0
-8784 79 0
8785 -18 -23 -58 -73 0
-8785 18 0
-8785 23 0
-8785 58 0
-8785 73 0
8786 -18 -23 -64 -67 0
-8786 18 0
-8786 23 0
-8786 64 0
-8786 67 0
-8784 8785 8786 0
-8785 8784 8786 0
-8786 8784 8785 0
8787 -18 -23 -55 -80 0
-8787 18 0
-8787 23 0
-8787 55 0
-8787 80 0
8788 -18 -32 -53 -55 0
-8788 18 0
-8788 32 0
-8788 53 0
-8788 55 0
8789 -18 -38 -47 -55 0
-8789 18 0
-8789 38 0
-8789 47 0
-8789 55 0
-8787 8788 8789 0
-8788 8787 8789 0
-8789 8787 8788 0
8790 -18 -23 -56 -79 0
-8790 18 0
-8790 23 0
-8790 56 0
-8790 79 0
8791 -18 -26 -44 -79 0
-8791 18 0
-8791 26 0
-8791 44 0
-8791 79 0
8792 -18 -29 -41 -79 0
-8792 18 0
-8792 29 0
-8792 41 0
-8792 79 0
-8790 8791 8792 0
-8791 8790 8792 0
-8792 8790 8791 0
8793 -18 -23 -56 -80 0
-8793 18 0
-8793 23 0
-8793 56 0
-8793 80 0
8794 -18 -23 -59 -74 0
-8794 18 0
-8794 23 0
-8794 59 0
-8794 74 0
8795 -18 -23 -65 -68 0
-8795 18 0
-8795 23 0
-8795 65 0
-8795 68 0
8796 -18 -26 -44 -80 0
-8796 18 0
-8796 26 0
-8796 44 0
-8796 80 0
8797 -18 -26 -47 -74 0
-8797 18 0
-8797 26 0
-8797 47 0
-8797 74 0
8798 -18 -26 -53 -68 0
-8798 18 0
-8798 26 0
-8798 53 0
-8798 68 0
8799 -18 -29 -41 -80 0
-8799 18 0
-8799 29 0
-8799 41 0
-8799 80 0
8800 -18 -29 -47 -65 0
-8800 18 0
-8800 29 0
-8800 47 0
-8800 65 0
8801 -18 -29 -53 -59 0
-8801 18 0
-8801 29 0
-8801 53 0
-8801 59 0
8802 -18 -32 -41 -74 0
-8802 18 0
-8802 32 0
-8802 41 0
-8802 74 0
8803 -18 -32 -44 -65 0
-8803 18 0
-8803 32 0
-8803 44 0
-8803 65 0
8804 -18 -32 -53 -56 0
-8804 18 0
-8804 32 0
-8804 53 0
-8804 56 0
8805 -18 -38 -41 -68 0
-8805 18 0
-8805 38 0
-8805 41 0
-8805 68 0
8806 -18 -38 -44 -59 0
-8806 18 0
-8806 38 0
-8806 44 0
-8806 59 0
8807 -18 -38 -47 -56 0
-8807 18 0
-8807 38 0
-8807 47 0
-8807 56 0
-8793 8794 8795 8796 8797 8798 8799 8800 8801 8802 8803 8804 8805 8806 8807 0
-8794 8793 8795 8796 8797 8798 8799 8800 8801 8802 8803 8804 8805 8806 8807 0
-8795 8793 8794 8796 8797 8798 8799 8800 8801 8802 8803 8804 8805 8806 8807 0
-8796 8793 8794 8795 8797 8798 8799 8800 8801 8802 8803 8804 8805 8806 8807 0
-8797 8793 8794 8795 8796 8798 8799 8800 8801 8802 8803 8804 8805 8806 8807 0
-8798 8793 8794 8795 8796 8797 8799 8800 8801 8802 8803 8804 8805 8806 8807 0
-8799 8793 8794 8795 8796 8797 8798 8800 8801 8802 8803 8804 8805 8806 8807 0
-8800 8793 8794 8795 8796 8797 8798 8799 8801 8802 8803 8804 8805 8806 8807 0
-8801 8793 8794 8795 8796 8797 8798 8799 8800 8802 8803 8804 8805 8806 8807 0
-8802 8793 8794 8795 8796 8797 8798 8799 8800 8801 8803 8804 8805 8806 8807 0
-8803 8793 8794 8795 8796 8797 8798 8799 8800 8801 8802 8804 8805 8806 8807 0
-8804 8793 8794 8795 8796 8797 8798 8799 8800 8801 8802 8803 8805 8806 8807 0
-8805 8793 8794 8795 8796 8797 8798 8799 8800 8801 8802 8803 8804 8806 8807 0
-8806 8793 8794 8795 8796 8797 8798 8799 8800 8801 8802 8803 8804 8805 8807 0
-8807 8793 8794 8795 8796 8797 8798 8799 8800 8801 8802 8803 8804 8805 8806 0
8808 -16 -23 -59 -75 0
-8808 16 0
-8808 23 0
-8808 59 0
-8808 75 0
8809 -16 -26 -47 -75 0
-8809 16 0
-8809 26 0
-8809 47 0
-8809 75 0
8810 -16 -32 -41 -75 0
-8810 16 0
-8810 32 0
-8810 41 0
-8810 75 0
-8808 8809 8810 0
-8809 8808 8810 0
-8810 8808 8809 0
8811 -16 -23 -60 -74 0
-8811 16 0
-8811 23 0
-8811 60 0
-8811 74 0
8812 -16 -29 -53 -60 0
-8812 16 0
-8812 29 0
-8812 53 0
-8812 60 0
8813 -16 -38 -44 -60 0
-8813 16 0
-8813 38 0
-8813 44 0
-8813 60 0
-8811 8812 8813 0
-8812 8811 8813 0
-8813 8811 8812 0
8814 -16 -24 -59 -75 0
-8814 16 0
-8814 24 0
-8814 59 0
-8814 75 0
8815 -16 -30 -54 -59 0
-8815 16 0
-8815 30 0
-8815 54 0
-8815 59 0
8816 -16 -39 -45 -59 0
-8816 16 0
-8816 39 0
-8816 45 0
-8816 59 0
-8814 8815 8816 0
-8815 8814 8816 0
-8816 8814 8815 0
8817 -16 -24 -60 -74 0
-8817 16 0
-8817 24 0
-8817 60 0
-8817 74 0
8818 -16 -27 -48 -74 0
-8818 16 0
-8818 27 0
-8818 48 0
-8818 74 0
8819 -16 -33 -42 -74 0
-8819 16 0
-8819 33 0
-8819 42 0
-8819 74 0
-8817 8818 8819 0
-8818 8817 8819 0
-8819 8817 8818 0
8820 -17 -22 -58 -75 0
-8820 17 0
-8820 22 0
-8820 58 0
-8820 75 0
8821 -17 -25 -46 -75 0
-8821 17 0
-8821 25 0
-8821 46 0
-8821 75 0
8822 -17 -31 -40 -75 0
-8822 17 0
-8822 31 0
-8822 40 0
-8822 75 0
-8820 8821 8822 0
-8821 8820 8822 0
-8822 8820 8821 0
8823 -17 -22 -60 -73 0
-8823 17 0
-8823 22 0
-8823 60 0
-8823 73 0
8824 -17 -28 -52 -60 0
-8824 17 0
-8824 28 0
-8824 52 0
-8824 60 0
8825 -17 -37 -43 -60 0
-8825 17 0
-8825 37 0
-8825 43 0
-8825 60 0
-8823 8824 8825 0
-8824 8823 8825 0
-8825 8823 8824 0
8826 -17 -24 -58 -75 0
-8826 17 0
-8826 24 0
-8826 58 0
-8826 75 0
8827 -17 -30 -54 -58 0
-8827 17 0
-8827 30 0
-8827 54 0
-8827 58 0
8828 -17 -39 -45 -58 0
-8828 17 0
-8828 39 0
-8828 45 0
-8828 58 0
-8826 8827 8828 0
-8827 8826 8828 0
-8828 8826 8827 0
8829 -17 -24 -60 -73 0
-8829 17 0
-8829 24 0
-8829 60 0
-8829 73 0
8830 -17 -27 -48 -73 0
-8830 17 0
-8830 27 0
-8830 48 0
-8830 73 0
8831 -17 -33 -42 -73 0
-8831 17 0
-8831 33 0
-8831 42 0
-8831 73 0
-8829 8830 8831 0
-8830 8829 8831 0
-8831 8829 8830 0
8832 -18 -22 -58 -74 0
-8832 18 0
-8832 22 0
-8832 58 0
-8832 74 0
8833 -18 -25 -46 -74 0
-8833 18 0
-8833 25 0
-8833 46 0
-8833 74 0
8834 -18 -31 -40 -74 0
-8834 18 0
-8834 31 0
-8834 40 0
-8834 74 0
-8832 8833 8834 0
-8833 8832 8834 0
-8834 8832 8833 0
8835 -18 -22 -59 -73 0
-8835 18 0
-8835 22 0
-8835 59 0
-8835 73 0
8836 -18 -28 -52 -59 0
-8836 18 0
-8836 28 0
-8836 52 0
-8836 59 0
8837 -18 -37 -43 -59 0
-8837 18 0
-8837 37 0
-8837 43 0
-8837 59 0
-8835 8836 8837 0
-8836 8835 8837 0
-8837 8835 8836 0
8838 -18 -23 -58 -74 0
-8838 18 0
-8838 23 0
-8838 58 0
-8838 74 0
8839 -18 -29 -53 -58 0
-8839 18 0
-8839 29 0
-8839 53 0
-8839 58 0
8840 -18 -38 -44 -58 0
-8840 18 0
-8840 38 0
-8840 44 0
-8840 58 0
-8838 8839 8840 0
-8839 8838 8840 0
-8840 8838 8839 0
8841 -18 -23 -59 -73 0
-8841 18 0
-8841 23 0
-8841 59 0
-8841 73 0
8842 -18 -26 -47 -73 0
-8842 18 0
-8842 26 0
-8842 47 0
-8842 73 0
8843 -18 -32 -41 -73 0
-8843 18 0
-8843 32 0
-8843 41 0
-8843 73 0
-8841 8842 8843 0
-8842 8841 8843 0
-8843 8841 8842 0
8844 -16 -23 -65 -69 0
-8844 16 0
-8844 23 0
-8844 65 0
-8844 69 0
8845 -16 -26 -53 -69 0
-8845 16 0
-8845 26 0
-8845 53 0
-8845 69 0
8846 -16 -38 -41 -69 0
-8846 16 0
-8846 38 0
-8846 41 0
-8846 69 0
-8844 8845 8846 0
-8845 8844 8846 0
-8846 8844 8845 0
8847 -16 -23 -66 -68 0
-8847 16 0
-8847 23 0
-8847 66 0
-8847 68 0
8848 -16 -29 -47 -66 0
-8848 16 0
-8848 29 0
-8848 47 0
-8848 66 0
8849 -16 -32 -44 -66 0
-8849 16 0
-8849 32 0
-8849 44 0
-8849 66 0
-8847 8848 8849 0
-8848 8847 8849 0
-8849 8847 8848 0
8850 -16 -24 -65 -69 0
-8850 16 0
-8850 24 0
-8850 65 0
-8850 69 0
8851 -16 -30 -48 -65 0
-8851 16 0
-8851 30 0
-8851 48 0
-8851 65 0
8852 -16 -33 -45 -65 0
-8852 16 0
-8852 33 0
-8852 45 0
-8852 65 0
-8850 8851 8852 0
-8851 8850 8852 0
-8852 8850 8851 0
8853 -16 -24 -66 -68 0
-8853 16 0
-8853 24 0
-8853 66 0
-8853 68 0
8854 -16 -27 -54 -68 0
-8854 16 0
-8854 27 0
-8854 54 0
-8854 68 0
8855 -16 -39 -42 -68 0
-8855 16 0
-8855 39 0
-8855 42 0
-8855 68 0
-8853 8854 8855 0
-8854 8853 8855 0
-8855 8853 8854 0
8856 -17 -22 -64 -69 0
-8856 17 0
-8856 22 0
-8856 64 0
-8856 69 0
8857 -17 -25 -52 -69 0
-8857 17 0
-8857 25 0
-8857 52 0
-8857 69 0
8858 -17 -37 -40 -69 0
-8858 17 0
-8858 37 0
-8858 40 0
-8858 69 0
-8856 8857 8858 0
-8857 8856 8858 0
-8858 8856 8857 0
8859 -17 -22 -66 -67 0
-8859 17 0
-8859 22 0
-8859 66 0
-8859 67 0
8860 -17 -28 -46 -66 0
-8860 17 0
-8860 28 0
-8860 46 0
-8860 66 0
8861 -17 -31 -43 -66 0
-8861 17 0
-8861 31 0
-8861 43 0
-8861 66 0
-8859 8860 8861 0
-8860 8859 8861 0
-8861 8859 8860 0
8862 -17 -24 -64 -69 0
-8862 17 0
-8862 24 0
-8862 64 0
-8862 69 0
8863 -17 -30 -48 -64 0
-8863 17 0
-8863 30 0
-8863 48 0
-8863 64 0
8864 -17 -33 -45 -64 0
-8864 17 0
-8864 33 0
-8864 45 0
-8864 64 0
-8862 8863 8864 0
-8863 8862 8864 0
-8864 8862 8863 0
8865 -17 -24 -66 -67 0
-8865 17 0
-8865 24 0
-8865 66 0
-8865 67 0
8866 -17 -27 -54 -67 0
-8866 17 0
-8866 27 0
-8866 54 0
-8866 67 0
8867 -17 -39 -42 -67 0
-8867 17 0
-8867 39 0
-8867 42 0
-8867 67 0
-8865 8866 8867 0
-8866 8865 8867 0
-8867 8865 8866 0
8868 -18 -22 -64 -68 0
-8868 18 0
-8868 22 0
-8868 64 0
-8868 68 0
8869 -18 -25 -52 -68 0
-8869 18 0
-8869 25 0
-8869 52 0
-8869 68 0
8870 -18 -37 -40 -68 0
-8870 18 0
-8870 37 0
-8870 40 0
-8870 68 0
-8868 8869 8870 0
-8869 8868 8870 0
-8870 8868 8869 0
8871 -18 -22 -65 -67 0
-8871 18 0
-8871 22 0
-8871 65 0
-8871 67 0
8872 -18 -28 -46 -65 0
-8872 18 0
-8872 28 0
-8872 46 0
-8872 65 0
8873 -18 -31 -43 -65 0
-8873 18 0
-8873 31 0
-8873 43 0
-8873 65 0
-8871 8872 8873 0
-8872 8871 8873 0
-8873 8871 8872 0
8874 -18 -23 -64 -68 0
-8874 18 0
-8874 23 0
-8874 64 0
-8874 68 0
8875 -18 -29 -47 -64 0
-8875 18 0
-8875 29 0
-8875 47 0
-8875 64 0
8876 -18 -32 -44 -64 0
-8876 18 0
-8876 32 0
-8876 44 0
-8876 64 0
-8874 8875 8876 0
-8875 8874 8876 0
-8876 8874 8875 0
8877 -18 -23 -65 -67 0
-8877 18 0
-8877 23 0
-8877 65 0
-8877 67 0
8878 -18 -26 -53 -67 0
-8878 18 0
-8878 26 0
-8878 53 0
-8878 67 0
8879 -18 -38 -41 -67 0
-8879 18 0
-8879 38 0
-8879 41 0
-8879 67 0
-8877 8878 8879 0
-8878 8877 8879 0
-8879 8877 8878 0
8880 -16 -26 -45 -80 0
-8880 16 0
-8880 26 0
-8880 45 0
-8880 80 0
8881 -16 -32 -45 -65 0
-8881 16 0
-8881 32 0
-8881 45 0
-8881 65 0
8882 -16 -38 -45 -59 0
-8882 16 0
-8882 38 0
-8882 45 0
-8882 59 0
-8880 8881 8882 0
-8881 8880 8882 0
-8882 8880 8881 0
8883 -16 -26 -45 -81 0
-8883 16 0
-8883 26 0
-8883 45 0
-8883 81 0
8884 -16 -26 -48 -75 0
-8884 16 0
-8884 26 0
-8884 48 0
-8884 75 0
8885 -16 -26 -54 -69 0
-8885 16 0
-8885 26 0
-8885 54 0
-8885 69 0
-8883 8884 8885 0
-8884 8883 8885 0
-8885 8883 8884 0
8886 -16 -27 -44 -80 0
-8886 16 0
-8886 27 0
-8886 44 0
-8886 80 0
8887 -16 -27 -47 -74 0
-8887 16 0
-8887 27 0
-8887 47 0
-8887 74 0
8888 -16 -27 -53 -68 0
-8888 16 0
-8888 27 0
-8888 53 0
-8888 68 0
-8886 8887 8888 0
-8887 8886 8888 0
-8888 8886 8887 0
8889 -16 -27 -44 -81 0
-8889 16 0
-8889 27 0
-8889 44 0
-8889 81 0
8890 -16 -33 -44 -66 0
-8890 16 0
-8890 33 0
-8890 44 0
-8890 66 0
8891 -16 -39 -44 -60 0
-8891 16 0
-8891 39 0
-8891 44 0
-8891 60 0
-8889 8890 8891 0
-8890 8889 8891 0
-8891 8889 8890 0
8892 -17 -25 -45 -79 0
-8892 17 0
-8892 25 0
-8892 45 0
-8892 79 0
8893 -17 -31 -45 -64 0
-8893 17 0
-8893 31 0
-8893 45 0
-8893 64 0
8894 -17 -37 -45 -58 0
-8894 17 0
-8894 37 0
-8894 45 0
-8894 58 0
-8892 8893 8894 0
-8893 8892 8894 0
-8894 8892 8893 0
8895 -17 -25 -45 -81 0
-8895 17 0
-8895 25 0
-8895 45 0
-8895 81 0
8896 -17 -25 -48 -75 0
-8896 17 0
-8896 25 0
-8896 48 0
-8896 75 0
8897 -17 -25 -54 -69 0
-8897 17 0
-8897 25 0
-8897 54 0
-8897 69 0
-8895 8896 8897 0
-8896 8895 8897 0
-8897 8895 8896 0
8898 -17 -27 -43 -79 0
-8898 17 0
-8898 27 0
-8898 43 0
-8898 79 0
8899 -17 -27 -46 -73 0
-8899 17 0
-8899 27 0
-8899 46 0
-8899 73 0
8900 -17 -27 -52 -67 0
-8900 17 0
-8900 27 0
-8900 52 0
-8900 67 0
-8898 8899 8900 0
-8899 8898 8900 0
-8900 8898 8899 0
8901 -17 -27 -43 -81 0
-8901 17 0
-8901 27 0
-8901 43 0
-8901 81 0
8902 -17 -33 -43 -66 0
-8902 17 0
-8902 33 0
-8902 43 0
-8902 66 0
8903 -17 -39 -43 -60 0
-8903 17 0
-8903 39 0
-8903 43 0
-8903 60 0
-8901 8902 8903 0
-8902 8901 8903 0
-8903 8901 8902 0
8904 -18 -25 -44 -79 0
-8904 18 0
-8904 25 0
-8904 44 0
-8904 79 0
8905 -18 -31 -44 -64 0
-8905 18 0
-8905 31 0
-8905 44 0
-8905 64 0
8906 -18 -37 -44 -58 0
-8906 18 0
-8906 37 0
-8906 44 0
-8906 58 0
-8904 8905 8906 0
-8905 8904 8906 0
-8906 8904 8905 0
8907 -18 -25 -44 -80 0
-8907 18 0
-8907 25 0
-8907 44 0
-8907 80 0
8908 -18 -25 -47 -74 0
-8908 18 0
-8908 25 0
-8908 47 0
-8908 74 0
8909 -18 -25 -53 -68 0
-8909 18 0
-8909 25 0
-8909 53 0
-8909 68 0
-8907 8908 8909 0
-8908 8907 8909 0
-8909 8907 8908 0
8910 -18 -26 -43 -79 0
-8910 18 0
-8910 26 0
-8910 43 0
-8910 79 0
8911 -18 -26 -46 -73 0
-8911 18 0
-8911 26 0
-8911 46 0
-8911 73 0
8912 -18 -26 -52 -67 0
-8912 18 0
-8912 26 0
-8912 52 0
-8912 67 0
-8910 8911 8912 0
-8911 8910 8912 0
-8912 8910 8911 0
8913 -18 -26 -43 -80 0
-8913 18 0
-8913 26 0
-8913 43 0
-8913 80 0
8914 -18 -32 -43 -65 0
-8914 18 0
-8914 32 0
-8914 43 0
-8914 65 0
8915 -18 -38 -43 -59 0
-8915 18 0
-8915 38 0
-8915 43 0
-8915 59 0
-8913 8914 8915 0
-8914 8913 8915 0
-8915 8913 8914 0
8916 -16 -26 -48 -74 0
-8916 16 0
-8916 26 0
-8916 48 0
-8916 74 0
8917 -16 -29 -48 -65 0
-8917 16 0
-8917 29 0
-8917 48 0
-8917 65 0
8918 -16 -38 -48 -56 0
-8918 16 0
-8918 38 0
-8918 48 0
-8918 56 0
-8916 8917 8918 0
-8917 8916 8918 0
-8918 8916 8917 0
8919 -16 -27 -47 -75 0
-8919 16 0
-8919 27 0
-8919 47 0
-8919 75 0
8920 -16 -30 -47 -66 0
-8920 16 0
-8920 30 0
-8920 47 0
-8920 66 0
8921 -16 -39 -47 -57 0
-8921 16 0
-8921 39 0
-8921 47 0
-8921 57 0
-8919 8920 8921 0
-8920 8919 8921 0
-8921 8919 8920 0
8922 -17 -25 -48 -73 0
-8922 17 0
-8922 25 0
-8922 48 0
-8922 73 0
8923 -17 -28 -48 -64 0
-8923 17 0
-8923 28 0
-8923 48 0
-8923 64 0
8924 -17 -37 -48 -55 0
-8924 17 0
-8924 37 0
-8924 48 0
-8924 55 0
-8922 8923 8924 0
-8923 8922 8924 0
-8924 8922 8923 0
8925 -17 -27 -46 -75 0
-8925 17 0
-8925 27 0
-8925 46 0
-8925 75 0
8926 -17 -30 -46 -66 0
-8926 17 0
-8926 30 0
-8926 46 0
-8926 66 0
8927 -17 -39 -46 -57 0
-8927 17 0
-8927 39 0
-8927 46 0
-8927 57 0
-8925 8926 8927 0
-8926 8925 8927 0
-8927 8925 8926 0
8928 -18 -25 -47 -73 0
-8928 18 0
-8928 25 0
-8928 47 0
-8928 73 0
8929 -18 -28 -47 -64 0
-8929 18 0
-8929 28 0
-8929 47 0
-8929 64 0
8930 -18 -37 -47 -55 0
-8930 18 0
-8930 37 0
-8930 47 0
-8930 55 0
-8928 8929 8930 0
-8929 8928 8930 0
-8930 8928 8929 0
8931 -18 -26 -46 -74 0
-8931 18 0
-8931 26 0
-8931 46 0
-8931 74 0
8932 -18 -29 -46 -65 0
-8932 18 0
-8932 29 0
-8932 46 0
-8932 65 0
8933 -18 -38 -46 -56 0
-8933 18 0
-8933 38 0
-8933 46 0
-8933 56 0
-8931 8932 8933 0
-8932 8931 8933 0
-8933 8931 8932 0
8934 -16 -26 -54 -68 0
-8934 16 0
-8934 26 0
-8934 54 0
-8934 68 0
8935 -16 -29 -54 -59 0
-8935 16 0
-8935 29 0
-8935 54 0
-8935 59 0
8936 -16 -32 -54 -56 0
-8936 16 0
-8936 32 0
-8936 54 0
-8936 56 0
-8934 8935 8936 0
-8935 8934 8936 0
-8936 8934 8935 0
8937 -16 -27 -53 -69 0
-8937 16 0
-8937 27 0
-8937 53 0
-8937 69 0
8938 -16 -30 -53 -60 0
-8938 16 0
-8938 30 0
-8938 53 0
-8938 60 0
8939 -16 -33 -53 -57 0
-8939 16 0
-8939 33 0
-8939 53 0
-8939 57 0
-8937 8938 8939 0
-8938 8937 8939 0
-8939 8937 8938 0
8940 -17 -25 -54 -67 0
-8940 17 0
-8940 25 0
-8940 54 0
-8940 67 0
8941 -17 -28 -54 -58 0
-8941 17 0
-8941 28 0
-8941 54 0
-8941 58 0
8942 -17 -31 -54 -55 0
-8942 17 0
-8942 31 0
-8942 54 0
-8942 55 0
-8940 8941 8942 0
-8941 8940 8942 0
-8942 8940 8941 0
8943 -17 -27 -52 -69 0
-8943 17 0
-8943 27 0
-8943 52 0
-8943 69 0
8944 -17 -30 -52 -60 0
-8944 17 0
-8944 30 0
-8944 52 0
-8944 60 0
8945 -17 -33 -52 -57 0
-8945 17 0
-8945 33 0
-8945 52 0
-8945 57 0
-8943 8944 8945 0
-8944 8943 8945 0
-8945 8943 8944 0
8946 -18 -25 -53 -67 0
-8946 18 0
-8946 25 0
-8946 53 0
-8946 67 0
8947 -18 -28 -53 -58 0
-8947 18 0
-8947 28 0
-8947 53 0
-8947 58 0
8948 -18 -31 -53 -55 0
-8948 18 0
-8948 31 0
-8948 53 0
-8948 55 0
-8946 8947 8948 0
-8947 8946 8948 0
-8948 8946 8947 0
8949 -18 -26 -52 -68 0
-8949 18 0
-8949 26 0
-8949 52 0
-8949 68 0
8950 -18 -29 -52 -59 0
-8950 18 0
-8950 29 0
-8950 52 0
-8950 59 0
8951 -18 -32 -52 -56 0
-8951 18 0
-8951 32 0
-8951 52 0
-8951 56 0
-8949 8950 8951 0
-8950 8949 8951 0
-8951 8949 8950 0
8952 -16 -29 -42 -80 0
-8952 16 0
-8952 29 0
-8952 42 0
-8952 80 0
8953 -16 -32 -42 -74 0
-8953 16 0
-8953 32 0
-8953 42 0
-8953 74 0
8954 -16 -38 -42 -68 0
-8954 16 0
-8954 38 0
-8954 42 0
-8954 68 0
-8952 8953 8954 0
-8953 8952 8954 0
-8954 8952 8953 0
8955 -16 -29 -42 -81 0
-8955 16 0
-8955 29 0
-8955 42 0
-8955 81 0
8956 -16 -29 -48 -66 0
-8956 16 0
-8956 29 0
-8956 48 0
-8956 66 0
8957 -16 -29 -54 -60 0
-8957 16 0
-8957 29 0
-8957 54 0
-8957 60 0
-8955 8956 8957 0
-8956 8955 8957 0
-8957 8955 8956 0
8958 -16 -30 -41 -80 0
-8958 16 0
-8958 30 0
-8958 41 0
-8958 80 0
8959 -16 -30 -47 -65 0
-8959 16 0
-8959 30 0
-8959 47 0
-8959 65 0
8960 -16 -30 -53 -59 0
-8960 16 0
-8960 30 0
-8960 53 0
-8960 59 0
-8958 8959 8960 0
-8959 8958 8960 0
-8960 8958 8959 0
8961 -16 -30 -41 -81 0
-8961 16 0
-8961 30 0
-8961 41 0
-8961 81 0
8962 -16 -33 -41 -75 0
-8962 16 0
-8962 33 0
-8962 41 0
-8962 75 0
8963 -16 -39 -41 -69 0
-8963 16 0
-8963 39 0
-8963 41 0
-8963 69 0
-8961 8962 8963 0
-8962 8961 8963 0
-8963 8961 8962 0
8964 -17 -28 -42 -79 0
-8964 17 0
-8964 28 0
-8964 42 0
-8964 79 0
8965 -17 -31 -42 -73 0
-8965 17 0
-8965 31 0
-8965 42 0
-8965 73 0
8966 -17 -37 -42 -67 0
-8966 17 0
-8966 37 0
-8966 42 0
-8966 67 0
-8964 8965 8966 0
-8965 8964 8966 0
-8966 8964 8965 0
8967 -17 -28 -42 -81 0
-8967 17 0
-8967 28 0
-8967 42 0
-8967 81 0
8968 -17 -28 -48 -66 0
-8968 17 0
-8968 28 0
-8968 48 0
-8968 66 0
8969 -17 -28 -54 -60 0
-8969 17 0
-8969 28 0
-8969 54 0
-8969 60 0
-8967 8968 8969 0
-8968 8967 8969 0
-8969 8967 8968 0
8970 -17 -30 -40 -79 0
-8970 17 0
-8970 30 0
-8970 40 0
-8970 79 0
8971 -17 -30 -46 -64 0
-8971 17 0
-8971 30 0
-8971 46 0
-8971 64 0
8972 -17 -30 -52 -58 0
-8972 17 0
-8972 30 0
-8972 52 0
-8972 58 0
-8970 8971 8972 0
-8971 8970 8972 0
-8972 8970 8971 0
8973 -17 -30 -40 -81 0
-8973 17 0
-8973 30 0
-8973 40 0
-8973 81 0
8974 -17 -33 -40 -75 0
-8974 17 0
-8974 33 0
-8974 40 0
-8974 75 0
8975 -17 -39 -40 -69 0
-8975 17 0
-8975 39 0
-8975 40 0
-8975 69 0
-8973 8974 8975 0
-8974 8973 8975 0
-8975 8973 8974 0
8976 -18 -28 -41 -79 0
-8976 18 0
-8976 28 0
-8976 41 0
-8976 79 0
8977 -18 -31 -41 -73 0
-8977 18 0
-8977 31 0
-8977 41 0
-8977 73 0
8978 -18 -37 -41 -67 0
-8978 18 0
-8978 37 0
-8978 41 0
-8978 67 0
-8976 8977 8978 0
-8977 8976 8978 0
-8978 8976 8977 0
8979 -18 -28 -41 -80 0
-8979 18 0
-8979 28 0
-8979 41 0
-8979 80 0
8980 -18 -28 -47 -65 0
-8980 18 0
-8980 28 0
-8980 47 0
-8980 65 0
8981 -18 -28 -53 -59 0
-8981 18 0
-8981 28 0
-8981 53 0
-8981 59 0
-8979 8980 8981 0
-8980 8979 8981 0
-8981 8979 8980 0
8982 -18 -29 -40 -79 0
-8982 18 0
-8982 29 0
-8982 40 0
-8982 79 0
8983 -18 -29 -46 -64 0
-8983 18 0
-8983 29 0
-8983 46 0
-8983 64 0
8984 -18 -29 -52 -58 0
-8984 18 0
-8984 29 0
-8984 52 0
-8984 58 0
-8982 8983 8984 0
-8983 8982 8984 0
-8984 8982 8983 0
8985 -18 -29 -40 -80 0
-8985 18 0
-8985 29 0
-8985 40 0
-8985 80 0
8986 -18 -32 -40 -74 0
-8986 18 0
-8986 32 0
-8986 40 0
-8986 74 0
8987 -18 -38 -40 -68 0
-8987 18 0
-8987 38 0
-8987 40 0
-8987 68 0
-8985 8986 8987 0
-8986 8985 8987 0
-8987 8985 8986 0
8988 -16 -32 -42 -75 0
-8988 16 0
-8988 32 0
-8988 42 0
-8988 75 0
8989 -16 -32 -45 -66 0
-8989 16 0
-8989 32 0
-8989 45 0
-8989 66 0
8990 -16 -32 -54 -57 0
-8990 16 0
-8990 32 0
-8990 54 0
-8990 57 0
-8988 8989 8990 0
-8989 8988 8990 0
-8990 8988 8989 0
8991 -16 -33 -41 -74 0
-8991 16 0
-8991 33 0
-8991 41 0
-8991 74 0
8992 -16 -33 -44 -65 0
-8992 16 0
-8992 33 0
-8992 44 0
-8992 65 0
8993 -16 -33 -53 -56 0
-8993 16 0
-8993 33 0
-8993 53 0
-8993 56 0
-8991 8992 8993 0
-8992 8991 8993 0
-8993 8991 8992 0
8994 -17 -31 -42 -75 0
-8994 17 0
-8994 31 0
-8994 42 0
-8994 75 0
8995 -17 -31 -45 -66 0
-8995 17 0
-8995 31 0
-8995 45 0
-8995 66 0
8996 -17 -31 -54 -57 0
-8996 17 0
-8996 31 0
-8996 54 0
-8996 57 0
-8994 8995 8996 0
-8995 8994 8996 0
-8996 8994 8995 0
8997 -17 -33 -40 -73 0
-8997 17 0
-8997 33 0
-8997 40 0
-8997 73 0
8998 -17 -33 -43 -64 0
-8998 17 0
-8998 33 0
-8998 43 0
-8998 64 0
8999 -17 -33 -52 -55 0
-8999 17 0
-8999 33 0
-8999 52 0
-8999 55 0
-8997 8998 8999 0
-8998 8997 8999 0
-8999 8997 8998 0
9000 -18 -31 -41 -74 0
-9000 18 0
-9000 31 0
-9000 41 0
-9000 74 0
9001 -18 -31 -44 -65 0
-9001 18 0
-9001 31 0
-9001 44 0
-9001 65 0
9002 -18 -31 -53 -56 0
-9002 18 0
-9002 31 0
-9002 53 0
-9002 56 0
-9000 9001 9002 0
-9001 9000 9002 0
-9002 9000 9001 0
9003 -18 -32 -40 -73 0
-9003 18 0
-9003 32 0
-9003 40 0
-9003 73 0
9004 -18 -32 -43 -64 0
-9004 18 0
-9004 32 0
-9004 43 0
-9004 64 0
9005 -18 -32 -52 -55 0
-9005 18 0
-9005 32 0
-9005 52 0
-9005 55 0
-9003 9004 9005 0
-9004 9003 9005 0
-9005 9003 9004 0
9006 -16 -38 -42 -69 0
-9006 16 0
-9006 38 0
-9006 42 0
-9006 69 0
9007 -16 -38 -45 -60 0
-9007 16 0
-9007 38 0
-9007 45 0
-9007 60 0
9008 -16 -38 -48 -57 0
-9008 16 0
-9008 38 0
-9008 48 0
-9008 57 0
-9006 9007 9008 0
-9007 9006 9008 0
-9008 9006 9007 0
9009 -16 -39 -41 -68 0
-9009 16 0
-9009 39 0
-9009 41 0
-9009 68 0
9010 -16 -39 -44 -59 0
-9010 16 0
-9010 39 0
-9010 44 0
-9010 59 0
9011 -16 -39 -47 -56 0
-9011 16 0
-9011 39 0
-9011 47 0
-9011 56 0
-9009 9010 9011 0
-9010 9009 9011 0
-9011 9009 9010 0
9012 -17 -37 -42 -69 0
-9012 17 0
-9012 37 0
-9012 42 0
-9012 69 0
9013 -17 -37 -45 -60 0
-9013 17 0
-9013 37 0
-9013 45 0
-9013 60 0
9014 -17 -37 -48 -57 0
-9014 17 0
-9014 37 0
-9014 48 0
-9014 57 0
-9012 9013 9014 0
-9013 9012 9014 0
-9014 9012 9013 0
9015 -17 -39 -40 -67 0
-9015 17 0
-9015 39 0
-9015 40 0
-9015 67 0
9016 -17 -39 -43 -58 0
-9016 17 0
-9016 39 0
-9016 43 0
-9016 58 0
9017 -17 -39 -46 -55 0
-9017 17 0
-9017 39 0
-9017 46 0
-9017 55 0
-9015 9016 9017 0
-9016 9015 9017 0
-9017 9015 9016 0
9018 -18 -37 -41 -68 0
-9018 18 0
-9018 37 0
-9018 41 0
-9018 68 0
9019 -18 -37 -44 -59 0
-9019 18 0
-9019 37 0
-9019 44 0
-9019 59 0
9020 -18 -37 -47 -56 0
-9020 18 0
-9020 37 0
-9020 47 0
-9020 56 0
-9018 9019 9020 0
-9019 9018 9020 0
-9020 9018 9019 0
9021 -18 -38 -40 -67 0
-9021 18 0
-9021 38 0
-9021 40 0
-9021 67 0
9022 -18 -38 -43 -58 0
-9022 18 0
-9022 38 0
-9022 43 0
-9022 58 0
9023 -18 -38 -46 -55 0
-9023 18 0
-9023 38 0
-9023 46 0
-9023 55 0
-9021 9022 9023 0
-9022 9021 9023 0
-9023 9021 9022 0
9024 -19 -23 -56 -77 0
-9024 19 0
-9024 23 0
-9024 56 0
-9024 77 0
9025 -19 -23 -59 -71 0
-9025 19 0
-9025 23 0
-9025 59 0
-9025 71 0
9026 -19 -23 -62 -68 0
-9026 19 0
-9026 23 0
-9026 62 0
-9026 68 0
9027 -19 -26 -44 -77 0
-9027 19 0
-9027 26 0
-9027 44 0
-9027 77 0
9028 -19 -26 -47 -71 0
-9028 19 0
-9028 26 0
-9028 47 0
-9028 71 0
9029 -19 -26 -50 -68 0
-9029 19 0
-9029 26 0
-9029 50 0
-9029 68 0
9030 -19 -29 -41 -77 0
-9030 19 0
-9030 29 0
-9030 41 0
-9030 77 0
9031 -19 -29 -47 -62 0
-9031 19 0
-9031 29 0
-9031 47 0
-9031 62 0
9032 -19 -29 -50 -59 0
-9032 19 0
-9032 29 0
-9032 50 0
-9032 59 0
9033 -19 -32 -41 -71 0
-9033 19 0
-9033 32 0
-9033 41 0
-9033 71 0
9034 -19 -32 -44 -62 0
-9034 19 0
-9034 32 0
-9034 44 0
-9034 62 0
9035 -19 -32 -50 -56 0
-9035 19 0
-9035 32 0
-9035 50 0
-9035 56 0
9036 -19 -35 -41 -68 0
-9036 19 0
-9036 35 0
-9036 41 0
-9036 68 0
9037 -19 -35 -44 -59 0
-9037 19 0
-9037 35 0
-9037 44 0
-9037 59 0
9038 -19 -35 -47 -56 0
-9038 19 0
-9038 35 0
-9038 47 0
-9038 56 0
-9024 9025 9026 9027 9028 9029 9030 9031 9032 9033 9034 9035 9036 9037 9038 0
-9025 9024 9026 9027 9028 9029 9030 9031 9032 9033 9034 9035 9036 9037 9038 0
-9026 9024 9025 9027 9028 9029 9030 9031 9032 9033 9034 9035 9036 9037 9038 0
-9027 9024 9025 9026 9028 9029 9030 9031 9032 9033 9034 9035 9036 9037 9038 0
-9028 9024 9025 9026 9027 9029 9030 9031 9032 9033 9034 9035 9036 9037 9038 0
-9029 9024 9025 9026 9027 9028 9030 9031 9032 9033 9034 9035 9036 9037 9038 0
-9030 9024 9025 9026 9027 9028 9029 9031 9032 9033 9034 9035 9036 9037 9038 0
-9031 9024 9025 9026 9027 9028 9029 9030 9032 9033 9034 9035 9036 9037 9038 0
-9032 9024 9025 9026 9027 9028 9029 9030 9031 9033 9034 9035 9036 9037 9038 0
-9033 9024 9025 9026 9027 9028 9029 9030 9031 9032 9034 9035 9036 9037 9038 0
-9034 9024 9025 9026 9027 9028 9029 9030 9031 9032 9033 9035 9036 9037 9038 0
-9035 9024 9025 9026 9027 9028 9029 9030 9031 9032 9033 9034 9036 9037 9038 0
-9036 9024 9025 9026 9027 9028 9029 9030 9031 9032 9033 9034 9035 9037 9038 0
-9037 9024 9025 9026 9027 9028 9029 9030 9031 9032 9033 9034 9035 9036 9038 0
-9038 9024 9025 9026 9027 9028 9029 9030 9031 9032 9033 9034 9035 9036 9037 0
9039 -19 -23 -56 -78 0
-9039 19 0
-9039 23 0
-9039 56 0
-9039 78 0
9040 -19 -26 -44 -78 0
-9040 19 0
-9040 26 0
-9040 44 0
-9040 78 0
9041 -19 -29 -41 -78 0
-9041 19 0
-9041 29 0
-9041 41 0
-9041 78 0
-9039 9040 9041 0
-9040 9039 9041 0
-9041 9039 9040 0
9042 -19 -23 -57 -77 0
-9042 19 0
-9042 23 0
-9042 57 0
-9042 77 0
9043 -19 -32 -50 -57 0
-9043 19 0
-9043 32 0
-9043 50 0
-9043 57 0
9044 -19 -35 -47 -57 0
-9044 19 0
-9044 35 0
-9044 47 0
-9044 57 0
-9042 9043 9044 0
-9043 9042 9044 0
-9044 9042 9043 0
9045 -19 -23 -57 -78 0
-9045 19 0
-9045 23 0
-9045 57 0
-9045 78 0
9046 -19 -23 -60 -72 0
-9046 19 0
-9046 23 0
-9046 60 0
-9046 72 0
9047 -19 -23 -63 -69 0
-9047 19 0
-9047 23 0
-9047 63 0
-9047 69 0
-9045 9046 9047 0
-9046 9045 9047 0
-9047 9045 9046 0
9048 -19 -24 -56 -77 0
-9048 19 0
-9048 24 0
-9048 56 0
-9048 77 0
9049 -19 -24 -59 -71 0
-9049 19 0
-9049 24 0
-9049 59 0
-9049 71 0
9050 -19 -24 -62 -68 0
-9050 19 0
-9050 24 0
-9050 62 0
-9050 68 0
-9048 9049 9050 0
-9049 9048 9050 0
-9050 9048 9049 0
9051 -19 -24 -56 -78 0
-9051 19 0
-9051 24 0
-9051 56 0
-9051 78 0
9052 -19 -33 -51 -56 0
-9052 19 0
-9052 33 0
-9052 51 0
-9052 56 0
9053 -19 -36 -48 -56 0
-9053 19 0
-9053 36 0
-9053 48 0
-9053 56 0
-9051 9052 9053 0
-9052 9051 9053 0
-9053 9051 9052 0
9054 -19 -24 -57 -77 0
-9054 19 0
-9054 24 0
-9054 57 0
-9054 77 0
9055 -19 -27 -45 -77 0
-9055 19 0
-9055 27 0
-9055 45 0
-9055 77 0
9056 -19 -30 -42 -77 0
-9056 19 0
-9056 30 0
-9056 42 0
-9056 77 0
-9054 9055 9056 0
-9055 9054 9056 0
-9056 9054 9055 0
9057 -19 -24 -57 -78 0
-9057 19 0
-9057 24 0
-9057 57 0
-9057 78 0
9058 -19 -24 -60 -72 0
-9058 19 0
-9058 24 0
-9058 60 0
-9058 72 0
9059 -19 -24 -63 -69 0
-9059 19 0
-9059 24 0
-9059 63 0
-9059 69 0
9060 -19 -27 -45 -78 0
-9060 19 0
-9060 27 0
-9060 45 0
-9060 78 0
9061 -19 -27 -48 -72 0
-9061 19 0
-9061 27 0
-9061 48 0
-9061 72 0
9062 -19 -27 -51 -69 0
-9062 19 0
-9062 27 0
-9062 51 0
-9062 69 0
9063 -19 -30 -42 -78 0
-9063 19 0
-9063 30 0
-9063 42 0
-9063 78 0
9064 -19 -30 -48 -63 0
-9064 19 0
-9064 30 0
-9064 48 0
-9064 63 0
9065 -19 -30 -51 -60 0
-9065 19 0
-9065 30 0
-9065 51 0
-9065 60 0
9066 -19 -33 -42 -72 0
-9066 19 0
-9066 33 0
-9066 42 0
-9066 72 0
9067 -19 -33 -45 -63 0
-9067 19 0
-9067 33 0
-9067 45 0
-9067 63 0
9068 -19 -33 -51 -57 0
-9068 19 0
-9068 33 0
-9068 51 0
-9068 57 0
9069 -19 -36 -42 -69 0
-9069 19 0
-9069 36 0
-9069 42 0
-9069 69 0
9070 -19 -36 -45 -60 0
-9070 19 0
-9070 36 0
-9070 45 0
-9070 60 0
9071 -19 -36 -48 -57 0
-9071 19 0
-9071 36 0
-9071 48 0
-9071 57 0
-9057 9058 9059 9060 9061 9062 9063 9064 9065 9066 9067 9068 9069 9070 9071 0
-9058 9057 9059 9060 9061 9062 9063 9064 9065 9066 9067 9068 9069 9070 9071 0
-9059 9057 9058 9060 9061 9062 9063 9064 9065 9066 9067 9068 9069 9070 9071 0
-9060 9057 9058 9059 9061 9062 9063 9064 9065 9066 9067 9068 9069 9070 9071 0
-9061 9057 9058 9059 9060 9062 9063 9064 9065 9066 9067 9068 9069 9070 9071 0
-9062 9057 9058 9059 9060 9061 9063 9064 9065 9066 9067 9068 9069 9070 9071 0
-9063 9057 9058 9059 9060 9061 9062 9064 9065 9066 9067 9068 9069 9070 9071 0
-9064 9057 9058 9059 9060 9061 9062 9063 9065 9066 9067 9068 9069 9070 9071 0
-9065 9057 9058 9059 9060 9061 9062 9063 9064 9066 9067 9068 9069 9070 9071 0
-9066 9057 9058 9059 9060 9061 9062 9063 9064 9065 9067 9068 9069 9070 9071 0
-9067 9057 9058 9059 9060 9061 9062 9063 9064 9065 9066 9068 9069 9070 9071 0
-9068 9057 9058 9059 9060 9061 9062 9063 9064 9065 9066 9067 9069 9070 9071 0
-9069 9057 9058 9059 9060 9061 9062 9063 9064 9065 9066 9067 9068 9070 9071 0
-9070 9057 9058 9059 9060 9061 9062 9063 9064 9065 9066 9067 9068 9069 9071 0
-9071 9057 9058 9059 9060 9061 9062 9063 9064 9065 9066 9067 9068 9069 9070 0
9072 -20 -22 -55 -76 0
-9072 20 0
-9072 22 0
-9072 55 0
-9072 76 0
9073 -20 -22 -58 -70 0
-9073 20 0
-9073 22 0
-9073 58 0
-9073 70 0
9074 -20 -22 -61 -67 0
-9074 20 0
-9074 22 0
-9074 61 0
-9074 67 0
9075 -20 -25 -43 -76 0
-9075 20 0
-9075 25 0
-9075 43 0
-9075 76 0
9076 -20 -25 -46 -70 0
-9076 20 0
-9076 25 0
-9076 46 0
-9076 70 0
9077 -20 -25 -49 -67 0
-9077 20 0
-9077 25 0
-9077 49 0
-9077 67 0
9078 -20 -28 -40 -76 0
-9078 20 0
-9078 28 0
-9078 40 0
-9078 76 0
9079 -20 -28 -46 -61 0
-9079 20 0
-9079 28 0
-9079 46 0
-9079 61 0
9080 -20 -28 -49 -58 0
-9080 20 0
-9080 28 0
-9080 49 0
-9080 58 0
9081 -20 -31 -40 -70 0
-9081 20 0
-9081 31 0
-9081 40 0
-9081 70 0
9082 -20 -31 -43 -61 0
-9082 20 0
-9082 31 0
-9082 43 0
-9082 61 0
9083 -20 -31 -49 -55 0
-9083 20 0
-9083 31 0
-9083 49 0
-9083 55 0
9084 -20 -34 -40 -67 0
-9084 20 0
-9084 34 0
-9084 40 0
-9084 67 0
9085 -20 -34 -43 -58 0
-9085 20 0
-9085 34 0
-9085 43 0
-9085 58 0
9086 -20 -34 -46 -55 0
-9086 20 0
-9086 34 0
-9086 46 0
-9086 55 0
-9072 9073 9074 9075 9076 9077 9078 9079 9080 9081 9082 9083 9084 9085 9086 0
-9073 9072 9074 9075 9076 9077 9078 9079 9080 9081 9082 9083 9084 9085 9086 0
-9074 9072 9073 9075 9076 9077 9078 9079 9080 9081 9082 9083 9084 9085 9086 0
-9075 9072 9073 9074 9076 9077 9078 9079 9080 9081 9082 9083 9084 9085 9086 0
-9076 9072 9073 9074 9075 9077 9078 9079 9080 9081 9082 9083 9084 9085 9086 0
-9077 9072 9073 9074 9075 9076 9078 9079 9080 9081 9082 9083 9084 9085 9086 0
-9078 9072 9073 9074 9075 9076 9077 9079 9080 9081 9082 9083 9084 9085 9086 0
-9079 9072 9073 9074 9075 9076 9077 9078 9080 9081 9082 9083 9084 9085 9086 0
-9080 9072 9073 9074 9075 9076 9077 9078 9079 9081 9082 9083 9084 9085 9086 0
-9081 9072 9073 9074 9075 9076 9077 9078 9079 9080 9082 9083 9084 9085 9086 0
-9082 9072 9073 9074 9075 9076 9077 9078 9079 9080 9081 9083 9084 9085 9086 0
-9083 9072 9073 9074 9075 9076 9077 9078 9079 9080 9081 9082 9084 9085 9086 0
-9084 9072 9073 9074 9075 9076 9077 9078 9079 9080 9081 9082 9083 9085 9086 0
-9085 9072 9073 9074 9075 9076 9077 9078 9079 9080 9081 9082 9083 9084 9086 0
-9086 9072 9073 9074 9075 9076 9077 9078 9079 9080 9081 9082 9083 9084 9085 0
9087 -20 -22 -55 -78 0
-9087 20 0
-9087 22 0
-9087 55 0
-9087 78 0
9088 -20 -25 -43 -78 0
-9088 20 0
-9088 25 0
-9088 43 0
-9088 78 0
9089 -20 -28 -40 -78 0
-9089 20 0
-9089 28 0
-9089 40 0
-9089 78 0
-9087 9088 9089 0
-9088 9087 9089 0
-9089 9087 9088 0
9090 -20 -22 -57 -76 0
-9090 20 0
-9090 22 0
-9090 57 0
-9090 76 0
9091 -20 -31 -49 -57 0
-9091 20 0
-9091 31 0
-9091 49 0
-9091 57 0
9092 -20 -34 -46 -57 0
-9092 20 0
-9092 34 0
-9092 46 0
-9092 57 0
-9090 9091 9092 0
-9091 9090 9092 0
-9092 9090 9091 0
9093 -20 -22 -57 -78 0
-9093 20 0
-9093 22 0
-9093 57 0
-9093 78 0
9094 -20 -22 -60 -72 0
-9094 20 0
-9094 22 0
-9094 60 0
-9094 72 0
9095 -20 -22 -63 -69 0
-9095 20 0
-9095 22 0
-9095 63 0
-9095 69 0
-9093 9094 9095 0
-9094 9093 9095 0
-9095 9093 9094 0
9096 -20 -24 -55 -76 0
-9096 20 0
-9096 24 0
-9096 55 0
-9096 76 0
9097 -20 -24 -58 -70 0
-9097 20 0
-9097 24 0
-9097 58 0
-9097 70 0
9098 -20 -24 -61 -67 0
-9098 20 0
-9098 24 0
-9098 61 0
-9098 67 0
-9096 9097 9098 0
-9097 9096 9098 0
-9098 9096 9097 0
9099 -20 -24 -55 -78 0
-9099 20 0
-9099 24 0
-9099 55 0
-9099 78 0
9100 -20 -33 -51 -55 0
-9100 20 0
-9100 33 0
-9100 51 0
-9100 55 0
9101 -20 -36 -48 -55 0
-9101 20 0
-9101 36 0
-9101 48 0
-9101 55 0
-9099 9100 9101 0
-9100 9099 9101 0
-9101 9099 9100 0
9102 -20 -24 -57 -76 0
-9102 20 0
-9102 24 0
-9102 57 0
-9102 76 0
9103 -20 -27 -45 -76 0
-9103 20 0
-9103 27 0
-9103 45 0
-9103 76 0
9104 -20 -30 -42 -76 0
-9104 20 0
-9104 30 0
-9104 42 0
-9104 76 0
-9102 9103 9104 0
-9103 9102 9104 0
-9104 9102 9103 0
9105 -20 -24 -57 -78 0
-9105 20 0
-9105 24 0
-9105 57 0
-9105 78 0
9106 -20 -24 -60 -72 0
-9106 20 0
-9106 24 0
-9106 60 0
-9106 72 0
9107 -20 -24 -63 -69 0
-9107 20 0
-9107 24 0
-9107 63 0
-9107 69 0
9108 -20 -27 -45 -78 0
-9108 20 0
-9108 27 0
-9108 45 0
-9108 78 0
9109 -20 -27 -48 -72 0
-9109 20 0
-9109 27 0
-9109 48 0
-9109 72 0
9110 -20 -27 -51 -69 0
-9110 20 0
-9110 27 0
-9110 51 0
-9110 69 0
9111 -20 -30 -42 -78 0
-9111 20 0
-9111 30 0
-9111 42 0
-9111 78 0
9112 -20 -30 -48 -63 0
-9112 20 0
-9112 30 0
-9112 48 0
-9112 63 0
9113 -20 -30 -51 -60 0
-9113 20 0
-9113 30 0
-9113 51 0
-9113 60 0
9114 -20 -33 -42 -72 0
-9114 20 0
-9114 33 0
-9114 42 0
-9114 72 0
9115 -20 -33 -45 -63 0
-9115 20 0
-9115 33 0
-9115 45 0
-9115 63 0
9116 -20 -33 -51 -57 0
-9116 20 0
-9116 33 0
-9116 51 0
-9116 57 0
9117 -20 -36 -42 -69 0
-9117 20 0
-9117 36 0
-9117 42 0
-9117 69 0
9118 -20 -36 -45 -60 0
-9118 20 0
-9118 36 0
-9118 45 0
-9118 60 0
9119 -20 -36 -48 -57 0
-9119 20 0
-9119 36 0
-9119 48 0
-9119 57 0
-9105 9106 9107 9108 9109 9110 9111 9112 9113 9114 9115 9116 9117 9118 9119 0
-9106 9105 9107 9108 9109 9110 9111 9112 9113 9114 9115 9116 9117 9118 9119 0
-9107 9105 9106 9108 9109 9110 9111 9112 9113 9114 9115 9116 9117 9118 9119 0
-9108 9105 9106 9107 9109 9110 9111 9112 9113 9114 9115 9116 9117 9118 9119 0
-9109 9105 9106 9107 9108 9110 9111 9112 9113 9114 9115 9116 9117 9118 9119 0
-9110 9105 9106 9107 9108 9109 9111 9112 9113 9114 9115 9116 9117 9118 9119 0
-9111 9105 9106 9107 9108 9109 9110 9112 9113 9114 9115 9116 9117 9118 9119 0
-9112 9105 9106 9107 9108 9109 9110 9111 9113 9114 9115 9116 9117 9118 9119 0
-9113 9105 9106 9107 9108 9109 9110 9111 9112 9114 9115 9116 9117 9118 9119 0
-9114 9105 9106 9107 9108 9109 9110 9111 9112 9113 9115 9116 9117 9118 9119 0
-9115 9105 9106 9107 9108 9109 9110 9111 9112 9113 9114 9116 9117 9118 9119 0
-9116 9105 9106 9107 9108 9109 9110 9111 9112 9113 9114 9115 9117 9118 9119 0
-9117 9105 9106 9107 9108 9109 9110 9111 9112 9113 9114 9115 9116 9118 9119 0
-9118 9105 9106 9107 9108 9109 9110 9111 9112 9113 9114 9115 9116 9117 9119 0
-9119 9105 9106 9107 9108 9109 9110 9111 9112 9113 9114 9115 9116 9117 9118 0
9120 -21 -22 -55 -76 0
-9120 21 0
-9120 22 0
-9120 55 0
-9120 76 0
9121 -21 -22 -58 -70 0
-9121 21 0
-9121 22 0
-9121 58 0
-9121 70 0
9122 -21 -22 -61 -67 0
-9122 21 0
-9122 22 0
-9122 61 0
-9122 67 0
9123 -21 -25 -43 -76 0
-9123 21 0
-9123 25 0
-9123 43 0
-9123 76 0
9124 -21 -25 -46 -70 0
-9124 21 0
-9124 25 0
-9124 46 0
-9124 70 0
9125 -21 -25 -49 -67 0
-9125 21 0
-9125 25 0
-9125 49 0
-9125 67 0
9126 -21 -28 -40 -76 0
-9126 21 0
-9126 28 0
-9126 40 0
-9126 76 0
9127 -21 -28 -46 -61 0
-9127 21 0
-9127 28 0
-9127 46 0
-9127 61 0
9128 -21 -28 -49 -58 0
-9128 21 0
-9128 28 0
-9128 49 0
-9128 58 0
9129 -21 -31 -40 -70 0
-9129 21 0
-9129 31 0
-9129 40 0
-9129 70 0
9130 -21 -31 -43 -61 0
-9130 21 0
-9130 31 0
-9130 43 0
-9130 61 0
9131 -21 -31 -49 -55 0
-9131 21 0
-9131 31 0
-9131 49 0
-9131 55 0
9132 -21 -34 -40 -67 0
-9132 21 0
-9132 34 0
-9132 40 0
-9132 67 0
9133 -21 -34 -43 -58 0
-9133 21 0
-9133 34 0
-9133 43 0
-9133 58 0
9134 -21 -34 -46 -55 0
-9134 21 0
-9134 34 0
-9134 46 0
-9134 55 0
-9120 9121 9122 9123 9124 9125 9126 9127 9128 9129 9130 9131 9132 9133 9134 0
-9121 9120 9122 9123 9124 9125 9126 9127 9128 9129 9130 9131 9132 9133 9134 0
-9122 9120 9121 9123 9124 9125 9126 9127 9128 9129 9130 9131 9132 9133 9134 0
-9123 9120 9121 9122 9124 9125 9126 9127 9128 9129 9130 9131 9132 9133 9134 0
-9124 9120 9121 9122 9123 9125 9126 9127 9128 9129 9130 9131 9132 9133 9134 0
-9125 9120 9121 9122 9123 9124 9126 9127 9128 9129 9130 9131 9132 9133 9134 0
-9126 9120 9121 9122 9123 9124 9125 9127 9128 9129 9130 9131 9132 9133 9134 0
-9127 9120 9121 9122 9123 9124 9125 9126 9128 9129 9130 9131 9132 9133 9134 0
-9128 9120 9121 9122 9123 9124 9125 9126 9127 9129 9130 9131 9132 9133 9134 0
-9129 9120 9121 9122 9123 9124 9125 9126 9127 9128 9130 9131 9132 9133 9134 0
-9130 9120 9121 9122 9123 9124 9125 9126 9127 9128 9129 9131 9132 9133 9134 0
-9131 9120 9121 9122 9123 9124 9125 9126 9127 9128 9129 9130 9132 9133 9134 0
-9132 9120 9121 9122 9123 9124 9125 9126 9127 9128 9129 9130 9131 9133 9134 0
-9133 9120 9121 9122 9123 9124 9125 9126 9127 9128 9129 9130 9131 9132 9134 0
-9134 9120 9121 9122 9123 9124 9125 9126 9127 9128 9129 9130 9131 9132 9133 0
9135 -21 -22 -55 -77 0
-9135 21 0
-9135 22 0
-9135 55 0
-9135 77 0
9136 -21 -25 -43 -77 0
-9136 21 0
-9136 25 0
-9136 43 0
-9136 77 0
9137 -21 -28 -40 -77 0
-9137 21 0
-9137 28 0
-9137 40 0
-9137 77 0
-9135 9136 9137 0
-9136 9135 9137 0
-9137 9135 9136 0
9138 -21 -22 -56 -76 0
-9138 21 0
-9138 22 0
-9138 56 0
-9138 76 0
9139 -21 -31 -49 -56 0
-9139 21 0
-9139 31 0
-9139 49 0
-9139 56 0
9140 -21 -34 -46 -56 0
-9140 21 0
-9140 34 0
-9140 46 0
-9140 56 0
-9138 9139 9140 0
-9139 9138 9140 0
-9140 9138 9139 0
9141 -21 -22 -56 -77 0
-9141 21 0
-9141 22 0
-9141 56 0
-9141 77 0
9142 -21 -22 -59 -71 0
-9142 21 0
-9142 22 0
-9142 59 0
-9142 71 0
9143 -21 -22 -62 -68 0
-9143 21 0
-9143 22 0
-9143 62 0
-9143 68 0
-9141 9142 9143 0
-9142 9141 9143 0
-9143 9141 9142 0
9144 -21 -23 -55 -76 0
-9144 21 0
-9144 23 0
-9144 55 0
-9144 76 0
9145 -21 -23 -58 -70 0
-9145 21 0
-9145 23 0
-9145 58 0
-9145 70 0
9146 -21 -23 -61 -67 0
-9146 21 0
-9146 23 0
-9146 61 0
-9146 67 0
-9144 9145 9146 0
-9145 9144 9146 0
-9146 9144 9145 0
9147 -21 -23 -55 -77 0
-9147 21 0
-9147 23 0
-9147 55 0
-9147 77 0
9148 -21 -32 -50 -55 0
-9148 21 0
-9148 32 0
-9148 50 0
-9148 55 0
9149 -21 -35 -47 -55 0
-9149 21 0
-9149 35 0
-9149 47 0
-9149 55 0
-9147 9148 9149 0
-9148 9147 9149 0
-9149 9147 9148 0
9150 -21 -23 -56 -76 0
-9150 21 0
-9150 23 0
-9150 56 0
-9150 76 0
9151 -21 -26 -44 -76 0
-9151 21 0
-9151 26 0
-9151 44 0
-9151 76 0
9152 -21 -29 -41 -76 0
-9152 21 0
-9152 29 0
-9152 41 0
-9152 76 0
-9150 9151 9152 0
-9151 9150 9152 0
-9152 9150 9151 0
9153 -21 -23 -56 -77 0
-9153 21 0
-9153 23 0
-9153 56 0
-9153 77 0
9154 -21 -23 -59 -71 0
-9154 21 0
-9154 23 0
-9154 59 0
-9154 71 0
9155 -21 -23 -62 -68 0
-9155 21 0
-9155 23 0
-9155 62 0
-9155 68 0
9156 -21 -26 -44 -77 0
-9156 21 0
-9156 26 0
-9156 44 0
-9156 77 0
9157 -21 -26 -47 -71 0
-9157 21 0
-9157 26 0
-9157 47 0
-9157 71 0
9158 -21 -26 -50 -68 0
-9158 21 0
-9158 26 0
-9158 50 0
-9158 68 0
9159 -21 -29 -41 -77 0
-9159 21 0
-9159 29 0
-9159 41 0
-9159 77 0
9160 -21 -29 -47 -62 0
-9160 21 0
-9160 29 0
-9160 47 0
-9160 62 0
9161 -21 -29 -50 -59 0
-9161 21 0
-9161 29 0
-9161 50 0
-9161 59 0
9162 -21 -32 -41 -71 0
-9162 21 0
-9162 32 0
-9162 41 0
-9162 71 0
9163 -21 -32 -44 -62 0
-9163 21 0
-9163 32 0
-9163 44 0
-9163 62 0
9164 -21 -32 -50 -56 0
-9164 21 0
-9164 32 0
-9164 50 0
-9164 56 0
9165 -21 -35 -41 -68 0
-9165 21 0
-9165 35 0
-9165 41 0
-9165 68 0
9166 -21 -35 -44 -59 0
-9166 21 0
-9166 35 0
-9166 44 0
-9166 59 0
9167 -21 -35 -47 -56 0
-9167 21 0
-9167 35 0
-9167 47 0
-9167 56 0
-9153 9154 9155 9156 9157 9158 9159 9160 9161 9162 9163 9164 9165 9166 9167 0
-9154 9153 9155 9156 9157 9158 9159 9160 9161 9162 9163 9164 9165 9166 9167 0
-9155 9153 9154 9156 9157 9158 9159 9160 9161 9162 9163 9164 9165 9166 9167 0
-9156 9153 9154 9155 9157 9158 9159 9160 9161 9162 9163 9164 9165 9166 9167 0
-9157 9153 9154 9155 9156 9158 9159 9160 9161 9162 9163 9164 9165 9166 9167 0
-9158 9153 9154 9155 9156 9157 9159 9160 9161 9162 9163 9164 9165 9166 9167 0
-9159 9153 9154 9155 9156 9157 9158 9160 9161 9162 9163 9164 9165 9166 9167 0
-9160 9153 9154 9155 9156 9157 9158 9159 9161 9162 9163 9164 9165 9166 9167 0
-9161 9153 9154 9155 9156 9157 9158 9159 9160 9162 9163 9164 9165 9166 9167 0
-9162 9153 9154 9155 9156 9157 9158 9159 9160 9161 9163 9164 9165 9166 9167 0
-9163 9153 9154 9155 9156 9157 9158 9159 9160 9161 9162 9164 9165 9166 9167 0
-9164 9153 9154 9155 9156 9157 9158 9159 9160 9161 9162 9163 9165 9166 9167 0
-9165 9153 9154 9155 9156 9157 9158 9159 9160 9161 9162 9163 9164 9166 9167 0
-9166 9153 9154 9155 9156 9157 9158 9159 9160 9161 9162 9163 9164 9165 9167 0
-9167 9153 9154 9155 9156 9157 9158 9159 9160 9161 9162 9163 9164 9165 9166 0
9168 -19 -23 -59 -72 0
-9168 19 0
-9168 23 0
-9168 59 0
-9168 72 0
9169 -19 -26 -47 -72 0
-9169 19 0
-9169 26 0
-9169 47 0
-9169 72 0
9170 -19 -32 -41 -72 0
-9170 19 0
-9170 32 0
-9170 41 0
-9170 72 0
-9168 9169 9170 0
-9169 9168 9170 0
-9170 9168 9169 0
9171 -19 -23 -60 -71 0
-9171 19 0
-9171 23 0
-9171 60 0
-9171 71 0
9172 -19 -29 -50 -60 0
-9172 19 0
-9172 29 0
-9172 50 0
-9172 60 0
9173 -19 -35 -44 -60 0
-9173 19 0
-9173 35 0
-9173 44 0
-9173 60 0
-9171 9172 9173 0
-9172 9171 9173 0
-9173 9171 9172 0
9174 -19 -24 -59 -72 0
-9174 19 0
-9174 24 0
-9174 59 0
-9174 72 0
9175 -19 -30 -51 -59 0
-9175 19 0
-9175 30 0
-9175 51 0
-9175 59 0
9176 -19 -36 -45 -59 0
-9176 19 0
-9176 36 0
-9176 45 0
-9176 59 0
-9174 9175 9176 0
-9175 9174 9176 0
-9176 9174 9175 0
9177 -19 -24 -60 -71 0
-9177 19 0
-9177 24 0
-9177 60 0
-9177 71 0
9178 -19 -27 -48 -71 0
-9178 19 0
-9178 27 0
-9178 48 0
-9178 71 0
9179 -19 -33 -42 -71 0
-9179 19 0
-9179 33 0
-9179 42 0
-9179 71 0
-9177 9178 9179 0
-9178 9177 9179 0
-9179 9177 9178 0
9180 -20 -22 -58 -72 0
-9180 20 0
-9180 22 0
-9180 58 0
-9180 72 0
9181 -20 -25 -46 -72 0
-9181 20 0
-9181 25 0
-9181 46 0
-9181 72 0
9182 -20 -31 -40 -72 0
-9182 20 0
-9182 31 0
-9182 40 0
-9182 72 0
-9180 9181 9182 0
-9181 9180 9182 0
-9182 9180 9181 0
9183 -20 -22 -60 -70 0
-9183 20 0
-9183 22 0
-9183 60 0
-9183 70 0
9184 -20 -28 -49 -60 0
-9184 20 0
-9184 28 0
-9184 49 0
-9184 60 0
9185 -20 -34 -43 -60 0
-9185 20 0
-9185 34 0
-9185 43 0
-9185 60 0
-9183 9184 9185 0
-9184 9183 9185 0
-9185 9183 9184 0
9186 -20 -24 -58 -72 0
-9186 20 0
-9186 24 0
-9186 58 0
-9186 72 0
9187 -20 -30 -51 -58 0
-9187 20 0
-9187 30 0
-9187 51 0
-9187 58 0
9188 -20 -36 -45 -58 0
-9188 20 0
-9188 36 0
-9188 45 0
-9188 58 0
-9186 9187 9188 0
-9187 9186 9188 0
-9188 9186 9187 0
9189 -20 -24 -60 -70 0
-9189 20 0
-9189 24 0
-9189 60 0
-9189 70 0
9190 -20 -27 -48 -70 0
-9190 20 0
-9190 27 0
-9190 48 0
-9190 70 0
9191 -20 -33 -42 -70 0
-9191 20 0
-9191 33 0
-9191 42 0
-9191 70 0
-9189 9190 9191 0
-9190 9189 9191 0
-9191 9189 9190 0
9192 -21 -22 -58 -71 0
-9192 21 0
-9192 22 0
-9192 58 0
-9192 71 0
9193 -21 -25 -46 -71 0
-9193 21 0
-9193 25 0
-9193 46 0
-9193 71 0
9194 -21 -31 -40 -71 0
-9194 21 0
-9194 31 0
-9194 40 0
-9194 71 0
-9192 9193 9194 0
-9193 9192 9194 0
-9194 9192 9193 0
9195 -21 -22 -59 -70 0
-9195 21 0
-9195 22 0
-9195 59 0
-9195 70 0
9196 -21 -28 -49 -59 0
-9196 21 0
-9196 28 0
-9196 49 0
-9196 59 0
9197 -21 -34 -43 -59 0
-9197 21 0
-9197 34 0
-9197 43 0
-9197 59 0
-9195 9196 9197 0
-9196 9195 9197 0
-9197 9195 9196 0
9198 -21 -23 -58 -71 0
-9198 21 0
-9198 23 0
-9198 58 0
-9198 71 0
9199 -21 -29 -50 -58 0
-9199 21 0
-9199 29 0
-9199 50 0
-9199 58 0
9200 -21 -35 -44 -58 0
-9200 21 0
-9200 35 0
-9200 44 0
-9200 58 0
-9198 9199 9200 0
-9199 9198 9200 0
-9200 9198 9199 0
9201 -21 -23 -59 -70 0
-9201 21 0
-9201 23 0
-9201 59 0
-9201 70 0
9202 -21 -26 -47 -70 0
-9202 21 0
-9202 26 0
-9202 47 0
-9202 70 0
9203 -21 -32 -41 -70 0
-9203 21 0
-9203 32 0
-9203 41 0
-9203 70 0
-9201 9202 9203 0
-9202 9201 9203 0
-9203 9201 9202 0
9204 -19 -23 -62 -69 0
-9204 19 0
-9204 23 0
-9204 62 0
-9204 69 0
9205 -19 -26 -50 -69 0
-9205 19 0
-9205 26 0
-9205 50 0
-9205 69 0
9206 -19 -35 -41 -69 0
-9206 19 0
-9206 35 0
-9206 41 0
-9206 69 0
-9204 9205 9206 0
-9205 9204 9206 0
-9206 9204 9205 0
9207 -19 -23 -63 -68 0
-9207 19 0
-9207 23 0
-9207 63 0
-9207 68 0
9208 -19 -29 -47 -63 0
-9208 19 0
-9208 29 0
-9208 47 0
-9208 63 0
9209 -19 -32 -44 -63 0
-9209 19 0
-9209 32 0
-9209 44 0
-9209 63 0
-9207 9208 9209 0
-9208 9207 9209 0
-9209 9207 9208 0
9210 -19 -24 -62 -69 0
-9210 19 0
-9210 24 0
-9210 62 0
-9210 69 0
9211 -19 -30 -48 -62 0
-9211 19 0
-9211 30 0
-9211 48 0
-9211 62 0
9212 -19 -33 -45 -62 0
-9212 19 0
-9212 33 0
-9212 45 0
-9212 62 0
-9210 9211 9212 0
-9211 9210 9212 0
-9212 9210 9211 0
9213 -19 -24 -63 -68 0
-9213 19 0
-9213 24 0
-9213 63 0
-9213 68 0
9214 -19 -27 -51 -68 0
-9214 19 0
-9214 27 0
-9214 51 0
-9214 68 0
9215 -19 -36 -42 -68 0
-9215 19 0
-9215 36 0
-9215 42 0
-9215 68 0
-9213 9214 9215 0
-9214 9213 9215 0
-9215 9213 9214 0
9216 -20 -22 -61 -69 0
-9216 20 0
-9216 22 0
-9216 61 0
-9216 69 0
9217 -20 -25 -49 -69 0
-9217 20 0
-9217 25 0
-9217 49 0
-9217 69 0
9218 -20 -34 -40 -69 0
-9218 20 0
-9218 34 0
-9218 40 0
-9218 69 0
-9216 9217 9218 0
-9217 9216 9218 0
-9218 9216 9217 0
9219 -20 -22 -63 -67 0
-9219 20 0
-9219 22 0
-9219 63 0
-9219 67 0
9220 -20 -28 -46 -63 0
-9220 20 0
-9220 28 0
-9220 46 0
-9220 63 0
9221 -20 -31 -43 -63 0
-9221 20 0
-9221 31 0
-9221 43 0
-9221 63 0
-9219 9220 9221 0
-9220 9219 9221 0
-9221 9219 9220 0
9222 -20 -24 -61 -69 0
-9222 20 0
-9222 24 0
-9222 61 0
-9222 69 0
9223 -20 -30 -48 -61 0
-9223 20 0
-9223 30 0
-9223 48 0
-9223 61 0
9224 -20 -33 -45 -61 0
-9224 20 0
-9224 33 0
-9224 45 0
-9224 61 0
-9222 9223 9224 0
-9223 9222 9224 0
-9224 9222 9223 0
9225 -20 -24 -63 -67 0
-9225 20 0
-9225 24 0
-9225 63 0
-9225 67 0
9226 -20 -27 -51 -67 0
-9226 20 0
-9226 27 0
-9226 51 0
-9226 67 0
9227 -20 -36 -42 -67 0
-9227 20 0
-9227 36 0
-9227 42 0
-9227 67 0
-9225 9226 9227 0
-9226 9225 9227 0
-9227 9225 9226 0
9228 -21 -22 -61 -68 0
-9228 21 0
-9228 22 0
-9228 61 0
-9228 68 0
9229 -21 -25 -49 -68 0
-9229 21 0
-9229 25 0
-9229 49 0
-9229 68 0
9230 -21 -34 -40 -68 0
-9230 21 0
-9230 34 0
-9230 40 0
-9230 68 0
-9228 9229 9230 0
-9229 9228 9230 0
-9230 9228 9229 0
9231 -21 -22 -62 -67 0
-9231 21 0
-9231 22 0
-9231 62 0
-9231 67 0
9232 -21 -28 -46 -62 0
-9232 21 0
-9232 28 0
-9232 46 0
-9232 62 0
9233 -21 -31 -43 -62 0
-9233 21 0
-9233 31 0
-9233 43 0
-9233 62 0
-9231 9232 9233 0
-9232 9231 9233 0
-9233 9231 9232 0
9234 -21 -23 -61 -68 0
-9234 21 0
-9234 23 0
-9234 61 0
-9234 68 0
9235 -21 -29 -47 -61 0
-9235 21 0
-9235 29 0
-9235 47 0
-9235 61 0
9236 -21 -32 -44 -61 0
-9236 21 0
-9236 32 0
-9236 44 0
-9236 61 0
-9234 9235 9236 0
-9235 9234 9236 0
-9236 9234 9235 0
9237 -21 -23 -62 -67 0
-9237 21 0
-9237 23 0
-9237 62 0
-9237 67 0
9238 -21 -26 -50 -67 0
-9238 21 0
-9238 26 0
-9238 50 0
-9238 67 0
9239 -21 -35 -41 -67 0
-9239 21 0
-9239 35 0
-9239 41 0
-9239 67 0
-9237 9238 9239 0
-9238 9237 9239 0
-9239 9237 9238 0
9240 -19 -26 -45 -77 0
-9240 19 0
-9240 26 0
-9240 45 0
-9240 77 0
9241 -19 -32 -45 -62 0
-9241 19 0
-9241 32 0
-9241 45 0
-9241 62 0
9242 -19 -35 -45 -59 0
-9242 19 0
-9242 35 0
-9242 45 0
-9242 59 0
-9240 9241 9242 0
-9241 9240 9242 0
-9242 9240 9241 0
9243 -19 -26 -45 -78 0
-9243 19 0
-9243 26 0
-9243 45 0
-9243 78 0
9244 -19 -26 -48 -72 0
-9244 19 0
-9244 26 0
-9244 48 0
-9244 72 0
9245 -19 -26 -51 -69 0
-9245 19 0
-9245 26 0
-9245 51 0
-9245 69 0
-9243 9244 9245 0
-9244 9243 9245 0
-9245 9243 9244 0
9246 -19 -27 -44 -77 0
-9246 19 0
-9246 27 0
-9246 44 0
-9246 77 0
9247 -19 -27 -47 -71 0
-9247 19 0
-9247 27 0
-9247 47 0
-9247 71 0
9248 -19 -27 -50 -68 0
-9248 19 0
-9248 27 0
-9248 50 0
-9248 68 0
-9246 9247 9248 0
-9247 9246 9248 0
-9248 9246 9247 0
9249 -19 -27 -44 -78 0
-9249 19 0
-9249 27 0
-9249 44 0
-9249 78 0
9250 -19 -33 -44 -63 0
-9250 19 0
-9250 33 0
-9250 44 0
-9250 63 0
9251 -19 -36 -44 -60 0
-9251 19 0
-9251 36 0
-9251 44 0
-9251 60 0
-9249 9250 9251 0
-9250 9249 9251 0
-9251 9249 9250 0
9252 -20 -25 -45 -76 0
-9252 20 0
-9252 25 0
-9252 45 0
-9252 76 0
9253 -20 -31 -45 -61 0
-9253 20 0
-9253 31 0
-9253 45 0
-9253 61 0
9254 -20 -34 -45 -58 0
-9254 20 0
-9254 34 0
-9254 45 0
-9254 58 0
-9252 9253 9254 0
-9253 9252 9254 0
-9254 9252 9253 0
9255 -20 -25 -45 -78 0
-9255 20 0
-9255 25 0
-9255 45 0
-9255 78 0
9256 -20 -25 -48 -72 0
-9256 20 0
-9256 25 0
-9256 48 0
-9256 72 0
9257 -20 -25 -51 -69 0
-9257 20 0
-9257 25 0
-9257 51 0
-9257 69 0
-9255 9256 9257 0
-9256 9255 9257 0
-9257 9255 9256 0
9258 -20 -27 -43 -76 0
-9258 20 0
-9258 27 0
-9258 43 0
-9258 76 0
9259 -20 -27 -46 -70 0
-9259 20 0
-9259 27 0
-9259 46 0
-9259 70 0
9260 -20 -27 -49 -67 0
-9260 20 0
-9260 27 0
-9260 49 0
-9260 67 0
-9258 9259 9260 0
-9259 9258 9260 0
-9260 9258 9259 0
9261 -20 -27 -43 -78 0
-9261 20 0
-9261 27 0
-9261 43 0
-9261 78 0
9262 -20 -33 -43 -63 0
-9262 20 0
-9262 33 0
-9262 43 0
-9262 63 0
9263 -20 -36 -43 -60 0
-9263 20 0
-9263 36 0
-9263 43 0
-9263 60 0
-9261 9262 9263 0
-9262 9261 9263 0
-9263 9261 9262 0
9264 -21 -25 -44 -76 0
-9264 21 0
-9264 25 0
-9264 44 0
-9264 76 0
9265 -21 -31 -44 -61 0
-9265 21 0
-9265 31 0
-9265 44 0
-9265 61 0
9266 -21 -34 -44 -58 0
-9266 21 0
-9266 34 0
-9266 44 0
-9266 58 0
-9264 9265 9266 0
-9265 9264 9266 0
-9266 9264 9265 0
9267 -21 -25 -44 -77 0
-9267 21 0
-9267 25 0
-9267 44 0
-9267 77 0
9268 -21 -25 -47 -71 0
-9268 21 0
-9268 25 0
-9268 47 0
-9268 71 0
9269 -21 -25 -50 -68 0
-9269 21 0
-9269 25 0
-9269 50 0
-9269 68 0
-9267 9268 9269 0
-9268 9267 9269 0
-9269 9267 9268 0
9270 -21 -26 -43 -76 0
-9270 21 0
-9270 26 0
-9270 43 0
-9270 76 0
9271 -21 -26 -46 -70 0
-9271 21 0
-9271 26 0
-9271 46 0
-9271 70 0
9272 -21 -26 -49 -67 0
-9272 21 0
-9272 26 0
-9272 49 0
-9272 67 0
-9270 9271 9272 0
-9271 9270 9272 0
-9272 9270 9271 0
9273 -21 -26 -43 -77 0
-9273 21 0
-9273 26 0
-9273 43 0
-9273 77 0
9274 -21 -32 -43 -62 0
-9274 21 0
-9274 32 0
-9274 43 0
-9274 62 0
9275 -21 -35 -43 -59 0
-9275 21 0
-9275 35 0
-9275 43 0
-9275 59 0
-9273 9274 9275 0
-9274 9273 9275 0
-9275 9273 9274 0
9276 -19 -26 -48 -71 0
-9276 19 0
-9276 26 0
-9276 48 0
-9276 71 0
9277 -19 -29 -48 -62 0
-9277 19 0
-9277 29 0
-9277 48 0
-9277 62 0
9278 -19 -35 -48 -56 0
-9278 19 0
-9278 35 0
-9278 48 0
-9278 56 0
-9276 9277 9278 0
-9277 9276 9278 0
-9278 9276 9277 0
9279 -19 -27 -47 -72 0
-9279 19 0
-9279 27 0
-9279 47 0
-9279 72 0
9280 -19 -30 -47 -63 0
-9280 19 0
-9280 30 0
-9280 47 0
-9280 63 0
9281 -19 -36 -47 -57 0
-9281 19 0
-9281 36 0
-9281 47 0
-9281 57 0
-9279 9280 9281 0
-9280 9279 9281 0
-9281 9279 9280 0
9282 -20 -25 -48 -70 0
-9282 20 0
-9282 25 0
-9282 48 0
-9282 70 0
9283 -20 -28 -48 -61 0
-9283 20 0
-9283 28 0
-9283 48 0
-9283 61 0
9284 -20 -34 -48 -55 0
-9284 20 0
-9284 34 0
-9284 48 0
-9284 55 0
-9282 9283 9284 0
-9283 9282 9284 0
-9284 9282 9283 0
9285 -20 -27 -46 -72 0
-9285 20 0
-9285 27 0
-9285 46 0
-9285 72 0
9286 -20 -30 -46 -63 0
-9286 20 0
-9286 30 0
-9286 46 0
-9286 63 0
9287 -20 -36 -46 -57 0
-9287 20 0
-9287 36 0
-9287 46 0
-9287 57 0
-9285 9286 9287 0
-9286 9285 9287 0
-9287 9285 9286 0
9288 -21 -25 -47 -70 0
-9288 21 0
-9288 25 0
-9288 47 0
-9288 70 0
9289 -21 -28 -47 -61 0
-9289 21 0
-9289 28 0
-9289 47 0
-9289 61 0
9290 -21 -34 -47 -55 0
-9290 21 0
-9290 34 0
-9290 47 0
-9290 55 0
-9288 9289 9290 0
-9289 9288 9290 0
-9290 9288 9289 0
9291 -21 -26 -46 -71 0
-9291 21 0
-9291 26 0
-9291 46 0
-9291 71 0
9292 -21 -29 -46 -62 0
-9292 21 0
-9292 29 0
-9292 46 0
-9292 62 0
9293 -21 -35 -46 -56 0
-9293 21 0
-9293 35 0
-9293 46 0
-9293 56 0
-9291 9292 9293 0
-9292 9291 9293 0
-9293 9291 9292 0
9294 -19 -26 -51 -68 0
-9294 19 0
-9294 26 0
-9294 51 0
-9294 68 0
9295 -19 -29 -51 -59 0
-9295 19 0
-9295 29 0
-9295 51 0
-9295 59 0
9296 -19 -32 -51 -56 0
-9296 19 0
-9296 32 0
-9296 51 0
-9296 56 0
-9294 9295 9296 0
-9295 9294 9296 0
-9296 9294 9295 0
9297 -19 -27 -50 -69 0
-9297 19 0
-9297 27 0
-9297 50 0
-9297 69 0
9298 -19 -30 -50 -60 0
-9298 19 0
-9298 30 0
-9298 50 0
-9298 60 0
9299 -19 -33 -50 -57 0
-9299 19 0
-9299 33 0
-9299 50 0
-9299 57 0
-9297 9298 9299 0
-9298 9297 9299 0
-9299 9297 9298 0
9300 -20 -25 -51 -67 0
-9300 20 0
-9300 25 0
-9300 51 0
-9300 67 0
9301 -20 -28 -51 -58 0
-9301 20 0
-9301 28 0
-9301 51 0
-9301 58 0
9302 -20 -31 -51 -55 0
-9302 20 0
-9302 31 0
-9302 51 0
-9302 55 0
-9300 9301 9302 0
-9301 9300 9302 0
-9302 9300 9301 0
9303 -20 -27 -49 -69 0
-9303 20 0
-9303 27 0
-9303 49 0
-9303 69 0
9304 -20 -30 -49 -60 0
-9304 20 0
-9304 30 0
-9304 49 0
-9304 60 0
9305 -20 -33 -49 -57 0
-9305 20 0
-9305 33 0
-9305 49 0
-9305 57 0
-9303 9304 9305 0
-9304 9303 9305 0
-9305 9303 9304 0
9306 -21 -25 -50 -67 0
-9306 21 0
-9306 25 0
-9306 50 0
-9306 67 0
9307 -21 -28 -50 -58 0
-9307 21 0
-9307 28 0
-9307 50 0
-9307 58 0
9308 -21 -31 -50 -55 0
-9308 21 0
-9308 31 0
-9308 50 0
-9308 55 0
-9306 9307 9308 0
-9307 9306 9308 0
-9308 9306 9307 0
9309 -21 -26 -49 -68 0
-9309 21 0
-9309 26 0
-9309 49 0
-9309 68 0
9310 -21 -29 -49 -59 0
-9310 21 0
-9310 29 0
-9310 49 0
-9310 59 0
9311 -21 -32 -49 -56 0
-9311 21 0
-9311 32 0
-9311 49 0
-9311 56 0
-9309 9310 9311 0
-9310 9309 9311 0
-9311 9309 9310 0
9312 -19 -29 -42 -77 0
-9312 19 0
-9312 29 0
-9312 42 0
-9312 77 0
9313 -19 -32 -42 -71 0
-9313 19 0
-9313 32 0
-9313 42 0
-9313 71 0
9314 -19 -35 -42 -68 0
-9314 19 0
-9314 35 0
-9314 42 0
-9314 68 0
-9312 9313 9314 0
-9313 9312 9314 0
-9314 9312 9313 0
9315 -19 -29 -42 -78 0
-9315 19 0
-9315 29 0
-9315 42 0
-9315 78 0
9316 -19 -29 -48 -63 0
-9316 19 0
-9316 29 0
-9316 48 0
-9316 63 0
9317 -19 -29 -51 -60 0
-9317 19 0
-9317 29 0
-9317 51 0
-9317 60 0
-9315 9316 9317 0
-9316 9315 9317 0
-9317 9315 9316 0
9318 -19 -30 -41 -77 0
-9318 19 0
-9318 30 0
-9318 41 0
-9318 77 0
9319 -19 -30 -47 -62 0
-9319 19 0
-9319 30 0
-9319 47 0
-9319 62 0
9320 -19 -30 -50 -59 0
-9320 19 0
-9320 30 0
-9320 50 0
-9320 59 0
-9318 9319 9320 0
-9319 9318 9320 0
-9320 9318 9319 0
9321 -19 -30 -41 -78 0
-9321 19 0
-9321 30 0
-9321 41 0
-9321 78 0
9322 -19 -33 -41 -72 0
-9322 19 0
-9322 33 0
-9322 41 0
-9322 72 0
9323 -19 -36 -41 -69 0
-9323 19 0
-9323 36 0
-9323 41 0
-9323 69 0
-9321 9322 9323 0
-9322 9321 9323 0
-9323 9321 9322 0
9324 -20 -28 -42 -76 0
-9324 20 0
-9324 28 0
-9324 42 0
-9324 76 0
9325 -20 -31 -42 -70 0
-9325 20 0
-9325 31 0
-9325 42 0
-9325 70 0
9326 -20 -34 -42 -67 0
-9326 20 0
-9326 34 0
-9326 42 0
-9326 67 0
-9324 9325 9326 0
-9325 9324 9326 0
-9326 9324 9325 0
9327 -20 -28 -42 -78 0
-9327 20 0
-9327 28 0
-9327 42 0
-9327 78 0
9328 -20 -28 -48 -63 0
-9328 20 0
-9328 28 0
-9328 48 0
-9328 63 0
9329 -20 -28 -51 -60 0
-9329 20 0
-9329 28 0
-9329 51 0
-9329 60 0
-9327 9328 9329 0
-9328 9327 9329 0
-9329 9327 9328 0
9330 -20 -30 -40 -76 0
-9330 20 0
-9330 30 0
-9330 40 0
-9330 76 0
9331 -20 -30 -46 -61 0
-9331 20 0
-9331 30 0
-9331 46 0
-9331 61 0
9332 -20 -30 -49 -58 0
-9332 20 0
-9332 30 0
-9332 49 0
-9332 58 0
-9330 9331 9332 0
-9331 9330 9332 0
-9332 9330 9331 0
9333 -20 -30 -40 -78 0
-9333 20 0
-9333 30 0
-9333 40 0
-9333 78 0
9334 -20 -33 -40 -72 0
-9334 20 0
-9334 33 0
-9334 40 0
-9334 72 0
9335 -20 -36 -40 -69 0
-9335 20 0
-9335 36 0
-9335 40 0
-9335 69 0
-9333 9334 9335 0
-9334 9333 9335 0
-9335 9333 9334 0
9336 -21 -28 -41 -76 0
-9336 21 0
-9336 28 0
-9336 41 0
-9336 76 0
9337 -21 -31 -41 -70 0
-9337 21 0
-9337 31 0
-9337 41 0
-9337 70 0
9338 -21 -34 -41 -67 0
-9338 21 0
-9338 34 0
-9338 41 0
-9338 67 0
-9336 9337 9338 0
-9337 9336 9338 0
-9338 9336 9337 0
9339 -21 -28 -41 -77 0
-9339 21 0
-9339 28 0
-9339 41 0
-9339 77 0
9340 -21 -28 -47 -62 0
-9340 21 0
-9340 28 0
-9340 47 0
-9340 62 0
9341 -21 -28 -50 -59 0
-9341 21 0
-9341 28 0
-9341 50 0
-9341 59 0
-9339 9340 9341 0
-9340 9339 9341 0
-9341 9339 9340 0
9342 -21 -29 -40 -76 0
-9342 21 0
-9342 29 0
-9342 40 0
-9342 76 0
9343 -21 -29 -46 -61 0
-9343 21 0
-9343 29 0
-9343 46 0
-9343 61 0
9344 -21 -29 -49 -58 0
-9344 21 0
-9344 29 0
-9344 49 0
-9344 58 0
-9342 9343 9344 0
-9343 9342 9344 0
-9344 9342 9343 0
9345 -21 -29 -40 -77 0
-9345 21 0
-9345 29 0
-9345 40 0
-9345 77 0
9346 -21 -32 -40 -71 0
-9346 21 0
-9346 32 0
-9346 40 0
-9346 71 0
9347 -21 -35 -40 -68 0
-9347 21 0
-9347 35 0
-9347 40 0
-9347 68 0
-9345 9346 9347 0
-9346 9345 9347 0
-9347 9345 9346 0
9348 -19 -32 -42 -72 0
-9348 19 0
-9348 32 0
-9348 42 0
-9348 72 0
9349 -19 -32 -45 -63 0
-9349 19 0
-9349 32 0
-9349 45 0
-9349 63 0
9350 -19 -32 -51 -57 0
-9350 19 0
-9350 32 0
-9350 51 0
-9350 57 0
-9348 9349 9350 0
-9349 9348 9350 0
-9350 9348 9349 0
9351 -19 -33 -41 -71 0
-9351 19 0
-9351 33 0
-9351 41 0
-9351 71 0
9352 -19 -33 -44 -62 0
-9352 19 0
-9352 33 0
-9352 44 0
-9352 62 0
9353 -19 -33 -50 -56 0
-9353 19 0
-9353 33 0
-9353 50 0
-9353 56 0
-9351 9352 9353 0
-9352 9351 9353 0
-9353 9351 9352 0
9354 -20 -31 -42 -72 0
-9354 20 0
-9354 31 0
-9354 42 0
-9354 72 0
9355 -20 -31 -45 -63 0
-9355 20 0
-9355 31 0
-9355 45 0
-9355 63 0
9356 -20 -31 -51 -57 0
-9356 20 0
-9356 31 0
-9356 51 0
-9356 57 0
-9354 9355 9356 0
-9355 9354 9356 0
-9356 9354 9355 0
9357 -20 -33 -40 -70 0
-9357 20 0
-9357 33 0
-9357 40 0
-9357 70 0
9358 -20 -33 -43 -61 0
-9358 20 0
-9358 33 0
-9358 43 0
-9358 61 0
9359 -20 -33 -49 -55 0
-9359 20 0
-9359 33 0
-9359 49 0
-9359 55 0
-9357 9358 9359 0
-9358 9357 9359 0
-9359 9357 9358 0
9360 -21 -31 -41 -71 0
-9360 21 0
-9360 31 0
-9360 41 0
-9360 71 0
9361 -21 -31 -44 -62 0
-9361 21 0
-9361 31 0
-9361 44 0
-9361 62 0
9362 -21 -31 -50 -56 0
-9362 21 0
-9362 31 0
-9362 50 0
-9362 56 0
-9360 9361 9362 0
-9361 9360 9362 0
-9362 9360 9361 0
9363 -21 -32 -40 -70 0
-9363 21 0
-9363 32 0
-9363 40 0
-9363 70 0
9364 -21 -32 -43 -61 0
-9364 21 0
-9364 32 0
-9364 43 0
-9364 61 0
9365 -21 -32 -49 -55 0
-9365 21 0
-9365 32 0
-9365 49 0
-9365 55 0
-9363 9364 9365 0
-9364 9363 9365 0
-9365 9363 9364 0
9366 -19 -35 -42 -69 0
-9366 19 0
-9366 35 0
-9366 42 0
-9366 69 0
9367 -19 -35 -45 -60 0
-9367 19 0
-9367 35 0
-9367 45 0
-9367 60 0
9368 -19 -35 -48 -57 0
-9368 19 0
-9368 35 0
-9368 48 0
-9368 57 0
-9366 9367 9368 0
-9367 9366 9368 0
-9368 9366 9367 0
9369 -19 -36 -41 -68 0
-9369 19 0
-9369 36 0
-9369 41 0
-9369 68 0
9370 -19 -36 -44 -59 0
-9370 19 0
-9370 36 0
-9370 44 0
-9370 59 0
9371 -19 -36 -47 -56 0
-9371 19 0
-9371 36 0
-9371 47 0
-9371 56 0
-9369 9370 9371 0
-9370 9369 9371 0
-9371 9369 9370 0
9372 -20 -34 -42 -69 0
-9372 20 0
-9372 34 0
-9372 42 0
-9372 69 0
9373 -20 -34 -45 -60 0
-9373 20 0
-9373 34 0
-9373 45 0
-9373 60 0
9374 -20 -34 -48 -57 0
-9374 20 0
-9374 34 0
-9374 48 0
-9374 57 0
-9372 9373 9374 0
-9373 9372 9374 0
-9374 9372 9373 0
9375 -20 -36 -40 -67 0
-9375 20 0
-9375 36 0
-9375 40 0
-9375 67 0
9376 -20 -36 -43 -58 0
-9376 20 0
-9376 36 0
-9376 43 0
-9376 58 0
9377 -20 -36 -46 -55 0
-9377 20 0
-9377 36 0
-9377 46 0
-9377 55 0
-9375 9376 9377 0
-9376 9375 9377 0
-9377 9375 9376 0
9378 -21 -34 -41 -68 0
-9378 21 0
-9378 34 0
-9378 41 0
-9378 68 0
9379 -21 -34 -44 -59 0
-9379 21 0
-9379 34 0
-9379 44 0
-9379 59 0
9380 -21 -34 -47 -56 0
-9380 21 0
-9380 34 0
-9380 47 0
-9380 56 0
-9378 9379 9380 0
-9379 9378 9380 0
-9380 9378 9379 0
9381 -21 -35 -40 -67 0
-9381 21 0
-9381 35 0
-9381 40 0
-9381 67 0
9382 -21 -35 -43 -58 0
-9382 21 0
-9382 35 0
-9382 43 0
-9382 58 0
9383 -21 -35 -46 -55 0
-9383 21 0
-9383 35 0
-9383 46 0
-9383 55 0
-9381 9382 9383 0
-9382 9381 9383 0
-9383 9381 9382 0
