p cnf 726 1734
1 0
32 0
33 0
64 0
65 0
96 0
-97 2 0
-97 7 0
-98 3 0
-98 6 0
-99 5 0
-99 4 0
-8 97 98 99 0
-100 2 0
-100 7 0
-101 4 0
-101 5 0
-102 6 0
-102 3 0
-8 100 101 102 0
-103 3 0
-103 6 0
-104 4 0
-104 5 0
-105 7 0
-105 2 0
-8 103 104 105 0
-106 5 0
-106 4 0
-107 6 0
-107 3 0
-108 7 0
-108 2 0
-8 106 107 108 0
-109 2 0
-109 11 0
-110 3 0
-110 10 0
-111 9 0
-111 4 0
-12 109 110 111 0
-112 2 0
-112 11 0
-113 4 0
-113 9 0
-114 10 0
-114 3 0
-12 112 113 114 0
-115 3 0
-115 10 0
-116 4 0
-116 9 0
-117 11 0
-117 2 0
-12 115 116 117 0
-118 9 0
-118 4 0
-119 10 0
-119 3 0
-120 11 0
-120 2 0
-12 118 119 120 0
-121 2 0
-121 13 0
-122 5 0
-122 10 0
-123 9 0
-123 6 0
-14 121 122 123 0
-124 2 0
-124 13 0
-125 6 0
-125 9 0
-126 10 0
-126 5 0
-14 124 125 126 0
-127 5 0
-127 10 0
-128 6 0
-128 9 0
-129 13 0
-129 2 0
-14 127 128 129 0
-130 9 0
-130 6 0
-131 10 0
-131 5 0
-132 13 0
-132 2 0
-14 130 131 132 0
-133 3 0
-133 13 0
-134 5 0
-134 11 0
-135 9 0
-135 7 0
-15 133 134 135 0
-136 3 0
-136 13 0
-137 7 0
-137 9 0
-138 11 0
-138 5 0
-15 136 137 138 0
-139 5 0
-139 11 0
-140 7 0
-140 9 0
-141 13 0
-141 3 0
-15 139 140 141 0
-142 9 0
-142 7 0
-143 11 0
-143 5 0
-144 13 0
-144 3 0
-15 142 143 144 0
-145 4 0
-145 13 0
-146 6 0
-146 11 0
-147 10 0
-147 7 0
-16 145 146 147 0
-148 4 0
-148 13 0
-149 7 0
-149 10 0
-150 11 0
-150 6 0
-16 148 149 150 0
-151 6 0
-151 11 0
-152 7 0
-152 10 0
-153 13 0
-153 4 0
-16 151 152 153 0
-154 10 0
-154 7 0
-155 11 0
-155 6 0
-156 13 0
-156 4 0
-16 154 155 156 0
-157 2 0
-157 19 0
-158 3 0
-158 18 0
-159 17 0
-159 4 0
-20 157 158 159 0
-160 2 0
-160 19 0
-161 4 0
-161 17 0
-162 18 0
-162 3 0
-20 160 161 162 0
-163 3 0
-163 18 0
-164 4 0
-164 17 0
-165 19 0
-165 2 0
-20 163 164 165 0
-166 17 0
-166 4 0
-167 18 0
-167 3 0
-168 19 0
-168 2 0
-20 166 167 168 0
-169 2 0
-169 21 0
-170 5 0
-170 18 0
-171 17 0
-171 6 0
-22 169 170 171 0
-172 2 0
-172 21 0
-173 6 0
-173 17 0
-174 18 0
-174 5 0
-22 172 173 174 0
-175 5 0
-175 18 0
-176 6 0
-176 17 0
-177 21 0
-177 2 0
-22 175 176 177 0
-178 17 0
-178 6 0
-179 18 0
-179 5 0
-180 21 0
-180 2 0
-22 178 179 180 0
-181 3 0
-181 21 0
-182 5 0
-182 19 0
-183 17 0
-183 7 0
-23 181 182 183 0
-184 3 0
-184 21 0
-185 7 0
-185 17 0
-186 19 0
-186 5 0
-23 184 185 186 0
-187 5 0
-187 19 0
-188 7 0
-188 17 0
-189 21 0
-189 3 0
-23 187 188 189 0
-190 17 0
-190 7 0
-191 19 0
-191 5 0
-192 21 0
-192 3 0
-23 190 191 192 0
-193 4 0
-193 21 0
-194 6 0
-194 19 0
-195 18 0
-195 7 0
-24 193 194 195 0
-196 4 0
-196 21 0
-197 7 0
-197 18 0
-198 19 0
-198 6 0
-24 196 197 198 0
-199 6 0
-199 19 0
-200 7 0
-200 18 0
-201 21 0
-201 4 0
-24 199 200 201 0
-202 18 0
-202 7 0
-203 19 0
-203 6 0
-204 21 0
-204 4 0
-24 202 203 204 0
-205 2 0
-205 25 0
-206 9 0
-206 18 0
-207 17 0
-207 10 0
-26 205 206 207 0
-208 2 0
-208 25 0
-209 10 0
-209 17 0
-210 18 0
-210 9 0
-26 208 209 210 0
-211 9 0
-211 18 0
-212 10 0
-212 17 0
-213 25 0
-213 2 0
-26 211 212 213 0
-214 17 0
-214 10 0
-215 18 0
-215 9 0
-216 25 0
-216 2 0
-26 214 215 216 0
-217 3 0
-217 25 0
-218 9 0
-218 19 0
-219 17 0
-219 11 0
-27 217 218 219 0
-220 3 0
-220 25 0
-221 11 0
-221 17 0
-222 19 0
-222 9 0
-27 220 221 222 0
-223 9 0
-223 19 0
-224 11 0
-224 17 0
-225 25 0
-225 3 0
-27 223 224 225 0
-226 17 0
-226 11 0
-227 19 0
-227 9 0
-228 25 0
-228 3 0
-27 226 227 228 0
-229 4 0
-229 25 0
-230 10 0
-230 19 0
-231 18 0
-231 11 0
-28 229 230 231 0
-232 4 0
-232 25 0
-233 11 0
-233 18 0
-234 19 0
-234 10 0
-28 232 233 234 0
-235 10 0
-235 19 0
-236 11 0
-236 18 0
-237 25 0
-237 4 0
-28 235 236 237 0
-238 18 0
-238 11 0
-239 19 0
-239 10 0
-240 25 0
-240 4 0
-28 238 239 240 0
-241 5 0
-241 25 0
-242 9 0
-242 21 0
-243 17 0
-243 13 0
-29 241 242 243 0
-244 5 0
-244 25 0
-245 13 0
-245 17 0
-246 21 0
-246 9 0
-29 244 245 246 0
-247 9 0
-247 21 0
-248 13 0
-248 17 0
-249 25 0
-249 5 0
-29 247 248 249 0
-250 17 0
-250 13 0
-251 21 0
-251 9 0
-252 25 0
-252 5 0
-29 250 251 252 0
-253 6 0
-253 25 0
-254 10 0
-254 21 0
-255 18 0
-255 13 0
-30 253 254 255 0
-256 6 0
-256 25 0
-257 13 0
-257 18 0
-258 21 0
-258 10 0
-30 256 257 258 0
-259 10 0
-259 21 0
-260 13 0
-260 18 0
-261 25 0
-261 6 0
-30 259 260 261 0
-262 18 0
-262 13 0
-263 21 0
-263 10 0
-264 25 0
-264 6 0
-30 262 263 264 0
-265 7 0
-265 25 0
-266 11 0
-266 21 0
-267 19 0
-267 13 0
-31 265 266 267 0
-268 7 0
-268 25 0
-269 13 0
-269 19 0
-270 21 0
-270 11 0
-31 268 269 270 0
-271 11 0
-271 21 0
-272 13 0
-272 19 0
-273 25 0
-273 7 0
-31 271 272 273 0
-274 19 0
-274 13 0
-275 21 0
-275 11 0
-276 25 0
-276 7 0
-31 274 275 276 0
-277 2 0
-277 31 0
-278 3 0
-278 30 0
-279 5 0
-279 28 0
-280 9 0
-280 24 0
-281 17 0
-281 16 0
-32 277 278 279 280 281 0
-282 2 0
-282 31 0
-283 4 0
-283 29 0
-284 6 0
-284 27 0
-285 10 0
-285 23 0
-286 18 0
-286 15 0
-32 282 283 284 285 286 0
-287 3 0
-287 30 0
-288 4 0
-288 29 0
-289 7 0
-289 26 0
-290 11 0
-290 22 0
-291 19 0
-291 14 0
-32 287 288 289 290 291 0
-292 5 0
-292 28 0
-293 6 0
-293 27 0
-294 7 0
-294 26 0
-295 13 0
-295 20 0
-296 21 0
-296 12 0
-32 292 293 294 295 296 0
-297 9 0
-297 24 0
-298 10 0
-298 23 0
-299 11 0
-299 22 0
-300 13 0
-300 20 0
-301 25 0
-301 8 0
-32 297 298 299 300 301 0
-302 17 0
-302 16 0
-303 18 0
-303 15 0
-304 19 0
-304 14 0
-305 21 0
-305 12 0
-306 25 0
-306 8 0
-32 302 303 304 305 306 0
-307 34 0
-307 39 0
-308 35 0
-308 38 0
-309 37 0
-309 36 0
-40 307 308 309 0
-310 34 0
-310 39 0
-311 36 0
-311 37 0
-312 38 0
-312 35 0
-40 310 311 312 0
-313 35 0
-313 38 0
-314 36 0
-314 37 0
-315 39 0
-315 34 0
-40 313 314 315 0
-316 37 0
-316 36 0
-317 38 0
-317 35 0
-318 39 0
-318 34 0
-40 316 317 318 0
-319 34 0
-319 43 0
-320 35 0
-320 42 0
-321 41 0
-321 36 0
-44 319 320 321 0
-322 34 0
-322 43 0
-323 36 0
-323 41 0
-324 42 0
-324 35 0
-44 322 323 324 0
-325 35 0
-325 42 0
-326 36 0
-326 41 0
-327 43 0
-327 34 0
-44 325 326 327 0
-328 41 0
-328 36 0
-329 42 0
-329 35 0
-330 43 0
-330 34 0
-44 328 329 330 0
-331 34 0
-331 45 0
-332 37 0
-332 42 0
-333 41 0
-333 38 0
-46 331 332 333 0
-334 34 0
-334 45 0
-335 38 0
-335 41 0
-336 42 0
-336 37 0
-46 334 335 336 0
-337 37 0
-337 42 0
-338 38 0
-338 41 0
-339 45 0
-339 34 0
-46 337 338 339 0
-340 41 0
-340 38 0
-341 42 0
-341 37 0
-342 45 0
-342 34 0
-46 340 341 342 0
-343 35 0
-343 45 0
-344 37 0
-344 43 0
-345 41 0
-345 39 0
-47 343 344 345 0
-346 35 0
-346 45 0
-347 39 0
-347 41 0
-348 43 0
-348 37 0
-47 346 347 348 0
-349 37 0
-349 43 0
-350 39 0
-350 41 0
-351 45 0
-351 35 0
-47 349 350 351 0
-352 41 0
-352 39 0
-353 43 0
-353 37 0
-354 45 0
-354 35 0
-47 352 353 354 0
-355 36 0
-355 45 0
-356 38 0
-356 43 0
-357 42 0
-357 39 0
-48 355 356 357 0
-358 36 0
-358 45 0
-359 39 0
-359 42 0
-360 43 0
-360 38 0
-48 358 359 360 0
-361 38 0
-361 43 0
-362 39 0
-362 42 0
-363 45 0
-363 36 0
-48 361 362 363 0
-364 42 0
-364 39 0
-365 43 0
-365 38 0
-366 45 0
-366 36 0
-48 364 365 366 0
-367 34 0
-367 51 0
-368 35 0
-368 50 0
-369 49 0
-369 36 0
-52 367 368 369 0
-370 34 0
-370 51 0
-371 36 0
-371 49 0
-372 50 0
-372 35 0
-52 370 371 372 0
-373 35 0
-373 50 0
-374 36 0
-374 49 0
-375 51 0
-375 34 0
-52 373 374 375 0
-376 49 0
-376 36 0
-377 50 0
-377 35 0
-378 51 0
-378 34 0
-52 376 377 378 0
-379 34 0
-379 53 0
-380 37 0
-380 50 0
-381 49 0
-381 38 0
-54 379 380 381 0
-382 34 0
-382 53 0
-383 38 0
-383 49 0
-384 50 0
-384 37 0
-54 382 383 384 0
-385 37 0
-385 50 0
-386 38 0
-386 49 0
-387 53 0
-387 34 0
-54 385 386 387 0
-388 49 0
-388 38 0
-389 50 0
-389 37 0
-390 53 0
-390 34 0
-54 388 389 390 0
-391 35 0
-391 53 0
-392 37 0
-392 51 0
-393 49 0
-393 39 0
-55 391 392 393 0
-394 35 0
-394 53 0
-395 39 0
-395 49 0
-396 51 0
-396 37 0
-55 394 395 396 0
-397 37 0
-397 51 0
-398 39 0
-398 49 0
-399 53 0
-399 35 0
-55 397 398 399 0
-400 49 0
-400 39 0
-401 51 0
-401 37 0
-402 53 0
-402 35 0
-55 400 401 402 0
-403 36 0
-403 53 0
-404 38 0
-404 51 0
-405 50 0
-405 39 0
-56 403 404 405 0
-406 36 0
-406 53 0
-407 39 0
-407 50 0
-408 51 0
-408 38 0
-56 406 407 408 0
-409 38 0
-409 51 0
-410 39 0
-410 50 0
-411 53 0
-411 36 0
-56 409 410 411 0
-412 50 0
-412 39 0
-413 51 0
-413 38 0
-414 53 0
-414 36 0
-56 412 413 414 0
-415 34 0
-415 57 0
-416 41 0
-416 50 0
-417 49 0
-417 42 0
-58 415 416 417 0
-418 34 0
-418 57 0
-419 42 0
-419 49 0
-420 50 0
-420 41 0
-58 418 419 420 0
-421 41 0
-421 50 0
-422 42 0
-422 49 0
-423 57 0
-423 34 0
-58 421 422 423 0
-424 49 0
-424 42 0
-425 50 0
-425 41 0
-426 57 0
-426 34 0
-58 424 425 426 0
-427 35 0
-427 57 0
-428 41 0
-428 51 0
-429 49 0
-429 43 0
-59 427 428 429 0
-430 35 0
-430 57 0
-431 43 0
-431 49 0
-432 51 0
-432 41 0
-59 430 431 432 0
-433 41 0
-433 51 0
-434 43 0
-434 49 0
-435 57 0
-435 35 0
-59 433 434 435 0
-436 49 0
-436 43 0
-437 51 0
-437 41 0
-438 57 0
-438 35 0
-59 436 437 438 0
-439 36 0
-439 57 0
-440 42 0
-440 51 0
-441 50 0
-441 43 0
-60 439 440 441 0
-442 36 0
-442 57 0
-443 43 0
-443 50 0
-444 51 0
-444 42 0
-60 442 443 444 0
-445 42 0
-445 51 0
-446 43 0
-446 50 0
-447 57 0
-447 36 0
-60 445 446 447 0
-448 50 0
-448 43 0
-449 51 0
-449 42 0
-450 57 0
-450 36 0
-60 448 449 450 0
-451 37 0
-451 57 0
-452 41 0
-452 53 0
-453 49 0
-453 45 0
-61 451 452 453 0
-454 37 0
-454 57 0
-455 45 0
-455 49 0
-456 53 0
-456 41 0
-61 454 455 456 0
-457 41 0
-457 53 0
-458 45 0
-458 49 0
-459 57 0
-459 37 0
-61 457 458 459 0
-460 49 0
-460 45 0
-461 53 0
-461 41 0
-462 57 0
-462 37 0
-61 460 461 462 0
-463 38 0
-463 57 0
-464 42 0
-464 53 0
-465 50 0
-465 45 0
-62 463 464 465 0
-466 38 0
-466 57 0
-467 45 0
-467 50 0
-468 53 0
-468 42 0
-62 466 467 468 0
-469 42 0
-469 53 0
-470 45 0
-470 50 0
-471 57 0
-471 38 0
-62 469 470 471 0
-472 50 0
-472 45 0
-473 53 0
-473 42 0
-474 57 0
-474 38 0
-62 472 473 474 0
-475 39 0
-475 57 0
-476 43 0
-476 53 0
-477 51 0
-477 45 0
-63 475 476 477 0
-478 39 0
-478 57 0
-479 45 0
-479 51 0
-480 53 0
-480 43 0
-63 478 479 480 0
-481 43 0
-481 53 0
-482 45 0
-482 51 0
-483 57 0
-483 39 0
-63 481 482 483 0
-484 51 0
-484 45 0
-485 53 0
-485 43 0
-486 57 0
-486 39 0
-63 484 485 486 0
-487 34 0
-487 63 0
-488 35 0
-488 62 0
-489 37 0
-489 60 0
-490 41 0
-490 56 0
-491 49 0
-491 48 0
-64 487 488 489 490 491 0
-492 34 0
-492 63 0
-493 36 0
-493 61 0
-494 38 0
-494 59 0
-495 42 0
-495 55 0
-496 50 0
-496 47 0
-64 492 493 494 495 496 0
-497 35 0
-497 62 0
-498 36 0
-498 61 0
-499 39 0
-499 58 0
-500 43 0
-500 54 0
-501 51 0
-501 46 0
-64 497 498 499 500 501 0
-502 37 0
-502 60 0
-503 38 0
-503 59 0
-504 39 0
-504 58 0
-505 45 0
-505 52 0
-506 53 0
-506 44 0
-64 502 503 504 505 506 0
-507 41 0
-507 56 0
-508 42 0
-508 55 0
-509 43 0
-509 54 0
-510 45 0
-510 52 0
-511 57 0
-511 40 0
-64 507 508 509 510 511 0
-512 49 0
-512 48 0
-513 50 0
-513 47 0
-514 51 0
-514 46 0
-515 53 0
-515 44 0
-516 57 0
-516 40 0
-64 512 513 514 515 516 0
-517 66 0
-517 71 0
-518 67 0
-518 70 0
-519 69 0
-519 68 0
-72 517 518 519 0
-520 66 0
-520 71 0
-521 68 0
-521 69 0
-522 70 0
-522 67 0
-72 520 521 522 0
-523 67 0
-523 70 0
-524 68 0
-524 69 0
-525 71 0
-525 66 0
-72 523 524 525 0
-526 69 0
-526 68 0
-527 70 0
-527 67 0
-528 71 0
-528 66 0
-72 526 527 528 0
-529 66 0
-529 75 0
-530 67 0
-530 74 0
-531 73 0
-531 68 0
-76 529 530 531 0
-532 66 0
-532 75 0
-533 68 0
-533 73 0
-534 74 0
-534 67 0
-76 532 533 534 0
-535 67 0
-535 74 0
-536 68 0
-536 73 0
-537 75 0
-537 66 0
-76 535 536 537 0
-538 73 0
-538 68 0
-539 74 0
-539 67 0
-540 75 0
-540 66 0
-76 538 539 540 0
-541 66 0
-541 77 0
-542 69 0
-542 74 0
-543 73 0
-543 70 0
-78 541 542 543 0
-544 66 0
-544 77 0
-545 70 0
-545 73 0
-546 74 0
-546 69 0
-78 544 545 546 0
-547 69 0
-547 74 0
-548 70 0
-548 73 0
-549 77 0
-549 66 0
-78 547 548 549 0
-550 73 0
-550 70 0
-551 74 0
-551 69 0
-552 77 0
-552 66 0
-78 550 551 552 0
-553 67 0
-553 77 0
-554 69 0
-554 75 0
-555 73 0
-555 71 0
-79 553 554 555 0
-556 67 0
-556 77 0
-557 71 0
-557 73 0
-558 75 0
-558 69 0
-79 556 557 558 0
-559 69 0
-559 75 0
-560 71 0
-560 73 0
-561 77 0
-561 67 0
-79 559 560 561 0
-562 73 0
-562 71 0
-563 75 0
-563 69 0
-564 77 0
-564 67 0
-79 562 563 564 0
-565 68 0
-565 77 0
-566 70 0
-566 75 0
-567 74 0
-567 71 0
-80 565 566 567 0
-568 68 0
-568 77 0
-569 71 0
-569 74 0
-570 75 0
-570 70 0
-80 568 569 570 0
-571 70 0
-571 75 0
-572 71 0
-572 74 0
-573 77 0
-573 68 0
-80 571 572 573 0
-574 74 0
-574 71 0
-575 75 0
-575 70 0
-576 77 0
-576 68 0
-80 574 575 576 0
-577 66 0
-577 83 0
-578 67 0
-578 82 0
-579 81 0
-579 68 0
-84 577 578 579 0
-580 66 0
-580 83 0
-581 68 0
-581 81 0
-582 82 0
-582 67 0
-84 580 581 582 0
-583 67 0
-583 82 0
-584 68 0
-584 81 0
-585 83 0
-585 66 0
-84 583 584 585 0
-586 81 0
-586 68 0
-587 82 0
-587 67 0
-588 83 0
-588 66 0
-84 586 587 588 0
-589 66 0
-589 85 0
-590 69 0
-590 82 0
-591 81 0
-591 70 0
-86 589 590 591 0
-592 66 0
-592 85 0
-593 70 0
-593 81 0
-594 82 0
-594 69 0
-86 592 593 594 0
-595 69 0
-595 82 0
-596 70 0
-596 81 0
-597 85 0
-597 66 0
-86 595 596 597 0
-598 81 0
-598 70 0
-599 82 0
-599 69 0
-600 85 0
-600 66 0
-86 598 599 600 0
-601 67 0
-601 85 0
-602 69 0
-602 83 0
-603 81 0
-603 71 0
-87 601 602 603 0
-604 67 0
-604 85 0
-605 71 0
-605 81 0
-606 83 0
-606 69 0
-87 604 605 606 0
-607 69 0
-607 83 0
-608 71 0
-608 81 0
-609 85 0
-609 67 0
-87 607 608 609 0
-610 81 0
-610 71 0
-611 83 0
-611 69 0
-612 85 0
-612 67 0
-87 610 611 612 0
-613 68 0
-613 85 0
-614 70 0
-614 83 0
-615 82 0
-615 71 0
-88 613 614 615 0
-616 68 0
-616 85 0
-617 71 0
-617 82 0
-618 83 0
-618 70 0
-88 616 617 618 0
-619 70 0
-619 83 0
-620 71 0
-620 82 0
-621 85 0
-621 68 0
-88 619 620 621 0
-622 82 0
-622 71 0
-623 83 0
-623 70 0
-624 85 0
-624 68 0
-88 622 623 624 0
-625 66 0
-625 89 0
-626 73 0
-626 82 0
-627 81 0
-627 74 0
-90 625 626 627 0
-628 66 0
-628 89 0
-629 74 0
-629 81 0
-630 82 0
-630 73 0
-90 628 629 630 0
-631 73 0
-631 82 0
-632 74 0
-632 81 0
-633 89 0
-633 66 0
-90 631 632 633 0
-634 81 0
-634 74 0
-635 82 0
-635 73 0
-636 89 0
-636 66 0
-90 634 635 636 0
-637 67 0
-637 89 0
-638 73 0
-638 83 0
-639 81 0
-639 75 0
-91 637 638 639 0
-640 67 0
-640 89 0
-641 75 0
-641 81 0
-642 83 0
-642 73 0
-91 640 641 642 0
-643 73 0
-643 83 0
-644 75 0
-644 81 0
-645 89 0
-645 67 0
-91 643 644 645 0
-646 81 0
-646 75 0
-647 83 0
-647 73 0
-648 89 0
-648 67 0
-91 646 647 648 0
-649 68 0
-649 89 0
-650 74 0
-650 83 0
-651 82 0
-651 75 0
-92 649 650 651 0
-652 68 0
-652 89 0
-653 75 0
-653 82 0
-654 83 0
-654 74 0
-92 652 653 654 0
-655 74 0
-655 83 0
-656 75 0
-656 82 0
-657 89 0
-657 68 0
-92 655 656 657 0
-658 82 0
-658 75 0
-659 83 0
-659 74 0
-660 89 0
-660 68 0
-92 658 659 660 0
-661 69 0
-661 89 0
-662 73 0
-662 85 0
-663 81 0
-663 77 0
-93 661 662 663 0
-664 69 0
-664 89 0
-665 77 0
-665 81 0
-666 85 0
-666 73 0
-93 664 665 666 0
-667 73 0
-667 85 0
-668 77 0
-668 81 0
-669 89 0
-669 69 0
-93 667 668 669 0
-670 81 0
-670 77 0
-671 85 0
-671 73 0
-672 89 0
-672 69 0
-93 670 671 672 0
-673 70 0
-673 89 0
-674 74 0
-674 85 0
-675 82 0
-675 77 0
-94 673 674 675 0
-676 70 0
-676 89 0
-677 77 0
-677 82 0
-678 85 0
-678 74 0
-94 676 677 678 0
-679 74 0
-679 85 0
-680 77 0
-680 82 0
-681 89 0
-681 70 0
-94 679 680 681 0
-682 82 0
-682 77 0
-683 85 0
-683 74 0
-684 89 0
-684 70 0
-94 682 683 684 0
-685 71 0
-685 89 0
-686 75 0
-686 85 0
-687 83 0
-687 77 0
-95 685 686 687 0
-688 71 0
-688 89 0
-689 77 0
-689 83 0
-690 85 0
-690 75 0
-95 688 689 690 0
-691 75 0
-691 85 0
-692 77 0
-692 83 0
-693 89 0
-693 71 0
-95 691 692 693 0
-694 83 0
-694 77 0
-695 85 0
-695 75 0
-696 89 0
-696 71 0
-95 694 695 696 0
-697 66 0
-697 95 0
-698 67 0
-698 94 0
-699 69 0
-699 92 0
-700 73 0
-700 88 0
-701 81 0
-701 80 0
-96 697 698 699 700 701 0
-702 66 0
-702 95 0
-703 68 0
-703 93 0
-704 70 0
-704 91 0
-705 74 0
-705 87 0
-706 82 0
-706 79 0
-96 702 703 704 705 706 0
-707 67 0
-707 94 0
-708 68 0
-708 93 0
-709 71 0
-709 90 0
-710 75 0
-710 86 0
-711 83 0
-711 78 0
-96 707 708 709 710 711 0
-712 69 0
-712 92 0
-713 70 0
-713 91 0
-714 71 0
-714 90 0
-715 77 0
-715 84 0
-716 85 0
-716 76 0
-96 712 713 714 715 716 0
-717 73 0
-717 88 0
-718 74 0
-718 87 0
-719 75 0
-719 86 0
-720 77 0
-720 84 0
-721 89 0
-721 72 0
-96 717 718 719 720 721 0
-722 81 0
-722 80 0
-723 82 0
-723 79 0
-724 83 0
-724 78 0
-725 85 0
-725 76 0
-726 89 0
-726 72 0
-96 722 723 724 725 726 0
-63 -66 0
-62 -67 0
-61 -68 0
-60 -69 0
-59 -70 0
-58 -71 0
-57 -72 0
-56 -73 0
-55 -74 0
-54 -75 0
-53 -76 0
-52 -77 0
-51 -78 0
-50 -79 0
-49 -80 0
-48 -81 0
-47 -82 0
-46 -83 0
-45 -84 0
-44 -85 0
-43 -86 0
-42 -87 0
-41 -88 0
-40 -89 0
-39 -90 0
-38 -91 0
-37 -92 0
-36 -93 0
-35 -94 0
-34 -95 0
-2 -63 0
-2 -57 -71 0
-2 -53 -75 0
-2 -51 -77 0
-2 -45 -83 0
-2 -43 -85 0
-2 -39 -89 0
-2 -95 0
-3 -62 0
-3 -57 -70 0
-3 -53 -74 0
-3 -50 -77 0
-3 -45 -82 0
-3 -42 -85 0
-3 -38 -89 0
-3 -94 0
-4 -61 0
-4 -57 -69 0
-4 -53 -73 0
-4 -49 -77 0
-4 -45 -81 0
-4 -41 -85 0
-4 -37 -89 0
-4 -93 0
-5 -60 0
-5 -57 -68 0
-5 -51 -74 0
-5 -50 -75 0
-5 -43 -82 0
-5 -42 -83 0
-5 -36 -89 0
-5 -92 0
-6 -59 0
-6 -57 -67 0
-6 -51 -73 0
-6 -49 -75 0
-6 -43 -81 0
-6 -41 -83 0
-6 -35 -89 0
-6 -91 0
-7 -58 0
-7 -57 -66 0
-7 -50 -73 0
-7 -49 -74 0
-7 -42 -81 0
-7 -41 -82 0
-7 -34 -89 0
-7 -90 0
-8 -57 0
-8 -89 0
-9 -56 0
-9 -53 -68 0
-9 -51 -70 0
-9 -50 -71 0
-9 -39 -82 0
-9 -38 -83 0
-9 -36 -85 0
-9 -88 0
-10 -55 0
-10 -53 -67 0
-10 -51 -69 0
-10 -49 -71 0
-10 -39 -81 0
-10 -37 -83 0
-10 -35 -85 0
-10 -87 0
-11 -54 0
-11 -53 -66 0
-11 -50 -69 0
-11 -49 -70 0
-11 -38 -81 0
-11 -37 -82 0
-11 -34 -85 0
-11 -86 0
-12 -53 0
-12 -85 0
-13 -52 0
-13 -51 -66 0
-13 -50 -67 0
-13 -49 -68 0
-13 -36 -81 0
-13 -35 -82 0
-13 -34 -83 0
-13 -84 0
-14 -51 0
-14 -83 0
-15 -50 0
-15 -82 0
-16 -49 0
-16 -81 0
-17 -48 0
-17 -45 -68 0
-17 -43 -70 0
-17 -42 -71 0
-17 -39 -74 0
-17 -38 -75 0
-17 -36 -77 0
-17 -80 0
-18 -47 0
-18 -45 -67 0
-18 -43 -69 0
-18 -41 -71 0
-18 -39 -73 0
-18 -37 -75 0
-18 -35 -77 0
-18 -79 0
-19 -46 0
-19 -45 -66 0
-19 -42 -69 0
-19 -41 -70 0
-19 -38 -73 0
-19 -37 -74 0
-19 -34 -77 0
-19 -78 0
-20 -45 0
-20 -77 0
-21 -44 0
-21 -43 -66 0
-21 -42 -67 0
-21 -41 -68 0
-21 -36 -73 0
-21 -35 -74 0
-21 -34 -75 0
-21 -76 0
-22 -43 0
-22 -75 0
-23 -42 0
-23 -74 0
-24 -41 0
-24 -73 0
-25 -40 0
-25 -39 -66 0
-25 -38 -67 0
-25 -37 -68 0
-25 -36 -69 0
-25 -35 -70 0
-25 -34 -71 0
-25 -72 0
-26 -39 0
-26 -71 0
-27 -38 0
-27 -70 0
-28 -37 0
-28 -69 0
-29 -36 0
-29 -68 0
-30 -35 0
-30 -67 0
-31 -34 0
-31 -66 0
-3 0
-5 0
-9 0
-17 0
2 0
31 0
-63 0
-57 -71 0
-53 -75 0
-51 -77 0
-45 -83 0
-43 -85 0
-39 -89 0
-95 0
-31 32 0
31 -32 0
-25 26 0
25 -26 0
-21 22 0
21 -22 0
-19 20 0
19 -20 0
-13 14 0
13 -14 0
-11 12 0
11 -12 0
-7 8 0
7 -8 0
-1 2 0
1 -2 0
-34 0
-37 0
-41 0
-49 0
35 0
62 0
-30 0
-25 -70 0
-21 -74 0
-18 -77 0
-13 -82 0
-10 -85 0
-6 -89 0
-94 0
-62 64 0
62 -64 0
-57 59 0
57 -59 0
-53 55 0
53 -55 0
-50 52 0
50 -52 0
-45 47 0
45 -47 0
-42 44 0
42 -44 0
-38 40 0
38 -40 0
-33 35 0
33 -35 0
-66 0
-67 0
-73 0
-81 0
69 0
92 0
-28 0
-25 -36 0
-19 -42 0
-18 -43 0
-11 -50 0
-10 -51 0
-4 -57 0
-60 0
-92 96 0
92 -96 0
-89 93 0
89 -93 0
-83 87 0
83 -87 0
-82 86 0
82 -86 0
-75 79 0
75 -79 0
-74 78 0
74 -78 0
-68 72 0
68 -72 0
-65 69 0
65 -69 0
