p cnf 5592 71
-2040 121 0
-2041 115 0
-2042 107 0
-2043 91 0
-2044 59 0
2040 2042 -127 2041 2043 2044 0
117 -2045 0
115 -2046 0
-2047 103 0
-2048 87 0
-2049 55 0
2047 2048 -127 2045 2046 2049 0
-2050 19 0
-2051 107 0
-2052 103 0
-2053 79 0
-2054 47 0
2050 2051 -127 2052 2053 2054 0
-2055 35 0
-2056 91 0
-2057 87 0
-2058 79 0
-2059 31 0
2056 2055 -127 2057 2058 2059 0
-2060 61 0
-2061 59 0
-2062 55 0
-2063 47 0
-2064 31 0
2060 2061 -127 2062 2063 2064 0
-3741 134 0
-3742 138 0
146 -3743 0
237 -3743 0
162 -3744 0
221 -3744 0
-3745 194 0
3742 3744 -254 3741 3743 3745 0
-20 -237 0
-36 -221 0
-59 -194 -261 0
-61 -196 0
-117 -140 0
-121 -136 0
127 0
-35 36 0
-19 20 0
254 0
196 -194 0
140 -138 0
136 -134 0
261 0
-115 -138 0
-107 -146 0
-91 -162 0
-115 -134 0
-103 -146 0
-87 -162 0
-55 -194 0
-107 -134 0
-103 -138 0
-79 -162 0
-47 -194 0
-91 -134 0
-87 -138 0
-79 -146 0
-31 -194 0
-59 -134 0
-55 -138 0
-47 -146 0
-31 -162 0
