p cnf 726 1734
1 0
2 0
3 0
4 0
5 0
6 0
-8 9 0
-8 10 0
-11 12 0
-11 13 0
-14 15 0
-14 16 0
-7 8 11 14 0
-17 9 0
-17 10 0
-18 16 0
-18 15 0
-19 13 0
-19 12 0
-7 17 18 19 0
-20 12 0
-20 13 0
-21 16 0
-21 15 0
-22 10 0
-22 9 0
-7 20 21 22 0
-23 15 0
-23 16 0
-24 13 0
-24 12 0
-25 10 0
-25 9 0
-7 23 24 25 0
-27 9 0
-27 28 0
-29 12 0
-29 30 0
-31 32 0
-31 16 0
-26 27 29 31 0
-33 9 0
-33 28 0
-34 16 0
-34 32 0
-35 30 0
-35 12 0
-26 33 34 35 0
-36 12 0
-36 30 0
-37 16 0
-37 32 0
-38 28 0
-38 9 0
-26 36 37 38 0
-39 32 0
-39 16 0
-40 30 0
-40 12 0
-41 28 0
-41 9 0
-26 39 40 41 0
-43 9 0
-43 44 0
-45 15 0
-45 30 0
-46 32 0
-46 13 0
-42 43 45 46 0
-47 9 0
-47 44 0
-48 13 0
-48 32 0
-49 30 0
-49 15 0
-42 47 48 49 0
-50 15 0
-50 30 0
-51 13 0
-51 32 0
-52 44 0
-52 9 0
-42 50 51 52 0
-53 32 0
-53 13 0
-54 30 0
-54 15 0
-55 44 0
-55 9 0
-42 53 54 55 0
-57 12 0
-57 44 0
-58 15 0
-58 28 0
-59 32 0
-59 10 0
-56 57 58 59 0
-60 12 0
-60 44 0
-61 10 0
-61 32 0
-62 28 0
-62 15 0
-56 60 61 62 0
-63 15 0
-63 28 0
-64 10 0
-64 32 0
-65 44 0
-65 12 0
-56 63 64 65 0
-66 32 0
-66 10 0
-67 28 0
-67 15 0
-68 44 0
-68 12 0
-56 66 67 68 0
-70 16 0
-70 44 0
-71 13 0
-71 28 0
-72 30 0
-72 10 0
-69 70 71 72 0
-73 16 0
-73 44 0
-74 10 0
-74 30 0
-75 28 0
-75 13 0
-69 73 74 75 0
-76 13 0
-76 28 0
-77 10 0
-77 30 0
-78 44 0
-78 16 0
-69 76 77 78 0
-79 30 0
-79 10 0
-80 28 0
-80 13 0
-81 44 0
-81 16 0
-69 79 80 81 0
-83 9 0
-83 84 0
-85 12 0
-85 86 0
-87 88 0
-87 16 0
-82 83 85 87 0
-89 9 0
-89 84 0
-90 16 0
-90 88 0
-91 86 0
-91 12 0
-82 89 90 91 0
-92 12 0
-92 86 0
-93 16 0
-93 88 0
-94 84 0
-94 9 0
-82 92 93 94 0
-95 88 0
-95 16 0
-96 86 0
-96 12 0
-97 84 0
-97 9 0
-82 95 96 97 0
-99 9 0
-99 100 0
-101 15 0
-101 86 0
-102 88 0
-102 13 0
-98 99 101 102 0
-103 9 0
-103 100 0
-104 13 0
-104 88 0
-105 86 0
-105 15 0
-98 103 104 105 0
-106 15 0
-106 86 0
-107 13 0
-107 88 0
-108 100 0
-108 9 0
-98 106 107 108 0
-109 88 0
-109 13 0
-110 86 0
-110 15 0
-111 100 0
-111 9 0
-98 109 110 111 0
-113 12 0
-113 100 0
-114 15 0
-114 84 0
-115 88 0
-115 10 0
-112 113 114 115 0
-116 12 0
-116 100 0
-117 10 0
-117 88 0
-118 84 0
-118 15 0
-112 116 117 118 0
-119 15 0
-119 84 0
-120 10 0
-120 88 0
-121 100 0
-121 12 0
-112 119 120 121 0
-122 88 0
-122 10 0
-123 84 0
-123 15 0
-124 100 0
-124 12 0
-112 122 123 124 0
-126 16 0
-126 100 0
-127 13 0
-127 84 0
-128 86 0
-128 10 0
-125 126 127 128 0
-129 16 0
-129 100 0
-130 10 0
-130 86 0
-131 84 0
-131 13 0
-125 129 130 131 0
-132 13 0
-132 84 0
-133 10 0
-133 86 0
-134 100 0
-134 16 0
-125 132 133 134 0
-135 86 0
-135 10 0
-136 84 0
-136 13 0
-137 100 0
-137 16 0
-125 135 136 137 0
-139 9 0
-139 140 0
-141 32 0
-141 86 0
-142 88 0
-142 30 0
-138 139 141 142 0
-143 9 0
-143 140 0
-144 30 0
-144 88 0
-145 86 0
-145 32 0
-138 143 144 145 0
-146 32 0
-146 86 0
-147 30 0
-147 88 0
-148 140 0
-148 9 0
-138 146 147 148 0
-149 88 0
-149 30 0
-150 86 0
-150 32 0
-151 140 0
-151 9 0
-138 149 150 151 0
-153 12 0
-153 140 0
-154 32 0
-154 84 0
-155 88 0
-155 28 0
-152 153 154 155 0
-156 12 0
-156 140 0
-157 28 0
-157 88 0
-158 84 0
-158 32 0
-152 156 157 158 0
-159 32 0
-159 84 0
-160 28 0
-160 88 0
-161 140 0
-161 12 0
-152 159 160 161 0
-162 88 0
-162 28 0
-163 84 0
-163 32 0
-164 140 0
-164 12 0
-152 162 163 164 0
-166 16 0
-166 140 0
-167 30 0
-167 84 0
-168 86 0
-168 28 0
-165 166 167 168 0
-169 16 0
-169 140 0
-170 28 0
-170 86 0
-171 84 0
-171 30 0
-165 169 170 171 0
-172 30 0
-172 84 0
-173 28 0
-173 86 0
-174 140 0
-174 16 0
-165 172 173 174 0
-175 86 0
-175 28 0
-176 84 0
-176 30 0
-177 140 0
-177 16 0
-165 175 176 177 0
-179 15 0
-179 140 0
-180 32 0
-180 100 0
-181 88 0
-181 44 0
-178 179 180 181 0
-182 15 0
-182 140 0
-183 44 0
-183 88 0
-184 100 0
-184 32 0
-178 182 183 184 0
-185 32 0
-185 100 0
-186 44 0
-186 88 0
-187 140 0
-187 15 0
-178 185 186 187 0
-188 88 0
-188 44 0
-189 100 0
-189 32 0
-190 140 0
-190 15 0
-178 188 189 190 0
-192 13 0
-192 140 0
-193 30 0
-193 100 0
-194 86 0
-194 44 0
-191 192 193 194 0
-195 13 0
-195 140 0
-196 44 0
-196 86 0
-197 100 0
-197 30 0
-191 195 196 197 0
-198 30 0
-198 100 0
-199 44 0
-199 86 0
-200 140 0
-200 13 0
-191 198 199 200 0
-201 86 0
-201 44 0
-202 100 0
-202 30 0
-203 140 0
-203 13 0
-191 201 202 203 0
-205 10 0
-205 140 0
-206 28 0
-206 100 0
-207 84 0
-207 44 0
-204 205 206 207 0
-208 10 0
-208 140 0
-209 44 0
-209 84 0
-210 100 0
-210 28 0
-204 208 209 210 0
-211 28 0
-211 100 0
-212 44 0
-212 84 0
-213 140 0
-213 10 0
-204 211 212 213 0
-214 84 0
-214 44 0
-215 100 0
-215 28 0
-216 140 0
-216 10 0
-204 214 215 216 0
-217 9 0
-217 204 0
-218 12 0
-218 191 0
-219 15 0
-219 165 0
-220 32 0
-220 125 0
-221 88 0
-221 69 0
-2 217 218 219 220 221 0
-222 9 0
-222 204 0
-223 16 0
-223 178 0
-224 13 0
-224 152 0
-225 30 0
-225 112 0
-226 86 0
-226 56 0
-2 222 223 224 225 226 0
-227 12 0
-227 191 0
-228 16 0
-228 178 0
-229 10 0
-229 138 0
-230 28 0
-230 98 0
-231 84 0
-231 42 0
-2 227 228 229 230 231 0
-232 15 0
-232 165 0
-233 13 0
-233 152 0
-234 10 0
-234 138 0
-235 44 0
-235 82 0
-236 100 0
-236 26 0
-2 232 233 234 235 236 0
-237 32 0
-237 125 0
-238 30 0
-238 112 0
-239 28 0
-239 98 0
-240 44 0
-240 82 0
-241 140 0
-241 7 0
-2 237 238 239 240 241 0
-242 88 0
-242 69 0
-243 86 0
-243 56 0
-244 84 0
-244 42 0
-245 100 0
-245 26 0
-246 140 0
-246 7 0
-2 242 243 244 245 246 0
-248 249 0
-248 250 0
-251 252 0
-251 253 0
-254 255 0
-254 256 0
-247 248 251 254 0
-257 249 0
-257 250 0
-258 256 0
-258 255 0
-259 253 0
-259 252 0
-247 257 258 259 0
-260 252 0
-260 253 0
-261 256 0
-261 255 0
-262 250 0
-262 249 0
-247 260 261 262 0
-263 255 0
-263 256 0
-264 253 0
-264 252 0
-265 250 0
-265 249 0
-247 263 264 265 0
-267 249 0
-267 268 0
-269 252 0
-269 270 0
-271 272 0
-271 256 0
-266 267 269 271 0
-273 249 0
-273 268 0
-274 256 0
-274 272 0
-275 270 0
-275 252 0
-266 273 274 275 0
-276 252 0
-276 270 0
-277 256 0
-277 272 0
-278 268 0
-278 249 0
-266 276 277 278 0
-279 272 0
-279 256 0
-280 270 0
-280 252 0
-281 268 0
-281 249 0
-266 279 280 281 0
-283 249 0
-283 284 0
-285 255 0
-285 270 0
-286 272 0
-286 253 0
-282 283 285 286 0
-287 249 0
-287 284 0
-288 253 0
-288 272 0
-289 270 0
-289 255 0
-282 287 288 289 0
-290 255 0
-290 270 0
-291 253 0
-291 272 0
-292 284 0
-292 249 0
-282 290 291 292 0
-293 272 0
-293 253 0
-294 270 0
-294 255 0
-295 284 0
-295 249 0
-282 293 294 295 0
-297 252 0
-297 284 0
-298 255 0
-298 268 0
-299 272 0
-299 250 0
-296 297 298 299 0
-300 252 0
-300 284 0
-301 250 0
-301 272 0
-302 268 0
-302 255 0
-296 300 301 302 0
-303 255 0
-303 268 0
-304 250 0
-304 272 0
-305 284 0
-305 252 0
-296 303 304 305 0
-306 272 0
-306 250 0
-307 268 0
-307 255 0
-308 284 0
-308 252 0
-296 306 307 308 0
-310 256 0
-310 284 0
-311 253 0
-311 268 0
-312 270 0
-312 250 0
-309 310 311 312 0
-313 256 0
-313 284 0
-314 250 0
-314 270 0
-315 268 0
-315 253 0
-309 313 314 315 0
-316 253 0
-316 268 0
-317 250 0
-317 270 0
-318 284 0
-318 256 0
-309 316 317 318 0
-319 270 0
-319 250 0
-320 268 0
-320 253 0
-321 284 0
-321 256 0
-309 319 320 321 0
-323 249 0
-323 324 0
-325 252 0
-325 326 0
-327 328 0
-327 256 0
-322 323 325 327 0
-329 249 0
-329 324 0
-330 256 0
-330 328 0
-331 326 0
-331 252 0
-322 329 330 331 0
-332 252 0
-332 326 0
-333 256 0
-333 328 0
-334 324 0
-334 249 0
-322 332 333 334 0
-335 328 0
-335 256 0
-336 326 0
-336 252 0
-337 324 0
-337 249 0
-322 335 336 337 0
-339 249 0
-339 340 0
-341 255 0
-341 326 0
-342 328 0
-342 253 0
-338 339 341 342 0
-343 249 0
-343 340 0
-344 253 0
-344 328 0
-345 326 0
-345 255 0
-338 343 344 345 0
-346 255 0
-346 326 0
-347 253 0
-347 328 0
-348 340 0
-348 249 0
-338 346 347 348 0
-349 328 0
-349 253 0
-350 326 0
-350 255 0
-351 340 0
-351 249 0
-338 349 350 351 0
-353 252 0
-353 340 0
-354 255 0
-354 324 0
-355 328 0
-355 250 0
-352 353 354 355 0
-356 252 0
-356 340 0
-357 250 0
-357 328 0
-358 324 0
-358 255 0
-352 356 357 358 0
-359 255 0
-359 324 0
-360 250 0
-360 328 0
-361 340 0
-361 252 0
-352 359 360 361 0
-362 328 0
-362 250 0
-363 324 0
-363 255 0
-364 340 0
-364 252 0
-352 362 363 364 0
-366 256 0
-366 340 0
-367 253 0
-367 324 0
-368 326 0
-368 250 0
-365 366 367 368 0
-369 256 0
-369 340 0
-370 250 0
-370 326 0
-371 324 0
-371 253 0
-365 369 370 371 0
-372 253 0
-372 324 0
-373 250 0
-373 326 0
-374 340 0
-374 256 0
-365 372 373 374 0
-375 326 0
-375 250 0
-376 324 0
-376 253 0
-377 340 0
-377 256 0
-365 375 376 377 0
-379 249 0
-379 380 0
-381 272 0
-381 326 0
-382 328 0
-382 270 0
-378 379 381 382 0
-383 249 0
-383 380 0
-384 270 0
-384 328 0
-385 326 0
-385 272 0
-378 383 384 385 0
-386 272 0
-386 326 0
-387 270 0
-387 328 0
-388 380 0
-388 249 0
-378 386 387 388 0
-389 328 0
-389 270 0
-390 326 0
-390 272 0
-391 380 0
-391 249 0
-378 389 390 391 0
-393 252 0
-393 380 0
-394 272 0
-394 324 0
-395 328 0
-395 268 0
-392 393 394 395 0
-396 252 0
-396 380 0
-397 268 0
-397 328 0
-398 324 0
-398 272 0
-392 396 397 398 0
-399 272 0
-399 324 0
-400 268 0
-400 328 0
-401 380 0
-401 252 0
-392 399 400 401 0
-402 328 0
-402 268 0
-403 324 0
-403 272 0
-404 380 0
-404 252 0
-392 402 403 404 0
-406 256 0
-406 380 0
-407 270 0
-407 324 0
-408 326 0
-408 268 0
-405 406 407 408 0
-409 256 0
-409 380 0
-410 268 0
-410 326 0
-411 324 0
-411 270 0
-405 409 410 411 0
-412 270 0
-412 324 0
-413 268 0
-413 326 0
-414 380 0
-414 256 0
-405 412 413 414 0
-415 326 0
-415 268 0
-416 324 0
-416 270 0
-417 380 0
-417 256 0
-405 415 416 417 0
-419 255 0
-419 380 0
-420 272 0
-420 340 0
-421 328 0
-421 284 0
-418 419 420 421 0
-422 255 0
-422 380 0
-423 284 0
-423 328 0
-424 340 0
-424 272 0
-418 422 423 424 0
-425 272 0
-425 340 0
-426 284 0
-426 328 0
-427 380 0
-427 255 0
-418 425 426 427 0
-428 328 0
-428 284 0
-429 340 0
-429 272 0
-430 380 0
-430 255 0
-418 428 429 430 0
-432 253 0
-432 380 0
-433 270 0
-433 340 0
-434 326 0
-434 284 0
-431 432 433 434 0
-435 253 0
-435 380 0
-436 284 0
-436 326 0
-437 340 0
-437 270 0
-431 435 436 437 0
-438 270 0
-438 340 0
-439 284 0
-439 326 0
-440 380 0
-440 253 0
-431 438 439 440 0
-441 326 0
-441 284 0
-442 340 0
-442 270 0
-443 380 0
-443 253 0
-431 441 442 443 0
-445 250 0
-445 380 0
-446 268 0
-446 340 0
-447 324 0
-447 284 0
-444 445 446 447 0
-448 250 0
-448 380 0
-449 284 0
-449 324 0
-450 340 0
-450 268 0
-444 448 449 450 0
-451 268 0
-451 340 0
-452 284 0
-452 324 0
-453 380 0
-453 250 0
-444 451 452 453 0
-454 324 0
-454 284 0
-455 340 0
-455 268 0
-456 380 0
-456 250 0
-444 454 455 456 0
-457 249 0
-457 444 0
-458 252 0
-458 431 0
-459 255 0
-459 405 0
-460 272 0
-460 365 0
-461 328 0
-461 309 0
-4 457 458 459 460 461 0
-462 249 0
-462 444 0
-463 256 0
-463 418 0
-464 253 0
-464 392 0
-465 270 0
-465 352 0
-466 326 0
-466 296 0
-4 462 463 464 465 466 0
-467 252 0
-467 431 0
-468 256 0
-468 418 0
-469 250 0
-469 378 0
-470 268 0
-470 338 0
-471 324 0
-471 282 0
-4 467 468 469 470 471 0
-472 255 0
-472 405 0
-473 253 0
-473 392 0
-474 250 0
-474 378 0
-475 284 0
-475 322 0
-476 340 0
-476 266 0
-4 472 473 474 475 476 0
-477 272 0
-477 365 0
-478 270 0
-478 352 0
-479 268 0
-479 338 0
-480 284 0
-480 322 0
-481 380 0
-481 247 0
-4 477 478 479 480 481 0
-482 328 0
-482 309 0
-483 326 0
-483 296 0
-484 324 0
-484 282 0
-485 340 0
-485 266 0
-486 380 0
-486 247 0
-4 482 483 484 485 486 0
-488 489 0
-488 490 0
-491 492 0
-491 493 0
-494 495 0
-494 496 0
-487 488 491 494 0
-497 489 0
-497 490 0
-498 496 0
-498 495 0
-499 493 0
-499 492 0
-487 497 498 499 0
-500 492 0
-500 493 0
-501 496 0
-501 495 0
-502 490 0
-502 489 0
-487 500 501 502 0
-503 495 0
-503 496 0
-504 493 0
-504 492 0
-505 490 0
-505 489 0
-487 503 504 505 0
-507 489 0
-507 508 0
-509 492 0
-509 510 0
-511 512 0
-511 496 0
-506 507 509 511 0
-513 489 0
-513 508 0
-514 496 0
-514 512 0
-515 510 0
-515 492 0
-506 513 514 515 0
-516 492 0
-516 510 0
-517 496 0
-517 512 0
-518 508 0
-518 489 0
-506 516 517 518 0
-519 512 0
-519 496 0
-520 510 0
-520 492 0
-521 508 0
-521 489 0
-506 519 520 521 0
-523 489 0
-523 524 0
-525 495 0
-525 510 0
-526 512 0
-526 493 0
-522 523 525 526 0
-527 489 0
-527 524 0
-528 493 0
-528 512 0
-529 510 0
-529 495 0
-522 527 528 529 0
-530 495 0
-530 510 0
-531 493 0
-531 512 0
-532 524 0
-532 489 0
-522 530 531 532 0
-533 512 0
-533 493 0
-534 510 0
-534 495 0
-535 524 0
-535 489 0
-522 533 534 535 0
-537 492 0
-537 524 0
-538 495 0
-538 508 0
-539 512 0
-539 490 0
-536 537 538 539 0
-540 492 0
-540 524 0
-541 490 0
-541 512 0
-542 508 0
-542 495 0
-536 540 541 542 0
-543 495 0
-543 508 0
-544 490 0
-544 512 0
-545 524 0
-545 492 0
-536 543 544 545 0
-546 512 0
-546 490 0
-547 508 0
-547 495 0
-548 524 0
-548 492 0
-536 546 547 548 0
-550 496 0
-550 524 0
-551 493 0
-551 508 0
-552 510 0
-552 490 0
-549 550 551 552 0
-553 496 0
-553 524 0
-554 490 0
-554 510 0
-555 508 0
-555 493 0
-549 553 554 555 0
-556 493 0
-556 508 0
-557 490 0
-557 510 0
-558 524 0
-558 496 0
-549 556 557 558 0
-559 510 0
-559 490 0
-560 508 0
-560 493 0
-561 524 0
-561 496 0
-549 559 560 561 0
-563 489 0
-563 564 0
-565 492 0
-565 566 0
-567 568 0
-567 496 0
-562 563 565 567 0
-569 489 0
-569 564 0
-570 496 0
-570 568 0
-571 566 0
-571 492 0
-562 569 570 571 0
-572 492 0
-572 566 0
-573 496 0
-573 568 0
-574 564 0
-574 489 0
-562 572 573 574 0
-575 568 0
-575 496 0
-576 566 0
-576 492 0
-577 564 0
-577 489 0
-562 575 576 577 0
-579 489 0
-579 580 0
-581 495 0
-581 566 0
-582 568 0
-582 493 0
-578 579 581 582 0
-583 489 0
-583 580 0
-584 493 0
-584 568 0
-585 566 0
-585 495 0
-578 583 584 585 0
-586 495 0
-586 566 0
-587 493 0
-587 568 0
-588 580 0
-588 489 0
-578 586 587 588 0
-589 568 0
-589 493 0
-590 566 0
-590 495 0
-591 580 0
-591 489 0
-578 589 590 591 0
-593 492 0
-593 580 0
-594 495 0
-594 564 0
-595 568 0
-595 490 0
-592 593 594 595 0
-596 492 0
-596 580 0
-597 490 0
-597 568 0
-598 564 0
-598 495 0
-592 596 597 598 0
-599 495 0
-599 564 0
-600 490 0
-600 568 0
-601 580 0
-601 492 0
-592 599 600 601 0
-602 568 0
-602 490 0
-603 564 0
-603 495 0
-604 580 0
-604 492 0
-592 602 603 604 0
-606 496 0
-606 580 0
-607 493 0
-607 564 0
-608 566 0
-608 490 0
-605 606 607 608 0
-609 496 0
-609 580 0
-610 490 0
-610 566 0
-611 564 0
-611 493 0
-605 609 610 611 0
-612 493 0
-612 564 0
-613 490 0
-613 566 0
-614 580 0
-614 496 0
-605 612 613 614 0
-615 566 0
-615 490 0
-616 564 0
-616 493 0
-617 580 0
-617 496 0
-605 615 616 617 0
-619 489 0
-619 620 0
-621 512 0
-621 566 0
-622 568 0
-622 510 0
-618 619 621 622 0
-623 489 0
-623 620 0
-624 510 0
-624 568 0
-625 566 0
-625 512 0
-618 623 624 625 0
-626 512 0
-626 566 0
-627 510 0
-627 568 0
-628 620 0
-628 489 0
-618 626 627 628 0
-629 568 0
-629 510 0
-630 566 0
-630 512 0
-631 620 0
-631 489 0
-618 629 630 631 0
-633 492 0
-633 620 0
-634 512 0
-634 564 0
-635 568 0
-635 508 0
-632 633 634 635 0
-636 492 0
-636 620 0
-637 508 0
-637 568 0
-638 564 0
-638 512 0
-632 636 637 638 0
-639 512 0
-639 564 0
-640 508 0
-640 568 0
-641 620 0
-641 492 0
-632 639 640 641 0
-642 568 0
-642 508 0
-643 564 0
-643 512 0
-644 620 0
-644 492 0
-632 642 643 644 0
-646 496 0
-646 620 0
-647 510 0
-647 564 0
-648 566 0
-648 508 0
-645 646 647 648 0
-649 496 0
-649 620 0
-650 508 0
-650 566 0
-651 564 0
-651 510 0
-645 649 650 651 0
-652 510 0
-652 564 0
-653 508 0
-653 566 0
-654 620 0
-654 496 0
-645 652 653 654 0
-655 566 0
-655 508 0
-656 564 0
-656 510 0
-657 620 0
-657 496 0
-645 655 656 657 0
-659 495 0
-659 620 0
-660 512 0
-660 580 0
-661 568 0
-661 524 0
-658 659 660 661 0
-662 495 0
-662 620 0
-663 524 0
-663 568 0
-664 580 0
-664 512 0
-658 662 663 664 0
-665 512 0
-665 580 0
-666 524 0
-666 568 0
-667 620 0
-667 495 0
-658 665 666 667 0
-668 568 0
-668 524 0
-669 580 0
-669 512 0
-670 620 0
-670 495 0
-658 668 669 670 0
-672 493 0
-672 620 0
-673 510 0
-673 580 0
-674 566 0
-674 524 0
-671 672 673 674 0
-675 493 0
-675 620 0
-676 524 0
-676 566 0
-677 580 0
-677 510 0
-671 675 676 677 0
-678 510 0
-678 580 0
-679 524 0
-679 566 0
-680 620 0
-680 493 0
-671 678 679 680 0
-681 566 0
-681 524 0
-682 580 0
-682 510 0
-683 620 0
-683 493 0
-671 681 682 683 0
-685 490 0
-685 620 0
-686 508 0
-686 580 0
-687 564 0
-687 524 0
-684 685 686 687 0
-688 490 0
-688 620 0
-689 524 0
-689 564 0
-690 580 0
-690 508 0
-684 688 689 690 0
-691 508 0
-691 580 0
-692 524 0
-692 564 0
-693 620 0
-693 490 0
-684 691 692 693 0
-694 564 0
-694 524 0
-695 580 0
-695 508 0
-696 620 0
-696 490 0
-684 694 695 696 0
-697 489 0
-697 684 0
-698 492 0
-698 671 0
-699 495 0
-699 645 0
-700 512 0
-700 605 0
-701 568 0
-701 549 0
-6 697 698 699 700 701 0
-702 489 0
-702 684 0
-703 496 0
-703 658 0
-704 493 0
-704 632 0
-705 510 0
-705 592 0
-706 566 0
-706 536 0
-6 702 703 704 705 706 0
-707 492 0
-707 671 0
-708 496 0
-708 658 0
-709 490 0
-709 618 0
-710 508 0
-710 578 0
-711 564 0
-711 522 0
-6 707 708 709 710 711 0
-712 495 0
-712 645 0
-713 493 0
-713 632 0
-714 490 0
-714 618 0
-715 524 0
-715 562 0
-716 580 0
-716 506 0
-6 712 713 714 715 716 0
-717 512 0
-717 605 0
-718 510 0
-718 592 0
-719 508 0
-719 578 0
-720 524 0
-720 562 0
-721 620 0
-721 487 0
-6 717 718 719 720 721 0
-722 568 0
-722 549 0
-723 566 0
-723 536 0
-724 564 0
-724 522 0
-725 580 0
-725 506 0
-726 620 0
-726 487 0
-6 722 723 724 725 726 0
-444 -489 0
-431 -492 0
-418 -496 0
-405 -495 0
-392 -493 0
-378 -490 0
-380 -487 0
-365 -512 0
-352 -510 0
-338 -508 0
-340 -506 0
-322 -524 0
-324 -522 0
-326 -536 0
-328 -549 0
-309 -568 0
-296 -566 0
-282 -564 0
-284 -562 0
-266 -580 0
-268 -578 0
-270 -592 0
-272 -605 0
-247 -620 0
-250 -618 0
-253 -632 0
-255 -645 0
-256 -658 0
-252 -671 0
-249 -684 0
-9 -444 0
-9 -380 -490 0
-9 -340 -508 0
-9 -324 -524 0
-9 -284 -564 0
-9 -268 -580 0
-9 -250 -620 0
-9 -684 0
-12 -431 0
-12 -380 -493 0
-12 -340 -510 0
-12 -326 -524 0
-12 -284 -566 0
-12 -270 -580 0
-12 -253 -620 0
-12 -671 0
-16 -418 0
-16 -380 -495 0
-16 -340 -512 0
-16 -328 -524 0
-16 -284 -568 0
-16 -272 -580 0
-16 -255 -620 0
-16 -658 0
-15 -405 0
-15 -380 -496 0
-15 -324 -510 0
-15 -326 -508 0
-15 -268 -566 0
-15 -270 -564 0
-15 -256 -620 0
-15 -645 0
-13 -392 0
-13 -380 -492 0
-13 -324 -512 0
-13 -328 -508 0
-13 -268 -568 0
-13 -272 -564 0
-13 -252 -620 0
-13 -632 0
-10 -378 0
-10 -380 -489 0
-10 -326 -512 0
-10 -328 -510 0
-10 -270 -568 0
-10 -272 -566 0
-10 -249 -620 0
-10 -618 0
-7 -380 0
-7 -620 0
-32 -365 0
-32 -340 -496 0
-32 -324 -493 0
-32 -326 -490 0
-32 -250 -566 0
-32 -253 -564 0
-32 -256 -580 0
-32 -605 0
-30 -352 0
-30 -340 -492 0
-30 -324 -495 0
-30 -328 -490 0
-30 -250 -568 0
-30 -255 -564 0
-30 -252 -580 0
-30 -592 0
-28 -338 0
-28 -340 -489 0
-28 -326 -495 0
-28 -328 -493 0
-28 -253 -568 0
-28 -255 -566 0
-28 -249 -580 0
-28 -578 0
-26 -340 0
-26 -580 0
-44 -322 0
-44 -324 -489 0
-44 -326 -492 0
-44 -328 -496 0
-44 -256 -568 0
-44 -252 -566 0
-44 -249 -564 0
-44 -562 0
-42 -324 0
-42 -564 0
-56 -326 0
-56 -566 0
-69 -328 0
-69 -568 0
-88 -309 0
-88 -284 -496 0
-88 -268 -493 0
-88 -270 -490 0
-88 -250 -510 0
-88 -253 -508 0
-88 -256 -524 0
-88 -549 0
-86 -296 0
-86 -284 -492 0
-86 -268 -495 0
-86 -272 -490 0
-86 -250 -512 0
-86 -255 -508 0
-86 -252 -524 0
-86 -536 0
-84 -282 0
-84 -284 -489 0
-84 -270 -495 0
-84 -272 -493 0
-84 -253 -512 0
-84 -255 -510 0
-84 -249 -524 0
-84 -522 0
-82 -284 0
-82 -524 0
-100 -266 0
-100 -268 -489 0
-100 -270 -492 0
-100 -272 -496 0
-100 -256 -512 0
-100 -252 -510 0
-100 -249 -508 0
-100 -506 0
-98 -268 0
-98 -508 0
-112 -270 0
-112 -510 0
-125 -272 0
-125 -512 0
-140 -247 0
-140 -250 -489 0
-140 -253 -492 0
-140 -255 -496 0
-140 -256 -495 0
-140 -252 -493 0
-140 -249 -490 0
-140 -487 0
-138 -250 0
-138 -490 0
-152 -253 0
-152 -493 0
-165 -255 0
-165 -495 0
-178 -256 0
-178 -496 0
-191 -252 0
-191 -492 0
-204 -249 0
-204 -489 0
-86 0
-84 0
-140 0
88 0
69 0
-309 0
-284 -496 0
-268 -493 0
-270 -490 0
-250 -510 0
-253 -508 0
-256 -524 0
-549 0
-266 0
-268 -489 0
-270 -492 0
-272 -496 0
-256 -512 0
-252 -510 0
-249 -508 0
-506 0
-28 152 0
28 -152 0
-30 138 0
30 -138 0
-16 82 0
16 -82 0
-1 88 0
1 -88 0
-328 0
-324 0
326 0
296 0
-56 0
-44 -492 0
-28 -495 0
-32 -490 0
-10 -512 0
-15 -508 0
-12 -524 0
-536 0
-26 0
-28 -489 0
-30 -492 0
-32 -496 0
-16 -512 0
-12 -510 0
-9 -508 0
-506 0
-7 0
-10 -489 0
-13 -492 0
-15 -496 0
-16 -495 0
-12 -493 0
-9 -490 0
-487 0
-252 322 0
252 -322 0
-3 326 0
3 -326 0
-568 0
-566 0
-580 0
564 0
522 0
-42 0
-44 -249 0
-30 -255 0
-32 -253 0
-13 -272 0
-15 -270 0
-9 -284 0
-282 0
-7 0
-10 -249 0
-13 -252 0
-15 -256 0
-16 -255 0
-12 -253 0
-9 -250 0
-247 0
-493 605 0
493 -605 0
-495 592 0
495 -592 0
-489 562 0
489 -562 0
-5 564 0
5 -564 0
