p cnf 5592 13752
1 0
2 0
3 0
4 0
5 0
6 0
-8 9 0
-8 10 0
-11 12 0
-11 13 0
-14 15 0
-14 16 0
-7 8 11 14 0
-17 9 0
-17 10 0
-18 16 0
-18 15 0
-19 13 0
-19 12 0
-7 17 18 19 0
-20 12 0
-20 13 0
-21 16 0
-21 15 0
-22 10 0
-22 9 0
-7 20 21 22 0
-23 15 0
-23 16 0
-24 13 0
-24 12 0
-25 10 0
-25 9 0
-7 23 24 25 0
-27 9 0
-27 28 0
-29 12 0
-29 30 0
-31 32 0
-31 16 0
-26 27 29 31 0
-33 9 0
-33 28 0
-34 16 0
-34 32 0
-35 30 0
-35 12 0
-26 33 34 35 0
-36 12 0
-36 30 0
-37 16 0
-37 32 0
-38 28 0
-38 9 0
-26 36 37 38 0
-39 32 0
-39 16 0
-40 30 0
-40 12 0
-41 28 0
-41 9 0
-26 39 40 41 0
-43 9 0
-43 44 0
-45 15 0
-45 30 0
-46 32 0
-46 13 0
-42 43 45 46 0
-47 9 0
-47 44 0
-48 13 0
-48 32 0
-49 30 0
-49 15 0
-42 47 48 49 0
-50 15 0
-50 30 0
-51 13 0
-51 32 0
-52 44 0
-52 9 0
-42 50 51 52 0
-53 32 0
-53 13 0
-54 30 0
-54 15 0
-55 44 0
-55 9 0
-42 53 54 55 0
-57 12 0
-57 44 0
-58 15 0
-58 28 0
-59 32 0
-59 10 0
-56 57 58 59 0
-60 12 0
-60 44 0
-61 10 0
-61 32 0
-62 28 0
-62 15 0
-56 60 61 62 0
-63 15 0
-63 28 0
-64 10 0
-64 32 0
-65 44 0
-65 12 0
-56 63 64 65 0
-66 32 0
-66 10 0
-67 28 0
-67 15 0
-68 44 0
-68 12 0
-56 66 67 68 0
-70 16 0
-70 44 0
-71 13 0
-71 28 0
-72 30 0
-72 10 0
-69 70 71 72 0
-73 16 0
-73 44 0
-74 10 0
-74 30 0
-75 28 0
-75 13 0
-69 73 74 75 0
-76 13 0
-76 28 0
-77 10 0
-77 30 0
-78 44 0
-78 16 0
-69 76 77 78 0
-79 30 0
-79 10 0
-80 28 0
-80 13 0
-81 44 0
-81 16 0
-69 79 80 81 0
-83 9 0
-83 84 0
-85 12 0
-85 86 0
-87 88 0
-87 16 0
-82 83 85 87 0
-89 9 0
-89 84 0
-90 16 0
-90 88 0
-91 86 0
-91 12 0
-82 89 90 91 0
-92 12 0
-92 86 0
-93 16 0
-93 88 0
-94 84 0
-94 9 0
-82 92 93 94 0
-95 88 0
-95 16 0
-96 86 0
-96 12 0
-97 84 0
-97 9 0
-82 95 96 97 0
-99 9 0
-99 100 0
-101 15 0
-101 86 0
-102 88 0
-102 13 0
-98 99 101 102 0
-103 9 0
-103 100 0
-104 13 0
-104 88 0
-105 86 0
-105 15 0
-98 103 104 105 0
-106 15 0
-106 86 0
-107 13 0
-107 88 0
-108 100 0
-108 9 0
-98 106 107 108 0
-109 88 0
-109 13 0
-110 86 0
-110 15 0
-111 100 0
-111 9 0
-98 109 110 111 0
-113 12 0
-113 100 0
-114 15 0
-114 84 0
-115 88 0
-115 10 0
-112 113 114 115 0
-116 12 0
-116 100 0
-117 10 0
-117 88 0
-118 84 0
-118 15 0
-112 116 117 118 0
-119 15 0
-119 84 0
-120 10 0
-120 88 0
-121 100 0
-121 12 0
-112 119 120 121 0
-122 88 0
-122 10 0
-123 84 0
-123 15 0
-124 100 0
-124 12 0
-112 122 123 124 0
-126 16 0
-126 100 0
-127 13 0
-127 84 0
-128 86 0
-128 10 0
-125 126 127 128 0
-129 16 0
-129 100 0
-130 10 0
-130 86 0
-131 84 0
-131 13 0
-125 129 130 131 0
-132 13 0
-132 84 0
-133 10 0
-133 86 0
-134 100 0
-134 16 0
-125 132 133 134 0
-135 86 0
-135 10 0
-136 84 0
-136 13 0
-137 100 0
-137 16 0
-125 135 136 137 0
-139 9 0
-139 140 0
-141 32 0
-141 86 0
-142 88 0
-142 30 0
-138 139 141 142 0
-143 9 0
-143 140 0
-144 30 0
-144 88 0
-145 86 0
-145 32 0
-138 143 144 145 0
-146 32 0
-146 86 0
-147 30 0
-147 88 0
-148 140 0
-148 9 0
-138 146 147 148 0
-149 88 0
-149 30 0
-150 86 0
-150 32 0
-151 140 0
-151 9 0
-138 149 150 151 0
-153 12 0
-153 140 0
-154 32 0
-154 84 0
-155 88 0
-155 28 0
-152 153 154 155 0
-156 12 0
-156 140 0
-157 28 0
-157 88 0
-158 84 0
-158 32 0
-152 156 157 158 0
-159 32 0
-159 84 0
-160 28 0
-160 88 0
-161 140 0
-161 12 0
-152 159 160 161 0
-162 88 0
-162 28 0
-163 84 0
-163 32 0
-164 140 0
-164 12 0
-152 162 163 164 0
-166 16 0
-166 140 0
-167 30 0
-167 84 0
-168 86 0
-168 28 0
-165 166 167 168 0
-169 16 0
-169 140 0
-170 28 0
-170 86 0
-171 84 0
-171 30 0
-165 169 170 171 0
-172 30 0
-172 84 0
-173 28 0
-173 86 0
-174 140 0
-174 16 0
-165 172 173 174 0
-175 86 0
-175 28 0
-176 84 0
-176 30 0
-177 140 0
-177 16 0
-165 175 176 177 0
-179 15 0
-179 140 0
-180 32 0
-180 100 0
-181 88 0
-181 44 0
-178 179 180 181 0
-182 15 0
-182 140 0
-183 44 0
-183 88 0
-184 100 0
-184 32 0
-178 182 183 184 0
-185 32 0
-185 100 0
-186 44 0
-186 88 0
-187 140 0
-187 15 0
-178 185 186 187 0
-188 88 0
-188 44 0
-189 100 0
-189 32 0
-190 140 0
-190 15 0
-178 188 189 190 0
-192 13 0
-192 140 0
-193 30 0
-193 100 0
-194 86 0
-194 44 0
-191 192 193 194 0
-195 13 0
-195 140 0
-196 44 0
-196 86 0
-197 100 0
-197 30 0
-191 195 196 197 0
-198 30 0
-198 100 0
-199 44 0
-199 86 0
-200 140 0
-200 13 0
-191 198 199 200 0
-201 86 0
-201 44 0
-202 100 0
-202 30 0
-203 140 0
-203 13 0
-191 201 202 203 0
-205 10 0
-205 140 0
-206 28 0
-206 100 0
-207 84 0
-207 44 0
-204 205 206 207 0
-208 10 0
-208 140 0
-209 44 0
-209 84 0
-210 100 0
-210 28 0
-204 208 209 210 0
-211 28 0
-211 100 0
-212 44 0
-212 84 0
-213 140 0
-213 10 0
-204 211 212 213 0
-214 84 0
-214 44 0
-215 100 0
-215 28 0
-216 140 0
-216 10 0
-204 214 215 216 0
-218 9 0
-218 204 0
-219 12 0
-219 191 0
-220 15 0
-220 165 0
-221 32 0
-221 125 0
-222 88 0
-222 69 0
-217 218 219 220 221 222 0
-223 9 0
-223 204 0
-224 16 0
-224 178 0
-225 13 0
-225 152 0
-226 30 0
-226 112 0
-227 86 0
-227 56 0
-217 223 224 225 226 227 0
-228 12 0
-228 191 0
-229 16 0
-229 178 0
-230 10 0
-230 138 0
-231 28 0
-231 98 0
-232 84 0
-232 42 0
-217 228 229 230 231 232 0
-233 15 0
-233 165 0
-234 13 0
-234 152 0
-235 10 0
-235 138 0
-236 44 0
-236 82 0
-237 100 0
-237 26 0
-217 233 234 235 236 237 0
-238 32 0
-238 125 0
-239 30 0
-239 112 0
-240 28 0
-240 98 0
-241 44 0
-241 82 0
-242 140 0
-242 7 0
-217 238 239 240 241 242 0
-243 88 0
-243 69 0
-244 86 0
-244 56 0
-245 84 0
-245 42 0
-246 100 0
-246 26 0
-247 140 0
-247 7 0
-217 243 244 245 246 247 0
-249 9 0
-249 250 0
-251 12 0
-251 252 0
-253 254 0
-253 16 0
-248 249 251 253 0
-255 9 0
-255 250 0
-256 16 0
-256 254 0
-257 252 0
-257 12 0
-248 255 256 257 0
-258 12 0
-258 252 0
-259 16 0
-259 254 0
-260 250 0
-260 9 0
-248 258 259 260 0
-261 254 0
-261 16 0
-262 252 0
-262 12 0
-263 250 0
-263 9 0
-248 261 262 263 0
-265 9 0
-265 266 0
-267 15 0
-267 252 0
-268 254 0
-268 13 0
-264 265 267 268 0
-269 9 0
-269 266 0
-270 13 0
-270 254 0
-271 252 0
-271 15 0
-264 269 270 271 0
-272 15 0
-272 252 0
-273 13 0
-273 254 0
-274 266 0
-274 9 0
-264 272 273 274 0
-275 254 0
-275 13 0
-276 252 0
-276 15 0
-277 266 0
-277 9 0
-264 275 276 277 0
-279 12 0
-279 266 0
-280 15 0
-280 250 0
-281 254 0
-281 10 0
-278 279 280 281 0
-282 12 0
-282 266 0
-283 10 0
-283 254 0
-284 250 0
-284 15 0
-278 282 283 284 0
-285 15 0
-285 250 0
-286 10 0
-286 254 0
-287 266 0
-287 12 0
-278 285 286 287 0
-288 254 0
-288 10 0
-289 250 0
-289 15 0
-290 266 0
-290 12 0
-278 288 289 290 0
-292 16 0
-292 266 0
-293 13 0
-293 250 0
-294 252 0
-294 10 0
-291 292 293 294 0
-295 16 0
-295 266 0
-296 10 0
-296 252 0
-297 250 0
-297 13 0
-291 295 296 297 0
-298 13 0
-298 250 0
-299 10 0
-299 252 0
-300 266 0
-300 16 0
-291 298 299 300 0
-301 252 0
-301 10 0
-302 250 0
-302 13 0
-303 266 0
-303 16 0
-291 301 302 303 0
-305 9 0
-305 306 0
-307 32 0
-307 252 0
-308 254 0
-308 30 0
-304 305 307 308 0
-309 9 0
-309 306 0
-310 30 0
-310 254 0
-311 252 0
-311 32 0
-304 309 310 311 0
-312 32 0
-312 252 0
-313 30 0
-313 254 0
-314 306 0
-314 9 0
-304 312 313 314 0
-315 254 0
-315 30 0
-316 252 0
-316 32 0
-317 306 0
-317 9 0
-304 315 316 317 0
-319 12 0
-319 306 0
-320 32 0
-320 250 0
-321 254 0
-321 28 0
-318 319 320 321 0
-322 12 0
-322 306 0
-323 28 0
-323 254 0
-324 250 0
-324 32 0
-318 322 323 324 0
-325 32 0
-325 250 0
-326 28 0
-326 254 0
-327 306 0
-327 12 0
-318 325 326 327 0
-328 254 0
-328 28 0
-329 250 0
-329 32 0
-330 306 0
-330 12 0
-318 328 329 330 0
-332 16 0
-332 306 0
-333 30 0
-333 250 0
-334 252 0
-334 28 0
-331 332 333 334 0
-335 16 0
-335 306 0
-336 28 0
-336 252 0
-337 250 0
-337 30 0
-331 335 336 337 0
-338 30 0
-338 250 0
-339 28 0
-339 252 0
-340 306 0
-340 16 0
-331 338 339 340 0
-341 252 0
-341 28 0
-342 250 0
-342 30 0
-343 306 0
-343 16 0
-331 341 342 343 0
-345 15 0
-345 306 0
-346 32 0
-346 266 0
-347 254 0
-347 44 0
-344 345 346 347 0
-348 15 0
-348 306 0
-349 44 0
-349 254 0
-350 266 0
-350 32 0
-344 348 349 350 0
-351 32 0
-351 266 0
-352 44 0
-352 254 0
-353 306 0
-353 15 0
-344 351 352 353 0
-354 254 0
-354 44 0
-355 266 0
-355 32 0
-356 306 0
-356 15 0
-344 354 355 356 0
-358 13 0
-358 306 0
-359 30 0
-359 266 0
-360 252 0
-360 44 0
-357 358 359 360 0
-361 13 0
-361 306 0
-362 44 0
-362 252 0
-363 266 0
-363 30 0
-357 361 362 363 0
-364 30 0
-364 266 0
-365 44 0
-365 252 0
-366 306 0
-366 13 0
-357 364 365 366 0
-367 252 0
-367 44 0
-368 266 0
-368 30 0
-369 306 0
-369 13 0
-357 367 368 369 0
-371 10 0
-371 306 0
-372 28 0
-372 266 0
-373 250 0
-373 44 0
-370 371 372 373 0
-374 10 0
-374 306 0
-375 44 0
-375 250 0
-376 266 0
-376 28 0
-370 374 375 376 0
-377 28 0
-377 266 0
-378 44 0
-378 250 0
-379 306 0
-379 10 0
-370 377 378 379 0
-380 250 0
-380 44 0
-381 266 0
-381 28 0
-382 306 0
-382 10 0
-370 380 381 382 0
-384 9 0
-384 370 0
-385 12 0
-385 357 0
-386 15 0
-386 331 0
-387 32 0
-387 291 0
-388 254 0
-388 69 0
-383 384 385 386 387 388 0
-389 9 0
-389 370 0
-390 16 0
-390 344 0
-391 13 0
-391 318 0
-392 30 0
-392 278 0
-393 252 0
-393 56 0
-383 389 390 391 392 393 0
-394 12 0
-394 357 0
-395 16 0
-395 344 0
-396 10 0
-396 304 0
-397 28 0
-397 264 0
-398 250 0
-398 42 0
-383 394 395 396 397 398 0
-399 15 0
-399 331 0
-400 13 0
-400 318 0
-401 10 0
-401 304 0
-402 44 0
-402 248 0
-403 266 0
-403 26 0
-383 399 400 401 402 403 0
-404 32 0
-404 291 0
-405 30 0
-405 278 0
-406 28 0
-406 264 0
-407 44 0
-407 248 0
-408 306 0
-408 7 0
-383 404 405 406 407 408 0
-409 254 0
-409 69 0
-410 252 0
-410 56 0
-411 250 0
-411 42 0
-412 266 0
-412 26 0
-413 306 0
-413 7 0
-383 409 410 411 412 413 0
-415 9 0
-415 416 0
-417 88 0
-417 252 0
-418 254 0
-418 86 0
-414 415 417 418 0
-419 9 0
-419 416 0
-420 86 0
-420 254 0
-421 252 0
-421 88 0
-414 419 420 421 0
-422 88 0
-422 252 0
-423 86 0
-423 254 0
-424 416 0
-424 9 0
-414 422 423 424 0
-425 254 0
-425 86 0
-426 252 0
-426 88 0
-427 416 0
-427 9 0
-414 425 426 427 0
-429 12 0
-429 416 0
-430 88 0
-430 250 0
-431 254 0
-431 84 0
-428 429 430 431 0
-432 12 0
-432 416 0
-433 84 0
-433 254 0
-434 250 0
-434 88 0
-428 432 433 434 0
-435 88 0
-435 250 0
-436 84 0
-436 254 0
-437 416 0
-437 12 0
-428 435 436 437 0
-438 254 0
-438 84 0
-439 250 0
-439 88 0
-440 416 0
-440 12 0
-428 438 439 440 0
-442 16 0
-442 416 0
-443 86 0
-443 250 0
-444 252 0
-444 84 0
-441 442 443 444 0
-445 16 0
-445 416 0
-446 84 0
-446 252 0
-447 250 0
-447 86 0
-441 445 446 447 0
-448 86 0
-448 250 0
-449 84 0
-449 252 0
-450 416 0
-450 16 0
-441 448 449 450 0
-451 252 0
-451 84 0
-452 250 0
-452 86 0
-453 416 0
-453 16 0
-441 451 452 453 0
-455 15 0
-455 416 0
-456 88 0
-456 266 0
-457 254 0
-457 100 0
-454 455 456 457 0
-458 15 0
-458 416 0
-459 100 0
-459 254 0
-460 266 0
-460 88 0
-454 458 459 460 0
-461 88 0
-461 266 0
-462 100 0
-462 254 0
-463 416 0
-463 15 0
-454 461 462 463 0
-464 254 0
-464 100 0
-465 266 0
-465 88 0
-466 416 0
-466 15 0
-454 464 465 466 0
-468 13 0
-468 416 0
-469 86 0
-469 266 0
-470 252 0
-470 100 0
-467 468 469 470 0
-471 13 0
-471 416 0
-472 100 0
-472 252 0
-473 266 0
-473 86 0
-467 471 472 473 0
-474 86 0
-474 266 0
-475 100 0
-475 252 0
-476 416 0
-476 13 0
-467 474 475 476 0
-477 252 0
-477 100 0
-478 266 0
-478 86 0
-479 416 0
-479 13 0
-467 477 478 479 0
-481 10 0
-481 416 0
-482 84 0
-482 266 0
-483 250 0
-483 100 0
-480 481 482 483 0
-484 10 0
-484 416 0
-485 100 0
-485 250 0
-486 266 0
-486 84 0
-480 484 485 486 0
-487 84 0
-487 266 0
-488 100 0
-488 250 0
-489 416 0
-489 10 0
-480 487 488 489 0
-490 250 0
-490 100 0
-491 266 0
-491 84 0
-492 416 0
-492 10 0
-480 490 491 492 0
-494 9 0
-494 480 0
-495 12 0
-495 467 0
-496 15 0
-496 441 0
-497 88 0
-497 291 0
-498 254 0
-498 125 0
-493 494 495 496 497 498 0
-499 9 0
-499 480 0
-500 16 0
-500 454 0
-501 13 0
-501 428 0
-502 86 0
-502 278 0
-503 252 0
-503 112 0
-493 499 500 501 502 503 0
-504 12 0
-504 467 0
-505 16 0
-505 454 0
-506 10 0
-506 414 0
-507 84 0
-507 264 0
-508 250 0
-508 98 0
-493 504 505 506 507 508 0
-509 15 0
-509 441 0
-510 13 0
-510 428 0
-511 10 0
-511 414 0
-512 100 0
-512 248 0
-513 266 0
-513 82 0
-493 509 510 511 512 513 0
-514 88 0
-514 291 0
-515 86 0
-515 278 0
-516 84 0
-516 264 0
-517 100 0
-517 248 0
-518 416 0
-518 7 0
-493 514 515 516 517 518 0
-519 254 0
-519 125 0
-520 252 0
-520 112 0
-521 250 0
-521 98 0
-522 266 0
-522 82 0
-523 416 0
-523 7 0
-493 519 520 521 522 523 0
-525 32 0
-525 416 0
-526 88 0
-526 306 0
-527 254 0
-527 140 0
-524 525 526 527 0
-528 32 0
-528 416 0
-529 140 0
-529 254 0
-530 306 0
-530 88 0
-524 528 529 530 0
-531 88 0
-531 306 0
-532 140 0
-532 254 0
-533 416 0
-533 32 0
-524 531 532 533 0
-534 254 0
-534 140 0
-535 306 0
-535 88 0
-536 416 0
-536 32 0
-524 534 535 536 0
-538 30 0
-538 416 0
-539 86 0
-539 306 0
-540 252 0
-540 140 0
-537 538 539 540 0
-541 30 0
-541 416 0
-542 140 0
-542 252 0
-543 306 0
-543 86 0
-537 541 542 543 0
-544 86 0
-544 306 0
-545 140 0
-545 252 0
-546 416 0
-546 30 0
-537 544 545 546 0
-547 252 0
-547 140 0
-548 306 0
-548 86 0
-549 416 0
-549 30 0
-537 547 548 549 0
-551 28 0
-551 416 0
-552 84 0
-552 306 0
-553 250 0
-553 140 0
-550 551 552 553 0
-554 28 0
-554 416 0
-555 140 0
-555 250 0
-556 306 0
-556 84 0
-550 554 555 556 0
-557 84 0
-557 306 0
-558 140 0
-558 250 0
-559 416 0
-559 28 0
-550 557 558 559 0
-560 250 0
-560 140 0
-561 306 0
-561 84 0
-562 416 0
-562 28 0
-550 560 561 562 0
-564 9 0
-564 550 0
-565 12 0
-565 537 0
-566 32 0
-566 441 0
-567 88 0
-567 331 0
-568 254 0
-568 165 0
-563 564 565 566 567 568 0
-569 9 0
-569 550 0
-570 16 0
-570 524 0
-571 30 0
-571 428 0
-572 86 0
-572 318 0
-573 252 0
-573 152 0
-563 569 570 571 572 573 0
-574 12 0
-574 537 0
-575 16 0
-575 524 0
-576 28 0
-576 414 0
-577 84 0
-577 304 0
-578 250 0
-578 138 0
-563 574 575 576 577 578 0
-579 32 0
-579 441 0
-580 30 0
-580 428 0
-581 28 0
-581 414 0
-582 140 0
-582 248 0
-583 306 0
-583 82 0
-563 579 580 581 582 583 0
-584 88 0
-584 331 0
-585 86 0
-585 318 0
-586 84 0
-586 304 0
-587 140 0
-587 248 0
-588 416 0
-588 26 0
-563 584 585 586 587 588 0
-589 254 0
-589 165 0
-590 252 0
-590 152 0
-591 250 0
-591 138 0
-592 306 0
-592 82 0
-593 416 0
-593 26 0
-563 589 590 591 592 593 0
-595 44 0
-595 416 0
-596 100 0
-596 306 0
-597 266 0
-597 140 0
-594 595 596 597 0
-598 44 0
-598 416 0
-599 140 0
-599 266 0
-600 306 0
-600 100 0
-594 598 599 600 0
-601 100 0
-601 306 0
-602 140 0
-602 266 0
-603 416 0
-603 44 0
-594 601 602 603 0
-604 266 0
-604 140 0
-605 306 0
-605 100 0
-606 416 0
-606 44 0
-594 604 605 606 0
-608 9 0
-608 594 0
-609 15 0
-609 537 0
-610 32 0
-610 467 0
-611 88 0
-611 357 0
-612 254 0
-612 191 0
-607 608 609 610 611 612 0
-613 9 0
-613 594 0
-614 13 0
-614 524 0
-615 30 0
-615 454 0
-616 86 0
-616 344 0
-617 252 0
-617 178 0
-607 613 614 615 616 617 0
-618 15 0
-618 537 0
-619 13 0
-619 524 0
-620 44 0
-620 414 0
-621 100 0
-621 304 0
-622 266 0
-622 138 0
-607 618 619 620 621 622 0
-623 32 0
-623 467 0
-624 30 0
-624 454 0
-625 44 0
-625 414 0
-626 140 0
-626 264 0
-627 306 0
-627 98 0
-607 623 624 625 626 627 0
-628 88 0
-628 357 0
-629 86 0
-629 344 0
-630 100 0
-630 304 0
-631 140 0
-631 264 0
-632 416 0
-632 42 0
-607 628 629 630 631 632 0
-633 254 0
-633 191 0
-634 252 0
-634 178 0
-635 266 0
-635 138 0
-636 306 0
-636 98 0
-637 416 0
-637 42 0
-607 633 634 635 636 637 0
-639 12 0
-639 594 0
-640 15 0
-640 550 0
-641 32 0
-641 480 0
-642 88 0
-642 370 0
-643 254 0
-643 204 0
-638 639 640 641 642 643 0
-644 12 0
-644 594 0
-645 10 0
-645 524 0
-646 28 0
-646 454 0
-647 84 0
-647 344 0
-648 250 0
-648 178 0
-638 644 645 646 647 648 0
-649 15 0
-649 550 0
-650 10 0
-650 524 0
-651 44 0
-651 428 0
-652 100 0
-652 318 0
-653 266 0
-653 152 0
-638 649 650 651 652 653 0
-654 32 0
-654 480 0
-655 28 0
-655 454 0
-656 44 0
-656 428 0
-657 140 0
-657 278 0
-658 306 0
-658 112 0
-638 654 655 656 657 658 0
-659 88 0
-659 370 0
-660 84 0
-660 344 0
-661 100 0
-661 318 0
-662 140 0
-662 278 0
-663 416 0
-663 56 0
-638 659 660 661 662 663 0
-664 254 0
-664 204 0
-665 250 0
-665 178 0
-666 266 0
-666 152 0
-667 306 0
-667 112 0
-668 416 0
-668 56 0
-638 664 665 666 667 668 0
-670 16 0
-670 594 0
-671 13 0
-671 550 0
-672 30 0
-672 480 0
-673 86 0
-673 370 0
-674 252 0
-674 204 0
-669 670 671 672 673 674 0
-675 16 0
-675 594 0
-676 10 0
-676 537 0
-677 28 0
-677 467 0
-678 84 0
-678 357 0
-679 250 0
-679 191 0
-669 675 676 677 678 679 0
-680 13 0
-680 550 0
-681 10 0
-681 537 0
-682 44 0
-682 441 0
-683 100 0
-683 331 0
-684 266 0
-684 165 0
-669 680 681 682 683 684 0
-685 30 0
-685 480 0
-686 28 0
-686 467 0
-687 44 0
-687 441 0
-688 140 0
-688 291 0
-689 306 0
-689 125 0
-669 685 686 687 688 689 0
-690 86 0
-690 370 0
-691 84 0
-691 357 0
-692 100 0
-692 331 0
-693 140 0
-693 291 0
-694 416 0
-694 69 0
-669 690 691 692 693 694 0
-695 252 0
-695 204 0
-696 250 0
-696 191 0
-697 266 0
-697 165 0
-698 306 0
-698 125 0
-699 416 0
-699 69 0
-669 695 696 697 698 699 0
-701 9 0
-701 702 0
-703 12 0
-703 704 0
-705 706 0
-705 16 0
-700 701 703 705 0
-707 9 0
-707 702 0
-708 16 0
-708 706 0
-709 704 0
-709 12 0
-700 707 708 709 0
-710 12 0
-710 704 0
-711 16 0
-711 706 0
-712 702 0
-712 9 0
-700 710 711 712 0
-713 706 0
-713 16 0
-714 704 0
-714 12 0
-715 702 0
-715 9 0
-700 713 714 715 0
-717 9 0
-717 718 0
-719 15 0
-719 704 0
-720 706 0
-720 13 0
-716 717 719 720 0
-721 9 0
-721 718 0
-722 13 0
-722 706 0
-723 704 0
-723 15 0
-716 721 722 723 0
-724 15 0
-724 704 0
-725 13 0
-725 706 0
-726 718 0
-726 9 0
-716 724 725 726 0
-727 706 0
-727 13 0
-728 704 0
-728 15 0
-729 718 0
-729 9 0
-716 727 728 729 0
-731 12 0
-731 718 0
-732 15 0
-732 702 0
-733 706 0
-733 10 0
-730 731 732 733 0
-734 12 0
-734 718 0
-735 10 0
-735 706 0
-736 702 0
-736 15 0
-730 734 735 736 0
-737 15 0
-737 702 0
-738 10 0
-738 706 0
-739 718 0
-739 12 0
-730 737 738 739 0
-740 706 0
-740 10 0
-741 702 0
-741 15 0
-742 718 0
-742 12 0
-730 740 741 742 0
-744 16 0
-744 718 0
-745 13 0
-745 702 0
-746 704 0
-746 10 0
-743 744 745 746 0
-747 16 0
-747 718 0
-748 10 0
-748 704 0
-749 702 0
-749 13 0
-743 747 748 749 0
-750 13 0
-750 702 0
-751 10 0
-751 704 0
-752 718 0
-752 16 0
-743 750 751 752 0
-753 704 0
-753 10 0
-754 702 0
-754 13 0
-755 718 0
-755 16 0
-743 753 754 755 0
-757 9 0
-757 758 0
-759 32 0
-759 704 0
-760 706 0
-760 30 0
-756 757 759 760 0
-761 9 0
-761 758 0
-762 30 0
-762 706 0
-763 704 0
-763 32 0
-756 761 762 763 0
-764 32 0
-764 704 0
-765 30 0
-765 706 0
-766 758 0
-766 9 0
-756 764 765 766 0
-767 706 0
-767 30 0
-768 704 0
-768 32 0
-769 758 0
-769 9 0
-756 767 768 769 0
-771 12 0
-771 758 0
-772 32 0
-772 702 0
-773 706 0
-773 28 0
-770 771 772 773 0
-774 12 0
-774 758 0
-775 28 0
-775 706 0
-776 702 0
-776 32 0
-770 774 775 776 0
-777 32 0
-777 702 0
-778 28 0
-778 706 0
-779 758 0
-779 12 0
-770 777 778 779 0
-780 706 0
-780 28 0
-781 702 0
-781 32 0
-782 758 0
-782 12 0
-770 780 781 782 0
-784 16 0
-784 758 0
-785 30 0
-785 702 0
-786 704 0
-786 28 0
-783 784 785 786 0
-787 16 0
-787 758 0
-788 28 0
-788 704 0
-789 702 0
-789 30 0
-783 787 788 789 0
-790 30 0
-790 702 0
-791 28 0
-791 704 0
-792 758 0
-792 16 0
-783 790 791 792 0
-793 704 0
-793 28 0
-794 702 0
-794 30 0
-795 758 0
-795 16 0
-783 793 794 795 0
-797 15 0
-797 758 0
-798 32 0
-798 718 0
-799 706 0
-799 44 0
-796 797 798 799 0
-800 15 0
-800 758 0
-801 44 0
-801 706 0
-802 718 0
-802 32 0
-796 800 801 802 0
-803 32 0
-803 718 0
-804 44 0
-804 706 0
-805 758 0
-805 15 0
-796 803 804 805 0
-806 706 0
-806 44 0
-807 718 0
-807 32 0
-808 758 0
-808 15 0
-796 806 807 808 0
-810 13 0
-810 758 0
-811 30 0
-811 718 0
-812 704 0
-812 44 0
-809 810 811 812 0
-813 13 0
-813 758 0
-814 44 0
-814 704 0
-815 718 0
-815 30 0
-809 813 814 815 0
-816 30 0
-816 718 0
-817 44 0
-817 704 0
-818 758 0
-818 13 0
-809 816 817 818 0
-819 704 0
-819 44 0
-820 718 0
-820 30 0
-821 758 0
-821 13 0
-809 819 820 821 0
-823 10 0
-823 758 0
-824 28 0
-824 718 0
-825 702 0
-825 44 0
-822 823 824 825 0
-826 10 0
-826 758 0
-827 44 0
-827 702 0
-828 718 0
-828 28 0
-822 826 827 828 0
-829 28 0
-829 718 0
-830 44 0
-830 702 0
-831 758 0
-831 10 0
-822 829 830 831 0
-832 702 0
-832 44 0
-833 718 0
-833 28 0
-834 758 0
-834 10 0
-822 832 833 834 0
-836 9 0
-836 822 0
-837 12 0
-837 809 0
-838 15 0
-838 783 0
-839 32 0
-839 743 0
-840 706 0
-840 69 0
-835 836 837 838 839 840 0
-841 9 0
-841 822 0
-842 16 0
-842 796 0
-843 13 0
-843 770 0
-844 30 0
-844 730 0
-845 704 0
-845 56 0
-835 841 842 843 844 845 0
-846 12 0
-846 809 0
-847 16 0
-847 796 0
-848 10 0
-848 756 0
-849 28 0
-849 716 0
-850 702 0
-850 42 0
-835 846 847 848 849 850 0
-851 15 0
-851 783 0
-852 13 0
-852 770 0
-853 10 0
-853 756 0
-854 44 0
-854 700 0
-855 718 0
-855 26 0
-835 851 852 853 854 855 0
-856 32 0
-856 743 0
-857 30 0
-857 730 0
-858 28 0
-858 716 0
-859 44 0
-859 700 0
-860 758 0
-860 7 0
-835 856 857 858 859 860 0
-861 706 0
-861 69 0
-862 704 0
-862 56 0
-863 702 0
-863 42 0
-864 718 0
-864 26 0
-865 758 0
-865 7 0
-835 861 862 863 864 865 0
-867 9 0
-867 868 0
-869 88 0
-869 704 0
-870 706 0
-870 86 0
-866 867 869 870 0
-871 9 0
-871 868 0
-872 86 0
-872 706 0
-873 704 0
-873 88 0
-866 871 872 873 0
-874 88 0
-874 704 0
-875 86 0
-875 706 0
-876 868 0
-876 9 0
-866 874 875 876 0
-877 706 0
-877 86 0
-878 704 0
-878 88 0
-879 868 0
-879 9 0
-866 877 878 879 0
-881 12 0
-881 868 0
-882 88 0
-882 702 0
-883 706 0
-883 84 0
-880 881 882 883 0
-884 12 0
-884 868 0
-885 84 0
-885 706 0
-886 702 0
-886 88 0
-880 884 885 886 0
-887 88 0
-887 702 0
-888 84 0
-888 706 0
-889 868 0
-889 12 0
-880 887 888 889 0
-890 706 0
-890 84 0
-891 702 0
-891 88 0
-892 868 0
-892 12 0
-880 890 891 892 0
-894 16 0
-894 868 0
-895 86 0
-895 702 0
-896 704 0
-896 84 0
-893 894 895 896 0
-897 16 0
-897 868 0
-898 84 0
-898 704 0
-899 702 0
-899 86 0
-893 897 898 899 0
-900 86 0
-900 702 0
-901 84 0
-901 704 0
-902 868 0
-902 16 0
-893 900 901 902 0
-903 704 0
-903 84 0
-904 702 0
-904 86 0
-905 868 0
-905 16 0
-893 903 904 905 0
-907 15 0
-907 868 0
-908 88 0
-908 718 0
-909 706 0
-909 100 0
-906 907 908 909 0
-910 15 0
-910 868 0
-911 100 0
-911 706 0
-912 718 0
-912 88 0
-906 910 911 912 0
-913 88 0
-913 718 0
-914 100 0
-914 706 0
-915 868 0
-915 15 0
-906 913 914 915 0
-916 706 0
-916 100 0
-917 718 0
-917 88 0
-918 868 0
-918 15 0
-906 916 917 918 0
-920 13 0
-920 868 0
-921 86 0
-921 718 0
-922 704 0
-922 100 0
-919 920 921 922 0
-923 13 0
-923 868 0
-924 100 0
-924 704 0
-925 718 0
-925 86 0
-919 923 924 925 0
-926 86 0
-926 718 0
-927 100 0
-927 704 0
-928 868 0
-928 13 0
-919 926 927 928 0
-929 704 0
-929 100 0
-930 718 0
-930 86 0
-931 868 0
-931 13 0
-919 929 930 931 0
-933 10 0
-933 868 0
-934 84 0
-934 718 0
-935 702 0
-935 100 0
-932 933 934 935 0
-936 10 0
-936 868 0
-937 100 0
-937 702 0
-938 718 0
-938 84 0
-932 936 937 938 0
-939 84 0
-939 718 0
-940 100 0
-940 702 0
-941 868 0
-941 10 0
-932 939 940 941 0
-942 702 0
-942 100 0
-943 718 0
-943 84 0
-944 868 0
-944 10 0
-932 942 943 944 0
-946 9 0
-946 932 0
-947 12 0
-947 919 0
-948 15 0
-948 893 0
-949 88 0
-949 743 0
-950 706 0
-950 125 0
-945 946 947 948 949 950 0
-951 9 0
-951 932 0
-952 16 0
-952 906 0
-953 13 0
-953 880 0
-954 86 0
-954 730 0
-955 704 0
-955 112 0
-945 951 952 953 954 955 0
-956 12 0
-956 919 0
-957 16 0
-957 906 0
-958 10 0
-958 866 0
-959 84 0
-959 716 0
-960 702 0
-960 98 0
-945 956 957 958 959 960 0
-961 15 0
-961 893 0
-962 13 0
-962 880 0
-963 10 0
-963 866 0
-964 100 0
-964 700 0
-965 718 0
-965 82 0
-945 961 962 963 964 965 0
-966 88 0
-966 743 0
-967 86 0
-967 730 0
-968 84 0
-968 716 0
-969 100 0
-969 700 0
-970 868 0
-970 7 0
-945 966 967 968 969 970 0
-971 706 0
-971 125 0
-972 704 0
-972 112 0
-973 702 0
-973 98 0
-974 718 0
-974 82 0
-975 868 0
-975 7 0
-945 971 972 973 974 975 0
-977 32 0
-977 868 0
-978 88 0
-978 758 0
-979 706 0
-979 140 0
-976 977 978 979 0
-980 32 0
-980 868 0
-981 140 0
-981 706 0
-982 758 0
-982 88 0
-976 980 981 982 0
-983 88 0
-983 758 0
-984 140 0
-984 706 0
-985 868 0
-985 32 0
-976 983 984 985 0
-986 706 0
-986 140 0
-987 758 0
-987 88 0
-988 868 0
-988 32 0
-976 986 987 988 0
-990 30 0
-990 868 0
-991 86 0
-991 758 0
-992 704 0
-992 140 0
-989 990 991 992 0
-993 30 0
-993 868 0
-994 140 0
-994 704 0
-995 758 0
-995 86 0
-989 993 994 995 0
-996 86 0
-996 758 0
-997 140 0
-997 704 0
-998 868 0
-998 30 0
-989 996 997 998 0
-999 704 0
-999 140 0
-1000 758 0
-1000 86 0
-1001 868 0
-1001 30 0
-989 999 1000 1001 0
-1003 28 0
-1003 868 0
-1004 84 0
-1004 758 0
-1005 702 0
-1005 140 0
-1002 1003 1004 1005 0
-1006 28 0
-1006 868 0
-1007 140 0
-1007 702 0
-1008 758 0
-1008 84 0
-1002 1006 1007 1008 0
-1009 84 0
-1009 758 0
-1010 140 0
-1010 702 0
-1011 868 0
-1011 28 0
-1002 1009 1010 1011 0
-1012 702 0
-1012 140 0
-1013 758 0
-1013 84 0
-1014 868 0
-1014 28 0
-1002 1012 1013 1014 0
-1016 9 0
-1016 1002 0
-1017 12 0
-1017 989 0
-1018 32 0
-1018 893 0
-1019 88 0
-1019 783 0
-1020 706 0
-1020 165 0
-1015 1016 1017 1018 1019 1020 0
-1021 9 0
-1021 1002 0
-1022 16 0
-1022 976 0
-1023 30 0
-1023 880 0
-1024 86 0
-1024 770 0
-1025 704 0
-1025 152 0
-1015 1021 1022 1023 1024 1025 0
-1026 12 0
-1026 989 0
-1027 16 0
-1027 976 0
-1028 28 0
-1028 866 0
-1029 84 0
-1029 756 0
-1030 702 0
-1030 138 0
-1015 1026 1027 1028 1029 1030 0
-1031 32 0
-1031 893 0
-1032 30 0
-1032 880 0
-1033 28 0
-1033 866 0
-1034 140 0
-1034 700 0
-1035 758 0
-1035 82 0
-1015 1031 1032 1033 1034 1035 0
-1036 88 0
-1036 783 0
-1037 86 0
-1037 770 0
-1038 84 0
-1038 756 0
-1039 140 0
-1039 700 0
-1040 868 0
-1040 26 0
-1015 1036 1037 1038 1039 1040 0
-1041 706 0
-1041 165 0
-1042 704 0
-1042 152 0
-1043 702 0
-1043 138 0
-1044 758 0
-1044 82 0
-1045 868 0
-1045 26 0
-1015 1041 1042 1043 1044 1045 0
-1047 44 0
-1047 868 0
-1048 100 0
-1048 758 0
-1049 718 0
-1049 140 0
-1046 1047 1048 1049 0
-1050 44 0
-1050 868 0
-1051 140 0
-1051 718 0
-1052 758 0
-1052 100 0
-1046 1050 1051 1052 0
-1053 100 0
-1053 758 0
-1054 140 0
-1054 718 0
-1055 868 0
-1055 44 0
-1046 1053 1054 1055 0
-1056 718 0
-1056 140 0
-1057 758 0
-1057 100 0
-1058 868 0
-1058 44 0
-1046 1056 1057 1058 0
-1060 9 0
-1060 1046 0
-1061 15 0
-1061 989 0
-1062 32 0
-1062 919 0
-1063 88 0
-1063 809 0
-1064 706 0
-1064 191 0
-1059 1060 1061 1062 1063 1064 0
-1065 9 0
-1065 1046 0
-1066 13 0
-1066 976 0
-1067 30 0
-1067 906 0
-1068 86 0
-1068 796 0
-1069 704 0
-1069 178 0
-1059 1065 1066 1067 1068 1069 0
-1070 15 0
-1070 989 0
-1071 13 0
-1071 976 0
-1072 44 0
-1072 866 0
-1073 100 0
-1073 756 0
-1074 718 0
-1074 138 0
-1059 1070 1071 1072 1073 1074 0
-1075 32 0
-1075 919 0
-1076 30 0
-1076 906 0
-1077 44 0
-1077 866 0
-1078 140 0
-1078 716 0
-1079 758 0
-1079 98 0
-1059 1075 1076 1077 1078 1079 0
-1080 88 0
-1080 809 0
-1081 86 0
-1081 796 0
-1082 100 0
-1082 756 0
-1083 140 0
-1083 716 0
-1084 868 0
-1084 42 0
-1059 1080 1081 1082 1083 1084 0
-1085 706 0
-1085 191 0
-1086 704 0
-1086 178 0
-1087 718 0
-1087 138 0
-1088 758 0
-1088 98 0
-1089 868 0
-1089 42 0
-1059 1085 1086 1087 1088 1089 0
-1091 12 0
-1091 1046 0
-1092 15 0
-1092 1002 0
-1093 32 0
-1093 932 0
-1094 88 0
-1094 822 0
-1095 706 0
-1095 204 0
-1090 1091 1092 1093 1094 1095 0
-1096 12 0
-1096 1046 0
-1097 10 0
-1097 976 0
-1098 28 0
-1098 906 0
-1099 84 0
-1099 796 0
-1100 702 0
-1100 178 0
-1090 1096 1097 1098 1099 1100 0
-1101 15 0
-1101 1002 0
-1102 10 0
-1102 976 0
-1103 44 0
-1103 880 0
-1104 100 0
-1104 770 0
-1105 718 0
-1105 152 0
-1090 1101 1102 1103 1104 1105 0
-1106 32 0
-1106 932 0
-1107 28 0
-1107 906 0
-1108 44 0
-1108 880 0
-1109 140 0
-1109 730 0
-1110 758 0
-1110 112 0
-1090 1106 1107 1108 1109 1110 0
-1111 88 0
-1111 822 0
-1112 84 0
-1112 796 0
-1113 100 0
-1113 770 0
-1114 140 0
-1114 730 0
-1115 868 0
-1115 56 0
-1090 1111 1112 1113 1114 1115 0
-1116 706 0
-1116 204 0
-1117 702 0
-1117 178 0
-1118 718 0
-1118 152 0
-1119 758 0
-1119 112 0
-1120 868 0
-1120 56 0
-1090 1116 1117 1118 1119 1120 0
-1122 16 0
-1122 1046 0
-1123 13 0
-1123 1002 0
-1124 30 0
-1124 932 0
-1125 86 0
-1125 822 0
-1126 704 0
-1126 204 0
-1121 1122 1123 1124 1125 1126 0
-1127 16 0
-1127 1046 0
-1128 10 0
-1128 989 0
-1129 28 0
-1129 919 0
-1130 84 0
-1130 809 0
-1131 702 0
-1131 191 0
-1121 1127 1128 1129 1130 1131 0
-1132 13 0
-1132 1002 0
-1133 10 0
-1133 989 0
-1134 44 0
-1134 893 0
-1135 100 0
-1135 783 0
-1136 718 0
-1136 165 0
-1121 1132 1133 1134 1135 1136 0
-1137 30 0
-1137 932 0
-1138 28 0
-1138 919 0
-1139 44 0
-1139 893 0
-1140 140 0
-1140 743 0
-1141 758 0
-1141 125 0
-1121 1137 1138 1139 1140 1141 0
-1142 86 0
-1142 822 0
-1143 84 0
-1143 809 0
-1144 100 0
-1144 783 0
-1145 140 0
-1145 743 0
-1146 868 0
-1146 69 0
-1121 1142 1143 1144 1145 1146 0
-1147 704 0
-1147 204 0
-1148 702 0
-1148 191 0
-1149 718 0
-1149 165 0
-1150 758 0
-1150 125 0
-1151 868 0
-1151 69 0
-1121 1147 1148 1149 1150 1151 0
-1153 9 0
-1153 1154 0
-1155 254 0
-1155 704 0
-1156 706 0
-1156 252 0
-1152 1153 1155 1156 0
-1157 9 0
-1157 1154 0
-1158 252 0
-1158 706 0
-1159 704 0
-1159 254 0
-1152 1157 1158 1159 0
-1160 254 0
-1160 704 0
-1161 252 0
-1161 706 0
-1162 1154 0
-1162 9 0
-1152 1160 1161 1162 0
-1163 706 0
-1163 252 0
-1164 704 0
-1164 254 0
-1165 1154 0
-1165 9 0
-1152 1163 1164 1165 0
-1167 12 0
-1167 1154 0
-1168 254 0
-1168 702 0
-1169 706 0
-1169 250 0
-1166 1167 1168 1169 0
-1170 12 0
-1170 1154 0
-1171 250 0
-1171 706 0
-1172 702 0
-1172 254 0
-1166 1170 1171 1172 0
-1173 254 0
-1173 702 0
-1174 250 0
-1174 706 0
-1175 1154 0
-1175 12 0
-1166 1173 1174 1175 0
-1176 706 0
-1176 250 0
-1177 702 0
-1177 254 0
-1178 1154 0
-1178 12 0
-1166 1176 1177 1178 0
-1180 16 0
-1180 1154 0
-1181 252 0
-1181 702 0
-1182 704 0
-1182 250 0
-1179 1180 1181 1182 0
-1183 16 0
-1183 1154 0
-1184 250 0
-1184 704 0
-1185 702 0
-1185 252 0
-1179 1183 1184 1185 0
-1186 252 0
-1186 702 0
-1187 250 0
-1187 704 0
-1188 1154 0
-1188 16 0
-1179 1186 1187 1188 0
-1189 704 0
-1189 250 0
-1190 702 0
-1190 252 0
-1191 1154 0
-1191 16 0
-1179 1189 1190 1191 0
-1193 15 0
-1193 1154 0
-1194 254 0
-1194 718 0
-1195 706 0
-1195 266 0
-1192 1193 1194 1195 0
-1196 15 0
-1196 1154 0
-1197 266 0
-1197 706 0
-1198 718 0
-1198 254 0
-1192 1196 1197 1198 0
-1199 254 0
-1199 718 0
-1200 266 0
-1200 706 0
-1201 1154 0
-1201 15 0
-1192 1199 1200 1201 0
-1202 706 0
-1202 266 0
-1203 718 0
-1203 254 0
-1204 1154 0
-1204 15 0
-1192 1202 1203 1204 0
-1206 13 0
-1206 1154 0
-1207 252 0
-1207 718 0
-1208 704 0
-1208 266 0
-1205 1206 1207 1208 0
-1209 13 0
-1209 1154 0
-1210 266 0
-1210 704 0
-1211 718 0
-1211 252 0
-1205 1209 1210 1211 0
-1212 252 0
-1212 718 0
-1213 266 0
-1213 704 0
-1214 1154 0
-1214 13 0
-1205 1212 1213 1214 0
-1215 704 0
-1215 266 0
-1216 718 0
-1216 252 0
-1217 1154 0
-1217 13 0
-1205 1215 1216 1217 0
-1219 10 0
-1219 1154 0
-1220 250 0
-1220 718 0
-1221 702 0
-1221 266 0
-1218 1219 1220 1221 0
-1222 10 0
-1222 1154 0
-1223 266 0
-1223 702 0
-1224 718 0
-1224 250 0
-1218 1222 1223 1224 0
-1225 250 0
-1225 718 0
-1226 266 0
-1226 702 0
-1227 1154 0
-1227 10 0
-1218 1225 1226 1227 0
-1228 702 0
-1228 266 0
-1229 718 0
-1229 250 0
-1230 1154 0
-1230 10 0
-1218 1228 1229 1230 0
-1232 9 0
-1232 1218 0
-1233 12 0
-1233 1205 0
-1234 15 0
-1234 1179 0
-1235 254 0
-1235 743 0
-1236 706 0
-1236 291 0
-1231 1232 1233 1234 1235 1236 0
-1237 9 0
-1237 1218 0
-1238 16 0
-1238 1192 0
-1239 13 0
-1239 1166 0
-1240 252 0
-1240 730 0
-1241 704 0
-1241 278 0
-1231 1237 1238 1239 1240 1241 0
-1242 12 0
-1242 1205 0
-1243 16 0
-1243 1192 0
-1244 10 0
-1244 1152 0
-1245 250 0
-1245 716 0
-1246 702 0
-1246 264 0
-1231 1242 1243 1244 1245 1246 0
-1247 15 0
-1247 1179 0
-1248 13 0
-1248 1166 0
-1249 10 0
-1249 1152 0
-1250 266 0
-1250 700 0
-1251 718 0
-1251 248 0
-1231 1247 1248 1249 1250 1251 0
-1252 254 0
-1252 743 0
-1253 252 0
-1253 730 0
-1254 250 0
-1254 716 0
-1255 266 0
-1255 700 0
-1256 1154 0
-1256 7 0
-1231 1252 1253 1254 1255 1256 0
-1257 706 0
-1257 291 0
-1258 704 0
-1258 278 0
-1259 702 0
-1259 264 0
-1260 718 0
-1260 248 0
-1261 1154 0
-1261 7 0
-1231 1257 1258 1259 1260 1261 0
-1263 32 0
-1263 1154 0
-1264 254 0
-1264 758 0
-1265 706 0
-1265 306 0
-1262 1263 1264 1265 0
-1266 32 0
-1266 1154 0
-1267 306 0
-1267 706 0
-1268 758 0
-1268 254 0
-1262 1266 1267 1268 0
-1269 254 0
-1269 758 0
-1270 306 0
-1270 706 0
-1271 1154 0
-1271 32 0
-1262 1269 1270 1271 0
-1272 706 0
-1272 306 0
-1273 758 0
-1273 254 0
-1274 1154 0
-1274 32 0
-1262 1272 1273 1274 0
-1276 30 0
-1276 1154 0
-1277 252 0
-1277 758 0
-1278 704 0
-1278 306 0
-1275 1276 1277 1278 0
-1279 30 0
-1279 1154 0
-1280 306 0
-1280 704 0
-1281 758 0
-1281 252 0
-1275 1279 1280 1281 0
-1282 252 0
-1282 758 0
-1283 306 0
-1283 704 0
-1284 1154 0
-1284 30 0
-1275 1282 1283 1284 0
-1285 704 0
-1285 306 0
-1286 758 0
-1286 252 0
-1287 1154 0
-1287 30 0
-1275 1285 1286 1287 0
-1289 28 0
-1289 1154 0
-1290 250 0
-1290 758 0
-1291 702 0
-1291 306 0
-1288 1289 1290 1291 0
-1292 28 0
-1292 1154 0
-1293 306 0
-1293 702 0
-1294 758 0
-1294 250 0
-1288 1292 1293 1294 0
-1295 250 0
-1295 758 0
-1296 306 0
-1296 702 0
-1297 1154 0
-1297 28 0
-1288 1295 1296 1297 0
-1298 702 0
-1298 306 0
-1299 758 0
-1299 250 0
-1300 1154 0
-1300 28 0
-1288 1298 1299 1300 0
-1302 9 0
-1302 1288 0
-1303 12 0
-1303 1275 0
-1304 32 0
-1304 1179 0
-1305 254 0
-1305 783 0
-1306 706 0
-1306 331 0
-1301 1302 1303 1304 1305 1306 0
-1307 9 0
-1307 1288 0
-1308 16 0
-1308 1262 0
-1309 30 0
-1309 1166 0
-1310 252 0
-1310 770 0
-1311 704 0
-1311 318 0
-1301 1307 1308 1309 1310 1311 0
-1312 12 0
-1312 1275 0
-1313 16 0
-1313 1262 0
-1314 28 0
-1314 1152 0
-1315 250 0
-1315 756 0
-1316 702 0
-1316 304 0
-1301 1312 1313 1314 1315 1316 0
-1317 32 0
-1317 1179 0
-1318 30 0
-1318 1166 0
-1319 28 0
-1319 1152 0
-1320 306 0
-1320 700 0
-1321 758 0
-1321 248 0
-1301 1317 1318 1319 1320 1321 0
-1322 254 0
-1322 783 0
-1323 252 0
-1323 770 0
-1324 250 0
-1324 756 0
-1325 306 0
-1325 700 0
-1326 1154 0
-1326 26 0
-1301 1322 1323 1324 1325 1326 0
-1327 706 0
-1327 331 0
-1328 704 0
-1328 318 0
-1329 702 0
-1329 304 0
-1330 758 0
-1330 248 0
-1331 1154 0
-1331 26 0
-1301 1327 1328 1329 1330 1331 0
-1333 44 0
-1333 1154 0
-1334 266 0
-1334 758 0
-1335 718 0
-1335 306 0
-1332 1333 1334 1335 0
-1336 44 0
-1336 1154 0
-1337 306 0
-1337 718 0
-1338 758 0
-1338 266 0
-1332 1336 1337 1338 0
-1339 266 0
-1339 758 0
-1340 306 0
-1340 718 0
-1341 1154 0
-1341 44 0
-1332 1339 1340 1341 0
-1342 718 0
-1342 306 0
-1343 758 0
-1343 266 0
-1344 1154 0
-1344 44 0
-1332 1342 1343 1344 0
-1346 9 0
-1346 1332 0
-1347 15 0
-1347 1275 0
-1348 32 0
-1348 1205 0
-1349 254 0
-1349 809 0
-1350 706 0
-1350 357 0
-1345 1346 1347 1348 1349 1350 0
-1351 9 0
-1351 1332 0
-1352 13 0
-1352 1262 0
-1353 30 0
-1353 1192 0
-1354 252 0
-1354 796 0
-1355 704 0
-1355 344 0
-1345 1351 1352 1353 1354 1355 0
-1356 15 0
-1356 1275 0
-1357 13 0
-1357 1262 0
-1358 44 0
-1358 1152 0
-1359 266 0
-1359 756 0
-1360 718 0
-1360 304 0
-1345 1356 1357 1358 1359 1360 0
-1361 32 0
-1361 1205 0
-1362 30 0
-1362 1192 0
-1363 44 0
-1363 1152 0
-1364 306 0
-1364 716 0
-1365 758 0
-1365 264 0
-1345 1361 1362 1363 1364 1365 0
-1366 254 0
-1366 809 0
-1367 252 0
-1367 796 0
-1368 266 0
-1368 756 0
-1369 306 0
-1369 716 0
-1370 1154 0
-1370 42 0
-1345 1366 1367 1368 1369 1370 0
-1371 706 0
-1371 357 0
-1372 704 0
-1372 344 0
-1373 718 0
-1373 304 0
-1374 758 0
-1374 264 0
-1375 1154 0
-1375 42 0
-1345 1371 1372 1373 1374 1375 0
-1377 12 0
-1377 1332 0
-1378 15 0
-1378 1288 0
-1379 32 0
-1379 1218 0
-1380 254 0
-1380 822 0
-1381 706 0
-1381 370 0
-1376 1377 1378 1379 1380 1381 0
-1382 12 0
-1382 1332 0
-1383 10 0
-1383 1262 0
-1384 28 0
-1384 1192 0
-1385 250 0
-1385 796 0
-1386 702 0
-1386 344 0
-1376 1382 1383 1384 1385 1386 0
-1387 15 0
-1387 1288 0
-1388 10 0
-1388 1262 0
-1389 44 0
-1389 1166 0
-1390 266 0
-1390 770 0
-1391 718 0
-1391 318 0
-1376 1387 1388 1389 1390 1391 0
-1392 32 0
-1392 1218 0
-1393 28 0
-1393 1192 0
-1394 44 0
-1394 1166 0
-1395 306 0
-1395 730 0
-1396 758 0
-1396 278 0
-1376 1392 1393 1394 1395 1396 0
-1397 254 0
-1397 822 0
-1398 250 0
-1398 796 0
-1399 266 0
-1399 770 0
-1400 306 0
-1400 730 0
-1401 1154 0
-1401 56 0
-1376 1397 1398 1399 1400 1401 0
-1402 706 0
-1402 370 0
-1403 702 0
-1403 344 0
-1404 718 0
-1404 318 0
-1405 758 0
-1405 278 0
-1406 1154 0
-1406 56 0
-1376 1402 1403 1404 1405 1406 0
-1408 16 0
-1408 1332 0
-1409 13 0
-1409 1288 0
-1410 30 0
-1410 1218 0
-1411 252 0
-1411 822 0
-1412 704 0
-1412 370 0
-1407 1408 1409 1410 1411 1412 0
-1413 16 0
-1413 1332 0
-1414 10 0
-1414 1275 0
-1415 28 0
-1415 1205 0
-1416 250 0
-1416 809 0
-1417 702 0
-1417 357 0
-1407 1413 1414 1415 1416 1417 0
-1418 13 0
-1418 1288 0
-1419 10 0
-1419 1275 0
-1420 44 0
-1420 1179 0
-1421 266 0
-1421 783 0
-1422 718 0
-1422 331 0
-1407 1418 1419 1420 1421 1422 0
-1423 30 0
-1423 1218 0
-1424 28 0
-1424 1205 0
-1425 44 0
-1425 1179 0
-1426 306 0
-1426 743 0
-1427 758 0
-1427 291 0
-1407 1423 1424 1425 1426 1427 0
-1428 252 0
-1428 822 0
-1429 250 0
-1429 809 0
-1430 266 0
-1430 783 0
-1431 306 0
-1431 743 0
-1432 1154 0
-1432 69 0
-1407 1428 1429 1430 1431 1432 0
-1433 704 0
-1433 370 0
-1434 702 0
-1434 357 0
-1435 718 0
-1435 331 0
-1436 758 0
-1436 291 0
-1437 1154 0
-1437 69 0
-1407 1433 1434 1435 1436 1437 0
-1439 88 0
-1439 1154 0
-1440 254 0
-1440 868 0
-1441 706 0
-1441 416 0
-1438 1439 1440 1441 0
-1442 88 0
-1442 1154 0
-1443 416 0
-1443 706 0
-1444 868 0
-1444 254 0
-1438 1442 1443 1444 0
-1445 254 0
-1445 868 0
-1446 416 0
-1446 706 0
-1447 1154 0
-1447 88 0
-1438 1445 1446 1447 0
-1448 706 0
-1448 416 0
-1449 868 0
-1449 254 0
-1450 1154 0
-1450 88 0
-1438 1448 1449 1450 0
-1452 86 0
-1452 1154 0
-1453 252 0
-1453 868 0
-1454 704 0
-1454 416 0
-1451 1452 1453 1454 0
-1455 86 0
-1455 1154 0
-1456 416 0
-1456 704 0
-1457 868 0
-1457 252 0
-1451 1455 1456 1457 0
-1458 252 0
-1458 868 0
-1459 416 0
-1459 704 0
-1460 1154 0
-1460 86 0
-1451 1458 1459 1460 0
-1461 704 0
-1461 416 0
-1462 868 0
-1462 252 0
-1463 1154 0
-1463 86 0
-1451 1461 1462 1463 0
-1465 84 0
-1465 1154 0
-1466 250 0
-1466 868 0
-1467 702 0
-1467 416 0
-1464 1465 1466 1467 0
-1468 84 0
-1468 1154 0
-1469 416 0
-1469 702 0
-1470 868 0
-1470 250 0
-1464 1468 1469 1470 0
-1471 250 0
-1471 868 0
-1472 416 0
-1472 702 0
-1473 1154 0
-1473 84 0
-1464 1471 1472 1473 0
-1474 702 0
-1474 416 0
-1475 868 0
-1475 250 0
-1476 1154 0
-1476 84 0
-1464 1474 1475 1476 0
-1478 9 0
-1478 1464 0
-1479 12 0
-1479 1451 0
-1480 88 0
-1480 1179 0
-1481 254 0
-1481 893 0
-1482 706 0
-1482 441 0
-1477 1478 1479 1480 1481 1482 0
-1483 9 0
-1483 1464 0
-1484 16 0
-1484 1438 0
-1485 86 0
-1485 1166 0
-1486 252 0
-1486 880 0
-1487 704 0
-1487 428 0
-1477 1483 1484 1485 1486 1487 0
-1488 12 0
-1488 1451 0
-1489 16 0
-1489 1438 0
-1490 84 0
-1490 1152 0
-1491 250 0
-1491 866 0
-1492 702 0
-1492 414 0
-1477 1488 1489 1490 1491 1492 0
-1493 88 0
-1493 1179 0
-1494 86 0
-1494 1166 0
-1495 84 0
-1495 1152 0
-1496 416 0
-1496 700 0
-1497 868 0
-1497 248 0
-1477 1493 1494 1495 1496 1497 0
-1498 254 0
-1498 893 0
-1499 252 0
-1499 880 0
-1500 250 0
-1500 866 0
-1501 416 0
-1501 700 0
-1502 1154 0
-1502 82 0
-1477 1498 1499 1500 1501 1502 0
-1503 706 0
-1503 441 0
-1504 704 0
-1504 428 0
-1505 702 0
-1505 414 0
-1506 868 0
-1506 248 0
-1507 1154 0
-1507 82 0
-1477 1503 1504 1505 1506 1507 0
-1509 100 0
-1509 1154 0
-1510 266 0
-1510 868 0
-1511 718 0
-1511 416 0
-1508 1509 1510 1511 0
-1512 100 0
-1512 1154 0
-1513 416 0
-1513 718 0
-1514 868 0
-1514 266 0
-1508 1512 1513 1514 0
-1515 266 0
-1515 868 0
-1516 416 0
-1516 718 0
-1517 1154 0
-1517 100 0
-1508 1515 1516 1517 0
-1518 718 0
-1518 416 0
-1519 868 0
-1519 266 0
-1520 1154 0
-1520 100 0
-1508 1518 1519 1520 0
-1522 9 0
-1522 1508 0
-1523 15 0
-1523 1451 0
-1524 88 0
-1524 1205 0
-1525 254 0
-1525 919 0
-1526 706 0
-1526 467 0
-1521 1522 1523 1524 1525 1526 0
-1527 9 0
-1527 1508 0
-1528 13 0
-1528 1438 0
-1529 86 0
-1529 1192 0
-1530 252 0
-1530 906 0
-1531 704 0
-1531 454 0
-1521 1527 1528 1529 1530 1531 0
-1532 15 0
-1532 1451 0
-1533 13 0
-1533 1438 0
-1534 100 0
-1534 1152 0
-1535 266 0
-1535 866 0
-1536 718 0
-1536 414 0
-1521 1532 1533 1534 1535 1536 0
-1537 88 0
-1537 1205 0
-1538 86 0
-1538 1192 0
-1539 100 0
-1539 1152 0
-1540 416 0
-1540 716 0
-1541 868 0
-1541 264 0
-1521 1537 1538 1539 1540 1541 0
-1542 254 0
-1542 919 0
-1543 252 0
-1543 906 0
-1544 266 0
-1544 866 0
-1545 416 0
-1545 716 0
-1546 1154 0
-1546 98 0
-1521 1542 1543 1544 1545 1546 0
-1547 706 0
-1547 467 0
-1548 704 0
-1548 454 0
-1549 718 0
-1549 414 0
-1550 868 0
-1550 264 0
-1551 1154 0
-1551 98 0
-1521 1547 1548 1549 1550 1551 0
-1553 12 0
-1553 1508 0
-1554 15 0
-1554 1464 0
-1555 88 0
-1555 1218 0
-1556 254 0
-1556 932 0
-1557 706 0
-1557 480 0
-1552 1553 1554 1555 1556 1557 0
-1558 12 0
-1558 1508 0
-1559 10 0
-1559 1438 0
-1560 84 0
-1560 1192 0
-1561 250 0
-1561 906 0
-1562 702 0
-1562 454 0
-1552 1558 1559 1560 1561 1562 0
-1563 15 0
-1563 1464 0
-1564 10 0
-1564 1438 0
-1565 100 0
-1565 1166 0
-1566 266 0
-1566 880 0
-1567 718 0
-1567 428 0
-1552 1563 1564 1565 1566 1567 0
-1568 88 0
-1568 1218 0
-1569 84 0
-1569 1192 0
-1570 100 0
-1570 1166 0
-1571 416 0
-1571 730 0
-1572 868 0
-1572 278 0
-1552 1568 1569 1570 1571 1572 0
-1573 254 0
-1573 932 0
-1574 250 0
-1574 906 0
-1575 266 0
-1575 880 0
-1576 416 0
-1576 730 0
-1577 1154 0
-1577 112 0
-1552 1573 1574 1575 1576 1577 0
-1578 706 0
-1578 480 0
-1579 702 0
-1579 454 0
-1580 718 0
-1580 428 0
-1581 868 0
-1581 278 0
-1582 1154 0
-1582 112 0
-1552 1578 1579 1580 1581 1582 0
-1584 16 0
-1584 1508 0
-1585 13 0
-1585 1464 0
-1586 86 0
-1586 1218 0
-1587 252 0
-1587 932 0
-1588 704 0
-1588 480 0
-1583 1584 1585 1586 1587 1588 0
-1589 16 0
-1589 1508 0
-1590 10 0
-1590 1451 0
-1591 84 0
-1591 1205 0
-1592 250 0
-1592 919 0
-1593 702 0
-1593 467 0
-1583 1589 1590 1591 1592 1593 0
-1594 13 0
-1594 1464 0
-1595 10 0
-1595 1451 0
-1596 100 0
-1596 1179 0
-1597 266 0
-1597 893 0
-1598 718 0
-1598 441 0
-1583 1594 1595 1596 1597 1598 0
-1599 86 0
-1599 1218 0
-1600 84 0
-1600 1205 0
-1601 100 0
-1601 1179 0
-1602 416 0
-1602 743 0
-1603 868 0
-1603 291 0
-1583 1599 1600 1601 1602 1603 0
-1604 252 0
-1604 932 0
-1605 250 0
-1605 919 0
-1606 266 0
-1606 893 0
-1607 416 0
-1607 743 0
-1608 1154 0
-1608 125 0
-1583 1604 1605 1606 1607 1608 0
-1609 704 0
-1609 480 0
-1610 702 0
-1610 467 0
-1611 718 0
-1611 441 0
-1612 868 0
-1612 291 0
-1613 1154 0
-1613 125 0
-1583 1609 1610 1611 1612 1613 0
-1615 140 0
-1615 1154 0
-1616 306 0
-1616 868 0
-1617 758 0
-1617 416 0
-1614 1615 1616 1617 0
-1618 140 0
-1618 1154 0
-1619 416 0
-1619 758 0
-1620 868 0
-1620 306 0
-1614 1618 1619 1620 0
-1621 306 0
-1621 868 0
-1622 416 0
-1622 758 0
-1623 1154 0
-1623 140 0
-1614 1621 1622 1623 0
-1624 758 0
-1624 416 0
-1625 868 0
-1625 306 0
-1626 1154 0
-1626 140 0
-1614 1624 1625 1626 0
-1628 9 0
-1628 1614 0
-1629 32 0
-1629 1451 0
-1630 88 0
-1630 1275 0
-1631 254 0
-1631 989 0
-1632 706 0
-1632 537 0
-1627 1628 1629 1630 1631 1632 0
-1633 9 0
-1633 1614 0
-1634 30 0
-1634 1438 0
-1635 86 0
-1635 1262 0
-1636 252 0
-1636 976 0
-1637 704 0
-1637 524 0
-1627 1633 1634 1635 1636 1637 0
-1638 32 0
-1638 1451 0
-1639 30 0
-1639 1438 0
-1640 140 0
-1640 1152 0
-1641 306 0
-1641 866 0
-1642 758 0
-1642 414 0
-1627 1638 1639 1640 1641 1642 0
-1643 88 0
-1643 1275 0
-1644 86 0
-1644 1262 0
-1645 140 0
-1645 1152 0
-1646 416 0
-1646 756 0
-1647 868 0
-1647 304 0
-1627 1643 1644 1645 1646 1647 0
-1648 254 0
-1648 989 0
-1649 252 0
-1649 976 0
-1650 306 0
-1650 866 0
-1651 416 0
-1651 756 0
-1652 1154 0
-1652 138 0
-1627 1648 1649 1650 1651 1652 0
-1653 706 0
-1653 537 0
-1654 704 0
-1654 524 0
-1655 758 0
-1655 414 0
-1656 868 0
-1656 304 0
-1657 1154 0
-1657 138 0
-1627 1653 1654 1655 1656 1657 0
-1659 12 0
-1659 1614 0
-1660 32 0
-1660 1464 0
-1661 88 0
-1661 1288 0
-1662 254 0
-1662 1002 0
-1663 706 0
-1663 550 0
-1658 1659 1660 1661 1662 1663 0
-1664 12 0
-1664 1614 0
-1665 28 0
-1665 1438 0
-1666 84 0
-1666 1262 0
-1667 250 0
-1667 976 0
-1668 702 0
-1668 524 0
-1658 1664 1665 1666 1667 1668 0
-1669 32 0
-1669 1464 0
-1670 28 0
-1670 1438 0
-1671 140 0
-1671 1166 0
-1672 306 0
-1672 880 0
-1673 758 0
-1673 428 0
-1658 1669 1670 1671 1672 1673 0
-1674 88 0
-1674 1288 0
-1675 84 0
-1675 1262 0
-1676 140 0
-1676 1166 0
-1677 416 0
-1677 770 0
-1678 868 0
-1678 318 0
-1658 1674 1675 1676 1677 1678 0
-1679 254 0
-1679 1002 0
-1680 250 0
-1680 976 0
-1681 306 0
-1681 880 0
-1682 416 0
-1682 770 0
-1683 1154 0
-1683 152 0
-1658 1679 1680 1681 1682 1683 0
-1684 706 0
-1684 550 0
-1685 702 0
-1685 524 0
-1686 758 0
-1686 428 0
-1687 868 0
-1687 318 0
-1688 1154 0
-1688 152 0
-1658 1684 1685 1686 1687 1688 0
-1690 16 0
-1690 1614 0
-1691 30 0
-1691 1464 0
-1692 86 0
-1692 1288 0
-1693 252 0
-1693 1002 0
-1694 704 0
-1694 550 0
-1689 1690 1691 1692 1693 1694 0
-1695 16 0
-1695 1614 0
-1696 28 0
-1696 1451 0
-1697 84 0
-1697 1275 0
-1698 250 0
-1698 989 0
-1699 702 0
-1699 537 0
-1689 1695 1696 1697 1698 1699 0
-1700 30 0
-1700 1464 0
-1701 28 0
-1701 1451 0
-1702 140 0
-1702 1179 0
-1703 306 0
-1703 893 0
-1704 758 0
-1704 441 0
-1689 1700 1701 1702 1703 1704 0
-1705 86 0
-1705 1288 0
-1706 84 0
-1706 1275 0
-1707 140 0
-1707 1179 0
-1708 416 0
-1708 783 0
-1709 868 0
-1709 331 0
-1689 1705 1706 1707 1708 1709 0
-1710 252 0
-1710 1002 0
-1711 250 0
-1711 989 0
-1712 306 0
-1712 893 0
-1713 416 0
-1713 783 0
-1714 1154 0
-1714 165 0
-1689 1710 1711 1712 1713 1714 0
-1715 704 0
-1715 550 0
-1716 702 0
-1716 537 0
-1717 758 0
-1717 441 0
-1718 868 0
-1718 331 0
-1719 1154 0
-1719 165 0
-1689 1715 1716 1717 1718 1719 0
-1721 15 0
-1721 1614 0
-1722 32 0
-1722 1508 0
-1723 88 0
-1723 1332 0
-1724 254 0
-1724 1046 0
-1725 706 0
-1725 594 0
-1720 1721 1722 1723 1724 1725 0
-1726 15 0
-1726 1614 0
-1727 44 0
-1727 1438 0
-1728 100 0
-1728 1262 0
-1729 266 0
-1729 976 0
-1730 718 0
-1730 524 0
-1720 1726 1727 1728 1729 1730 0
-1731 32 0
-1731 1508 0
-1732 44 0
-1732 1438 0
-1733 140 0
-1733 1192 0
-1734 306 0
-1734 906 0
-1735 758 0
-1735 454 0
-1720 1731 1732 1733 1734 1735 0
-1736 88 0
-1736 1332 0
-1737 100 0
-1737 1262 0
-1738 140 0
-1738 1192 0
-1739 416 0
-1739 796 0
-1740 868 0
-1740 344 0
-1720 1736 1737 1738 1739 1740 0
-1741 254 0
-1741 1046 0
-1742 266 0
-1742 976 0
-1743 306 0
-1743 906 0
-1744 416 0
-1744 796 0
-1745 1154 0
-1745 178 0
-1720 1741 1742 1743 1744 1745 0
-1746 706 0
-1746 594 0
-1747 718 0
-1747 524 0
-1748 758 0
-1748 454 0
-1749 868 0
-1749 344 0
-1750 1154 0
-1750 178 0
-1720 1746 1747 1748 1749 1750 0
-1752 13 0
-1752 1614 0
-1753 30 0
-1753 1508 0
-1754 86 0
-1754 1332 0
-1755 252 0
-1755 1046 0
-1756 704 0
-1756 594 0
-1751 1752 1753 1754 1755 1756 0
-1757 13 0
-1757 1614 0
-1758 44 0
-1758 1451 0
-1759 100 0
-1759 1275 0
-1760 266 0
-1760 989 0
-1761 718 0
-1761 537 0
-1751 1757 1758 1759 1760 1761 0
-1762 30 0
-1762 1508 0
-1763 44 0
-1763 1451 0
-1764 140 0
-1764 1205 0
-1765 306 0
-1765 919 0
-1766 758 0
-1766 467 0
-1751 1762 1763 1764 1765 1766 0
-1767 86 0
-1767 1332 0
-1768 100 0
-1768 1275 0
-1769 140 0
-1769 1205 0
-1770 416 0
-1770 809 0
-1771 868 0
-1771 357 0
-1751 1767 1768 1769 1770 1771 0
-1772 252 0
-1772 1046 0
-1773 266 0
-1773 989 0
-1774 306 0
-1774 919 0
-1775 416 0
-1775 809 0
-1776 1154 0
-1776 191 0
-1751 1772 1773 1774 1775 1776 0
-1777 704 0
-1777 594 0
-1778 718 0
-1778 537 0
-1779 758 0
-1779 467 0
-1780 868 0
-1780 357 0
-1781 1154 0
-1781 191 0
-1751 1777 1778 1779 1780 1781 0
-1783 10 0
-1783 1614 0
-1784 28 0
-1784 1508 0
-1785 84 0
-1785 1332 0
-1786 250 0
-1786 1046 0
-1787 702 0
-1787 594 0
-1782 1783 1784 1785 1786 1787 0
-1788 10 0
-1788 1614 0
-1789 44 0
-1789 1464 0
-1790 100 0
-1790 1288 0
-1791 266 0
-1791 1002 0
-1792 718 0
-1792 550 0
-1782 1788 1789 1790 1791 1792 0
-1793 28 0
-1793 1508 0
-1794 44 0
-1794 1464 0
-1795 140 0
-1795 1218 0
-1796 306 0
-1796 932 0
-1797 758 0
-1797 480 0
-1782 1793 1794 1795 1796 1797 0
-1798 84 0
-1798 1332 0
-1799 100 0
-1799 1288 0
-1800 140 0
-1800 1218 0
-1801 416 0
-1801 822 0
-1802 868 0
-1802 370 0
-1782 1798 1799 1800 1801 1802 0
-1803 250 0
-1803 1046 0
-1804 266 0
-1804 1002 0
-1805 306 0
-1805 932 0
-1806 416 0
-1806 822 0
-1807 1154 0
-1807 204 0
-1782 1803 1804 1805 1806 1807 0
-1808 702 0
-1808 594 0
-1809 718 0
-1809 550 0
-1810 758 0
-1810 480 0
-1811 868 0
-1811 370 0
-1812 1154 0
-1812 204 0
-1782 1808 1809 1810 1811 1812 0
-1813 9 0
-1813 1782 0
-1814 12 0
-1814 1751 0
-1815 15 0
-1815 1689 0
-1816 32 0
-1816 1583 0
-1817 88 0
-1817 1407 0
-1818 254 0
-1818 1121 0
-1819 706 0
-1819 669 0
-2 1813 1814 1815 1816 1817 1818 1819 0
-1820 9 0
-1820 1782 0
-1821 16 0
-1821 1720 0
-1822 13 0
-1822 1658 0
-1823 30 0
-1823 1552 0
-1824 86 0
-1824 1376 0
-1825 252 0
-1825 1090 0
-1826 704 0
-1826 638 0
-2 1820 1821 1822 1823 1824 1825 1826 0
-1827 12 0
-1827 1751 0
-1828 16 0
-1828 1720 0
-1829 10 0
-1829 1627 0
-1830 28 0
-1830 1521 0
-1831 84 0
-1831 1345 0
-1832 250 0
-1832 1059 0
-1833 702 0
-1833 607 0
-2 1827 1828 1829 1830 1831 1832 1833 0
-1834 15 0
-1834 1689 0
-1835 13 0
-1835 1658 0
-1836 10 0
-1836 1627 0
-1837 44 0
-1837 1477 0
-1838 100 0
-1838 1301 0
-1839 266 0
-1839 1015 0
-1840 718 0
-1840 563 0
-2 1834 1835 1836 1837 1838 1839 1840 0
-1841 32 0
-1841 1583 0
-1842 30 0
-1842 1552 0
-1843 28 0
-1843 1521 0
-1844 44 0
-1844 1477 0
-1845 140 0
-1845 1231 0
-1846 306 0
-1846 945 0
-1847 758 0
-1847 493 0
-2 1841 1842 1843 1844 1845 1846 1847 0
-1848 88 0
-1848 1407 0
-1849 86 0
-1849 1376 0
-1850 84 0
-1850 1345 0
-1851 100 0
-1851 1301 0
-1852 140 0
-1852 1231 0
-1853 416 0
-1853 835 0
-1854 868 0
-1854 383 0
-2 1848 1849 1850 1851 1852 1853 1854 0
-1855 254 0
-1855 1121 0
-1856 252 0
-1856 1090 0
-1857 250 0
-1857 1059 0
-1858 266 0
-1858 1015 0
-1859 306 0
-1859 945 0
-1860 416 0
-1860 835 0
-1861 1154 0
-1861 217 0
-2 1855 1856 1857 1858 1859 1860 1861 0
-1862 706 0
-1862 669 0
-1863 704 0
-1863 638 0
-1864 702 0
-1864 607 0
-1865 718 0
-1865 563 0
-1866 758 0
-1866 493 0
-1867 868 0
-1867 383 0
-1868 1154 0
-1868 217 0
-2 1862 1863 1864 1865 1866 1867 1868 0
-1870 1871 0
-1870 1872 0
-1873 1874 0
-1873 1875 0
-1876 1877 0
-1876 1878 0
-1869 1870 1873 1876 0
-1879 1871 0
-1879 1872 0
-1880 1878 0
-1880 1877 0
-1881 1875 0
-1881 1874 0
-1869 1879 1880 1881 0
-1882 1874 0
-1882 1875 0
-1883 1878 0
-1883 1877 0
-1884 1872 0
-1884 1871 0
-1869 1882 1883 1884 0
-1885 1877 0
-1885 1878 0
-1886 1875 0
-1886 1874 0
-1887 1872 0
-1887 1871 0
-1869 1885 1886 1887 0
-1889 1871 0
-1889 1890 0
-1891 1874 0
-1891 1892 0
-1893 1894 0
-1893 1878 0
-1888 1889 1891 1893 0
-1895 1871 0
-1895 1890 0
-1896 1878 0
-1896 1894 0
-1897 1892 0
-1897 1874 0
-1888 1895 1896 1897 0
-1898 1874 0
-1898 1892 0
-1899 1878 0
-1899 1894 0
-1900 1890 0
-1900 1871 0
-1888 1898 1899 1900 0
-1901 1894 0
-1901 1878 0
-1902 1892 0
-1902 1874 0
-1903 1890 0
-1903 1871 0
-1888 1901 1902 1903 0
-1905 1871 0
-1905 1906 0
-1907 1877 0
-1907 1892 0
-1908 1894 0
-1908 1875 0
-1904 1905 1907 1908 0
-1909 1871 0
-1909 1906 0
-1910 1875 0
-1910 1894 0
-1911 1892 0
-1911 1877 0
-1904 1909 1910 1911 0
-1912 1877 0
-1912 1892 0
-1913 1875 0
-1913 1894 0
-1914 1906 0
-1914 1871 0
-1904 1912 1913 1914 0
-1915 1894 0
-1915 1875 0
-1916 1892 0
-1916 1877 0
-1917 1906 0
-1917 1871 0
-1904 1915 1916 1917 0
-1919 1874 0
-1919 1906 0
-1920 1877 0
-1920 1890 0
-1921 1894 0
-1921 1872 0
-1918 1919 1920 1921 0
-1922 1874 0
-1922 1906 0
-1923 1872 0
-1923 1894 0
-1924 1890 0
-1924 1877 0
-1918 1922 1923 1924 0
-1925 1877 0
-1925 1890 0
-1926 1872 0
-1926 1894 0
-1927 1906 0
-1927 1874 0
-1918 1925 1926 1927 0
-1928 1894 0
-1928 1872 0
-1929 1890 0
-1929 1877 0
-1930 1906 0
-1930 1874 0
-1918 1928 1929 1930 0
-1932 1878 0
-1932 1906 0
-1933 1875 0
-1933 1890 0
-1934 1892 0
-1934 1872 0
-1931 1932 1933 1934 0
-1935 1878 0
-1935 1906 0
-1936 1872 0
-1936 1892 0
-1937 1890 0
-1937 1875 0
-1931 1935 1936 1937 0
-1938 1875 0
-1938 1890 0
-1939 1872 0
-1939 1892 0
-1940 1906 0
-1940 1878 0
-1931 1938 1939 1940 0
-1941 1892 0
-1941 1872 0
-1942 1890 0
-1942 1875 0
-1943 1906 0
-1943 1878 0
-1931 1941 1942 1943 0
-1945 1871 0
-1945 1946 0
-1947 1874 0
-1947 1948 0
-1949 1950 0
-1949 1878 0
-1944 1945 1947 1949 0
-1951 1871 0
-1951 1946 0
-1952 1878 0
-1952 1950 0
-1953 1948 0
-1953 1874 0
-1944 1951 1952 1953 0
-1954 1874 0
-1954 1948 0
-1955 1878 0
-1955 1950 0
-1956 1946 0
-1956 1871 0
-1944 1954 1955 1956 0
-1957 1950 0
-1957 1878 0
-1958 1948 0
-1958 1874 0
-1959 1946 0
-1959 1871 0
-1944 1957 1958 1959 0
-1961 1871 0
-1961 1962 0
-1963 1877 0
-1963 1948 0
-1964 1950 0
-1964 1875 0
-1960 1961 1963 1964 0
-1965 1871 0
-1965 1962 0
-1966 1875 0
-1966 1950 0
-1967 1948 0
-1967 1877 0
-1960 1965 1966 1967 0
-1968 1877 0
-1968 1948 0
-1969 1875 0
-1969 1950 0
-1970 1962 0
-1970 1871 0
-1960 1968 1969 1970 0
-1971 1950 0
-1971 1875 0
-1972 1948 0
-1972 1877 0
-1973 1962 0
-1973 1871 0
-1960 1971 1972 1973 0
-1975 1874 0
-1975 1962 0
-1976 1877 0
-1976 1946 0
-1977 1950 0
-1977 1872 0
-1974 1975 1976 1977 0
-1978 1874 0
-1978 1962 0
-1979 1872 0
-1979 1950 0
-1980 1946 0
-1980 1877 0
-1974 1978 1979 1980 0
-1981 1877 0
-1981 1946 0
-1982 1872 0
-1982 1950 0
-1983 1962 0
-1983 1874 0
-1974 1981 1982 1983 0
-1984 1950 0
-1984 1872 0
-1985 1946 0
-1985 1877 0
-1986 1962 0
-1986 1874 0
-1974 1984 1985 1986 0
-1988 1878 0
-1988 1962 0
-1989 1875 0
-1989 1946 0
-1990 1948 0
-1990 1872 0
-1987 1988 1989 1990 0
-1991 1878 0
-1991 1962 0
-1992 1872 0
-1992 1948 0
-1993 1946 0
-1993 1875 0
-1987 1991 1992 1993 0
-1994 1875 0
-1994 1946 0
-1995 1872 0
-1995 1948 0
-1996 1962 0
-1996 1878 0
-1987 1994 1995 1996 0
-1997 1948 0
-1997 1872 0
-1998 1946 0
-1998 1875 0
-1999 1962 0
-1999 1878 0
-1987 1997 1998 1999 0
-2001 1871 0
-2001 2002 0
-2003 1894 0
-2003 1948 0
-2004 1950 0
-2004 1892 0
-2000 2001 2003 2004 0
-2005 1871 0
-2005 2002 0
-2006 1892 0
-2006 1950 0
-2007 1948 0
-2007 1894 0
-2000 2005 2006 2007 0
-2008 1894 0
-2008 1948 0
-2009 1892 0
-2009 1950 0
-2010 2002 0
-2010 1871 0
-2000 2008 2009 2010 0
-2011 1950 0
-2011 1892 0
-2012 1948 0
-2012 1894 0
-2013 2002 0
-2013 1871 0
-2000 2011 2012 2013 0
-2015 1874 0
-2015 2002 0
-2016 1894 0
-2016 1946 0
-2017 1950 0
-2017 1890 0
-2014 2015 2016 2017 0
-2018 1874 0
-2018 2002 0
-2019 1890 0
-2019 1950 0
-2020 1946 0
-2020 1894 0
-2014 2018 2019 2020 0
-2021 1894 0
-2021 1946 0
-2022 1890 0
-2022 1950 0
-2023 2002 0
-2023 1874 0
-2014 2021 2022 2023 0
-2024 1950 0
-2024 1890 0
-2025 1946 0
-2025 1894 0
-2026 2002 0
-2026 1874 0
-2014 2024 2025 2026 0
-2028 1878 0
-2028 2002 0
-2029 1892 0
-2029 1946 0
-2030 1948 0
-2030 1890 0
-2027 2028 2029 2030 0
-2031 1878 0
-2031 2002 0
-2032 1890 0
-2032 1948 0
-2033 1946 0
-2033 1892 0
-2027 2031 2032 2033 0
-2034 1892 0
-2034 1946 0
-2035 1890 0
-2035 1948 0
-2036 2002 0
-2036 1878 0
-2027 2034 2035 2036 0
-2037 1948 0
-2037 1890 0
-2038 1946 0
-2038 1892 0
-2039 2002 0
-2039 1878 0
-2027 2037 2038 2039 0
-2041 1877 0
-2041 2002 0
-2042 1894 0
-2042 1962 0
-2043 1950 0
-2043 1906 0
-2040 2041 2042 2043 0
-2044 1877 0
-2044 2002 0
-2045 1906 0
-2045 1950 0
-2046 1962 0
-2046 1894 0
-2040 2044 2045 2046 0
-2047 1894 0
-2047 1962 0
-2048 1906 0
-2048 1950 0
-2049 2002 0
-2049 1877 0
-2040 2047 2048 2049 0
-2050 1950 0
-2050 1906 0
-2051 1962 0
-2051 1894 0
-2052 2002 0
-2052 1877 0
-2040 2050 2051 2052 0
-2054 1875 0
-2054 2002 0
-2055 1892 0
-2055 1962 0
-2056 1948 0
-2056 1906 0
-2053 2054 2055 2056 0
-2057 1875 0
-2057 2002 0
-2058 1906 0
-2058 1948 0
-2059 1962 0
-2059 1892 0
-2053 2057 2058 2059 0
-2060 1892 0
-2060 1962 0
-2061 1906 0
-2061 1948 0
-2062 2002 0
-2062 1875 0
-2053 2060 2061 2062 0
-2063 1948 0
-2063 1906 0
-2064 1962 0
-2064 1892 0
-2065 2002 0
-2065 1875 0
-2053 2063 2064 2065 0
-2067 1872 0
-2067 2002 0
-2068 1890 0
-2068 1962 0
-2069 1946 0
-2069 1906 0
-2066 2067 2068 2069 0
-2070 1872 0
-2070 2002 0
-2071 1906 0
-2071 1946 0
-2072 1962 0
-2072 1890 0
-2066 2070 2071 2072 0
-2073 1890 0
-2073 1962 0
-2074 1906 0
-2074 1946 0
-2075 2002 0
-2075 1872 0
-2066 2073 2074 2075 0
-2076 1946 0
-2076 1906 0
-2077 1962 0
-2077 1890 0
-2078 2002 0
-2078 1872 0
-2066 2076 2077 2078 0
-2080 1871 0
-2080 2066 0
-2081 1874 0
-2081 2053 0
-2082 1877 0
-2082 2027 0
-2083 1894 0
-2083 1987 0
-2084 1950 0
-2084 1931 0
-2079 2080 2081 2082 2083 2084 0
-2085 1871 0
-2085 2066 0
-2086 1878 0
-2086 2040 0
-2087 1875 0
-2087 2014 0
-2088 1892 0
-2088 1974 0
-2089 1948 0
-2089 1918 0
-2079 2085 2086 2087 2088 2089 0
-2090 1874 0
-2090 2053 0
-2091 1878 0
-2091 2040 0
-2092 1872 0
-2092 2000 0
-2093 1890 0
-2093 1960 0
-2094 1946 0
-2094 1904 0
-2079 2090 2091 2092 2093 2094 0
-2095 1877 0
-2095 2027 0
-2096 1875 0
-2096 2014 0
-2097 1872 0
-2097 2000 0
-2098 1906 0
-2098 1944 0
-2099 1962 0
-2099 1888 0
-2079 2095 2096 2097 2098 2099 0
-2100 1894 0
-2100 1987 0
-2101 1892 0
-2101 1974 0
-2102 1890 0
-2102 1960 0
-2103 1906 0
-2103 1944 0
-2104 2002 0
-2104 1869 0
-2079 2100 2101 2102 2103 2104 0
-2105 1950 0
-2105 1931 0
-2106 1948 0
-2106 1918 0
-2107 1946 0
-2107 1904 0
-2108 1962 0
-2108 1888 0
-2109 2002 0
-2109 1869 0
-2079 2105 2106 2107 2108 2109 0
-2111 1871 0
-2111 2112 0
-2113 1874 0
-2113 2114 0
-2115 2116 0
-2115 1878 0
-2110 2111 2113 2115 0
-2117 1871 0
-2117 2112 0
-2118 1878 0
-2118 2116 0
-2119 2114 0
-2119 1874 0
-2110 2117 2118 2119 0
-2120 1874 0
-2120 2114 0
-2121 1878 0
-2121 2116 0
-2122 2112 0
-2122 1871 0
-2110 2120 2121 2122 0
-2123 2116 0
-2123 1878 0
-2124 2114 0
-2124 1874 0
-2125 2112 0
-2125 1871 0
-2110 2123 2124 2125 0
-2127 1871 0
-2127 2128 0
-2129 1877 0
-2129 2114 0
-2130 2116 0
-2130 1875 0
-2126 2127 2129 2130 0
-2131 1871 0
-2131 2128 0
-2132 1875 0
-2132 2116 0
-2133 2114 0
-2133 1877 0
-2126 2131 2132 2133 0
-2134 1877 0
-2134 2114 0
-2135 1875 0
-2135 2116 0
-2136 2128 0
-2136 1871 0
-2126 2134 2135 2136 0
-2137 2116 0
-2137 1875 0
-2138 2114 0
-2138 1877 0
-2139 2128 0
-2139 1871 0
-2126 2137 2138 2139 0
-2141 1874 0
-2141 2128 0
-2142 1877 0
-2142 2112 0
-2143 2116 0
-2143 1872 0
-2140 2141 2142 2143 0
-2144 1874 0
-2144 2128 0
-2145 1872 0
-2145 2116 0
-2146 2112 0
-2146 1877 0
-2140 2144 2145 2146 0
-2147 1877 0
-2147 2112 0
-2148 1872 0
-2148 2116 0
-2149 2128 0
-2149 1874 0
-2140 2147 2148 2149 0
-2150 2116 0
-2150 1872 0
-2151 2112 0
-2151 1877 0
-2152 2128 0
-2152 1874 0
-2140 2150 2151 2152 0
-2154 1878 0
-2154 2128 0
-2155 1875 0
-2155 2112 0
-2156 2114 0
-2156 1872 0
-2153 2154 2155 2156 0
-2157 1878 0
-2157 2128 0
-2158 1872 0
-2158 2114 0
-2159 2112 0
-2159 1875 0
-2153 2157 2158 2159 0
-2160 1875 0
-2160 2112 0
-2161 1872 0
-2161 2114 0
-2162 2128 0
-2162 1878 0
-2153 2160 2161 2162 0
-2163 2114 0
-2163 1872 0
-2164 2112 0
-2164 1875 0
-2165 2128 0
-2165 1878 0
-2153 2163 2164 2165 0
-2167 1871 0
-2167 2168 0
-2169 1894 0
-2169 2114 0
-2170 2116 0
-2170 1892 0
-2166 2167 2169 2170 0
-2171 1871 0
-2171 2168 0
-2172 1892 0
-2172 2116 0
-2173 2114 0
-2173 1894 0
-2166 2171 2172 2173 0
-2174 1894 0
-2174 2114 0
-2175 1892 0
-2175 2116 0
-2176 2168 0
-2176 1871 0
-2166 2174 2175 2176 0
-2177 2116 0
-2177 1892 0
-2178 2114 0
-2178 1894 0
-2179 2168 0
-2179 1871 0
-2166 2177 2178 2179 0
-2181 1874 0
-2181 2168 0
-2182 1894 0
-2182 2112 0
-2183 2116 0
-2183 1890 0
-2180 2181 2182 2183 0
-2184 1874 0
-2184 2168 0
-2185 1890 0
-2185 2116 0
-2186 2112 0
-2186 1894 0
-2180 2184 2185 2186 0
-2187 1894 0
-2187 2112 0
-2188 1890 0
-2188 2116 0
-2189 2168 0
-2189 1874 0
-2180 2187 2188 2189 0
-2190 2116 0
-2190 1890 0
-2191 2112 0
-2191 1894 0
-2192 2168 0
-2192 1874 0
-2180 2190 2191 2192 0
-2194 1878 0
-2194 2168 0
-2195 1892 0
-2195 2112 0
-2196 2114 0
-2196 1890 0
-2193 2194 2195 2196 0
-2197 1878 0
-2197 2168 0
-2198 1890 0
-2198 2114 0
-2199 2112 0
-2199 1892 0
-2193 2197 2198 2199 0
-2200 1892 0
-2200 2112 0
-2201 1890 0
-2201 2114 0
-2202 2168 0
-2202 1878 0
-2193 2200 2201 2202 0
-2203 2114 0
-2203 1890 0
-2204 2112 0
-2204 1892 0
-2205 2168 0
-2205 1878 0
-2193 2203 2204 2205 0
-2207 1877 0
-2207 2168 0
-2208 1894 0
-2208 2128 0
-2209 2116 0
-2209 1906 0
-2206 2207 2208 2209 0
-2210 1877 0
-2210 2168 0
-2211 1906 0
-2211 2116 0
-2212 2128 0
-2212 1894 0
-2206 2210 2211 2212 0
-2213 1894 0
-2213 2128 0
-2214 1906 0
-2214 2116 0
-2215 2168 0
-2215 1877 0
-2206 2213 2214 2215 0
-2216 2116 0
-2216 1906 0
-2217 2128 0
-2217 1894 0
-2218 2168 0
-2218 1877 0
-2206 2216 2217 2218 0
-2220 1875 0
-2220 2168 0
-2221 1892 0
-2221 2128 0
-2222 2114 0
-2222 1906 0
-2219 2220 2221 2222 0
-2223 1875 0
-2223 2168 0
-2224 1906 0
-2224 2114 0
-2225 2128 0
-2225 1892 0
-2219 2223 2224 2225 0
-2226 1892 0
-2226 2128 0
-2227 1906 0
-2227 2114 0
-2228 2168 0
-2228 1875 0
-2219 2226 2227 2228 0
-2229 2114 0
-2229 1906 0
-2230 2128 0
-2230 1892 0
-2231 2168 0
-2231 1875 0
-2219 2229 2230 2231 0
-2233 1872 0
-2233 2168 0
-2234 1890 0
-2234 2128 0
-2235 2112 0
-2235 1906 0
-2232 2233 2234 2235 0
-2236 1872 0
-2236 2168 0
-2237 1906 0
-2237 2112 0
-2238 2128 0
-2238 1890 0
-2232 2236 2237 2238 0
-2239 1890 0
-2239 2128 0
-2240 1906 0
-2240 2112 0
-2241 2168 0
-2241 1872 0
-2232 2239 2240 2241 0
-2242 2112 0
-2242 1906 0
-2243 2128 0
-2243 1890 0
-2244 2168 0
-2244 1872 0
-2232 2242 2243 2244 0
-2246 1871 0
-2246 2232 0
-2247 1874 0
-2247 2219 0
-2248 1877 0
-2248 2193 0
-2249 1894 0
-2249 2153 0
-2250 2116 0
-2250 1931 0
-2245 2246 2247 2248 2249 2250 0
-2251 1871 0
-2251 2232 0
-2252 1878 0
-2252 2206 0
-2253 1875 0
-2253 2180 0
-2254 1892 0
-2254 2140 0
-2255 2114 0
-2255 1918 0
-2245 2251 2252 2253 2254 2255 0
-2256 1874 0
-2256 2219 0
-2257 1878 0
-2257 2206 0
-2258 1872 0
-2258 2166 0
-2259 1890 0
-2259 2126 0
-2260 2112 0
-2260 1904 0
-2245 2256 2257 2258 2259 2260 0
-2261 1877 0
-2261 2193 0
-2262 1875 0
-2262 2180 0
-2263 1872 0
-2263 2166 0
-2264 1906 0
-2264 2110 0
-2265 2128 0
-2265 1888 0
-2245 2261 2262 2263 2264 2265 0
-2266 1894 0
-2266 2153 0
-2267 1892 0
-2267 2140 0
-2268 1890 0
-2268 2126 0
-2269 1906 0
-2269 2110 0
-2270 2168 0
-2270 1869 0
-2245 2266 2267 2268 2269 2270 0
-2271 2116 0
-2271 1931 0
-2272 2114 0
-2272 1918 0
-2273 2112 0
-2273 1904 0
-2274 2128 0
-2274 1888 0
-2275 2168 0
-2275 1869 0
-2245 2271 2272 2273 2274 2275 0
-2277 1871 0
-2277 2278 0
-2279 1950 0
-2279 2114 0
-2280 2116 0
-2280 1948 0
-2276 2277 2279 2280 0
-2281 1871 0
-2281 2278 0
-2282 1948 0
-2282 2116 0
-2283 2114 0
-2283 1950 0
-2276 2281 2282 2283 0
-2284 1950 0
-2284 2114 0
-2285 1948 0
-2285 2116 0
-2286 2278 0
-2286 1871 0
-2276 2284 2285 2286 0
-2287 2116 0
-2287 1948 0
-2288 2114 0
-2288 1950 0
-2289 2278 0
-2289 1871 0
-2276 2287 2288 2289 0
-2291 1874 0
-2291 2278 0
-2292 1950 0
-2292 2112 0
-2293 2116 0
-2293 1946 0
-2290 2291 2292 2293 0
-2294 1874 0
-2294 2278 0
-2295 1946 0
-2295 2116 0
-2296 2112 0
-2296 1950 0
-2290 2294 2295 2296 0
-2297 1950 0
-2297 2112 0
-2298 1946 0
-2298 2116 0
-2299 2278 0
-2299 1874 0
-2290 2297 2298 2299 0
-2300 2116 0
-2300 1946 0
-2301 2112 0
-2301 1950 0
-2302 2278 0
-2302 1874 0
-2290 2300 2301 2302 0
-2304 1878 0
-2304 2278 0
-2305 1948 0
-2305 2112 0
-2306 2114 0
-2306 1946 0
-2303 2304 2305 2306 0
-2307 1878 0
-2307 2278 0
-2308 1946 0
-2308 2114 0
-2309 2112 0
-2309 1948 0
-2303 2307 2308 2309 0
-2310 1948 0
-2310 2112 0
-2311 1946 0
-2311 2114 0
-2312 2278 0
-2312 1878 0
-2303 2310 2311 2312 0
-2313 2114 0
-2313 1946 0
-2314 2112 0
-2314 1948 0
-2315 2278 0
-2315 1878 0
-2303 2313 2314 2315 0
-2317 1877 0
-2317 2278 0
-2318 1950 0
-2318 2128 0
-2319 2116 0
-2319 1962 0
-2316 2317 2318 2319 0
-2320 1877 0
-2320 2278 0
-2321 1962 0
-2321 2116 0
-2322 2128 0
-2322 1950 0
-2316 2320 2321 2322 0
-2323 1950 0
-2323 2128 0
-2324 1962 0
-2324 2116 0
-2325 2278 0
-2325 1877 0
-2316 2323 2324 2325 0
-2326 2116 0
-2326 1962 0
-2327 2128 0
-2327 1950 0
-2328 2278 0
-2328 1877 0
-2316 2326 2327 2328 0
-2330 1875 0
-2330 2278 0
-2331 1948 0
-2331 2128 0
-2332 2114 0
-2332 1962 0
-2329 2330 2331 2332 0
-2333 1875 0
-2333 2278 0
-2334 1962 0
-2334 2114 0
-2335 2128 0
-2335 1948 0
-2329 2333 2334 2335 0
-2336 1948 0
-2336 2128 0
-2337 1962 0
-2337 2114 0
-2338 2278 0
-2338 1875 0
-2329 2336 2337 2338 0
-2339 2114 0
-2339 1962 0
-2340 2128 0
-2340 1948 0
-2341 2278 0
-2341 1875 0
-2329 2339 2340 2341 0
-2343 1872 0
-2343 2278 0
-2344 1946 0
-2344 2128 0
-2345 2112 0
-2345 1962 0
-2342 2343 2344 2345 0
-2346 1872 0
-2346 2278 0
-2347 1962 0
-2347 2112 0
-2348 2128 0
-2348 1946 0
-2342 2346 2347 2348 0
-2349 1946 0
-2349 2128 0
-2350 1962 0
-2350 2112 0
-2351 2278 0
-2351 1872 0
-2342 2349 2350 2351 0
-2352 2112 0
-2352 1962 0
-2353 2128 0
-2353 1946 0
-2354 2278 0
-2354 1872 0
-2342 2352 2353 2354 0
-2356 1871 0
-2356 2342 0
-2357 1874 0
-2357 2329 0
-2358 1877 0
-2358 2303 0
-2359 1950 0
-2359 2153 0
-2360 2116 0
-2360 1987 0
-2355 2356 2357 2358 2359 2360 0
-2361 1871 0
-2361 2342 0
-2362 1878 0
-2362 2316 0
-2363 1875 0
-2363 2290 0
-2364 1948 0
-2364 2140 0
-2365 2114 0
-2365 1974 0
-2355 2361 2362 2363 2364 2365 0
-2366 1874 0
-2366 2329 0
-2367 1878 0
-2367 2316 0
-2368 1872 0
-2368 2276 0
-2369 1946 0
-2369 2126 0
-2370 2112 0
-2370 1960 0
-2355 2366 2367 2368 2369 2370 0
-2371 1877 0
-2371 2303 0
-2372 1875 0
-2372 2290 0
-2373 1872 0
-2373 2276 0
-2374 1962 0
-2374 2110 0
-2375 2128 0
-2375 1944 0
-2355 2371 2372 2373 2374 2375 0
-2376 1950 0
-2376 2153 0
-2377 1948 0
-2377 2140 0
-2378 1946 0
-2378 2126 0
-2379 1962 0
-2379 2110 0
-2380 2278 0
-2380 1869 0
-2355 2376 2377 2378 2379 2380 0
-2381 2116 0
-2381 1987 0
-2382 2114 0
-2382 1974 0
-2383 2112 0
-2383 1960 0
-2384 2128 0
-2384 1944 0
-2385 2278 0
-2385 1869 0
-2355 2381 2382 2383 2384 2385 0
-2387 1894 0
-2387 2278 0
-2388 1950 0
-2388 2168 0
-2389 2116 0
-2389 2002 0
-2386 2387 2388 2389 0
-2390 1894 0
-2390 2278 0
-2391 2002 0
-2391 2116 0
-2392 2168 0
-2392 1950 0
-2386 2390 2391 2392 0
-2393 1950 0
-2393 2168 0
-2394 2002 0
-2394 2116 0
-2395 2278 0
-2395 1894 0
-2386 2393 2394 2395 0
-2396 2116 0
-2396 2002 0
-2397 2168 0
-2397 1950 0
-2398 2278 0
-2398 1894 0
-2386 2396 2397 2398 0
-2400 1892 0
-2400 2278 0
-2401 1948 0
-2401 2168 0
-2402 2114 0
-2402 2002 0
-2399 2400 2401 2402 0
-2403 1892 0
-2403 2278 0
-2404 2002 0
-2404 2114 0
-2405 2168 0
-2405 1948 0
-2399 2403 2404 2405 0
-2406 1948 0
-2406 2168 0
-2407 2002 0
-2407 2114 0
-2408 2278 0
-2408 1892 0
-2399 2406 2407 2408 0
-2409 2114 0
-2409 2002 0
-2410 2168 0
-2410 1948 0
-2411 2278 0
-2411 1892 0
-2399 2409 2410 2411 0
-2413 1890 0
-2413 2278 0
-2414 1946 0
-2414 2168 0
-2415 2112 0
-2415 2002 0
-2412 2413 2414 2415 0
-2416 1890 0
-2416 2278 0
-2417 2002 0
-2417 2112 0
-2418 2168 0
-2418 1946 0
-2412 2416 2417 2418 0
-2419 1946 0
-2419 2168 0
-2420 2002 0
-2420 2112 0
-2421 2278 0
-2421 1890 0
-2412 2419 2420 2421 0
-2422 2112 0
-2422 2002 0
-2423 2168 0
-2423 1946 0
-2424 2278 0
-2424 1890 0
-2412 2422 2423 2424 0
-2426 1871 0
-2426 2412 0
-2427 1874 0
-2427 2399 0
-2428 1894 0
-2428 2303 0
-2429 1950 0
-2429 2193 0
-2430 2116 0
-2430 2027 0
-2425 2426 2427 2428 2429 2430 0
-2431 1871 0
-2431 2412 0
-2432 1878 0
-2432 2386 0
-2433 1892 0
-2433 2290 0
-2434 1948 0
-2434 2180 0
-2435 2114 0
-2435 2014 0
-2425 2431 2432 2433 2434 2435 0
-2436 1874 0
-2436 2399 0
-2437 1878 0
-2437 2386 0
-2438 1890 0
-2438 2276 0
-2439 1946 0
-2439 2166 0
-2440 2112 0
-2440 2000 0
-2425 2436 2437 2438 2439 2440 0
-2441 1894 0
-2441 2303 0
-2442 1892 0
-2442 2290 0
-2443 1890 0
-2443 2276 0
-2444 2002 0
-2444 2110 0
-2445 2168 0
-2445 1944 0
-2425 2441 2442 2443 2444 2445 0
-2446 1950 0
-2446 2193 0
-2447 1948 0
-2447 2180 0
-2448 1946 0
-2448 2166 0
-2449 2002 0
-2449 2110 0
-2450 2278 0
-2450 1888 0
-2425 2446 2447 2448 2449 2450 0
-2451 2116 0
-2451 2027 0
-2452 2114 0
-2452 2014 0
-2453 2112 0
-2453 2000 0
-2454 2168 0
-2454 1944 0
-2455 2278 0
-2455 1888 0
-2425 2451 2452 2453 2454 2455 0
-2457 1906 0
-2457 2278 0
-2458 1962 0
-2458 2168 0
-2459 2128 0
-2459 2002 0
-2456 2457 2458 2459 0
-2460 1906 0
-2460 2278 0
-2461 2002 0
-2461 2128 0
-2462 2168 0
-2462 1962 0
-2456 2460 2461 2462 0
-2463 1962 0
-2463 2168 0
-2464 2002 0
-2464 2128 0
-2465 2278 0
-2465 1906 0
-2456 2463 2464 2465 0
-2466 2128 0
-2466 2002 0
-2467 2168 0
-2467 1962 0
-2468 2278 0
-2468 1906 0
-2456 2466 2467 2468 0
-2470 1871 0
-2470 2456 0
-2471 1877 0
-2471 2399 0
-2472 1894 0
-2472 2329 0
-2473 1950 0
-2473 2219 0
-2474 2116 0
-2474 2053 0
-2469 2470 2471 2472 2473 2474 0
-2475 1871 0
-2475 2456 0
-2476 1875 0
-2476 2386 0
-2477 1892 0
-2477 2316 0
-2478 1948 0
-2478 2206 0
-2479 2114 0
-2479 2040 0
-2469 2475 2476 2477 2478 2479 0
-2480 1877 0
-2480 2399 0
-2481 1875 0
-2481 2386 0
-2482 1906 0
-2482 2276 0
-2483 1962 0
-2483 2166 0
-2484 2128 0
-2484 2000 0
-2469 2480 2481 2482 2483 2484 0
-2485 1894 0
-2485 2329 0
-2486 1892 0
-2486 2316 0
-2487 1906 0
-2487 2276 0
-2488 2002 0
-2488 2126 0
-2489 2168 0
-2489 1960 0
-2469 2485 2486 2487 2488 2489 0
-2490 1950 0
-2490 2219 0
-2491 1948 0
-2491 2206 0
-2492 1962 0
-2492 2166 0
-2493 2002 0
-2493 2126 0
-2494 2278 0
-2494 1904 0
-2469 2490 2491 2492 2493 2494 0
-2495 2116 0
-2495 2053 0
-2496 2114 0
-2496 2040 0
-2497 2128 0
-2497 2000 0
-2498 2168 0
-2498 1960 0
-2499 2278 0
-2499 1904 0
-2469 2495 2496 2497 2498 2499 0
-2501 1874 0
-2501 2456 0
-2502 1877 0
-2502 2412 0
-2503 1894 0
-2503 2342 0
-2504 1950 0
-2504 2232 0
-2505 2116 0
-2505 2066 0
-2500 2501 2502 2503 2504 2505 0
-2506 1874 0
-2506 2456 0
-2507 1872 0
-2507 2386 0
-2508 1890 0
-2508 2316 0
-2509 1946 0
-2509 2206 0
-2510 2112 0
-2510 2040 0
-2500 2506 2507 2508 2509 2510 0
-2511 1877 0
-2511 2412 0
-2512 1872 0
-2512 2386 0
-2513 1906 0
-2513 2290 0
-2514 1962 0
-2514 2180 0
-2515 2128 0
-2515 2014 0
-2500 2511 2512 2513 2514 2515 0
-2516 1894 0
-2516 2342 0
-2517 1890 0
-2517 2316 0
-2518 1906 0
-2518 2290 0
-2519 2002 0
-2519 2140 0
-2520 2168 0
-2520 1974 0
-2500 2516 2517 2518 2519 2520 0
-2521 1950 0
-2521 2232 0
-2522 1946 0
-2522 2206 0
-2523 1962 0
-2523 2180 0
-2524 2002 0
-2524 2140 0
-2525 2278 0
-2525 1918 0
-2500 2521 2522 2523 2524 2525 0
-2526 2116 0
-2526 2066 0
-2527 2112 0
-2527 2040 0
-2528 2128 0
-2528 2014 0
-2529 2168 0
-2529 1974 0
-2530 2278 0
-2530 1918 0
-2500 2526 2527 2528 2529 2530 0
-2532 1878 0
-2532 2456 0
-2533 1875 0
-2533 2412 0
-2534 1892 0
-2534 2342 0
-2535 1948 0
-2535 2232 0
-2536 2114 0
-2536 2066 0
-2531 2532 2533 2534 2535 2536 0
-2537 1878 0
-2537 2456 0
-2538 1872 0
-2538 2399 0
-2539 1890 0
-2539 2329 0
-2540 1946 0
-2540 2219 0
-2541 2112 0
-2541 2053 0
-2531 2537 2538 2539 2540 2541 0
-2542 1875 0
-2542 2412 0
-2543 1872 0
-2543 2399 0
-2544 1906 0
-2544 2303 0
-2545 1962 0
-2545 2193 0
-2546 2128 0
-2546 2027 0
-2531 2542 2543 2544 2545 2546 0
-2547 1892 0
-2547 2342 0
-2548 1890 0
-2548 2329 0
-2549 1906 0
-2549 2303 0
-2550 2002 0
-2550 2153 0
-2551 2168 0
-2551 1987 0
-2531 2547 2548 2549 2550 2551 0
-2552 1948 0
-2552 2232 0
-2553 1946 0
-2553 2219 0
-2554 1962 0
-2554 2193 0
-2555 2002 0
-2555 2153 0
-2556 2278 0
-2556 1931 0
-2531 2552 2553 2554 2555 2556 0
-2557 2114 0
-2557 2066 0
-2558 2112 0
-2558 2053 0
-2559 2128 0
-2559 2027 0
-2560 2168 0
-2560 1987 0
-2561 2278 0
-2561 1931 0
-2531 2557 2558 2559 2560 2561 0
-2563 1871 0
-2563 2564 0
-2565 1874 0
-2565 2566 0
-2567 2568 0
-2567 1878 0
-2562 2563 2565 2567 0
-2569 1871 0
-2569 2564 0
-2570 1878 0
-2570 2568 0
-2571 2566 0
-2571 1874 0
-2562 2569 2570 2571 0
-2572 1874 0
-2572 2566 0
-2573 1878 0
-2573 2568 0
-2574 2564 0
-2574 1871 0
-2562 2572 2573 2574 0
-2575 2568 0
-2575 1878 0
-2576 2566 0
-2576 1874 0
-2577 2564 0
-2577 1871 0
-2562 2575 2576 2577 0
-2579 1871 0
-2579 2580 0
-2581 1877 0
-2581 2566 0
-2582 2568 0
-2582 1875 0
-2578 2579 2581 2582 0
-2583 1871 0
-2583 2580 0
-2584 1875 0
-2584 2568 0
-2585 2566 0
-2585 1877 0
-2578 2583 2584 2585 0
-2586 1877 0
-2586 2566 0
-2587 1875 0
-2587 2568 0
-2588 2580 0
-2588 1871 0
-2578 2586 2587 2588 0
-2589 2568 0
-2589 1875 0
-2590 2566 0
-2590 1877 0
-2591 2580 0
-2591 1871 0
-2578 2589 2590 2591 0
-2593 1874 0
-2593 2580 0
-2594 1877 0
-2594 2564 0
-2595 2568 0
-2595 1872 0
-2592 2593 2594 2595 0
-2596 1874 0
-2596 2580 0
-2597 1872 0
-2597 2568 0
-2598 2564 0
-2598 1877 0
-2592 2596 2597 2598 0
-2599 1877 0
-2599 2564 0
-2600 1872 0
-2600 2568 0
-2601 2580 0
-2601 1874 0
-2592 2599 2600 2601 0
-2602 2568 0
-2602 1872 0
-2603 2564 0
-2603 1877 0
-2604 2580 0
-2604 1874 0
-2592 2602 2603 2604 0
-2606 1878 0
-2606 2580 0
-2607 1875 0
-2607 2564 0
-2608 2566 0
-2608 1872 0
-2605 2606 2607 2608 0
-2609 1878 0
-2609 2580 0
-2610 1872 0
-2610 2566 0
-2611 2564 0
-2611 1875 0
-2605 2609 2610 2611 0
-2612 1875 0
-2612 2564 0
-2613 1872 0
-2613 2566 0
-2614 2580 0
-2614 1878 0
-2605 2612 2613 2614 0
-2615 2566 0
-2615 1872 0
-2616 2564 0
-2616 1875 0
-2617 2580 0
-2617 1878 0
-2605 2615 2616 2617 0
-2619 1871 0
-2619 2620 0
-2621 1894 0
-2621 2566 0
-2622 2568 0
-2622 1892 0
-2618 2619 2621 2622 0
-2623 1871 0
-2623 2620 0
-2624 1892 0
-2624 2568 0
-2625 2566 0
-2625 1894 0
-2618 2623 2624 2625 0
-2626 1894 0
-2626 2566 0
-2627 1892 0
-2627 2568 0
-2628 2620 0
-2628 1871 0
-2618 2626 2627 2628 0
-2629 2568 0
-2629 1892 0
-2630 2566 0
-2630 1894 0
-2631 2620 0
-2631 1871 0
-2618 2629 2630 2631 0
-2633 1874 0
-2633 2620 0
-2634 1894 0
-2634 2564 0
-2635 2568 0
-2635 1890 0
-2632 2633 2634 2635 0
-2636 1874 0
-2636 2620 0
-2637 1890 0
-2637 2568 0
-2638 2564 0
-2638 1894 0
-2632 2636 2637 2638 0
-2639 1894 0
-2639 2564 0
-2640 1890 0
-2640 2568 0
-2641 2620 0
-2641 1874 0
-2632 2639 2640 2641 0
-2642 2568 0
-2642 1890 0
-2643 2564 0
-2643 1894 0
-2644 2620 0
-2644 1874 0
-2632 2642 2643 2644 0
-2646 1878 0
-2646 2620 0
-2647 1892 0
-2647 2564 0
-2648 2566 0
-2648 1890 0
-2645 2646 2647 2648 0
-2649 1878 0
-2649 2620 0
-2650 1890 0
-2650 2566 0
-2651 2564 0
-2651 1892 0
-2645 2649 2650 2651 0
-2652 1892 0
-2652 2564 0
-2653 1890 0
-2653 2566 0
-2654 2620 0
-2654 1878 0
-2645 2652 2653 2654 0
-2655 2566 0
-2655 1890 0
-2656 2564 0
-2656 1892 0
-2657 2620 0
-2657 1878 0
-2645 2655 2656 2657 0
-2659 1877 0
-2659 2620 0
-2660 1894 0
-2660 2580 0
-2661 2568 0
-2661 1906 0
-2658 2659 2660 2661 0
-2662 1877 0
-2662 2620 0
-2663 1906 0
-2663 2568 0
-2664 2580 0
-2664 1894 0
-2658 2662 2663 2664 0
-2665 1894 0
-2665 2580 0
-2666 1906 0
-2666 2568 0
-2667 2620 0
-2667 1877 0
-2658 2665 2666 2667 0
-2668 2568 0
-2668 1906 0
-2669 2580 0
-2669 1894 0
-2670 2620 0
-2670 1877 0
-2658 2668 2669 2670 0
-2672 1875 0
-2672 2620 0
-2673 1892 0
-2673 2580 0
-2674 2566 0
-2674 1906 0
-2671 2672 2673 2674 0
-2675 1875 0
-2675 2620 0
-2676 1906 0
-2676 2566 0
-2677 2580 0
-2677 1892 0
-2671 2675 2676 2677 0
-2678 1892 0
-2678 2580 0
-2679 1906 0
-2679 2566 0
-2680 2620 0
-2680 1875 0
-2671 2678 2679 2680 0
-2681 2566 0
-2681 1906 0
-2682 2580 0
-2682 1892 0
-2683 2620 0
-2683 1875 0
-2671 2681 2682 2683 0
-2685 1872 0
-2685 2620 0
-2686 1890 0
-2686 2580 0
-2687 2564 0
-2687 1906 0
-2684 2685 2686 2687 0
-2688 1872 0
-2688 2620 0
-2689 1906 0
-2689 2564 0
-2690 2580 0
-2690 1890 0
-2684 2688 2689 2690 0
-2691 1890 0
-2691 2580 0
-2692 1906 0
-2692 2564 0
-2693 2620 0
-2693 1872 0
-2684 2691 2692 2693 0
-2694 2564 0
-2694 1906 0
-2695 2580 0
-2695 1890 0
-2696 2620 0
-2696 1872 0
-2684 2694 2695 2696 0
-2698 1871 0
-2698 2684 0
-2699 1874 0
-2699 2671 0
-2700 1877 0
-2700 2645 0
-2701 1894 0
-2701 2605 0
-2702 2568 0
-2702 1931 0
-2697 2698 2699 2700 2701 2702 0
-2703 1871 0
-2703 2684 0
-2704 1878 0
-2704 2658 0
-2705 1875 0
-2705 2632 0
-2706 1892 0
-2706 2592 0
-2707 2566 0
-2707 1918 0
-2697 2703 2704 2705 2706 2707 0
-2708 1874 0
-2708 2671 0
-2709 1878 0
-2709 2658 0
-2710 1872 0
-2710 2618 0
-2711 1890 0
-2711 2578 0
-2712 2564 0
-2712 1904 0
-2697 2708 2709 2710 2711 2712 0
-2713 1877 0
-2713 2645 0
-2714 1875 0
-2714 2632 0
-2715 1872 0
-2715 2618 0
-2716 1906 0
-2716 2562 0
-2717 2580 0
-2717 1888 0
-2697 2713 2714 2715 2716 2717 0
-2718 1894 0
-2718 2605 0
-2719 1892 0
-2719 2592 0
-2720 1890 0
-2720 2578 0
-2721 1906 0
-2721 2562 0
-2722 2620 0
-2722 1869 0
-2697 2718 2719 2720 2721 2722 0
-2723 2568 0
-2723 1931 0
-2724 2566 0
-2724 1918 0
-2725 2564 0
-2725 1904 0
-2726 2580 0
-2726 1888 0
-2727 2620 0
-2727 1869 0
-2697 2723 2724 2725 2726 2727 0
-2729 1871 0
-2729 2730 0
-2731 1950 0
-2731 2566 0
-2732 2568 0
-2732 1948 0
-2728 2729 2731 2732 0
-2733 1871 0
-2733 2730 0
-2734 1948 0
-2734 2568 0
-2735 2566 0
-2735 1950 0
-2728 2733 2734 2735 0
-2736 1950 0
-2736 2566 0
-2737 1948 0
-2737 2568 0
-2738 2730 0
-2738 1871 0
-2728 2736 2737 2738 0
-2739 2568 0
-2739 1948 0
-2740 2566 0
-2740 1950 0
-2741 2730 0
-2741 1871 0
-2728 2739 2740 2741 0
-2743 1874 0
-2743 2730 0
-2744 1950 0
-2744 2564 0
-2745 2568 0
-2745 1946 0
-2742 2743 2744 2745 0
-2746 1874 0
-2746 2730 0
-2747 1946 0
-2747 2568 0
-2748 2564 0
-2748 1950 0
-2742 2746 2747 2748 0
-2749 1950 0
-2749 2564 0
-2750 1946 0
-2750 2568 0
-2751 2730 0
-2751 1874 0
-2742 2749 2750 2751 0
-2752 2568 0
-2752 1946 0
-2753 2564 0
-2753 1950 0
-2754 2730 0
-2754 1874 0
-2742 2752 2753 2754 0
-2756 1878 0
-2756 2730 0
-2757 1948 0
-2757 2564 0
-2758 2566 0
-2758 1946 0
-2755 2756 2757 2758 0
-2759 1878 0
-2759 2730 0
-2760 1946 0
-2760 2566 0
-2761 2564 0
-2761 1948 0
-2755 2759 2760 2761 0
-2762 1948 0
-2762 2564 0
-2763 1946 0
-2763 2566 0
-2764 2730 0
-2764 1878 0
-2755 2762 2763 2764 0
-2765 2566 0
-2765 1946 0
-2766 2564 0
-2766 1948 0
-2767 2730 0
-2767 1878 0
-2755 2765 2766 2767 0
-2769 1877 0
-2769 2730 0
-2770 1950 0
-2770 2580 0
-2771 2568 0
-2771 1962 0
-2768 2769 2770 2771 0
-2772 1877 0
-2772 2730 0
-2773 1962 0
-2773 2568 0
-2774 2580 0
-2774 1950 0
-2768 2772 2773 2774 0
-2775 1950 0
-2775 2580 0
-2776 1962 0
-2776 2568 0
-2777 2730 0
-2777 1877 0
-2768 2775 2776 2777 0
-2778 2568 0
-2778 1962 0
-2779 2580 0
-2779 1950 0
-2780 2730 0
-2780 1877 0
-2768 2778 2779 2780 0
-2782 1875 0
-2782 2730 0
-2783 1948 0
-2783 2580 0
-2784 2566 0
-2784 1962 0
-2781 2782 2783 2784 0
-2785 1875 0
-2785 2730 0
-2786 1962 0
-2786 2566 0
-2787 2580 0
-2787 1948 0
-2781 2785 2786 2787 0
-2788 1948 0
-2788 2580 0
-2789 1962 0
-2789 2566 0
-2790 2730 0
-2790 1875 0
-2781 2788 2789 2790 0
-2791 2566 0
-2791 1962 0
-2792 2580 0
-2792 1948 0
-2793 2730 0
-2793 1875 0
-2781 2791 2792 2793 0
-2795 1872 0
-2795 2730 0
-2796 1946 0
-2796 2580 0
-2797 2564 0
-2797 1962 0
-2794 2795 2796 2797 0
-2798 1872 0
-2798 2730 0
-2799 1962 0
-2799 2564 0
-2800 2580 0
-2800 1946 0
-2794 2798 2799 2800 0
-2801 1946 0
-2801 2580 0
-2802 1962 0
-2802 2564 0
-2803 2730 0
-2803 1872 0
-2794 2801 2802 2803 0
-2804 2564 0
-2804 1962 0
-2805 2580 0
-2805 1946 0
-2806 2730 0
-2806 1872 0
-2794 2804 2805 2806 0
-2808 1871 0
-2808 2794 0
-2809 1874 0
-2809 2781 0
-2810 1877 0
-2810 2755 0
-2811 1950 0
-2811 2605 0
-2812 2568 0
-2812 1987 0
-2807 2808 2809 2810 2811 2812 0
-2813 1871 0
-2813 2794 0
-2814 1878 0
-2814 2768 0
-2815 1875 0
-2815 2742 0
-2816 1948 0
-2816 2592 0
-2817 2566 0
-2817 1974 0
-2807 2813 2814 2815 2816 2817 0
-2818 1874 0
-2818 2781 0
-2819 1878 0
-2819 2768 0
-2820 1872 0
-2820 2728 0
-2821 1946 0
-2821 2578 0
-2822 2564 0
-2822 1960 0
-2807 2818 2819 2820 2821 2822 0
-2823 1877 0
-2823 2755 0
-2824 1875 0
-2824 2742 0
-2825 1872 0
-2825 2728 0
-2826 1962 0
-2826 2562 0
-2827 2580 0
-2827 1944 0
-2807 2823 2824 2825 2826 2827 0
-2828 1950 0
-2828 2605 0
-2829 1948 0
-2829 2592 0
-2830 1946 0
-2830 2578 0
-2831 1962 0
-2831 2562 0
-2832 2730 0
-2832 1869 0
-2807 2828 2829 2830 2831 2832 0
-2833 2568 0
-2833 1987 0
-2834 2566 0
-2834 1974 0
-2835 2564 0
-2835 1960 0
-2836 2580 0
-2836 1944 0
-2837 2730 0
-2837 1869 0
-2807 2833 2834 2835 2836 2837 0
-2839 1894 0
-2839 2730 0
-2840 1950 0
-2840 2620 0
-2841 2568 0
-2841 2002 0
-2838 2839 2840 2841 0
-2842 1894 0
-2842 2730 0
-2843 2002 0
-2843 2568 0
-2844 2620 0
-2844 1950 0
-2838 2842 2843 2844 0
-2845 1950 0
-2845 2620 0
-2846 2002 0
-2846 2568 0
-2847 2730 0
-2847 1894 0
-2838 2845 2846 2847 0
-2848 2568 0
-2848 2002 0
-2849 2620 0
-2849 1950 0
-2850 2730 0
-2850 1894 0
-2838 2848 2849 2850 0
-2852 1892 0
-2852 2730 0
-2853 1948 0
-2853 2620 0
-2854 2566 0
-2854 2002 0
-2851 2852 2853 2854 0
-2855 1892 0
-2855 2730 0
-2856 2002 0
-2856 2566 0
-2857 2620 0
-2857 1948 0
-2851 2855 2856 2857 0
-2858 1948 0
-2858 2620 0
-2859 2002 0
-2859 2566 0
-2860 2730 0
-2860 1892 0
-2851 2858 2859 2860 0
-2861 2566 0
-2861 2002 0
-2862 2620 0
-2862 1948 0
-2863 2730 0
-2863 1892 0
-2851 2861 2862 2863 0
-2865 1890 0
-2865 2730 0
-2866 1946 0
-2866 2620 0
-2867 2564 0
-2867 2002 0
-2864 2865 2866 2867 0
-2868 1890 0
-2868 2730 0
-2869 2002 0
-2869 2564 0
-2870 2620 0
-2870 1946 0
-2864 2868 2869 2870 0
-2871 1946 0
-2871 2620 0
-2872 2002 0
-2872 2564 0
-2873 2730 0
-2873 1890 0
-2864 2871 2872 2873 0
-2874 2564 0
-2874 2002 0
-2875 2620 0
-2875 1946 0
-2876 2730 0
-2876 1890 0
-2864 2874 2875 2876 0
-2878 1871 0
-2878 2864 0
-2879 1874 0
-2879 2851 0
-2880 1894 0
-2880 2755 0
-2881 1950 0
-2881 2645 0
-2882 2568 0
-2882 2027 0
-2877 2878 2879 2880 2881 2882 0
-2883 1871 0
-2883 2864 0
-2884 1878 0
-2884 2838 0
-2885 1892 0
-2885 2742 0
-2886 1948 0
-2886 2632 0
-2887 2566 0
-2887 2014 0
-2877 2883 2884 2885 2886 2887 0
-2888 1874 0
-2888 2851 0
-2889 1878 0
-2889 2838 0
-2890 1890 0
-2890 2728 0
-2891 1946 0
-2891 2618 0
-2892 2564 0
-2892 2000 0
-2877 2888 2889 2890 2891 2892 0
-2893 1894 0
-2893 2755 0
-2894 1892 0
-2894 2742 0
-2895 1890 0
-2895 2728 0
-2896 2002 0
-2896 2562 0
-2897 2620 0
-2897 1944 0
-2877 2893 2894 2895 2896 2897 0
-2898 1950 0
-2898 2645 0
-2899 1948 0
-2899 2632 0
-2900 1946 0
-2900 2618 0
-2901 2002 0
-2901 2562 0
-2902 2730 0
-2902 1888 0
-2877 2898 2899 2900 2901 2902 0
-2903 2568 0
-2903 2027 0
-2904 2566 0
-2904 2014 0
-2905 2564 0
-2905 2000 0
-2906 2620 0
-2906 1944 0
-2907 2730 0
-2907 1888 0
-2877 2903 2904 2905 2906 2907 0
-2909 1906 0
-2909 2730 0
-2910 1962 0
-2910 2620 0
-2911 2580 0
-2911 2002 0
-2908 2909 2910 2911 0
-2912 1906 0
-2912 2730 0
-2913 2002 0
-2913 2580 0
-2914 2620 0
-2914 1962 0
-2908 2912 2913 2914 0
-2915 1962 0
-2915 2620 0
-2916 2002 0
-2916 2580 0
-2917 2730 0
-2917 1906 0
-2908 2915 2916 2917 0
-2918 2580 0
-2918 2002 0
-2919 2620 0
-2919 1962 0
-2920 2730 0
-2920 1906 0
-2908 2918 2919 2920 0
-2922 1871 0
-2922 2908 0
-2923 1877 0
-2923 2851 0
-2924 1894 0
-2924 2781 0
-2925 1950 0
-2925 2671 0
-2926 2568 0
-2926 2053 0
-2921 2922 2923 2924 2925 2926 0
-2927 1871 0
-2927 2908 0
-2928 1875 0
-2928 2838 0
-2929 1892 0
-2929 2768 0
-2930 1948 0
-2930 2658 0
-2931 2566 0
-2931 2040 0
-2921 2927 2928 2929 2930 2931 0
-2932 1877 0
-2932 2851 0
-2933 1875 0
-2933 2838 0
-2934 1906 0
-2934 2728 0
-2935 1962 0
-2935 2618 0
-2936 2580 0
-2936 2000 0
-2921 2932 2933 2934 2935 2936 0
-2937 1894 0
-2937 2781 0
-2938 1892 0
-2938 2768 0
-2939 1906 0
-2939 2728 0
-2940 2002 0
-2940 2578 0
-2941 2620 0
-2941 1960 0
-2921 2937 2938 2939 2940 2941 0
-2942 1950 0
-2942 2671 0
-2943 1948 0
-2943 2658 0
-2944 1962 0
-2944 2618 0
-2945 2002 0
-2945 2578 0
-2946 2730 0
-2946 1904 0
-2921 2942 2943 2944 2945 2946 0
-2947 2568 0
-2947 2053 0
-2948 2566 0
-2948 2040 0
-2949 2580 0
-2949 2000 0
-2950 2620 0
-2950 1960 0
-2951 2730 0
-2951 1904 0
-2921 2947 2948 2949 2950 2951 0
-2953 1874 0
-2953 2908 0
-2954 1877 0
-2954 2864 0
-2955 1894 0
-2955 2794 0
-2956 1950 0
-2956 2684 0
-2957 2568 0
-2957 2066 0
-2952 2953 2954 2955 2956 2957 0
-2958 1874 0
-2958 2908 0
-2959 1872 0
-2959 2838 0
-2960 1890 0
-2960 2768 0
-2961 1946 0
-2961 2658 0
-2962 2564 0
-2962 2040 0
-2952 2958 2959 2960 2961 2962 0
-2963 1877 0
-2963 2864 0
-2964 1872 0
-2964 2838 0
-2965 1906 0
-2965 2742 0
-2966 1962 0
-2966 2632 0
-2967 2580 0
-2967 2014 0
-2952 2963 2964 2965 2966 2967 0
-2968 1894 0
-2968 2794 0
-2969 1890 0
-2969 2768 0
-2970 1906 0
-2970 2742 0
-2971 2002 0
-2971 2592 0
-2972 2620 0
-2972 1974 0
-2952 2968 2969 2970 2971 2972 0
-2973 1950 0
-2973 2684 0
-2974 1946 0
-2974 2658 0
-2975 1962 0
-2975 2632 0
-2976 2002 0
-2976 2592 0
-2977 2730 0
-2977 1918 0
-2952 2973 2974 2975 2976 2977 0
-2978 2568 0
-2978 2066 0
-2979 2564 0
-2979 2040 0
-2980 2580 0
-2980 2014 0
-2981 2620 0
-2981 1974 0
-2982 2730 0
-2982 1918 0
-2952 2978 2979 2980 2981 2982 0
-2984 1878 0
-2984 2908 0
-2985 1875 0
-2985 2864 0
-2986 1892 0
-2986 2794 0
-2987 1948 0
-2987 2684 0
-2988 2566 0
-2988 2066 0
-2983 2984 2985 2986 2987 2988 0
-2989 1878 0
-2989 2908 0
-2990 1872 0
-2990 2851 0
-2991 1890 0
-2991 2781 0
-2992 1946 0
-2992 2671 0
-2993 2564 0
-2993 2053 0
-2983 2989 2990 2991 2992 2993 0
-2994 1875 0
-2994 2864 0
-2995 1872 0
-2995 2851 0
-2996 1906 0
-2996 2755 0
-2997 1962 0
-2997 2645 0
-2998 2580 0
-2998 2027 0
-2983 2994 2995 2996 2997 2998 0
-2999 1892 0
-2999 2794 0
-3000 1890 0
-3000 2781 0
-3001 1906 0
-3001 2755 0
-3002 2002 0
-3002 2605 0
-3003 2620 0
-3003 1987 0
-2983 2999 3000 3001 3002 3003 0
-3004 1948 0
-3004 2684 0
-3005 1946 0
-3005 2671 0
-3006 1962 0
-3006 2645 0
-3007 2002 0
-3007 2605 0
-3008 2730 0
-3008 1931 0
-2983 3004 3005 3006 3007 3008 0
-3009 2566 0
-3009 2066 0
-3010 2564 0
-3010 2053 0
-3011 2580 0
-3011 2027 0
-3012 2620 0
-3012 1987 0
-3013 2730 0
-3013 1931 0
-2983 3009 3010 3011 3012 3013 0
-3015 1871 0
-3015 3016 0
-3017 2116 0
-3017 2566 0
-3018 2568 0
-3018 2114 0
-3014 3015 3017 3018 0
-3019 1871 0
-3019 3016 0
-3020 2114 0
-3020 2568 0
-3021 2566 0
-3021 2116 0
-3014 3019 3020 3021 0
-3022 2116 0
-3022 2566 0
-3023 2114 0
-3023 2568 0
-3024 3016 0
-3024 1871 0
-3014 3022 3023 3024 0
-3025 2568 0
-3025 2114 0
-3026 2566 0
-3026 2116 0
-3027 3016 0
-3027 1871 0
-3014 3025 3026 3027 0
-3029 1874 0
-3029 3016 0
-3030 2116 0
-3030 2564 0
-3031 2568 0
-3031 2112 0
-3028 3029 3030 3031 0
-3032 1874 0
-3032 3016 0
-3033 2112 0
-3033 2568 0
-3034 2564 0
-3034 2116 0
-3028 3032 3033 3034 0
-3035 2116 0
-3035 2564 0
-3036 2112 0
-3036 2568 0
-3037 3016 0
-3037 1874 0
-3028 3035 3036 3037 0
-3038 2568 0
-3038 2112 0
-3039 2564 0
-3039 2116 0
-3040 3016 0
-3040 1874 0
-3028 3038 3039 3040 0
-3042 1878 0
-3042 3016 0
-3043 2114 0
-3043 2564 0
-3044 2566 0
-3044 2112 0
-3041 3042 3043 3044 0
-3045 1878 0
-3045 3016 0
-3046 2112 0
-3046 2566 0
-3047 2564 0
-3047 2114 0
-3041 3045 3046 3047 0
-3048 2114 0
-3048 2564 0
-3049 2112 0
-3049 2566 0
-3050 3016 0
-3050 1878 0
-3041 3048 3049 3050 0
-3051 2566 0
-3051 2112 0
-3052 2564 0
-3052 2114 0
-3053 3016 0
-3053 1878 0
-3041 3051 3052 3053 0
-3055 1877 0
-3055 3016 0
-3056 2116 0
-3056 2580 0
-3057 2568 0
-3057 2128 0
-3054 3055 3056 3057 0
-3058 1877 0
-3058 3016 0
-3059 2128 0
-3059 2568 0
-3060 2580 0
-3060 2116 0
-3054 3058 3059 3060 0
-3061 2116 0
-3061 2580 0
-3062 2128 0
-3062 2568 0
-3063 3016 0
-3063 1877 0
-3054 3061 3062 3063 0
-3064 2568 0
-3064 2128 0
-3065 2580 0
-3065 2116 0
-3066 3016 0
-3066 1877 0
-3054 3064 3065 3066 0
-3068 1875 0
-3068 3016 0
-3069 2114 0
-3069 2580 0
-3070 2566 0
-3070 2128 0
-3067 3068 3069 3070 0
-3071 1875 0
-3071 3016 0
-3072 2128 0
-3072 2566 0
-3073 2580 0
-3073 2114 0
-3067 3071 3072 3073 0
-3074 2114 0
-3074 2580 0
-3075 2128 0
-3075 2566 0
-3076 3016 0
-3076 1875 0
-3067 3074 3075 3076 0
-3077 2566 0
-3077 2128 0
-3078 2580 0
-3078 2114 0
-3079 3016 0
-3079 1875 0
-3067 3077 3078 3079 0
-3081 1872 0
-3081 3016 0
-3082 2112 0
-3082 2580 0
-3083 2564 0
-3083 2128 0
-3080 3081 3082 3083 0
-3084 1872 0
-3084 3016 0
-3085 2128 0
-3085 2564 0
-3086 2580 0
-3086 2112 0
-3080 3084 3085 3086 0
-3087 2112 0
-3087 2580 0
-3088 2128 0
-3088 2564 0
-3089 3016 0
-3089 1872 0
-3080 3087 3088 3089 0
-3090 2564 0
-3090 2128 0
-3091 2580 0
-3091 2112 0
-3092 3016 0
-3092 1872 0
-3080 3090 3091 3092 0
-3094 1871 0
-3094 3080 0
-3095 1874 0
-3095 3067 0
-3096 1877 0
-3096 3041 0
-3097 2116 0
-3097 2605 0
-3098 2568 0
-3098 2153 0
-3093 3094 3095 3096 3097 3098 0
-3099 1871 0
-3099 3080 0
-3100 1878 0
-3100 3054 0
-3101 1875 0
-3101 3028 0
-3102 2114 0
-3102 2592 0
-3103 2566 0
-3103 2140 0
-3093 3099 3100 3101 3102 3103 0
-3104 1874 0
-3104 3067 0
-3105 1878 0
-3105 3054 0
-3106 1872 0
-3106 3014 0
-3107 2112 0
-3107 2578 0
-3108 2564 0
-3108 2126 0
-3093 3104 3105 3106 3107 3108 0
-3109 1877 0
-3109 3041 0
-3110 1875 0
-3110 3028 0
-3111 1872 0
-3111 3014 0
-3112 2128 0
-3112 2562 0
-3113 2580 0
-3113 2110 0
-3093 3109 3110 3111 3112 3113 0
-3114 2116 0
-3114 2605 0
-3115 2114 0
-3115 2592 0
-3116 2112 0
-3116 2578 0
-3117 2128 0
-3117 2562 0
-3118 3016 0
-3118 1869 0
-3093 3114 3115 3116 3117 3118 0
-3119 2568 0
-3119 2153 0
-3120 2566 0
-3120 2140 0
-3121 2564 0
-3121 2126 0
-3122 2580 0
-3122 2110 0
-3123 3016 0
-3123 1869 0
-3093 3119 3120 3121 3122 3123 0
-3125 1894 0
-3125 3016 0
-3126 2116 0
-3126 2620 0
-3127 2568 0
-3127 2168 0
-3124 3125 3126 3127 0
-3128 1894 0
-3128 3016 0
-3129 2168 0
-3129 2568 0
-3130 2620 0
-3130 2116 0
-3124 3128 3129 3130 0
-3131 2116 0
-3131 2620 0
-3132 2168 0
-3132 2568 0
-3133 3016 0
-3133 1894 0
-3124 3131 3132 3133 0
-3134 2568 0
-3134 2168 0
-3135 2620 0
-3135 2116 0
-3136 3016 0
-3136 1894 0
-3124 3134 3135 3136 0
-3138 1892 0
-3138 3016 0
-3139 2114 0
-3139 2620 0
-3140 2566 0
-3140 2168 0
-3137 3138 3139 3140 0
-3141 1892 0
-3141 3016 0
-3142 2168 0
-3142 2566 0
-3143 2620 0
-3143 2114 0
-3137 3141 3142 3143 0
-3144 2114 0
-3144 2620 0
-3145 2168 0
-3145 2566 0
-3146 3016 0
-3146 1892 0
-3137 3144 3145 3146 0
-3147 2566 0
-3147 2168 0
-3148 2620 0
-3148 2114 0
-3149 3016 0
-3149 1892 0
-3137 3147 3148 3149 0
-3151 1890 0
-3151 3016 0
-3152 2112 0
-3152 2620 0
-3153 2564 0
-3153 2168 0
-3150 3151 3152 3153 0
-3154 1890 0
-3154 3016 0
-3155 2168 0
-3155 2564 0
-3156 2620 0
-3156 2112 0
-3150 3154 3155 3156 0
-3157 2112 0
-3157 2620 0
-3158 2168 0
-3158 2564 0
-3159 3016 0
-3159 1890 0
-3150 3157 3158 3159 0
-3160 2564 0
-3160 2168 0
-3161 2620 0
-3161 2112 0
-3162 3016 0
-3162 1890 0
-3150 3160 3161 3162 0
-3164 1871 0
-3164 3150 0
-3165 1874 0
-3165 3137 0
-3166 1894 0
-3166 3041 0
-3167 2116 0
-3167 2645 0
-3168 2568 0
-3168 2193 0
-3163 3164 3165 3166 3167 3168 0
-3169 1871 0
-3169 3150 0
-3170 1878 0
-3170 3124 0
-3171 1892 0
-3171 3028 0
-3172 2114 0
-3172 2632 0
-3173 2566 0
-3173 2180 0
-3163 3169 3170 3171 3172 3173 0
-3174 1874 0
-3174 3137 0
-3175 1878 0
-3175 3124 0
-3176 1890 0
-3176 3014 0
-3177 2112 0
-3177 2618 0
-3178 2564 0
-3178 2166 0
-3163 3174 3175 3176 3177 3178 0
-3179 1894 0
-3179 3041 0
-3180 1892 0
-3180 3028 0
-3181 1890 0
-3181 3014 0
-3182 2168 0
-3182 2562 0
-3183 2620 0
-3183 2110 0
-3163 3179 3180 3181 3182 3183 0
-3184 2116 0
-3184 2645 0
-3185 2114 0
-3185 2632 0
-3186 2112 0
-3186 2618 0
-3187 2168 0
-3187 2562 0
-3188 3016 0
-3188 1888 0
-3163 3184 3185 3186 3187 3188 0
-3189 2568 0
-3189 2193 0
-3190 2566 0
-3190 2180 0
-3191 2564 0
-3191 2166 0
-3192 2620 0
-3192 2110 0
-3193 3016 0
-3193 1888 0
-3163 3189 3190 3191 3192 3193 0
-3195 1906 0
-3195 3016 0
-3196 2128 0
-3196 2620 0
-3197 2580 0
-3197 2168 0
-3194 3195 3196 3197 0
-3198 1906 0
-3198 3016 0
-3199 2168 0
-3199 2580 0
-3200 2620 0
-3200 2128 0
-3194 3198 3199 3200 0
-3201 2128 0
-3201 2620 0
-3202 2168 0
-3202 2580 0
-3203 3016 0
-3203 1906 0
-3194 3201 3202 3203 0
-3204 2580 0
-3204 2168 0
-3205 2620 0
-3205 2128 0
-3206 3016 0
-3206 1906 0
-3194 3204 3205 3206 0
-3208 1871 0
-3208 3194 0
-3209 1877 0
-3209 3137 0
-3210 1894 0
-3210 3067 0
-3211 2116 0
-3211 2671 0
-3212 2568 0
-3212 2219 0
-3207 3208 3209 3210 3211 3212 0
-3213 1871 0
-3213 3194 0
-3214 1875 0
-3214 3124 0
-3215 1892 0
-3215 3054 0
-3216 2114 0
-3216 2658 0
-3217 2566 0
-3217 2206 0
-3207 3213 3214 3215 3216 3217 0
-3218 1877 0
-3218 3137 0
-3219 1875 0
-3219 3124 0
-3220 1906 0
-3220 3014 0
-3221 2128 0
-3221 2618 0
-3222 2580 0
-3222 2166 0
-3207 3218 3219 3220 3221 3222 0
-3223 1894 0
-3223 3067 0
-3224 1892 0
-3224 3054 0
-3225 1906 0
-3225 3014 0
-3226 2168 0
-3226 2578 0
-3227 2620 0
-3227 2126 0
-3207 3223 3224 3225 3226 3227 0
-3228 2116 0
-3228 2671 0
-3229 2114 0
-3229 2658 0
-3230 2128 0
-3230 2618 0
-3231 2168 0
-3231 2578 0
-3232 3016 0
-3232 1904 0
-3207 3228 3229 3230 3231 3232 0
-3233 2568 0
-3233 2219 0
-3234 2566 0
-3234 2206 0
-3235 2580 0
-3235 2166 0
-3236 2620 0
-3236 2126 0
-3237 3016 0
-3237 1904 0
-3207 3233 3234 3235 3236 3237 0
-3239 1874 0
-3239 3194 0
-3240 1877 0
-3240 3150 0
-3241 1894 0
-3241 3080 0
-3242 2116 0
-3242 2684 0
-3243 2568 0
-3243 2232 0
-3238 3239 3240 3241 3242 3243 0
-3244 1874 0
-3244 3194 0
-3245 1872 0
-3245 3124 0
-3246 1890 0
-3246 3054 0
-3247 2112 0
-3247 2658 0
-3248 2564 0
-3248 2206 0
-3238 3244 3245 3246 3247 3248 0
-3249 1877 0
-3249 3150 0
-3250 1872 0
-3250 3124 0
-3251 1906 0
-3251 3028 0
-3252 2128 0
-3252 2632 0
-3253 2580 0
-3253 2180 0
-3238 3249 3250 3251 3252 3253 0
-3254 1894 0
-3254 3080 0
-3255 1890 0
-3255 3054 0
-3256 1906 0
-3256 3028 0
-3257 2168 0
-3257 2592 0
-3258 2620 0
-3258 2140 0
-3238 3254 3255 3256 3257 3258 0
-3259 2116 0
-3259 2684 0
-3260 2112 0
-3260 2658 0
-3261 2128 0
-3261 2632 0
-3262 2168 0
-3262 2592 0
-3263 3016 0
-3263 1918 0
-3238 3259 3260 3261 3262 3263 0
-3264 2568 0
-3264 2232 0
-3265 2564 0
-3265 2206 0
-3266 2580 0
-3266 2180 0
-3267 2620 0
-3267 2140 0
-3268 3016 0
-3268 1918 0
-3238 3264 3265 3266 3267 3268 0
-3270 1878 0
-3270 3194 0
-3271 1875 0
-3271 3150 0
-3272 1892 0
-3272 3080 0
-3273 2114 0
-3273 2684 0
-3274 2566 0
-3274 2232 0
-3269 3270 3271 3272 3273 3274 0
-3275 1878 0
-3275 3194 0
-3276 1872 0
-3276 3137 0
-3277 1890 0
-3277 3067 0
-3278 2112 0
-3278 2671 0
-3279 2564 0
-3279 2219 0
-3269 3275 3276 3277 3278 3279 0
-3280 1875 0
-3280 3150 0
-3281 1872 0
-3281 3137 0
-3282 1906 0
-3282 3041 0
-3283 2128 0
-3283 2645 0
-3284 2580 0
-3284 2193 0
-3269 3280 3281 3282 3283 3284 0
-3285 1892 0
-3285 3080 0
-3286 1890 0
-3286 3067 0
-3287 1906 0
-3287 3041 0
-3288 2168 0
-3288 2605 0
-3289 2620 0
-3289 2153 0
-3269 3285 3286 3287 3288 3289 0
-3290 2114 0
-3290 2684 0
-3291 2112 0
-3291 2671 0
-3292 2128 0
-3292 2645 0
-3293 2168 0
-3293 2605 0
-3294 3016 0
-3294 1931 0
-3269 3290 3291 3292 3293 3294 0
-3295 2566 0
-3295 2232 0
-3296 2564 0
-3296 2219 0
-3297 2580 0
-3297 2193 0
-3298 2620 0
-3298 2153 0
-3299 3016 0
-3299 1931 0
-3269 3295 3296 3297 3298 3299 0
-3301 1950 0
-3301 3016 0
-3302 2116 0
-3302 2730 0
-3303 2568 0
-3303 2278 0
-3300 3301 3302 3303 0
-3304 1950 0
-3304 3016 0
-3305 2278 0
-3305 2568 0
-3306 2730 0
-3306 2116 0
-3300 3304 3305 3306 0
-3307 2116 0
-3307 2730 0
-3308 2278 0
-3308 2568 0
-3309 3016 0
-3309 1950 0
-3300 3307 3308 3309 0
-3310 2568 0
-3310 2278 0
-3311 2730 0
-3311 2116 0
-3312 3016 0
-3312 1950 0
-3300 3310 3311 3312 0
-3314 1948 0
-3314 3016 0
-3315 2114 0
-3315 2730 0
-3316 2566 0
-3316 2278 0
-3313 3314 3315 3316 0
-3317 1948 0
-3317 3016 0
-3318 2278 0
-3318 2566 0
-3319 2730 0
-3319 2114 0
-3313 3317 3318 3319 0
-3320 2114 0
-3320 2730 0
-3321 2278 0
-3321 2566 0
-3322 3016 0
-3322 1948 0
-3313 3320 3321 3322 0
-3323 2566 0
-3323 2278 0
-3324 2730 0
-3324 2114 0
-3325 3016 0
-3325 1948 0
-3313 3323 3324 3325 0
-3327 1946 0
-3327 3016 0
-3328 2112 0
-3328 2730 0
-3329 2564 0
-3329 2278 0
-3326 3327 3328 3329 0
-3330 1946 0
-3330 3016 0
-3331 2278 0
-3331 2564 0
-3332 2730 0
-3332 2112 0
-3326 3330 3331 3332 0
-3333 2112 0
-3333 2730 0
-3334 2278 0
-3334 2564 0
-3335 3016 0
-3335 1946 0
-3326 3333 3334 3335 0
-3336 2564 0
-3336 2278 0
-3337 2730 0
-3337 2112 0
-3338 3016 0
-3338 1946 0
-3326 3336 3337 3338 0
-3340 1871 0
-3340 3326 0
-3341 1874 0
-3341 3313 0
-3342 1950 0
-3342 3041 0
-3343 2116 0
-3343 2755 0
-3344 2568 0
-3344 2303 0
-3339 3340 3341 3342 3343 3344 0
-3345 1871 0
-3345 3326 0
-3346 1878 0
-3346 3300 0
-3347 1948 0
-3347 3028 0
-3348 2114 0
-3348 2742 0
-3349 2566 0
-3349 2290 0
-3339 3345 3346 3347 3348 3349 0
-3350 1874 0
-3350 3313 0
-3351 1878 0
-3351 3300 0
-3352 1946 0
-3352 3014 0
-3353 2112 0
-3353 2728 0
-3354 2564 0
-3354 2276 0
-3339 3350 3351 3352 3353 3354 0
-3355 1950 0
-3355 3041 0
-3356 1948 0
-3356 3028 0
-3357 1946 0
-3357 3014 0
-3358 2278 0
-3358 2562 0
-3359 2730 0
-3359 2110 0
-3339 3355 3356 3357 3358 3359 0
-3360 2116 0
-3360 2755 0
-3361 2114 0
-3361 2742 0
-3362 2112 0
-3362 2728 0
-3363 2278 0
-3363 2562 0
-3364 3016 0
-3364 1944 0
-3339 3360 3361 3362 3363 3364 0
-3365 2568 0
-3365 2303 0
-3366 2566 0
-3366 2290 0
-3367 2564 0
-3367 2276 0
-3368 2730 0
-3368 2110 0
-3369 3016 0
-3369 1944 0
-3339 3365 3366 3367 3368 3369 0
-3371 1962 0
-3371 3016 0
-3372 2128 0
-3372 2730 0
-3373 2580 0
-3373 2278 0
-3370 3371 3372 3373 0
-3374 1962 0
-3374 3016 0
-3375 2278 0
-3375 2580 0
-3376 2730 0
-3376 2128 0
-3370 3374 3375 3376 0
-3377 2128 0
-3377 2730 0
-3378 2278 0
-3378 2580 0
-3379 3016 0
-3379 1962 0
-3370 3377 3378 3379 0
-3380 2580 0
-3380 2278 0
-3381 2730 0
-3381 2128 0
-3382 3016 0
-3382 1962 0
-3370 3380 3381 3382 0
-3384 1871 0
-3384 3370 0
-3385 1877 0
-3385 3313 0
-3386 1950 0
-3386 3067 0
-3387 2116 0
-3387 2781 0
-3388 2568 0
-3388 2329 0
-3383 3384 3385 3386 3387 3388 0
-3389 1871 0
-3389 3370 0
-3390 1875 0
-3390 3300 0
-3391 1948 0
-3391 3054 0
-3392 2114 0
-3392 2768 0
-3393 2566 0
-3393 2316 0
-3383 3389 3390 3391 3392 3393 0
-3394 1877 0
-3394 3313 0
-3395 1875 0
-3395 3300 0
-3396 1962 0
-3396 3014 0
-3397 2128 0
-3397 2728 0
-3398 2580 0
-3398 2276 0
-3383 3394 3395 3396 3397 3398 0
-3399 1950 0
-3399 3067 0
-3400 1948 0
-3400 3054 0
-3401 1962 0
-3401 3014 0
-3402 2278 0
-3402 2578 0
-3403 2730 0
-3403 2126 0
-3383 3399 3400 3401 3402 3403 0
-3404 2116 0
-3404 2781 0
-3405 2114 0
-3405 2768 0
-3406 2128 0
-3406 2728 0
-3407 2278 0
-3407 2578 0
-3408 3016 0
-3408 1960 0
-3383 3404 3405 3406 3407 3408 0
-3409 2568 0
-3409 2329 0
-3410 2566 0
-3410 2316 0
-3411 2580 0
-3411 2276 0
-3412 2730 0
-3412 2126 0
-3413 3016 0
-3413 1960 0
-3383 3409 3410 3411 3412 3413 0
-3415 1874 0
-3415 3370 0
-3416 1877 0
-3416 3326 0
-3417 1950 0
-3417 3080 0
-3418 2116 0
-3418 2794 0
-3419 2568 0
-3419 2342 0
-3414 3415 3416 3417 3418 3419 0
-3420 1874 0
-3420 3370 0
-3421 1872 0
-3421 3300 0
-3422 1946 0
-3422 3054 0
-3423 2112 0
-3423 2768 0
-3424 2564 0
-3424 2316 0
-3414 3420 3421 3422 3423 3424 0
-3425 1877 0
-3425 3326 0
-3426 1872 0
-3426 3300 0
-3427 1962 0
-3427 3028 0
-3428 2128 0
-3428 2742 0
-3429 2580 0
-3429 2290 0
-3414 3425 3426 3427 3428 3429 0
-3430 1950 0
-3430 3080 0
-3431 1946 0
-3431 3054 0
-3432 1962 0
-3432 3028 0
-3433 2278 0
-3433 2592 0
-3434 2730 0
-3434 2140 0
-3414 3430 3431 3432 3433 3434 0
-3435 2116 0
-3435 2794 0
-3436 2112 0
-3436 2768 0
-3437 2128 0
-3437 2742 0
-3438 2278 0
-3438 2592 0
-3439 3016 0
-3439 1974 0
-3414 3435 3436 3437 3438 3439 0
-3440 2568 0
-3440 2342 0
-3441 2564 0
-3441 2316 0
-3442 2580 0
-3442 2290 0
-3443 2730 0
-3443 2140 0
-3444 3016 0
-3444 1974 0
-3414 3440 3441 3442 3443 3444 0
-3446 1878 0
-3446 3370 0
-3447 1875 0
-3447 3326 0
-3448 1948 0
-3448 3080 0
-3449 2114 0
-3449 2794 0
-3450 2566 0
-3450 2342 0
-3445 3446 3447 3448 3449 3450 0
-3451 1878 0
-3451 3370 0
-3452 1872 0
-3452 3313 0
-3453 1946 0
-3453 3067 0
-3454 2112 0
-3454 2781 0
-3455 2564 0
-3455 2329 0
-3445 3451 3452 3453 3454 3455 0
-3456 1875 0
-3456 3326 0
-3457 1872 0
-3457 3313 0
-3458 1962 0
-3458 3041 0
-3459 2128 0
-3459 2755 0
-3460 2580 0
-3460 2303 0
-3445 3456 3457 3458 3459 3460 0
-3461 1948 0
-3461 3080 0
-3462 1946 0
-3462 3067 0
-3463 1962 0
-3463 3041 0
-3464 2278 0
-3464 2605 0
-3465 2730 0
-3465 2153 0
-3445 3461 3462 3463 3464 3465 0
-3466 2114 0
-3466 2794 0
-3467 2112 0
-3467 2781 0
-3468 2128 0
-3468 2755 0
-3469 2278 0
-3469 2605 0
-3470 3016 0
-3470 1987 0
-3445 3466 3467 3468 3469 3470 0
-3471 2566 0
-3471 2342 0
-3472 2564 0
-3472 2329 0
-3473 2580 0
-3473 2303 0
-3474 2730 0
-3474 2153 0
-3475 3016 0
-3475 1987 0
-3445 3471 3472 3473 3474 3475 0
-3477 2002 0
-3477 3016 0
-3478 2168 0
-3478 2730 0
-3479 2620 0
-3479 2278 0
-3476 3477 3478 3479 0
-3480 2002 0
-3480 3016 0
-3481 2278 0
-3481 2620 0
-3482 2730 0
-3482 2168 0
-3476 3480 3481 3482 0
-3483 2168 0
-3483 2730 0
-3484 2278 0
-3484 2620 0
-3485 3016 0
-3485 2002 0
-3476 3483 3484 3485 0
-3486 2620 0
-3486 2278 0
-3487 2730 0
-3487 2168 0
-3488 3016 0
-3488 2002 0
-3476 3486 3487 3488 0
-3490 1871 0
-3490 3476 0
-3491 1894 0
-3491 3313 0
-3492 1950 0
-3492 3137 0
-3493 2116 0
-3493 2851 0
-3494 2568 0
-3494 2399 0
-3489 3490 3491 3492 3493 3494 0
-3495 1871 0
-3495 3476 0
-3496 1892 0
-3496 3300 0
-3497 1948 0
-3497 3124 0
-3498 2114 0
-3498 2838 0
-3499 2566 0
-3499 2386 0
-3489 3495 3496 3497 3498 3499 0
-3500 1894 0
-3500 3313 0
-3501 1892 0
-3501 3300 0
-3502 2002 0
-3502 3014 0
-3503 2168 0
-3503 2728 0
-3504 2620 0
-3504 2276 0
-3489 3500 3501 3502 3503 3504 0
-3505 1950 0
-3505 3137 0
-3506 1948 0
-3506 3124 0
-3507 2002 0
-3507 3014 0
-3508 2278 0
-3508 2618 0
-3509 2730 0
-3509 2166 0
-3489 3505 3506 3507 3508 3509 0
-3510 2116 0
-3510 2851 0
-3511 2114 0
-3511 2838 0
-3512 2168 0
-3512 2728 0
-3513 2278 0
-3513 2618 0
-3514 3016 0
-3514 2000 0
-3489 3510 3511 3512 3513 3514 0
-3515 2568 0
-3515 2399 0
-3516 2566 0
-3516 2386 0
-3517 2620 0
-3517 2276 0
-3518 2730 0
-3518 2166 0
-3519 3016 0
-3519 2000 0
-3489 3515 3516 3517 3518 3519 0
-3521 1874 0
-3521 3476 0
-3522 1894 0
-3522 3326 0
-3523 1950 0
-3523 3150 0
-3524 2116 0
-3524 2864 0
-3525 2568 0
-3525 2412 0
-3520 3521 3522 3523 3524 3525 0
-3526 1874 0
-3526 3476 0
-3527 1890 0
-3527 3300 0
-3528 1946 0
-3528 3124 0
-3529 2112 0
-3529 2838 0
-3530 2564 0
-3530 2386 0
-3520 3526 3527 3528 3529 3530 0
-3531 1894 0
-3531 3326 0
-3532 1890 0
-3532 3300 0
-3533 2002 0
-3533 3028 0
-3534 2168 0
-3534 2742 0
-3535 2620 0
-3535 2290 0
-3520 3531 3532 3533 3534 3535 0
-3536 1950 0
-3536 3150 0
-3537 1946 0
-3537 3124 0
-3538 2002 0
-3538 3028 0
-3539 2278 0
-3539 2632 0
-3540 2730 0
-3540 2180 0
-3520 3536 3537 3538 3539 3540 0
-3541 2116 0
-3541 2864 0
-3542 2112 0
-3542 2838 0
-3543 2168 0
-3543 2742 0
-3544 2278 0
-3544 2632 0
-3545 3016 0
-3545 2014 0
-3520 3541 3542 3543 3544 3545 0
-3546 2568 0
-3546 2412 0
-3547 2564 0
-3547 2386 0
-3548 2620 0
-3548 2290 0
-3549 2730 0
-3549 2180 0
-3550 3016 0
-3550 2014 0
-3520 3546 3547 3548 3549 3550 0
-3552 1878 0
-3552 3476 0
-3553 1892 0
-3553 3326 0
-3554 1948 0
-3554 3150 0
-3555 2114 0
-3555 2864 0
-3556 2566 0
-3556 2412 0
-3551 3552 3553 3554 3555 3556 0
-3557 1878 0
-3557 3476 0
-3558 1890 0
-3558 3313 0
-3559 1946 0
-3559 3137 0
-3560 2112 0
-3560 2851 0
-3561 2564 0
-3561 2399 0
-3551 3557 3558 3559 3560 3561 0
-3562 1892 0
-3562 3326 0
-3563 1890 0
-3563 3313 0
-3564 2002 0
-3564 3041 0
-3565 2168 0
-3565 2755 0
-3566 2620 0
-3566 2303 0
-3551 3562 3563 3564 3565 3566 0
-3567 1948 0
-3567 3150 0
-3568 1946 0
-3568 3137 0
-3569 2002 0
-3569 3041 0
-3570 2278 0
-3570 2645 0
-3571 2730 0
-3571 2193 0
-3551 3567 3568 3569 3570 3571 0
-3572 2114 0
-3572 2864 0
-3573 2112 0
-3573 2851 0
-3574 2168 0
-3574 2755 0
-3575 2278 0
-3575 2645 0
-3576 3016 0
-3576 2027 0
-3551 3572 3573 3574 3575 3576 0
-3577 2566 0
-3577 2412 0
-3578 2564 0
-3578 2399 0
-3579 2620 0
-3579 2303 0
-3580 2730 0
-3580 2193 0
-3581 3016 0
-3581 2027 0
-3551 3577 3578 3579 3580 3581 0
-3583 1877 0
-3583 3476 0
-3584 1894 0
-3584 3370 0
-3585 1950 0
-3585 3194 0
-3586 2116 0
-3586 2908 0
-3587 2568 0
-3587 2456 0
-3582 3583 3584 3585 3586 3587 0
-3588 1877 0
-3588 3476 0
-3589 1906 0
-3589 3300 0
-3590 1962 0
-3590 3124 0
-3591 2128 0
-3591 2838 0
-3592 2580 0
-3592 2386 0
-3582 3588 3589 3590 3591 3592 0
-3593 1894 0
-3593 3370 0
-3594 1906 0
-3594 3300 0
-3595 2002 0
-3595 3054 0
-3596 2168 0
-3596 2768 0
-3597 2620 0
-3597 2316 0
-3582 3593 3594 3595 3596 3597 0
-3598 1950 0
-3598 3194 0
-3599 1962 0
-3599 3124 0
-3600 2002 0
-3600 3054 0
-3601 2278 0
-3601 2658 0
-3602 2730 0
-3602 2206 0
-3582 3598 3599 3600 3601 3602 0
-3603 2116 0
-3603 2908 0
-3604 2128 0
-3604 2838 0
-3605 2168 0
-3605 2768 0
-3606 2278 0
-3606 2658 0
-3607 3016 0
-3607 2040 0
-3582 3603 3604 3605 3606 3607 0
-3608 2568 0
-3608 2456 0
-3609 2580 0
-3609 2386 0
-3610 2620 0
-3610 2316 0
-3611 2730 0
-3611 2206 0
-3612 3016 0
-3612 2040 0
-3582 3608 3609 3610 3611 3612 0
-3614 1875 0
-3614 3476 0
-3615 1892 0
-3615 3370 0
-3616 1948 0
-3616 3194 0
-3617 2114 0
-3617 2908 0
-3618 2566 0
-3618 2456 0
-3613 3614 3615 3616 3617 3618 0
-3619 1875 0
-3619 3476 0
-3620 1906 0
-3620 3313 0
-3621 1962 0
-3621 3137 0
-3622 2128 0
-3622 2851 0
-3623 2580 0
-3623 2399 0
-3613 3619 3620 3621 3622 3623 0
-3624 1892 0
-3624 3370 0
-3625 1906 0
-3625 3313 0
-3626 2002 0
-3626 3067 0
-3627 2168 0
-3627 2781 0
-3628 2620 0
-3628 2329 0
-3613 3624 3625 3626 3627 3628 0
-3629 1948 0
-3629 3194 0
-3630 1962 0
-3630 3137 0
-3631 2002 0
-3631 3067 0
-3632 2278 0
-3632 2671 0
-3633 2730 0
-3633 2219 0
-3613 3629 3630 3631 3632 3633 0
-3634 2114 0
-3634 2908 0
-3635 2128 0
-3635 2851 0
-3636 2168 0
-3636 2781 0
-3637 2278 0
-3637 2671 0
-3638 3016 0
-3638 2053 0
-3613 3634 3635 3636 3637 3638 0
-3639 2566 0
-3639 2456 0
-3640 2580 0
-3640 2399 0
-3641 2620 0
-3641 2329 0
-3642 2730 0
-3642 2219 0
-3643 3016 0
-3643 2053 0
-3613 3639 3640 3641 3642 3643 0
-3645 1872 0
-3645 3476 0
-3646 1890 0
-3646 3370 0
-3647 1946 0
-3647 3194 0
-3648 2112 0
-3648 2908 0
-3649 2564 0
-3649 2456 0
-3644 3645 3646 3647 3648 3649 0
-3650 1872 0
-3650 3476 0
-3651 1906 0
-3651 3326 0
-3652 1962 0
-3652 3150 0
-3653 2128 0
-3653 2864 0
-3654 2580 0
-3654 2412 0
-3644 3650 3651 3652 3653 3654 0
-3655 1890 0
-3655 3370 0
-3656 1906 0
-3656 3326 0
-3657 2002 0
-3657 3080 0
-3658 2168 0
-3658 2794 0
-3659 2620 0
-3659 2342 0
-3644 3655 3656 3657 3658 3659 0
-3660 1946 0
-3660 3194 0
-3661 1962 0
-3661 3150 0
-3662 2002 0
-3662 3080 0
-3663 2278 0
-3663 2684 0
-3664 2730 0
-3664 2232 0
-3644 3660 3661 3662 3663 3664 0
-3665 2112 0
-3665 2908 0
-3666 2128 0
-3666 2864 0
-3667 2168 0
-3667 2794 0
-3668 2278 0
-3668 2684 0
-3669 3016 0
-3669 2066 0
-3644 3665 3666 3667 3668 3669 0
-3670 2564 0
-3670 2456 0
-3671 2580 0
-3671 2412 0
-3672 2620 0
-3672 2342 0
-3673 2730 0
-3673 2232 0
-3674 3016 0
-3674 2066 0
-3644 3670 3671 3672 3673 3674 0
-3675 1871 0
-3675 3644 0
-3676 1874 0
-3676 3613 0
-3677 1877 0
-3677 3551 0
-3678 1894 0
-3678 3445 0
-3679 1950 0
-3679 3269 0
-3680 2116 0
-3680 2983 0
-3681 2568 0
-3681 2531 0
-4 3675 3676 3677 3678 3679 3680 3681 0
-3682 1871 0
-3682 3644 0
-3683 1878 0
-3683 3582 0
-3684 1875 0
-3684 3520 0
-3685 1892 0
-3685 3414 0
-3686 1948 0
-3686 3238 0
-3687 2114 0
-3687 2952 0
-3688 2566 0
-3688 2500 0
-4 3682 3683 3684 3685 3686 3687 3688 0
-3689 1874 0
-3689 3613 0
-3690 1878 0
-3690 3582 0
-3691 1872 0
-3691 3489 0
-3692 1890 0
-3692 3383 0
-3693 1946 0
-3693 3207 0
-3694 2112 0
-3694 2921 0
-3695 2564 0
-3695 2469 0
-4 3689 3690 3691 3692 3693 3694 3695 0
-3696 1877 0
-3696 3551 0
-3697 1875 0
-3697 3520 0
-3698 1872 0
-3698 3489 0
-3699 1906 0
-3699 3339 0
-3700 1962 0
-3700 3163 0
-3701 2128 0
-3701 2877 0
-3702 2580 0
-3702 2425 0
-4 3696 3697 3698 3699 3700 3701 3702 0
-3703 1894 0
-3703 3445 0
-3704 1892 0
-3704 3414 0
-3705 1890 0
-3705 3383 0
-3706 1906 0
-3706 3339 0
-3707 2002 0
-3707 3093 0
-3708 2168 0
-3708 2807 0
-3709 2620 0
-3709 2355 0
-4 3703 3704 3705 3706 3707 3708 3709 0
-3710 1950 0
-3710 3269 0
-3711 1948 0
-3711 3238 0
-3712 1946 0
-3712 3207 0
-3713 1962 0
-3713 3163 0
-3714 2002 0
-3714 3093 0
-3715 2278 0
-3715 2697 0
-3716 2730 0
-3716 2245 0
-4 3710 3711 3712 3713 3714 3715 3716 0
-3717 2116 0
-3717 2983 0
-3718 2114 0
-3718 2952 0
-3719 2112 0
-3719 2921 0
-3720 2128 0
-3720 2877 0
-3721 2168 0
-3721 2807 0
-3722 2278 0
-3722 2697 0
-3723 3016 0
-3723 2079 0
-4 3717 3718 3719 3720 3721 3722 3723 0
-3724 2568 0
-3724 2531 0
-3725 2566 0
-3725 2500 0
-3726 2564 0
-3726 2469 0
-3727 2580 0
-3727 2425 0
-3728 2620 0
-3728 2355 0
-3729 2730 0
-3729 2245 0
-3730 3016 0
-3730 2079 0
-4 3724 3725 3726 3727 3728 3729 3730 0
-3732 3733 0
-3732 3734 0
-3735 3736 0
-3735 3737 0
-3738 3739 0
-3738 3740 0
-3731 3732 3735 3738 0
-3741 3733 0
-3741 3734 0
-3742 3740 0
-3742 3739 0
-3743 3737 0
-3743 3736 0
-3731 3741 3742 3743 0
-3744 3736 0
-3744 3737 0
-3745 3740 0
-3745 3739 0
-3746 3734 0
-3746 3733 0
-3731 3744 3745 3746 0
-3747 3739 0
-3747 3740 0
-3748 3737 0
-3748 3736 0
-3749 3734 0
-3749 3733 0
-3731 3747 3748 3749 0
-3751 3733 0
-3751 3752 0
-3753 3736 0
-3753 3754 0
-3755 3756 0
-3755 3740 0
-3750 3751 3753 3755 0
-3757 3733 0
-3757 3752 0
-3758 3740 0
-3758 3756 0
-3759 3754 0
-3759 3736 0
-3750 3757 3758 3759 0
-3760 3736 0
-3760 3754 0
-3761 3740 0
-3761 3756 0
-3762 3752 0
-3762 3733 0
-3750 3760 3761 3762 0
-3763 3756 0
-3763 3740 0
-3764 3754 0
-3764 3736 0
-3765 3752 0
-3765 3733 0
-3750 3763 3764 3765 0
-3767 3733 0
-3767 3768 0
-3769 3739 0
-3769 3754 0
-3770 3756 0
-3770 3737 0
-3766 3767 3769 3770 0
-3771 3733 0
-3771 3768 0
-3772 3737 0
-3772 3756 0
-3773 3754 0
-3773 3739 0
-3766 3771 3772 3773 0
-3774 3739 0
-3774 3754 0
-3775 3737 0
-3775 3756 0
-3776 3768 0
-3776 3733 0
-3766 3774 3775 3776 0
-3777 3756 0
-3777 3737 0
-3778 3754 0
-3778 3739 0
-3779 3768 0
-3779 3733 0
-3766 3777 3778 3779 0
-3781 3736 0
-3781 3768 0
-3782 3739 0
-3782 3752 0
-3783 3756 0
-3783 3734 0
-3780 3781 3782 3783 0
-3784 3736 0
-3784 3768 0
-3785 3734 0
-3785 3756 0
-3786 3752 0
-3786 3739 0
-3780 3784 3785 3786 0
-3787 3739 0
-3787 3752 0
-3788 3734 0
-3788 3756 0
-3789 3768 0
-3789 3736 0
-3780 3787 3788 3789 0
-3790 3756 0
-3790 3734 0
-3791 3752 0
-3791 3739 0
-3792 3768 0
-3792 3736 0
-3780 3790 3791 3792 0
-3794 3740 0
-3794 3768 0
-3795 3737 0
-3795 3752 0
-3796 3754 0
-3796 3734 0
-3793 3794 3795 3796 0
-3797 3740 0
-3797 3768 0
-3798 3734 0
-3798 3754 0
-3799 3752 0
-3799 3737 0
-3793 3797 3798 3799 0
-3800 3737 0
-3800 3752 0
-3801 3734 0
-3801 3754 0
-3802 3768 0
-3802 3740 0
-3793 3800 3801 3802 0
-3803 3754 0
-3803 3734 0
-3804 3752 0
-3804 3737 0
-3805 3768 0
-3805 3740 0
-3793 3803 3804 3805 0
-3807 3733 0
-3807 3808 0
-3809 3736 0
-3809 3810 0
-3811 3812 0
-3811 3740 0
-3806 3807 3809 3811 0
-3813 3733 0
-3813 3808 0
-3814 3740 0
-3814 3812 0
-3815 3810 0
-3815 3736 0
-3806 3813 3814 3815 0
-3816 3736 0
-3816 3810 0
-3817 3740 0
-3817 3812 0
-3818 3808 0
-3818 3733 0
-3806 3816 3817 3818 0
-3819 3812 0
-3819 3740 0
-3820 3810 0
-3820 3736 0
-3821 3808 0
-3821 3733 0
-3806 3819 3820 3821 0
-3823 3733 0
-3823 3824 0
-3825 3739 0
-3825 3810 0
-3826 3812 0
-3826 3737 0
-3822 3823 3825 3826 0
-3827 3733 0
-3827 3824 0
-3828 3737 0
-3828 3812 0
-3829 3810 0
-3829 3739 0
-3822 3827 3828 3829 0
-3830 3739 0
-3830 3810 0
-3831 3737 0
-3831 3812 0
-3832 3824 0
-3832 3733 0
-3822 3830 3831 3832 0
-3833 3812 0
-3833 3737 0
-3834 3810 0
-3834 3739 0
-3835 3824 0
-3835 3733 0
-3822 3833 3834 3835 0
-3837 3736 0
-3837 3824 0
-3838 3739 0
-3838 3808 0
-3839 3812 0
-3839 3734 0
-3836 3837 3838 3839 0
-3840 3736 0
-3840 3824 0
-3841 3734 0
-3841 3812 0
-3842 3808 0
-3842 3739 0
-3836 3840 3841 3842 0
-3843 3739 0
-3843 3808 0
-3844 3734 0
-3844 3812 0
-3845 3824 0
-3845 3736 0
-3836 3843 3844 3845 0
-3846 3812 0
-3846 3734 0
-3847 3808 0
-3847 3739 0
-3848 3824 0
-3848 3736 0
-3836 3846 3847 3848 0
-3850 3740 0
-3850 3824 0
-3851 3737 0
-3851 3808 0
-3852 3810 0
-3852 3734 0
-3849 3850 3851 3852 0
-3853 3740 0
-3853 3824 0
-3854 3734 0
-3854 3810 0
-3855 3808 0
-3855 3737 0
-3849 3853 3854 3855 0
-3856 3737 0
-3856 3808 0
-3857 3734 0
-3857 3810 0
-3858 3824 0
-3858 3740 0
-3849 3856 3857 3858 0
-3859 3810 0
-3859 3734 0
-3860 3808 0
-3860 3737 0
-3861 3824 0
-3861 3740 0
-3849 3859 3860 3861 0
-3863 3733 0
-3863 3864 0
-3865 3756 0
-3865 3810 0
-3866 3812 0
-3866 3754 0
-3862 3863 3865 3866 0
-3867 3733 0
-3867 3864 0
-3868 3754 0
-3868 3812 0
-3869 3810 0
-3869 3756 0
-3862 3867 3868 3869 0
-3870 3756 0
-3870 3810 0
-3871 3754 0
-3871 3812 0
-3872 3864 0
-3872 3733 0
-3862 3870 3871 3872 0
-3873 3812 0
-3873 3754 0
-3874 3810 0
-3874 3756 0
-3875 3864 0
-3875 3733 0
-3862 3873 3874 3875 0
-3877 3736 0
-3877 3864 0
-3878 3756 0
-3878 3808 0
-3879 3812 0
-3879 3752 0
-3876 3877 3878 3879 0
-3880 3736 0
-3880 3864 0
-3881 3752 0
-3881 3812 0
-3882 3808 0
-3882 3756 0
-3876 3880 3881 3882 0
-3883 3756 0
-3883 3808 0
-3884 3752 0
-3884 3812 0
-3885 3864 0
-3885 3736 0
-3876 3883 3884 3885 0
-3886 3812 0
-3886 3752 0
-3887 3808 0
-3887 3756 0
-3888 3864 0
-3888 3736 0
-3876 3886 3887 3888 0
-3890 3740 0
-3890 3864 0
-3891 3754 0
-3891 3808 0
-3892 3810 0
-3892 3752 0
-3889 3890 3891 3892 0
-3893 3740 0
-3893 3864 0
-3894 3752 0
-3894 3810 0
-3895 3808 0
-3895 3754 0
-3889 3893 3894 3895 0
-3896 3754 0
-3896 3808 0
-3897 3752 0
-3897 3810 0
-3898 3864 0
-3898 3740 0
-3889 3896 3897 3898 0
-3899 3810 0
-3899 3752 0
-3900 3808 0
-3900 3754 0
-3901 3864 0
-3901 3740 0
-3889 3899 3900 3901 0
-3903 3739 0
-3903 3864 0
-3904 3756 0
-3904 3824 0
-3905 3812 0
-3905 3768 0
-3902 3903 3904 3905 0
-3906 3739 0
-3906 3864 0
-3907 3768 0
-3907 3812 0
-3908 3824 0
-3908 3756 0
-3902 3906 3907 3908 0
-3909 3756 0
-3909 3824 0
-3910 3768 0
-3910 3812 0
-3911 3864 0
-3911 3739 0
-3902 3909 3910 3911 0
-3912 3812 0
-3912 3768 0
-3913 3824 0
-3913 3756 0
-3914 3864 0
-3914 3739 0
-3902 3912 3913 3914 0
-3916 3737 0
-3916 3864 0
-3917 3754 0
-3917 3824 0
-3918 3810 0
-3918 3768 0
-3915 3916 3917 3918 0
-3919 3737 0
-3919 3864 0
-3920 3768 0
-3920 3810 0
-3921 3824 0
-3921 3754 0
-3915 3919 3920 3921 0
-3922 3754 0
-3922 3824 0
-3923 3768 0
-3923 3810 0
-3924 3864 0
-3924 3737 0
-3915 3922 3923 3924 0
-3925 3810 0
-3925 3768 0
-3926 3824 0
-3926 3754 0
-3927 3864 0
-3927 3737 0
-3915 3925 3926 3927 0
-3929 3734 0
-3929 3864 0
-3930 3752 0
-3930 3824 0
-3931 3808 0
-3931 3768 0
-3928 3929 3930 3931 0
-3932 3734 0
-3932 3864 0
-3933 3768 0
-3933 3808 0
-3934 3824 0
-3934 3752 0
-3928 3932 3933 3934 0
-3935 3752 0
-3935 3824 0
-3936 3768 0
-3936 3808 0
-3937 3864 0
-3937 3734 0
-3928 3935 3936 3937 0
-3938 3808 0
-3938 3768 0
-3939 3824 0
-3939 3752 0
-3940 3864 0
-3940 3734 0
-3928 3938 3939 3940 0
-3942 3733 0
-3942 3928 0
-3943 3736 0
-3943 3915 0
-3944 3739 0
-3944 3889 0
-3945 3756 0
-3945 3849 0
-3946 3812 0
-3946 3793 0
-3941 3942 3943 3944 3945 3946 0
-3947 3733 0
-3947 3928 0
-3948 3740 0
-3948 3902 0
-3949 3737 0
-3949 3876 0
-3950 3754 0
-3950 3836 0
-3951 3810 0
-3951 3780 0
-3941 3947 3948 3949 3950 3951 0
-3952 3736 0
-3952 3915 0
-3953 3740 0
-3953 3902 0
-3954 3734 0
-3954 3862 0
-3955 3752 0
-3955 3822 0
-3956 3808 0
-3956 3766 0
-3941 3952 3953 3954 3955 3956 0
-3957 3739 0
-3957 3889 0
-3958 3737 0
-3958 3876 0
-3959 3734 0
-3959 3862 0
-3960 3768 0
-3960 3806 0
-3961 3824 0
-3961 3750 0
-3941 3957 3958 3959 3960 3961 0
-3962 3756 0
-3962 3849 0
-3963 3754 0
-3963 3836 0
-3964 3752 0
-3964 3822 0
-3965 3768 0
-3965 3806 0
-3966 3864 0
-3966 3731 0
-3941 3962 3963 3964 3965 3966 0
-3967 3812 0
-3967 3793 0
-3968 3810 0
-3968 3780 0
-3969 3808 0
-3969 3766 0
-3970 3824 0
-3970 3750 0
-3971 3864 0
-3971 3731 0
-3941 3967 3968 3969 3970 3971 0
-3973 3733 0
-3973 3974 0
-3975 3736 0
-3975 3976 0
-3977 3978 0
-3977 3740 0
-3972 3973 3975 3977 0
-3979 3733 0
-3979 3974 0
-3980 3740 0
-3980 3978 0
-3981 3976 0
-3981 3736 0
-3972 3979 3980 3981 0
-3982 3736 0
-3982 3976 0
-3983 3740 0
-3983 3978 0
-3984 3974 0
-3984 3733 0
-3972 3982 3983 3984 0
-3985 3978 0
-3985 3740 0
-3986 3976 0
-3986 3736 0
-3987 3974 0
-3987 3733 0
-3972 3985 3986 3987 0
-3989 3733 0
-3989 3990 0
-3991 3739 0
-3991 3976 0
-3992 3978 0
-3992 3737 0
-3988 3989 3991 3992 0
-3993 3733 0
-3993 3990 0
-3994 3737 0
-3994 3978 0
-3995 3976 0
-3995 3739 0
-3988 3993 3994 3995 0
-3996 3739 0
-3996 3976 0
-3997 3737 0
-3997 3978 0
-3998 3990 0
-3998 3733 0
-3988 3996 3997 3998 0
-3999 3978 0
-3999 3737 0
-4000 3976 0
-4000 3739 0
-4001 3990 0
-4001 3733 0
-3988 3999 4000 4001 0
-4003 3736 0
-4003 3990 0
-4004 3739 0
-4004 3974 0
-4005 3978 0
-4005 3734 0
-4002 4003 4004 4005 0
-4006 3736 0
-4006 3990 0
-4007 3734 0
-4007 3978 0
-4008 3974 0
-4008 3739 0
-4002 4006 4007 4008 0
-4009 3739 0
-4009 3974 0
-4010 3734 0
-4010 3978 0
-4011 3990 0
-4011 3736 0
-4002 4009 4010 4011 0
-4012 3978 0
-4012 3734 0
-4013 3974 0
-4013 3739 0
-4014 3990 0
-4014 3736 0
-4002 4012 4013 4014 0
-4016 3740 0
-4016 3990 0
-4017 3737 0
-4017 3974 0
-4018 3976 0
-4018 3734 0
-4015 4016 4017 4018 0
-4019 3740 0
-4019 3990 0
-4020 3734 0
-4020 3976 0
-4021 3974 0
-4021 3737 0
-4015 4019 4020 4021 0
-4022 3737 0
-4022 3974 0
-4023 3734 0
-4023 3976 0
-4024 3990 0
-4024 3740 0
-4015 4022 4023 4024 0
-4025 3976 0
-4025 3734 0
-4026 3974 0
-4026 3737 0
-4027 3990 0
-4027 3740 0
-4015 4025 4026 4027 0
-4029 3733 0
-4029 4030 0
-4031 3756 0
-4031 3976 0
-4032 3978 0
-4032 3754 0
-4028 4029 4031 4032 0
-4033 3733 0
-4033 4030 0
-4034 3754 0
-4034 3978 0
-4035 3976 0
-4035 3756 0
-4028 4033 4034 4035 0
-4036 3756 0
-4036 3976 0
-4037 3754 0
-4037 3978 0
-4038 4030 0
-4038 3733 0
-4028 4036 4037 4038 0
-4039 3978 0
-4039 3754 0
-4040 3976 0
-4040 3756 0
-4041 4030 0
-4041 3733 0
-4028 4039 4040 4041 0
-4043 3736 0
-4043 4030 0
-4044 3756 0
-4044 3974 0
-4045 3978 0
-4045 3752 0
-4042 4043 4044 4045 0
-4046 3736 0
-4046 4030 0
-4047 3752 0
-4047 3978 0
-4048 3974 0
-4048 3756 0
-4042 4046 4047 4048 0
-4049 3756 0
-4049 3974 0
-4050 3752 0
-4050 3978 0
-4051 4030 0
-4051 3736 0
-4042 4049 4050 4051 0
-4052 3978 0
-4052 3752 0
-4053 3974 0
-4053 3756 0
-4054 4030 0
-4054 3736 0
-4042 4052 4053 4054 0
-4056 3740 0
-4056 4030 0
-4057 3754 0
-4057 3974 0
-4058 3976 0
-4058 3752 0
-4055 4056 4057 4058 0
-4059 3740 0
-4059 4030 0
-4060 3752 0
-4060 3976 0
-4061 3974 0
-4061 3754 0
-4055 4059 4060 4061 0
-4062 3754 0
-4062 3974 0
-4063 3752 0
-4063 3976 0
-4064 4030 0
-4064 3740 0
-4055 4062 4063 4064 0
-4065 3976 0
-4065 3752 0
-4066 3974 0
-4066 3754 0
-4067 4030 0
-4067 3740 0
-4055 4065 4066 4067 0
-4069 3739 0
-4069 4030 0
-4070 3756 0
-4070 3990 0
-4071 3978 0
-4071 3768 0
-4068 4069 4070 4071 0
-4072 3739 0
-4072 4030 0
-4073 3768 0
-4073 3978 0
-4074 3990 0
-4074 3756 0
-4068 4072 4073 4074 0
-4075 3756 0
-4075 3990 0
-4076 3768 0
-4076 3978 0
-4077 4030 0
-4077 3739 0
-4068 4075 4076 4077 0
-4078 3978 0
-4078 3768 0
-4079 3990 0
-4079 3756 0
-4080 4030 0
-4080 3739 0
-4068 4078 4079 4080 0
-4082 3737 0
-4082 4030 0
-4083 3754 0
-4083 3990 0
-4084 3976 0
-4084 3768 0
-4081 4082 4083 4084 0
-4085 3737 0
-4085 4030 0
-4086 3768 0
-4086 3976 0
-4087 3990 0
-4087 3754 0
-4081 4085 4086 4087 0
-4088 3754 0
-4088 3990 0
-4089 3768 0
-4089 3976 0
-4090 4030 0
-4090 3737 0
-4081 4088 4089 4090 0
-4091 3976 0
-4091 3768 0
-4092 3990 0
-4092 3754 0
-4093 4030 0
-4093 3737 0
-4081 4091 4092 4093 0
-4095 3734 0
-4095 4030 0
-4096 3752 0
-4096 3990 0
-4097 3974 0
-4097 3768 0
-4094 4095 4096 4097 0
-4098 3734 0
-4098 4030 0
-4099 3768 0
-4099 3974 0
-4100 3990 0
-4100 3752 0
-4094 4098 4099 4100 0
-4101 3752 0
-4101 3990 0
-4102 3768 0
-4102 3974 0
-4103 4030 0
-4103 3734 0
-4094 4101 4102 4103 0
-4104 3974 0
-4104 3768 0
-4105 3990 0
-4105 3752 0
-4106 4030 0
-4106 3734 0
-4094 4104 4105 4106 0
-4108 3733 0
-4108 4094 0
-4109 3736 0
-4109 4081 0
-4110 3739 0
-4110 4055 0
-4111 3756 0
-4111 4015 0
-4112 3978 0
-4112 3793 0
-4107 4108 4109 4110 4111 4112 0
-4113 3733 0
-4113 4094 0
-4114 3740 0
-4114 4068 0
-4115 3737 0
-4115 4042 0
-4116 3754 0
-4116 4002 0
-4117 3976 0
-4117 3780 0
-4107 4113 4114 4115 4116 4117 0
-4118 3736 0
-4118 4081 0
-4119 3740 0
-4119 4068 0
-4120 3734 0
-4120 4028 0
-4121 3752 0
-4121 3988 0
-4122 3974 0
-4122 3766 0
-4107 4118 4119 4120 4121 4122 0
-4123 3739 0
-4123 4055 0
-4124 3737 0
-4124 4042 0
-4125 3734 0
-4125 4028 0
-4126 3768 0
-4126 3972 0
-4127 3990 0
-4127 3750 0
-4107 4123 4124 4125 4126 4127 0
-4128 3756 0
-4128 4015 0
-4129 3754 0
-4129 4002 0
-4130 3752 0
-4130 3988 0
-4131 3768 0
-4131 3972 0
-4132 4030 0
-4132 3731 0
-4107 4128 4129 4130 4131 4132 0
-4133 3978 0
-4133 3793 0
-4134 3976 0
-4134 3780 0
-4135 3974 0
-4135 3766 0
-4136 3990 0
-4136 3750 0
-4137 4030 0
-4137 3731 0
-4107 4133 4134 4135 4136 4137 0
-4139 3733 0
-4139 4140 0
-4141 3812 0
-4141 3976 0
-4142 3978 0
-4142 3810 0
-4138 4139 4141 4142 0
-4143 3733 0
-4143 4140 0
-4144 3810 0
-4144 3978 0
-4145 3976 0
-4145 3812 0
-4138 4143 4144 4145 0
-4146 3812 0
-4146 3976 0
-4147 3810 0
-4147 3978 0
-4148 4140 0
-4148 3733 0
-4138 4146 4147 4148 0
-4149 3978 0
-4149 3810 0
-4150 3976 0
-4150 3812 0
-4151 4140 0
-4151 3733 0
-4138 4149 4150 4151 0
-4153 3736 0
-4153 4140 0
-4154 3812 0
-4154 3974 0
-4155 3978 0
-4155 3808 0
-4152 4153 4154 4155 0
-4156 3736 0
-4156 4140 0
-4157 3808 0
-4157 3978 0
-4158 3974 0
-4158 3812 0
-4152 4156 4157 4158 0
-4159 3812 0
-4159 3974 0
-4160 3808 0
-4160 3978 0
-4161 4140 0
-4161 3736 0
-4152 4159 4160 4161 0
-4162 3978 0
-4162 3808 0
-4163 3974 0
-4163 3812 0
-4164 4140 0
-4164 3736 0
-4152 4162 4163 4164 0
-4166 3740 0
-4166 4140 0
-4167 3810 0
-4167 3974 0
-4168 3976 0
-4168 3808 0
-4165 4166 4167 4168 0
-4169 3740 0
-4169 4140 0
-4170 3808 0
-4170 3976 0
-4171 3974 0
-4171 3810 0
-4165 4169 4170 4171 0
-4172 3810 0
-4172 3974 0
-4173 3808 0
-4173 3976 0
-4174 4140 0
-4174 3740 0
-4165 4172 4173 4174 0
-4175 3976 0
-4175 3808 0
-4176 3974 0
-4176 3810 0
-4177 4140 0
-4177 3740 0
-4165 4175 4176 4177 0
-4179 3739 0
-4179 4140 0
-4180 3812 0
-4180 3990 0
-4181 3978 0
-4181 3824 0
-4178 4179 4180 4181 0
-4182 3739 0
-4182 4140 0
-4183 3824 0
-4183 3978 0
-4184 3990 0
-4184 3812 0
-4178 4182 4183 4184 0
-4185 3812 0
-4185 3990 0
-4186 3824 0
-4186 3978 0
-4187 4140 0
-4187 3739 0
-4178 4185 4186 4187 0
-4188 3978 0
-4188 3824 0
-4189 3990 0
-4189 3812 0
-4190 4140 0
-4190 3739 0
-4178 4188 4189 4190 0
-4192 3737 0
-4192 4140 0
-4193 3810 0
-4193 3990 0
-4194 3976 0
-4194 3824 0
-4191 4192 4193 4194 0
-4195 3737 0
-4195 4140 0
-4196 3824 0
-4196 3976 0
-4197 3990 0
-4197 3810 0
-4191 4195 4196 4197 0
-4198 3810 0
-4198 3990 0
-4199 3824 0
-4199 3976 0
-4200 4140 0
-4200 3737 0
-4191 4198 4199 4200 0
-4201 3976 0
-4201 3824 0
-4202 3990 0
-4202 3810 0
-4203 4140 0
-4203 3737 0
-4191 4201 4202 4203 0
-4205 3734 0
-4205 4140 0
-4206 3808 0
-4206 3990 0
-4207 3974 0
-4207 3824 0
-4204 4205 4206 4207 0
-4208 3734 0
-4208 4140 0
-4209 3824 0
-4209 3974 0
-4210 3990 0
-4210 3808 0
-4204 4208 4209 4210 0
-4211 3808 0
-4211 3990 0
-4212 3824 0
-4212 3974 0
-4213 4140 0
-4213 3734 0
-4204 4211 4212 4213 0
-4214 3974 0
-4214 3824 0
-4215 3990 0
-4215 3808 0
-4216 4140 0
-4216 3734 0
-4204 4214 4215 4216 0
-4218 3733 0
-4218 4204 0
-4219 3736 0
-4219 4191 0
-4220 3739 0
-4220 4165 0
-4221 3812 0
-4221 4015 0
-4222 3978 0
-4222 3849 0
-4217 4218 4219 4220 4221 4222 0
-4223 3733 0
-4223 4204 0
-4224 3740 0
-4224 4178 0
-4225 3737 0
-4225 4152 0
-4226 3810 0
-4226 4002 0
-4227 3976 0
-4227 3836 0
-4217 4223 4224 4225 4226 4227 0
-4228 3736 0
-4228 4191 0
-4229 3740 0
-4229 4178 0
-4230 3734 0
-4230 4138 0
-4231 3808 0
-4231 3988 0
-4232 3974 0
-4232 3822 0
-4217 4228 4229 4230 4231 4232 0
-4233 3739 0
-4233 4165 0
-4234 3737 0
-4234 4152 0
-4235 3734 0
-4235 4138 0
-4236 3824 0
-4236 3972 0
-4237 3990 0
-4237 3806 0
-4217 4233 4234 4235 4236 4237 0
-4238 3812 0
-4238 4015 0
-4239 3810 0
-4239 4002 0
-4240 3808 0
-4240 3988 0
-4241 3824 0
-4241 3972 0
-4242 4140 0
-4242 3731 0
-4217 4238 4239 4240 4241 4242 0
-4243 3978 0
-4243 3849 0
-4244 3976 0
-4244 3836 0
-4245 3974 0
-4245 3822 0
-4246 3990 0
-4246 3806 0
-4247 4140 0
-4247 3731 0
-4217 4243 4244 4245 4246 4247 0
-4249 3756 0
-4249 4140 0
-4250 3812 0
-4250 4030 0
-4251 3978 0
-4251 3864 0
-4248 4249 4250 4251 0
-4252 3756 0
-4252 4140 0
-4253 3864 0
-4253 3978 0
-4254 4030 0
-4254 3812 0
-4248 4252 4253 4254 0
-4255 3812 0
-4255 4030 0
-4256 3864 0
-4256 3978 0
-4257 4140 0
-4257 3756 0
-4248 4255 4256 4257 0
-4258 3978 0
-4258 3864 0
-4259 4030 0
-4259 3812 0
-4260 4140 0
-4260 3756 0
-4248 4258 4259 4260 0
-4262 3754 0
-4262 4140 0
-4263 3810 0
-4263 4030 0
-4264 3976 0
-4264 3864 0
-4261 4262 4263 4264 0
-4265 3754 0
-4265 4140 0
-4266 3864 0
-4266 3976 0
-4267 4030 0
-4267 3810 0
-4261 4265 4266 4267 0
-4268 3810 0
-4268 4030 0
-4269 3864 0
-4269 3976 0
-4270 4140 0
-4270 3754 0
-4261 4268 4269 4270 0
-4271 3976 0
-4271 3864 0
-4272 4030 0
-4272 3810 0
-4273 4140 0
-4273 3754 0
-4261 4271 4272 4273 0
-4275 3752 0
-4275 4140 0
-4276 3808 0
-4276 4030 0
-4277 3974 0
-4277 3864 0
-4274 4275 4276 4277 0
-4278 3752 0
-4278 4140 0
-4279 3864 0
-4279 3974 0
-4280 4030 0
-4280 3808 0
-4274 4278 4279 4280 0
-4281 3808 0
-4281 4030 0
-4282 3864 0
-4282 3974 0
-4283 4140 0
-4283 3752 0
-4274 4281 4282 4283 0
-4284 3974 0
-4284 3864 0
-4285 4030 0
-4285 3808 0
-4286 4140 0
-4286 3752 0
-4274 4284 4285 4286 0
-4288 3733 0
-4288 4274 0
-4289 3736 0
-4289 4261 0
-4290 3756 0
-4290 4165 0
-4291 3812 0
-4291 4055 0
-4292 3978 0
-4292 3889 0
-4287 4288 4289 4290 4291 4292 0
-4293 3733 0
-4293 4274 0
-4294 3740 0
-4294 4248 0
-4295 3754 0
-4295 4152 0
-4296 3810 0
-4296 4042 0
-4297 3976 0
-4297 3876 0
-4287 4293 4294 4295 4296 4297 0
-4298 3736 0
-4298 4261 0
-4299 3740 0
-4299 4248 0
-4300 3752 0
-4300 4138 0
-4301 3808 0
-4301 4028 0
-4302 3974 0
-4302 3862 0
-4287 4298 4299 4300 4301 4302 0
-4303 3756 0
-4303 4165 0
-4304 3754 0
-4304 4152 0
-4305 3752 0
-4305 4138 0
-4306 3864 0
-4306 3972 0
-4307 4030 0
-4307 3806 0
-4287 4303 4304 4305 4306 4307 0
-4308 3812 0
-4308 4055 0
-4309 3810 0
-4309 4042 0
-4310 3808 0
-4310 4028 0
-4311 3864 0
-4311 3972 0
-4312 4140 0
-4312 3750 0
-4287 4308 4309 4310 4311 4312 0
-4313 3978 0
-4313 3889 0
-4314 3976 0
-4314 3876 0
-4315 3974 0
-4315 3862 0
-4316 4030 0
-4316 3806 0
-4317 4140 0
-4317 3750 0
-4287 4313 4314 4315 4316 4317 0
-4319 3768 0
-4319 4140 0
-4320 3824 0
-4320 4030 0
-4321 3990 0
-4321 3864 0
-4318 4319 4320 4321 0
-4322 3768 0
-4322 4140 0
-4323 3864 0
-4323 3990 0
-4324 4030 0
-4324 3824 0
-4318 4322 4323 4324 0
-4325 3824 0
-4325 4030 0
-4326 3864 0
-4326 3990 0
-4327 4140 0
-4327 3768 0
-4318 4325 4326 4327 0
-4328 3990 0
-4328 3864 0
-4329 4030 0
-4329 3824 0
-4330 4140 0
-4330 3768 0
-4318 4328 4329 4330 0
-4332 3733 0
-4332 4318 0
-4333 3739 0
-4333 4261 0
-4334 3756 0
-4334 4191 0
-4335 3812 0
-4335 4081 0
-4336 3978 0
-4336 3915 0
-4331 4332 4333 4334 4335 4336 0
-4337 3733 0
-4337 4318 0
-4338 3737 0
-4338 4248 0
-4339 3754 0
-4339 4178 0
-4340 3810 0
-4340 4068 0
-4341 3976 0
-4341 3902 0
-4331 4337 4338 4339 4340 4341 0
-4342 3739 0
-4342 4261 0
-4343 3737 0
-4343 4248 0
-4344 3768 0
-4344 4138 0
-4345 3824 0
-4345 4028 0
-4346 3990 0
-4346 3862 0
-4331 4342 4343 4344 4345 4346 0
-4347 3756 0
-4347 4191 0
-4348 3754 0
-4348 4178 0
-4349 3768 0
-4349 4138 0
-4350 3864 0
-4350 3988 0
-4351 4030 0
-4351 3822 0
-4331 4347 4348 4349 4350 4351 0
-4352 3812 0
-4352 4081 0
-4353 3810 0
-4353 4068 0
-4354 3824 0
-4354 4028 0
-4355 3864 0
-4355 3988 0
-4356 4140 0
-4356 3766 0
-4331 4352 4353 4354 4355 4356 0
-4357 3978 0
-4357 3915 0
-4358 3976 0
-4358 3902 0
-4359 3990 0
-4359 3862 0
-4360 4030 0
-4360 3822 0
-4361 4140 0
-4361 3766 0
-4331 4357 4358 4359 4360 4361 0
-4363 3736 0
-4363 4318 0
-4364 3739 0
-4364 4274 0
-4365 3756 0
-4365 4204 0
-4366 3812 0
-4366 4094 0
-4367 3978 0
-4367 3928 0
-4362 4363 4364 4365 4366 4367 0
-4368 3736 0
-4368 4318 0
-4369 3734 0
-4369 4248 0
-4370 3752 0
-4370 4178 0
-4371 3808 0
-4371 4068 0
-4372 3974 0
-4372 3902 0
-4362 4368 4369 4370 4371 4372 0
-4373 3739 0
-4373 4274 0
-4374 3734 0
-4374 4248 0
-4375 3768 0
-4375 4152 0
-4376 3824 0
-4376 4042 0
-4377 3990 0
-4377 3876 0
-4362 4373 4374 4375 4376 4377 0
-4378 3756 0
-4378 4204 0
-4379 3752 0
-4379 4178 0
-4380 3768 0
-4380 4152 0
-4381 3864 0
-4381 4002 0
-4382 4030 0
-4382 3836 0
-4362 4378 4379 4380 4381 4382 0
-4383 3812 0
-4383 4094 0
-4384 3808 0
-4384 4068 0
-4385 3824 0
-4385 4042 0
-4386 3864 0
-4386 4002 0
-4387 4140 0
-4387 3780 0
-4362 4383 4384 4385 4386 4387 0
-4388 3978 0
-4388 3928 0
-4389 3974 0
-4389 3902 0
-4390 3990 0
-4390 3876 0
-4391 4030 0
-4391 3836 0
-4392 4140 0
-4392 3780 0
-4362 4388 4389 4390 4391 4392 0
-4394 3740 0
-4394 4318 0
-4395 3737 0
-4395 4274 0
-4396 3754 0
-4396 4204 0
-4397 3810 0
-4397 4094 0
-4398 3976 0
-4398 3928 0
-4393 4394 4395 4396 4397 4398 0
-4399 3740 0
-4399 4318 0
-4400 3734 0
-4400 4261 0
-4401 3752 0
-4401 4191 0
-4402 3808 0
-4402 4081 0
-4403 3974 0
-4403 3915 0
-4393 4399 4400 4401 4402 4403 0
-4404 3737 0
-4404 4274 0
-4405 3734 0
-4405 4261 0
-4406 3768 0
-4406 4165 0
-4407 3824 0
-4407 4055 0
-4408 3990 0
-4408 3889 0
-4393 4404 4405 4406 4407 4408 0
-4409 3754 0
-4409 4204 0
-4410 3752 0
-4410 4191 0
-4411 3768 0
-4411 4165 0
-4412 3864 0
-4412 4015 0
-4413 4030 0
-4413 3849 0
-4393 4409 4410 4411 4412 4413 0
-4414 3810 0
-4414 4094 0
-4415 3808 0
-4415 4081 0
-4416 3824 0
-4416 4055 0
-4417 3864 0
-4417 4015 0
-4418 4140 0
-4418 3793 0
-4393 4414 4415 4416 4417 4418 0
-4419 3976 0
-4419 3928 0
-4420 3974 0
-4420 3915 0
-4421 3990 0
-4421 3889 0
-4422 4030 0
-4422 3849 0
-4423 4140 0
-4423 3793 0
-4393 4419 4420 4421 4422 4423 0
-4425 3733 0
-4425 4426 0
-4427 3736 0
-4427 4428 0
-4429 4430 0
-4429 3740 0
-4424 4425 4427 4429 0
-4431 3733 0
-4431 4426 0
-4432 3740 0
-4432 4430 0
-4433 4428 0
-4433 3736 0
-4424 4431 4432 4433 0
-4434 3736 0
-4434 4428 0
-4435 3740 0
-4435 4430 0
-4436 4426 0
-4436 3733 0
-4424 4434 4435 4436 0
-4437 4430 0
-4437 3740 0
-4438 4428 0
-4438 3736 0
-4439 4426 0
-4439 3733 0
-4424 4437 4438 4439 0
-4441 3733 0
-4441 4442 0
-4443 3739 0
-4443 4428 0
-4444 4430 0
-4444 3737 0
-4440 4441 4443 4444 0
-4445 3733 0
-4445 4442 0
-4446 3737 0
-4446 4430 0
-4447 4428 0
-4447 3739 0
-4440 4445 4446 4447 0
-4448 3739 0
-4448 4428 0
-4449 3737 0
-4449 4430 0
-4450 4442 0
-4450 3733 0
-4440 4448 4449 4450 0
-4451 4430 0
-4451 3737 0
-4452 4428 0
-4452 3739 0
-4453 4442 0
-4453 3733 0
-4440 4451 4452 4453 0
-4455 3736 0
-4455 4442 0
-4456 3739 0
-4456 4426 0
-4457 4430 0
-4457 3734 0
-4454 4455 4456 4457 0
-4458 3736 0
-4458 4442 0
-4459 3734 0
-4459 4430 0
-4460 4426 0
-4460 3739 0
-4454 4458 4459 4460 0
-4461 3739 0
-4461 4426 0
-4462 3734 0
-4462 4430 0
-4463 4442 0
-4463 3736 0
-4454 4461 4462 4463 0
-4464 4430 0
-4464 3734 0
-4465 4426 0
-4465 3739 0
-4466 4442 0
-4466 3736 0
-4454 4464 4465 4466 0
-4468 3740 0
-4468 4442 0
-4469 3737 0
-4469 4426 0
-4470 4428 0
-4470 3734 0
-4467 4468 4469 4470 0
-4471 3740 0
-4471 4442 0
-4472 3734 0
-4472 4428 0
-4473 4426 0
-4473 3737 0
-4467 4471 4472 4473 0
-4474 3737 0
-4474 4426 0
-4475 3734 0
-4475 4428 0
-4476 4442 0
-4476 3740 0
-4467 4474 4475 4476 0
-4477 4428 0
-4477 3734 0
-4478 4426 0
-4478 3737 0
-4479 4442 0
-4479 3740 0
-4467 4477 4478 4479 0
-4481 3733 0
-4481 4482 0
-4483 3756 0
-4483 4428 0
-4484 4430 0
-4484 3754 0
-4480 4481 4483 4484 0
-4485 3733 0
-4485 4482 0
-4486 3754 0
-4486 4430 0
-4487 4428 0
-4487 3756 0
-4480 4485 4486 4487 0
-4488 3756 0
-4488 4428 0
-4489 3754 0
-4489 4430 0
-4490 4482 0
-4490 3733 0
-4480 4488 4489 4490 0
-4491 4430 0
-4491 3754 0
-4492 4428 0
-4492 3756 0
-4493 4482 0
-4493 3733 0
-4480 4491 4492 4493 0
-4495 3736 0
-4495 4482 0
-4496 3756 0
-4496 4426 0
-4497 4430 0
-4497 3752 0
-4494 4495 4496 4497 0
-4498 3736 0
-4498 4482 0
-4499 3752 0
-4499 4430 0
-4500 4426 0
-4500 3756 0
-4494 4498 4499 4500 0
-4501 3756 0
-4501 4426 0
-4502 3752 0
-4502 4430 0
-4503 4482 0
-4503 3736 0
-4494 4501 4502 4503 0
-4504 4430 0
-4504 3752 0
-4505 4426 0
-4505 3756 0
-4506 4482 0
-4506 3736 0
-4494 4504 4505 4506 0
-4508 3740 0
-4508 4482 0
-4509 3754 0
-4509 4426 0
-4510 4428 0
-4510 3752 0
-4507 4508 4509 4510 0
-4511 3740 0
-4511 4482 0
-4512 3752 0
-4512 4428 0
-4513 4426 0
-4513 3754 0
-4507 4511 4512 4513 0
-4514 3754 0
-4514 4426 0
-4515 3752 0
-4515 4428 0
-4516 4482 0
-4516 3740 0
-4507 4514 4515 4516 0
-4517 4428 0
-4517 3752 0
-4518 4426 0
-4518 3754 0
-4519 4482 0
-4519 3740 0
-4507 4517 4518 4519 0
-4521 3739 0
-4521 4482 0
-4522 3756 0
-4522 4442 0
-4523 4430 0
-4523 3768 0
-4520 4521 4522 4523 0
-4524 3739 0
-4524 4482 0
-4525 3768 0
-4525 4430 0
-4526 4442 0
-4526 3756 0
-4520 4524 4525 4526 0
-4527 3756 0
-4527 4442 0
-4528 3768 0
-4528 4430 0
-4529 4482 0
-4529 3739 0
-4520 4527 4528 4529 0
-4530 4430 0
-4530 3768 0
-4531 4442 0
-4531 3756 0
-4532 4482 0
-4532 3739 0
-4520 4530 4531 4532 0
-4534 3737 0
-4534 4482 0
-4535 3754 0
-4535 4442 0
-4536 4428 0
-4536 3768 0
-4533 4534 4535 4536 0
-4537 3737 0
-4537 4482 0
-4538 3768 0
-4538 4428 0
-4539 4442 0
-4539 3754 0
-4533 4537 4538 4539 0
-4540 3754 0
-4540 4442 0
-4541 3768 0
-4541 4428 0
-4542 4482 0
-4542 3737 0
-4533 4540 4541 4542 0
-4543 4428 0
-4543 3768 0
-4544 4442 0
-4544 3754 0
-4545 4482 0
-4545 3737 0
-4533 4543 4544 4545 0
-4547 3734 0
-4547 4482 0
-4548 3752 0
-4548 4442 0
-4549 4426 0
-4549 3768 0
-4546 4547 4548 4549 0
-4550 3734 0
-4550 4482 0
-4551 3768 0
-4551 4426 0
-4552 4442 0
-4552 3752 0
-4546 4550 4551 4552 0
-4553 3752 0
-4553 4442 0
-4554 3768 0
-4554 4426 0
-4555 4482 0
-4555 3734 0
-4546 4553 4554 4555 0
-4556 4426 0
-4556 3768 0
-4557 4442 0
-4557 3752 0
-4558 4482 0
-4558 3734 0
-4546 4556 4557 4558 0
-4560 3733 0
-4560 4546 0
-4561 3736 0
-4561 4533 0
-4562 3739 0
-4562 4507 0
-4563 3756 0
-4563 4467 0
-4564 4430 0
-4564 3793 0
-4559 4560 4561 4562 4563 4564 0
-4565 3733 0
-4565 4546 0
-4566 3740 0
-4566 4520 0
-4567 3737 0
-4567 4494 0
-4568 3754 0
-4568 4454 0
-4569 4428 0
-4569 3780 0
-4559 4565 4566 4567 4568 4569 0
-4570 3736 0
-4570 4533 0
-4571 3740 0
-4571 4520 0
-4572 3734 0
-4572 4480 0
-4573 3752 0
-4573 4440 0
-4574 4426 0
-4574 3766 0
-4559 4570 4571 4572 4573 4574 0
-4575 3739 0
-4575 4507 0
-4576 3737 0
-4576 4494 0
-4577 3734 0
-4577 4480 0
-4578 3768 0
-4578 4424 0
-4579 4442 0
-4579 3750 0
-4559 4575 4576 4577 4578 4579 0
-4580 3756 0
-4580 4467 0
-4581 3754 0
-4581 4454 0
-4582 3752 0
-4582 4440 0
-4583 3768 0
-4583 4424 0
-4584 4482 0
-4584 3731 0
-4559 4580 4581 4582 4583 4584 0
-4585 4430 0
-4585 3793 0
-4586 4428 0
-4586 3780 0
-4587 4426 0
-4587 3766 0
-4588 4442 0
-4588 3750 0
-4589 4482 0
-4589 3731 0
-4559 4585 4586 4587 4588 4589 0
-4591 3733 0
-4591 4592 0
-4593 3812 0
-4593 4428 0
-4594 4430 0
-4594 3810 0
-4590 4591 4593 4594 0
-4595 3733 0
-4595 4592 0
-4596 3810 0
-4596 4430 0
-4597 4428 0
-4597 3812 0
-4590 4595 4596 4597 0
-4598 3812 0
-4598 4428 0
-4599 3810 0
-4599 4430 0
-4600 4592 0
-4600 3733 0
-4590 4598 4599 4600 0
-4601 4430 0
-4601 3810 0
-4602 4428 0
-4602 3812 0
-4603 4592 0
-4603 3733 0
-4590 4601 4602 4603 0
-4605 3736 0
-4605 4592 0
-4606 3812 0
-4606 4426 0
-4607 4430 0
-4607 3808 0
-4604 4605 4606 4607 0
-4608 3736 0
-4608 4592 0
-4609 3808 0
-4609 4430 0
-4610 4426 0
-4610 3812 0
-4604 4608 4609 4610 0
-4611 3812 0
-4611 4426 0
-4612 3808 0
-4612 4430 0
-4613 4592 0
-4613 3736 0
-4604 4611 4612 4613 0
-4614 4430 0
-4614 3808 0
-4615 4426 0
-4615 3812 0
-4616 4592 0
-4616 3736 0
-4604 4614 4615 4616 0
-4618 3740 0
-4618 4592 0
-4619 3810 0
-4619 4426 0
-4620 4428 0
-4620 3808 0
-4617 4618 4619 4620 0
-4621 3740 0
-4621 4592 0
-4622 3808 0
-4622 4428 0
-4623 4426 0
-4623 3810 0
-4617 4621 4622 4623 0
-4624 3810 0
-4624 4426 0
-4625 3808 0
-4625 4428 0
-4626 4592 0
-4626 3740 0
-4617 4624 4625 4626 0
-4627 4428 0
-4627 3808 0
-4628 4426 0
-4628 3810 0
-4629 4592 0
-4629 3740 0
-4617 4627 4628 4629 0
-4631 3739 0
-4631 4592 0
-4632 3812 0
-4632 4442 0
-4633 4430 0
-4633 3824 0
-4630 4631 4632 4633 0
-4634 3739 0
-4634 4592 0
-4635 3824 0
-4635 4430 0
-4636 4442 0
-4636 3812 0
-4630 4634 4635 4636 0
-4637 3812 0
-4637 4442 0
-4638 3824 0
-4638 4430 0
-4639 4592 0
-4639 3739 0
-4630 4637 4638 4639 0
-4640 4430 0
-4640 3824 0
-4641 4442 0
-4641 3812 0
-4642 4592 0
-4642 3739 0
-4630 4640 4641 4642 0
-4644 3737 0
-4644 4592 0
-4645 3810 0
-4645 4442 0
-4646 4428 0
-4646 3824 0
-4643 4644 4645 4646 0
-4647 3737 0
-4647 4592 0
-4648 3824 0
-4648 4428 0
-4649 4442 0
-4649 3810 0
-4643 4647 4648 4649 0
-4650 3810 0
-4650 4442 0
-4651 3824 0
-4651 4428 0
-4652 4592 0
-4652 3737 0
-4643 4650 4651 4652 0
-4653 4428 0
-4653 3824 0
-4654 4442 0
-4654 3810 0
-4655 4592 0
-4655 3737 0
-4643 4653 4654 4655 0
-4657 3734 0
-4657 4592 0
-4658 3808 0
-4658 4442 0
-4659 4426 0
-4659 3824 0
-4656 4657 4658 4659 0
-4660 3734 0
-4660 4592 0
-4661 3824 0
-4661 4426 0
-4662 4442 0
-4662 3808 0
-4656 4660 4661 4662 0
-4663 3808 0
-4663 4442 0
-4664 3824 0
-4664 4426 0
-4665 4592 0
-4665 3734 0
-4656 4663 4664 4665 0
-4666 4426 0
-4666 3824 0
-4667 4442 0
-4667 3808 0
-4668 4592 0
-4668 3734 0
-4656 4666 4667 4668 0
-4670 3733 0
-4670 4656 0
-4671 3736 0
-4671 4643 0
-4672 3739 0
-4672 4617 0
-4673 3812 0
-4673 4467 0
-4674 4430 0
-4674 3849 0
-4669 4670 4671 4672 4673 4674 0
-4675 3733 0
-4675 4656 0
-4676 3740 0
-4676 4630 0
-4677 3737 0
-4677 4604 0
-4678 3810 0
-4678 4454 0
-4679 4428 0
-4679 3836 0
-4669 4675 4676 4677 4678 4679 0
-4680 3736 0
-4680 4643 0
-4681 3740 0
-4681 4630 0
-4682 3734 0
-4682 4590 0
-4683 3808 0
-4683 4440 0
-4684 4426 0
-4684 3822 0
-4669 4680 4681 4682 4683 4684 0
-4685 3739 0
-4685 4617 0
-4686 3737 0
-4686 4604 0
-4687 3734 0
-4687 4590 0
-4688 3824 0
-4688 4424 0
-4689 4442 0
-4689 3806 0
-4669 4685 4686 4687 4688 4689 0
-4690 3812 0
-4690 4467 0
-4691 3810 0
-4691 4454 0
-4692 3808 0
-4692 4440 0
-4693 3824 0
-4693 4424 0
-4694 4592 0
-4694 3731 0
-4669 4690 4691 4692 4693 4694 0
-4695 4430 0
-4695 3849 0
-4696 4428 0
-4696 3836 0
-4697 4426 0
-4697 3822 0
-4698 4442 0
-4698 3806 0
-4699 4592 0
-4699 3731 0
-4669 4695 4696 4697 4698 4699 0
-4701 3756 0
-4701 4592 0
-4702 3812 0
-4702 4482 0
-4703 4430 0
-4703 3864 0
-4700 4701 4702 4703 0
-4704 3756 0
-4704 4592 0
-4705 3864 0
-4705 4430 0
-4706 4482 0
-4706 3812 0
-4700 4704 4705 4706 0
-4707 3812 0
-4707 4482 0
-4708 3864 0
-4708 4430 0
-4709 4592 0
-4709 3756 0
-4700 4707 4708 4709 0
-4710 4430 0
-4710 3864 0
-4711 4482 0
-4711 3812 0
-4712 4592 0
-4712 3756 0
-4700 4710 4711 4712 0
-4714 3754 0
-4714 4592 0
-4715 3810 0
-4715 4482 0
-4716 4428 0
-4716 3864 0
-4713 4714 4715 4716 0
-4717 3754 0
-4717 4592 0
-4718 3864 0
-4718 4428 0
-4719 4482 0
-4719 3810 0
-4713 4717 4718 4719 0
-4720 3810 0
-4720 4482 0
-4721 3864 0
-4721 4428 0
-4722 4592 0
-4722 3754 0
-4713 4720 4721 4722 0
-4723 4428 0
-4723 3864 0
-4724 4482 0
-4724 3810 0
-4725 4592 0
-4725 3754 0
-4713 4723 4724 4725 0
-4727 3752 0
-4727 4592 0
-4728 3808 0
-4728 4482 0
-4729 4426 0
-4729 3864 0
-4726 4727 4728 4729 0
-4730 3752 0
-4730 4592 0
-4731 3864 0
-4731 4426 0
-4732 4482 0
-4732 3808 0
-4726 4730 4731 4732 0
-4733 3808 0
-4733 4482 0
-4734 3864 0
-4734 4426 0
-4735 4592 0
-4735 3752 0
-4726 4733 4734 4735 0
-4736 4426 0
-4736 3864 0
-4737 4482 0
-4737 3808 0
-4738 4592 0
-4738 3752 0
-4726 4736 4737 4738 0
-4740 3733 0
-4740 4726 0
-4741 3736 0
-4741 4713 0
-4742 3756 0
-4742 4617 0
-4743 3812 0
-4743 4507 0
-4744 4430 0
-4744 3889 0
-4739 4740 4741 4742 4743 4744 0
-4745 3733 0
-4745 4726 0
-4746 3740 0
-4746 4700 0
-4747 3754 0
-4747 4604 0
-4748 3810 0
-4748 4494 0
-4749 4428 0
-4749 3876 0
-4739 4745 4746 4747 4748 4749 0
-4750 3736 0
-4750 4713 0
-4751 3740 0
-4751 4700 0
-4752 3752 0
-4752 4590 0
-4753 3808 0
-4753 4480 0
-4754 4426 0
-4754 3862 0
-4739 4750 4751 4752 4753 4754 0
-4755 3756 0
-4755 4617 0
-4756 3754 0
-4756 4604 0
-4757 3752 0
-4757 4590 0
-4758 3864 0
-4758 4424 0
-4759 4482 0
-4759 3806 0
-4739 4755 4756 4757 4758 4759 0
-4760 3812 0
-4760 4507 0
-4761 3810 0
-4761 4494 0
-4762 3808 0
-4762 4480 0
-4763 3864 0
-4763 4424 0
-4764 4592 0
-4764 3750 0
-4739 4760 4761 4762 4763 4764 0
-4765 4430 0
-4765 3889 0
-4766 4428 0
-4766 3876 0
-4767 4426 0
-4767 3862 0
-4768 4482 0
-4768 3806 0
-4769 4592 0
-4769 3750 0
-4739 4765 4766 4767 4768 4769 0
-4771 3768 0
-4771 4592 0
-4772 3824 0
-4772 4482 0
-4773 4442 0
-4773 3864 0
-4770 4771 4772 4773 0
-4774 3768 0
-4774 4592 0
-4775 3864 0
-4775 4442 0
-4776 4482 0
-4776 3824 0
-4770 4774 4775 4776 0
-4777 3824 0
-4777 4482 0
-4778 3864 0
-4778 4442 0
-4779 4592 0
-4779 3768 0
-4770 4777 4778 4779 0
-4780 4442 0
-4780 3864 0
-4781 4482 0
-4781 3824 0
-4782 4592 0
-4782 3768 0
-4770 4780 4781 4782 0
-4784 3733 0
-4784 4770 0
-4785 3739 0
-4785 4713 0
-4786 3756 0
-4786 4643 0
-4787 3812 0
-4787 4533 0
-4788 4430 0
-4788 3915 0
-4783 4784 4785 4786 4787 4788 0
-4789 3733 0
-4789 4770 0
-4790 3737 0
-4790 4700 0
-4791 3754 0
-4791 4630 0
-4792 3810 0
-4792 4520 0
-4793 4428 0
-4793 3902 0
-4783 4789 4790 4791 4792 4793 0
-4794 3739 0
-4794 4713 0
-4795 3737 0
-4795 4700 0
-4796 3768 0
-4796 4590 0
-4797 3824 0
-4797 4480 0
-4798 4442 0
-4798 3862 0
-4783 4794 4795 4796 4797 4798 0
-4799 3756 0
-4799 4643 0
-4800 3754 0
-4800 4630 0
-4801 3768 0
-4801 4590 0
-4802 3864 0
-4802 4440 0
-4803 4482 0
-4803 3822 0
-4783 4799 4800 4801 4802 4803 0
-4804 3812 0
-4804 4533 0
-4805 3810 0
-4805 4520 0
-4806 3824 0
-4806 4480 0
-4807 3864 0
-4807 4440 0
-4808 4592 0
-4808 3766 0
-4783 4804 4805 4806 4807 4808 0
-4809 4430 0
-4809 3915 0
-4810 4428 0
-4810 3902 0
-4811 4442 0
-4811 3862 0
-4812 4482 0
-4812 3822 0
-4813 4592 0
-4813 3766 0
-4783 4809 4810 4811 4812 4813 0
-4815 3736 0
-4815 4770 0
-4816 3739 0
-4816 4726 0
-4817 3756 0
-4817 4656 0
-4818 3812 0
-4818 4546 0
-4819 4430 0
-4819 3928 0
-4814 4815 4816 4817 4818 4819 0
-4820 3736 0
-4820 4770 0
-4821 3734 0
-4821 4700 0
-4822 3752 0
-4822 4630 0
-4823 3808 0
-4823 4520 0
-4824 4426 0
-4824 3902 0
-4814 4820 4821 4822 4823 4824 0
-4825 3739 0
-4825 4726 0
-4826 3734 0
-4826 4700 0
-4827 3768 0
-4827 4604 0
-4828 3824 0
-4828 4494 0
-4829 4442 0
-4829 3876 0
-4814 4825 4826 4827 4828 4829 0
-4830 3756 0
-4830 4656 0
-4831 3752 0
-4831 4630 0
-4832 3768 0
-4832 4604 0
-4833 3864 0
-4833 4454 0
-4834 4482 0
-4834 3836 0
-4814 4830 4831 4832 4833 4834 0
-4835 3812 0
-4835 4546 0
-4836 3808 0
-4836 4520 0
-4837 3824 0
-4837 4494 0
-4838 3864 0
-4838 4454 0
-4839 4592 0
-4839 3780 0
-4814 4835 4836 4837 4838 4839 0
-4840 4430 0
-4840 3928 0
-4841 4426 0
-4841 3902 0
-4842 4442 0
-4842 3876 0
-4843 4482 0
-4843 3836 0
-4844 4592 0
-4844 3780 0
-4814 4840 4841 4842 4843 4844 0
-4846 3740 0
-4846 4770 0
-4847 3737 0
-4847 4726 0
-4848 3754 0
-4848 4656 0
-4849 3810 0
-4849 4546 0
-4850 4428 0
-4850 3928 0
-4845 4846 4847 4848 4849 4850 0
-4851 3740 0
-4851 4770 0
-4852 3734 0
-4852 4713 0
-4853 3752 0
-4853 4643 0
-4854 3808 0
-4854 4533 0
-4855 4426 0
-4855 3915 0
-4845 4851 4852 4853 4854 4855 0
-4856 3737 0
-4856 4726 0
-4857 3734 0
-4857 4713 0
-4858 3768 0
-4858 4617 0
-4859 3824 0
-4859 4507 0
-4860 4442 0
-4860 3889 0
-4845 4856 4857 4858 4859 4860 0
-4861 3754 0
-4861 4656 0
-4862 3752 0
-4862 4643 0
-4863 3768 0
-4863 4617 0
-4864 3864 0
-4864 4467 0
-4865 4482 0
-4865 3849 0
-4845 4861 4862 4863 4864 4865 0
-4866 3810 0
-4866 4546 0
-4867 3808 0
-4867 4533 0
-4868 3824 0
-4868 4507 0
-4869 3864 0
-4869 4467 0
-4870 4592 0
-4870 3793 0
-4845 4866 4867 4868 4869 4870 0
-4871 4428 0
-4871 3928 0
-4872 4426 0
-4872 3915 0
-4873 4442 0
-4873 3889 0
-4874 4482 0
-4874 3849 0
-4875 4592 0
-4875 3793 0
-4845 4871 4872 4873 4874 4875 0
-4877 3733 0
-4877 4878 0
-4879 3978 0
-4879 4428 0
-4880 4430 0
-4880 3976 0
-4876 4877 4879 4880 0
-4881 3733 0
-4881 4878 0
-4882 3976 0
-4882 4430 0
-4883 4428 0
-4883 3978 0
-4876 4881 4882 4883 0
-4884 3978 0
-4884 4428 0
-4885 3976 0
-4885 4430 0
-4886 4878 0
-4886 3733 0
-4876 4884 4885 4886 0
-4887 4430 0
-4887 3976 0
-4888 4428 0
-4888 3978 0
-4889 4878 0
-4889 3733 0
-4876 4887 4888 4889 0
-4891 3736 0
-4891 4878 0
-4892 3978 0
-4892 4426 0
-4893 4430 0
-4893 3974 0
-4890 4891 4892 4893 0
-4894 3736 0
-4894 4878 0
-4895 3974 0
-4895 4430 0
-4896 4426 0
-4896 3978 0
-4890 4894 4895 4896 0
-4897 3978 0
-4897 4426 0
-4898 3974 0
-4898 4430 0
-4899 4878 0
-4899 3736 0
-4890 4897 4898 4899 0
-4900 4430 0
-4900 3974 0
-4901 4426 0
-4901 3978 0
-4902 4878 0
-4902 3736 0
-4890 4900 4901 4902 0
-4904 3740 0
-4904 4878 0
-4905 3976 0
-4905 4426 0
-4906 4428 0
-4906 3974 0
-4903 4904 4905 4906 0
-4907 3740 0
-4907 4878 0
-4908 3974 0
-4908 4428 0
-4909 4426 0
-4909 3976 0
-4903 4907 4908 4909 0
-4910 3976 0
-4910 4426 0
-4911 3974 0
-4911 4428 0
-4912 4878 0
-4912 3740 0
-4903 4910 4911 4912 0
-4913 4428 0
-4913 3974 0
-4914 4426 0
-4914 3976 0
-4915 4878 0
-4915 3740 0
-4903 4913 4914 4915 0
-4917 3739 0
-4917 4878 0
-4918 3978 0
-4918 4442 0
-4919 4430 0
-4919 3990 0
-4916 4917 4918 4919 0
-4920 3739 0
-4920 4878 0
-4921 3990 0
-4921 4430 0
-4922 4442 0
-4922 3978 0
-4916 4920 4921 4922 0
-4923 3978 0
-4923 4442 0
-4924 3990 0
-4924 4430 0
-4925 4878 0
-4925 3739 0
-4916 4923 4924 4925 0
-4926 4430 0
-4926 3990 0
-4927 4442 0
-4927 3978 0
-4928 4878 0
-4928 3739 0
-4916 4926 4927 4928 0
-4930 3737 0
-4930 4878 0
-4931 3976 0
-4931 4442 0
-4932 4428 0
-4932 3990 0
-4929 4930 4931 4932 0
-4933 3737 0
-4933 4878 0
-4934 3990 0
-4934 4428 0
-4935 4442 0
-4935 3976 0
-4929 4933 4934 4935 0
-4936 3976 0
-4936 4442 0
-4937 3990 0
-4937 4428 0
-4938 4878 0
-4938 3737 0
-4929 4936 4937 4938 0
-4939 4428 0
-4939 3990 0
-4940 4442 0
-4940 3976 0
-4941 4878 0
-4941 3737 0
-4929 4939 4940 4941 0
-4943 3734 0
-4943 4878 0
-4944 3974 0
-4944 4442 0
-4945 4426 0
-4945 3990 0
-4942 4943 4944 4945 0
-4946 3734 0
-4946 4878 0
-4947 3990 0
-4947 4426 0
-4948 4442 0
-4948 3974 0
-4942 4946 4947 4948 0
-4949 3974 0
-4949 4442 0
-4950 3990 0
-4950 4426 0
-4951 4878 0
-4951 3734 0
-4942 4949 4950 4951 0
-4952 4426 0
-4952 3990 0
-4953 4442 0
-4953 3974 0
-4954 4878 0
-4954 3734 0
-4942 4952 4953 4954 0
-4956 3733 0
-4956 4942 0
-4957 3736 0
-4957 4929 0
-4958 3739 0
-4958 4903 0
-4959 3978 0
-4959 4467 0
-4960 4430 0
-4960 4015 0
-4955 4956 4957 4958 4959 4960 0
-4961 3733 0
-4961 4942 0
-4962 3740 0
-4962 4916 0
-4963 3737 0
-4963 4890 0
-4964 3976 0
-4964 4454 0
-4965 4428 0
-4965 4002 0
-4955 4961 4962 4963 4964 4965 0
-4966 3736 0
-4966 4929 0
-4967 3740 0
-4967 4916 0
-4968 3734 0
-4968 4876 0
-4969 3974 0
-4969 4440 0
-4970 4426 0
-4970 3988 0
-4955 4966 4967 4968 4969 4970 0
-4971 3739 0
-4971 4903 0
-4972 3737 0
-4972 4890 0
-4973 3734 0
-4973 4876 0
-4974 3990 0
-4974 4424 0
-4975 4442 0
-4975 3972 0
-4955 4971 4972 4973 4974 4975 0
-4976 3978 0
-4976 4467 0
-4977 3976 0
-4977 4454 0
-4978 3974 0
-4978 4440 0
-4979 3990 0
-4979 4424 0
-4980 4878 0
-4980 3731 0
-4955 4976 4977 4978 4979 4980 0
-4981 4430 0
-4981 4015 0
-4982 4428 0
-4982 4002 0
-4983 4426 0
-4983 3988 0
-4984 4442 0
-4984 3972 0
-4985 4878 0
-4985 3731 0
-4955 4981 4982 4983 4984 4985 0
-4987 3756 0
-4987 4878 0
-4988 3978 0
-4988 4482 0
-4989 4430 0
-4989 4030 0
-4986 4987 4988 4989 0
-4990 3756 0
-4990 4878 0
-4991 4030 0
-4991 4430 0
-4992 4482 0
-4992 3978 0
-4986 4990 4991 4992 0
-4993 3978 0
-4993 4482 0
-4994 4030 0
-4994 4430 0
-4995 4878 0
-4995 3756 0
-4986 4993 4994 4995 0
-4996 4430 0
-4996 4030 0
-4997 4482 0
-4997 3978 0
-4998 4878 0
-4998 3756 0
-4986 4996 4997 4998 0
-5000 3754 0
-5000 4878 0
-5001 3976 0
-5001 4482 0
-5002 4428 0
-5002 4030 0
-4999 5000 5001 5002 0
-5003 3754 0
-5003 4878 0
-5004 4030 0
-5004 4428 0
-5005 4482 0
-5005 3976 0
-4999 5003 5004 5005 0
-5006 3976 0
-5006 4482 0
-5007 4030 0
-5007 4428 0
-5008 4878 0
-5008 3754 0
-4999 5006 5007 5008 0
-5009 4428 0
-5009 4030 0
-5010 4482 0
-5010 3976 0
-5011 4878 0
-5011 3754 0
-4999 5009 5010 5011 0
-5013 3752 0
-5013 4878 0
-5014 3974 0
-5014 4482 0
-5015 4426 0
-5015 4030 0
-5012 5013 5014 5015 0
-5016 3752 0
-5016 4878 0
-5017 4030 0
-5017 4426 0
-5018 4482 0
-5018 3974 0
-5012 5016 5017 5018 0
-5019 3974 0
-5019 4482 0
-5020 4030 0
-5020 4426 0
-5021 4878 0
-5021 3752 0
-5012 5019 5020 5021 0
-5022 4426 0
-5022 4030 0
-5023 4482 0
-5023 3974 0
-5024 4878 0
-5024 3752 0
-5012 5022 5023 5024 0
-5026 3733 0
-5026 5012 0
-5027 3736 0
-5027 4999 0
-5028 3756 0
-5028 4903 0
-5029 3978 0
-5029 4507 0
-5030 4430 0
-5030 4055 0
-5025 5026 5027 5028 5029 5030 0
-5031 3733 0
-5031 5012 0
-5032 3740 0
-5032 4986 0
-5033 3754 0
-5033 4890 0
-5034 3976 0
-5034 4494 0
-5035 4428 0
-5035 4042 0
-5025 5031 5032 5033 5034 5035 0
-5036 3736 0
-5036 4999 0
-5037 3740 0
-5037 4986 0
-5038 3752 0
-5038 4876 0
-5039 3974 0
-5039 4480 0
-5040 4426 0
-5040 4028 0
-5025 5036 5037 5038 5039 5040 0
-5041 3756 0
-5041 4903 0
-5042 3754 0
-5042 4890 0
-5043 3752 0
-5043 4876 0
-5044 4030 0
-5044 4424 0
-5045 4482 0
-5045 3972 0
-5025 5041 5042 5043 5044 5045 0
-5046 3978 0
-5046 4507 0
-5047 3976 0
-5047 4494 0
-5048 3974 0
-5048 4480 0
-5049 4030 0
-5049 4424 0
-5050 4878 0
-5050 3750 0
-5025 5046 5047 5048 5049 5050 0
-5051 4430 0
-5051 4055 0
-5052 4428 0
-5052 4042 0
-5053 4426 0
-5053 4028 0
-5054 4482 0
-5054 3972 0
-5055 4878 0
-5055 3750 0
-5025 5051 5052 5053 5054 5055 0
-5057 3768 0
-5057 4878 0
-5058 3990 0
-5058 4482 0
-5059 4442 0
-5059 4030 0
-5056 5057 5058 5059 0
-5060 3768 0
-5060 4878 0
-5061 4030 0
-5061 4442 0
-5062 4482 0
-5062 3990 0
-5056 5060 5061 5062 0
-5063 3990 0
-5063 4482 0
-5064 4030 0
-5064 4442 0
-5065 4878 0
-5065 3768 0
-5056 5063 5064 5065 0
-5066 4442 0
-5066 4030 0
-5067 4482 0
-5067 3990 0
-5068 4878 0
-5068 3768 0
-5056 5066 5067 5068 0
-5070 3733 0
-5070 5056 0
-5071 3739 0
-5071 4999 0
-5072 3756 0
-5072 4929 0
-5073 3978 0
-5073 4533 0
-5074 4430 0
-5074 4081 0
-5069 5070 5071 5072 5073 5074 0
-5075 3733 0
-5075 5056 0
-5076 3737 0
-5076 4986 0
-5077 3754 0
-5077 4916 0
-5078 3976 0
-5078 4520 0
-5079 4428 0
-5079 4068 0
-5069 5075 5076 5077 5078 5079 0
-5080 3739 0
-5080 4999 0
-5081 3737 0
-5081 4986 0
-5082 3768 0
-5082 4876 0
-5083 3990 0
-5083 4480 0
-5084 4442 0
-5084 4028 0
-5069 5080 5081 5082 5083 5084 0
-5085 3756 0
-5085 4929 0
-5086 3754 0
-5086 4916 0
-5087 3768 0
-5087 4876 0
-5088 4030 0
-5088 4440 0
-5089 4482 0
-5089 3988 0
-5069 5085 5086 5087 5088 5089 0
-5090 3978 0
-5090 4533 0
-5091 3976 0
-5091 4520 0
-5092 3990 0
-5092 4480 0
-5093 4030 0
-5093 4440 0
-5094 4878 0
-5094 3766 0
-5069 5090 5091 5092 5093 5094 0
-5095 4430 0
-5095 4081 0
-5096 4428 0
-5096 4068 0
-5097 4442 0
-5097 4028 0
-5098 4482 0
-5098 3988 0
-5099 4878 0
-5099 3766 0
-5069 5095 5096 5097 5098 5099 0
-5101 3736 0
-5101 5056 0
-5102 3739 0
-5102 5012 0
-5103 3756 0
-5103 4942 0
-5104 3978 0
-5104 4546 0
-5105 4430 0
-5105 4094 0
-5100 5101 5102 5103 5104 5105 0
-5106 3736 0
-5106 5056 0
-5107 3734 0
-5107 4986 0
-5108 3752 0
-5108 4916 0
-5109 3974 0
-5109 4520 0
-5110 4426 0
-5110 4068 0
-5100 5106 5107 5108 5109 5110 0
-5111 3739 0
-5111 5012 0
-5112 3734 0
-5112 4986 0
-5113 3768 0
-5113 4890 0
-5114 3990 0
-5114 4494 0
-5115 4442 0
-5115 4042 0
-5100 5111 5112 5113 5114 5115 0
-5116 3756 0
-5116 4942 0
-5117 3752 0
-5117 4916 0
-5118 3768 0
-5118 4890 0
-5119 4030 0
-5119 4454 0
-5120 4482 0
-5120 4002 0
-5100 5116 5117 5118 5119 5120 0
-5121 3978 0
-5121 4546 0
-5122 3974 0
-5122 4520 0
-5123 3990 0
-5123 4494 0
-5124 4030 0
-5124 4454 0
-5125 4878 0
-5125 3780 0
-5100 5121 5122 5123 5124 5125 0
-5126 4430 0
-5126 4094 0
-5127 4426 0
-5127 4068 0
-5128 4442 0
-5128 4042 0
-5129 4482 0
-5129 4002 0
-5130 4878 0
-5130 3780 0
-5100 5126 5127 5128 5129 5130 0
-5132 3740 0
-5132 5056 0
-5133 3737 0
-5133 5012 0
-5134 3754 0
-5134 4942 0
-5135 3976 0
-5135 4546 0
-5136 4428 0
-5136 4094 0
-5131 5132 5133 5134 5135 5136 0
-5137 3740 0
-5137 5056 0
-5138 3734 0
-5138 4999 0
-5139 3752 0
-5139 4929 0
-5140 3974 0
-5140 4533 0
-5141 4426 0
-5141 4081 0
-5131 5137 5138 5139 5140 5141 0
-5142 3737 0
-5142 5012 0
-5143 3734 0
-5143 4999 0
-5144 3768 0
-5144 4903 0
-5145 3990 0
-5145 4507 0
-5146 4442 0
-5146 4055 0
-5131 5142 5143 5144 5145 5146 0
-5147 3754 0
-5147 4942 0
-5148 3752 0
-5148 4929 0
-5149 3768 0
-5149 4903 0
-5150 4030 0
-5150 4467 0
-5151 4482 0
-5151 4015 0
-5131 5147 5148 5149 5150 5151 0
-5152 3976 0
-5152 4546 0
-5153 3974 0
-5153 4533 0
-5154 3990 0
-5154 4507 0
-5155 4030 0
-5155 4467 0
-5156 4878 0
-5156 3793 0
-5131 5152 5153 5154 5155 5156 0
-5157 4428 0
-5157 4094 0
-5158 4426 0
-5158 4081 0
-5159 4442 0
-5159 4055 0
-5160 4482 0
-5160 4015 0
-5161 4878 0
-5161 3793 0
-5131 5157 5158 5159 5160 5161 0
-5163 3812 0
-5163 4878 0
-5164 3978 0
-5164 4592 0
-5165 4430 0
-5165 4140 0
-5162 5163 5164 5165 0
-5166 3812 0
-5166 4878 0
-5167 4140 0
-5167 4430 0
-5168 4592 0
-5168 3978 0
-5162 5166 5167 5168 0
-5169 3978 0
-5169 4592 0
-5170 4140 0
-5170 4430 0
-5171 4878 0
-5171 3812 0
-5162 5169 5170 5171 0
-5172 4430 0
-5172 4140 0
-5173 4592 0
-5173 3978 0
-5174 4878 0
-5174 3812 0
-5162 5172 5173 5174 0
-5176 3810 0
-5176 4878 0
-5177 3976 0
-5177 4592 0
-5178 4428 0
-5178 4140 0
-5175 5176 5177 5178 0
-5179 3810 0
-5179 4878 0
-5180 4140 0
-5180 4428 0
-5181 4592 0
-5181 3976 0
-5175 5179 5180 5181 0
-5182 3976 0
-5182 4592 0
-5183 4140 0
-5183 4428 0
-5184 4878 0
-5184 3810 0
-5175 5182 5183 5184 0
-5185 4428 0
-5185 4140 0
-5186 4592 0
-5186 3976 0
-5187 4878 0
-5187 3810 0
-5175 5185 5186 5187 0
-5189 3808 0
-5189 4878 0
-5190 3974 0
-5190 4592 0
-5191 4426 0
-5191 4140 0
-5188 5189 5190 5191 0
-5192 3808 0
-5192 4878 0
-5193 4140 0
-5193 4426 0
-5194 4592 0
-5194 3974 0
-5188 5192 5193 5194 0
-5195 3974 0
-5195 4592 0
-5196 4140 0
-5196 4426 0
-5197 4878 0
-5197 3808 0
-5188 5195 5196 5197 0
-5198 4426 0
-5198 4140 0
-5199 4592 0
-5199 3974 0
-5200 4878 0
-5200 3808 0
-5188 5198 5199 5200 0
-5202 3733 0
-5202 5188 0
-5203 3736 0
-5203 5175 0
-5204 3812 0
-5204 4903 0
-5205 3978 0
-5205 4617 0
-5206 4430 0
-5206 4165 0
-5201 5202 5203 5204 5205 5206 0
-5207 3733 0
-5207 5188 0
-5208 3740 0
-5208 5162 0
-5209 3810 0
-5209 4890 0
-5210 3976 0
-5210 4604 0
-5211 4428 0
-5211 4152 0
-5201 5207 5208 5209 5210 5211 0
-5212 3736 0
-5212 5175 0
-5213 3740 0
-5213 5162 0
-5214 3808 0
-5214 4876 0
-5215 3974 0
-5215 4590 0
-5216 4426 0
-5216 4138 0
-5201 5212 5213 5214 5215 5216 0
-5217 3812 0
-5217 4903 0
-5218 3810 0
-5218 4890 0
-5219 3808 0
-5219 4876 0
-5220 4140 0
-5220 4424 0
-5221 4592 0
-5221 3972 0
-5201 5217 5218 5219 5220 5221 0
-5222 3978 0
-5222 4617 0
-5223 3976 0
-5223 4604 0
-5224 3974 0
-5224 4590 0
-5225 4140 0
-5225 4424 0
-5226 4878 0
-5226 3806 0
-5201 5222 5223 5224 5225 5226 0
-5227 4430 0
-5227 4165 0
-5228 4428 0
-5228 4152 0
-5229 4426 0
-5229 4138 0
-5230 4592 0
-5230 3972 0
-5231 4878 0
-5231 3806 0
-5201 5227 5228 5229 5230 5231 0
-5233 3824 0
-5233 4878 0
-5234 3990 0
-5234 4592 0
-5235 4442 0
-5235 4140 0
-5232 5233 5234 5235 0
-5236 3824 0
-5236 4878 0
-5237 4140 0
-5237 4442 0
-5238 4592 0
-5238 3990 0
-5232 5236 5237 5238 0
-5239 3990 0
-5239 4592 0
-5240 4140 0
-5240 4442 0
-5241 4878 0
-5241 3824 0
-5232 5239 5240 5241 0
-5242 4442 0
-5242 4140 0
-5243 4592 0
-5243 3990 0
-5244 4878 0
-5244 3824 0
-5232 5242 5243 5244 0
-5246 3733 0
-5246 5232 0
-5247 3739 0
-5247 5175 0
-5248 3812 0
-5248 4929 0
-5249 3978 0
-5249 4643 0
-5250 4430 0
-5250 4191 0
-5245 5246 5247 5248 5249 5250 0
-5251 3733 0
-5251 5232 0
-5252 3737 0
-5252 5162 0
-5253 3810 0
-5253 4916 0
-5254 3976 0
-5254 4630 0
-5255 4428 0
-5255 4178 0
-5245 5251 5252 5253 5254 5255 0
-5256 3739 0
-5256 5175 0
-5257 3737 0
-5257 5162 0
-5258 3824 0
-5258 4876 0
-5259 3990 0
-5259 4590 0
-5260 4442 0
-5260 4138 0
-5245 5256 5257 5258 5259 5260 0
-5261 3812 0
-5261 4929 0
-5262 3810 0
-5262 4916 0
-5263 3824 0
-5263 4876 0
-5264 4140 0
-5264 4440 0
-5265 4592 0
-5265 3988 0
-5245 5261 5262 5263 5264 5265 0
-5266 3978 0
-5266 4643 0
-5267 3976 0
-5267 4630 0
-5268 3990 0
-5268 4590 0
-5269 4140 0
-5269 4440 0
-5270 4878 0
-5270 3822 0
-5245 5266 5267 5268 5269 5270 0
-5271 4430 0
-5271 4191 0
-5272 4428 0
-5272 4178 0
-5273 4442 0
-5273 4138 0
-5274 4592 0
-5274 3988 0
-5275 4878 0
-5275 3822 0
-5245 5271 5272 5273 5274 5275 0
-5277 3736 0
-5277 5232 0
-5278 3739 0
-5278 5188 0
-5279 3812 0
-5279 4942 0
-5280 3978 0
-5280 4656 0
-5281 4430 0
-5281 4204 0
-5276 5277 5278 5279 5280 5281 0
-5282 3736 0
-5282 5232 0
-5283 3734 0
-5283 5162 0
-5284 3808 0
-5284 4916 0
-5285 3974 0
-5285 4630 0
-5286 4426 0
-5286 4178 0
-5276 5282 5283 5284 5285 5286 0
-5287 3739 0
-5287 5188 0
-5288 3734 0
-5288 5162 0
-5289 3824 0
-5289 4890 0
-5290 3990 0
-5290 4604 0
-5291 4442 0
-5291 4152 0
-5276 5287 5288 5289 5290 5291 0
-5292 3812 0
-5292 4942 0
-5293 3808 0
-5293 4916 0
-5294 3824 0
-5294 4890 0
-5295 4140 0
-5295 4454 0
-5296 4592 0
-5296 4002 0
-5276 5292 5293 5294 5295 5296 0
-5297 3978 0
-5297 4656 0
-5298 3974 0
-5298 4630 0
-5299 3990 0
-5299 4604 0
-5300 4140 0
-5300 4454 0
-5301 4878 0
-5301 3836 0
-5276 5297 5298 5299 5300 5301 0
-5302 4430 0
-5302 4204 0
-5303 4426 0
-5303 4178 0
-5304 4442 0
-5304 4152 0
-5305 4592 0
-5305 4002 0
-5306 4878 0
-5306 3836 0
-5276 5302 5303 5304 5305 5306 0
-5308 3740 0
-5308 5232 0
-5309 3737 0
-5309 5188 0
-5310 3810 0
-5310 4942 0
-5311 3976 0
-5311 4656 0
-5312 4428 0
-5312 4204 0
-5307 5308 5309 5310 5311 5312 0
-5313 3740 0
-5313 5232 0
-5314 3734 0
-5314 5175 0
-5315 3808 0
-5315 4929 0
-5316 3974 0
-5316 4643 0
-5317 4426 0
-5317 4191 0
-5307 5313 5314 5315 5316 5317 0
-5318 3737 0
-5318 5188 0
-5319 3734 0
-5319 5175 0
-5320 3824 0
-5320 4903 0
-5321 3990 0
-5321 4617 0
-5322 4442 0
-5322 4165 0
-5307 5318 5319 5320 5321 5322 0
-5323 3810 0
-5323 4942 0
-5324 3808 0
-5324 4929 0
-5325 3824 0
-5325 4903 0
-5326 4140 0
-5326 4467 0
-5327 4592 0
-5327 4015 0
-5307 5323 5324 5325 5326 5327 0
-5328 3976 0
-5328 4656 0
-5329 3974 0
-5329 4643 0
-5330 3990 0
-5330 4617 0
-5331 4140 0
-5331 4467 0
-5332 4878 0
-5332 3849 0
-5307 5328 5329 5330 5331 5332 0
-5333 4428 0
-5333 4204 0
-5334 4426 0
-5334 4191 0
-5335 4442 0
-5335 4165 0
-5336 4592 0
-5336 4015 0
-5337 4878 0
-5337 3849 0
-5307 5333 5334 5335 5336 5337 0
-5339 3864 0
-5339 4878 0
-5340 4030 0
-5340 4592 0
-5341 4482 0
-5341 4140 0
-5338 5339 5340 5341 0
-5342 3864 0
-5342 4878 0
-5343 4140 0
-5343 4482 0
-5344 4592 0
-5344 4030 0
-5338 5342 5343 5344 0
-5345 4030 0
-5345 4592 0
-5346 4140 0
-5346 4482 0
-5347 4878 0
-5347 3864 0
-5338 5345 5346 5347 0
-5348 4482 0
-5348 4140 0
-5349 4592 0
-5349 4030 0
-5350 4878 0
-5350 3864 0
-5338 5348 5349 5350 0
-5352 3733 0
-5352 5338 0
-5353 3756 0
-5353 5175 0
-5354 3812 0
-5354 4999 0
-5355 3978 0
-5355 4713 0
-5356 4430 0
-5356 4261 0
-5351 5352 5353 5354 5355 5356 0
-5357 3733 0
-5357 5338 0
-5358 3754 0
-5358 5162 0
-5359 3810 0
-5359 4986 0
-5360 3976 0
-5360 4700 0
-5361 4428 0
-5361 4248 0
-5351 5357 5358 5359 5360 5361 0
-5362 3756 0
-5362 5175 0
-5363 3754 0
-5363 5162 0
-5364 3864 0
-5364 4876 0
-5365 4030 0
-5365 4590 0
-5366 4482 0
-5366 4138 0
-5351 5362 5363 5364 5365 5366 0
-5367 3812 0
-5367 4999 0
-5368 3810 0
-5368 4986 0
-5369 3864 0
-5369 4876 0
-5370 4140 0
-5370 4480 0
-5371 4592 0
-5371 4028 0
-5351 5367 5368 5369 5370 5371 0
-5372 3978 0
-5372 4713 0
-5373 3976 0
-5373 4700 0
-5374 4030 0
-5374 4590 0
-5375 4140 0
-5375 4480 0
-5376 4878 0
-5376 3862 0
-5351 5372 5373 5374 5375 5376 0
-5377 4430 0
-5377 4261 0
-5378 4428 0
-5378 4248 0
-5379 4482 0
-5379 4138 0
-5380 4592 0
-5380 4028 0
-5381 4878 0
-5381 3862 0
-5351 5377 5378 5379 5380 5381 0
-5383 3736 0
-5383 5338 0
-5384 3756 0
-5384 5188 0
-5385 3812 0
-5385 5012 0
-5386 3978 0
-5386 4726 0
-5387 4430 0
-5387 4274 0
-5382 5383 5384 5385 5386 5387 0
-5388 3736 0
-5388 5338 0
-5389 3752 0
-5389 5162 0
-5390 3808 0
-5390 4986 0
-5391 3974 0
-5391 4700 0
-5392 4426 0
-5392 4248 0
-5382 5388 5389 5390 5391 5392 0
-5393 3756 0
-5393 5188 0
-5394 3752 0
-5394 5162 0
-5395 3864 0
-5395 4890 0
-5396 4030 0
-5396 4604 0
-5397 4482 0
-5397 4152 0
-5382 5393 5394 5395 5396 5397 0
-5398 3812 0
-5398 5012 0
-5399 3808 0
-5399 4986 0
-5400 3864 0
-5400 4890 0
-5401 4140 0
-5401 4494 0
-5402 4592 0
-5402 4042 0
-5382 5398 5399 5400 5401 5402 0
-5403 3978 0
-5403 4726 0
-5404 3974 0
-5404 4700 0
-5405 4030 0
-5405 4604 0
-5406 4140 0
-5406 4494 0
-5407 4878 0
-5407 3876 0
-5382 5403 5404 5405 5406 5407 0
-5408 4430 0
-5408 4274 0
-5409 4426 0
-5409 4248 0
-5410 4482 0
-5410 4152 0
-5411 4592 0
-5411 4042 0
-5412 4878 0
-5412 3876 0
-5382 5408 5409 5410 5411 5412 0
-5414 3740 0
-5414 5338 0
-5415 3754 0
-5415 5188 0
-5416 3810 0
-5416 5012 0
-5417 3976 0
-5417 4726 0
-5418 4428 0
-5418 4274 0
-5413 5414 5415 5416 5417 5418 0
-5419 3740 0
-5419 5338 0
-5420 3752 0
-5420 5175 0
-5421 3808 0
-5421 4999 0
-5422 3974 0
-5422 4713 0
-5423 4426 0
-5423 4261 0
-5413 5419 5420 5421 5422 5423 0
-5424 3754 0
-5424 5188 0
-5425 3752 0
-5425 5175 0
-5426 3864 0
-5426 4903 0
-5427 4030 0
-5427 4617 0
-5428 4482 0
-5428 4165 0
-5413 5424 5425 5426 5427 5428 0
-5429 3810 0
-5429 5012 0
-5430 3808 0
-5430 4999 0
-5431 3864 0
-5431 4903 0
-5432 4140 0
-5432 4507 0
-5433 4592 0
-5433 4055 0
-5413 5429 5430 5431 5432 5433 0
-5434 3976 0
-5434 4726 0
-5435 3974 0
-5435 4713 0
-5436 4030 0
-5436 4617 0
-5437 4140 0
-5437 4507 0
-5438 4878 0
-5438 3889 0
-5413 5434 5435 5436 5437 5438 0
-5439 4428 0
-5439 4274 0
-5440 4426 0
-5440 4261 0
-5441 4482 0
-5441 4165 0
-5442 4592 0
-5442 4055 0
-5443 4878 0
-5443 3889 0
-5413 5439 5440 5441 5442 5443 0
-5445 3739 0
-5445 5338 0
-5446 3756 0
-5446 5232 0
-5447 3812 0
-5447 5056 0
-5448 3978 0
-5448 4770 0
-5449 4430 0
-5449 4318 0
-5444 5445 5446 5447 5448 5449 0
-5450 3739 0
-5450 5338 0
-5451 3768 0
-5451 5162 0
-5452 3824 0
-5452 4986 0
-5453 3990 0
-5453 4700 0
-5454 4442 0
-5454 4248 0
-5444 5450 5451 5452 5453 5454 0
-5455 3756 0
-5455 5232 0
-5456 3768 0
-5456 5162 0
-5457 3864 0
-5457 4916 0
-5458 4030 0
-5458 4630 0
-5459 4482 0
-5459 4178 0
-5444 5455 5456 5457 5458 5459 0
-5460 3812 0
-5460 5056 0
-5461 3824 0
-5461 4986 0
-5462 3864 0
-5462 4916 0
-5463 4140 0
-5463 4520 0
-5464 4592 0
-5464 4068 0
-5444 5460 5461 5462 5463 5464 0
-5465 3978 0
-5465 4770 0
-5466 3990 0
-5466 4700 0
-5467 4030 0
-5467 4630 0
-5468 4140 0
-5468 4520 0
-5469 4878 0
-5469 3902 0
-5444 5465 5466 5467 5468 5469 0
-5470 4430 0
-5470 4318 0
-5471 4442 0
-5471 4248 0
-5472 4482 0
-5472 4178 0
-5473 4592 0
-5473 4068 0
-5474 4878 0
-5474 3902 0
-5444 5470 5471 5472 5473 5474 0
-5476 3737 0
-5476 5338 0
-5477 3754 0
-5477 5232 0
-5478 3810 0
-5478 5056 0
-5479 3976 0
-5479 4770 0
-5480 4428 0
-5480 4318 0
-5475 5476 5477 5478 5479 5480 0
-5481 3737 0
-5481 5338 0
-5482 3768 0
-5482 5175 0
-5483 3824 0
-5483 4999 0
-5484 3990 0
-5484 4713 0
-5485 4442 0
-5485 4261 0
-5475 5481 5482 5483 5484 5485 0
-5486 3754 0
-5486 5232 0
-5487 3768 0
-5487 5175 0
-5488 3864 0
-5488 4929 0
-5489 4030 0
-5489 4643 0
-5490 4482 0
-5490 4191 0
-5475 5486 5487 5488 5489 5490 0
-5491 3810 0
-5491 5056 0
-5492 3824 0
-5492 4999 0
-5493 3864 0
-5493 4929 0
-5494 4140 0
-5494 4533 0
-5495 4592 0
-5495 4081 0
-5475 5491 5492 5493 5494 5495 0
-5496 3976 0
-5496 4770 0
-5497 3990 0
-5497 4713 0
-5498 4030 0
-5498 4643 0
-5499 4140 0
-5499 4533 0
-5500 4878 0
-5500 3915 0
-5475 5496 5497 5498 5499 5500 0
-5501 4428 0
-5501 4318 0
-5502 4442 0
-5502 4261 0
-5503 4482 0
-5503 4191 0
-5504 4592 0
-5504 4081 0
-5505 4878 0
-5505 3915 0
-5475 5501 5502 5503 5504 5505 0
-5507 3734 0
-5507 5338 0
-5508 3752 0
-5508 5232 0
-5509 3808 0
-5509 5056 0
-5510 3974 0
-5510 4770 0
-5511 4426 0
-5511 4318 0
-5506 5507 5508 5509 5510 5511 0
-5512 3734 0
-5512 5338 0
-5513 3768 0
-5513 5188 0
-5514 3824 0
-5514 5012 0
-5515 3990 0
-5515 4726 0
-5516 4442 0
-5516 4274 0
-5506 5512 5513 5514 5515 5516 0
-5517 3752 0
-5517 5232 0
-5518 3768 0
-5518 5188 0
-5519 3864 0
-5519 4942 0
-5520 4030 0
-5520 4656 0
-5521 4482 0
-5521 4204 0
-5506 5517 5518 5519 5520 5521 0
-5522 3808 0
-5522 5056 0
-5523 3824 0
-5523 5012 0
-5524 3864 0
-5524 4942 0
-5525 4140 0
-5525 4546 0
-5526 4592 0
-5526 4094 0
-5506 5522 5523 5524 5525 5526 0
-5527 3974 0
-5527 4770 0
-5528 3990 0
-5528 4726 0
-5529 4030 0
-5529 4656 0
-5530 4140 0
-5530 4546 0
-5531 4878 0
-5531 3928 0
-5506 5527 5528 5529 5530 5531 0
-5532 4426 0
-5532 4318 0
-5533 4442 0
-5533 4274 0
-5534 4482 0
-5534 4204 0
-5535 4592 0
-5535 4094 0
-5536 4878 0
-5536 3928 0
-5506 5532 5533 5534 5535 5536 0
-5537 3733 0
-5537 5506 0
-5538 3736 0
-5538 5475 0
-5539 3739 0
-5539 5413 0
-5540 3756 0
-5540 5307 0
-5541 3812 0
-5541 5131 0
-5542 3978 0
-5542 4845 0
-5543 4430 0
-5543 4393 0
-6 5537 5538 5539 5540 5541 5542 5543 0
-5544 3733 0
-5544 5506 0
-5545 3740 0
-5545 5444 0
-5546 3737 0
-5546 5382 0
-5547 3754 0
-5547 5276 0
-5548 3810 0
-5548 5100 0
-5549 3976 0
-5549 4814 0
-5550 4428 0
-5550 4362 0
-6 5544 5545 5546 5547 5548 5549 5550 0
-5551 3736 0
-5551 5475 0
-5552 3740 0
-5552 5444 0
-5553 3734 0
-5553 5351 0
-5554 3752 0
-5554 5245 0
-5555 3808 0
-5555 5069 0
-5556 3974 0
-5556 4783 0
-5557 4426 0
-5557 4331 0
-6 5551 5552 5553 5554 5555 5556 5557 0
-5558 3739 0
-5558 5413 0
-5559 3737 0
-5559 5382 0
-5560 3734 0
-5560 5351 0
-5561 3768 0
-5561 5201 0
-5562 3824 0
-5562 5025 0
-5563 3990 0
-5563 4739 0
-5564 4442 0
-5564 4287 0
-6 5558 5559 5560 5561 5562 5563 5564 0
-5565 3756 0
-5565 5307 0
-5566 3754 0
-5566 5276 0
-5567 3752 0
-5567 5245 0
-5568 3768 0
-5568 5201 0
-5569 3864 0
-5569 4955 0
-5570 4030 0
-5570 4669 0
-5571 4482 0
-5571 4217 0
-6 5565 5566 5567 5568 5569 5570 5571 0
-5572 3812 0
-5572 5131 0
-5573 3810 0
-5573 5100 0
-5574 3808 0
-5574 5069 0
-5575 3824 0
-5575 5025 0
-5576 3864 0
-5576 4955 0
-5577 4140 0
-5577 4559 0
-5578 4592 0
-5578 4107 0
-6 5572 5573 5574 5575 5576 5577 5578 0
-5579 3978 0
-5579 4845 0
-5580 3976 0
-5580 4814 0
-5581 3974 0
-5581 4783 0
-5582 3990 0
-5582 4739 0
-5583 4030 0
-5583 4669 0
-5584 4140 0
-5584 4559 0
-5585 4878 0
-5585 3941 0
-6 5579 5580 5581 5582 5583 5584 5585 0
-5586 4430 0
-5586 4393 0
-5587 4428 0
-5587 4362 0
-5588 4426 0
-5588 4331 0
-5589 4442 0
-5589 4287 0
-5590 4482 0
-5590 4217 0
-5591 4592 0
-5591 4107 0
-5592 4878 0
-5592 3941 0
-6 5586 5587 5588 5589 5590 5591 5592 0
-3644 -3733 0
-3613 -3736 0
-3582 -3740 0
-3551 -3739 0
-3520 -3737 0
-3489 -3734 0
-3476 -3731 0
-3445 -3756 0
-3414 -3754 0
-3383 -3752 0
-3370 -3750 0
-3339 -3768 0
-3326 -3766 0
-3313 -3780 0
-3300 -3793 0
-3269 -3812 0
-3238 -3810 0
-3207 -3808 0
-3194 -3806 0
-3163 -3824 0
-3150 -3822 0
-3137 -3836 0
-3124 -3849 0
-3093 -3864 0
-3080 -3862 0
-3067 -3876 0
-3054 -3889 0
-3041 -3902 0
-3028 -3915 0
-3014 -3928 0
-3016 -3941 0
-2983 -3978 0
-2952 -3976 0
-2921 -3974 0
-2908 -3972 0
-2877 -3990 0
-2864 -3988 0
-2851 -4002 0
-2838 -4015 0
-2807 -4030 0
-2794 -4028 0
-2781 -4042 0
-2768 -4055 0
-2755 -4068 0
-2742 -4081 0
-2728 -4094 0
-2730 -4107 0
-2697 -4140 0
-2684 -4138 0
-2671 -4152 0
-2658 -4165 0
-2645 -4178 0
-2632 -4191 0
-2618 -4204 0
-2620 -4217 0
-2605 -4248 0
-2592 -4261 0
-2578 -4274 0
-2580 -4287 0
-2562 -4318 0
-2564 -4331 0
-2566 -4362 0
-2568 -4393 0
-2531 -4430 0
-2500 -4428 0
-2469 -4426 0
-2456 -4424 0
-2425 -4442 0
-2412 -4440 0
-2399 -4454 0
-2386 -4467 0
-2355 -4482 0
-2342 -4480 0
-2329 -4494 0
-2316 -4507 0
-2303 -4520 0
-2290 -4533 0
-2276 -4546 0
-2278 -4559 0
-2245 -4592 0
-2232 -4590 0
-2219 -4604 0
-2206 -4617 0
-2193 -4630 0
-2180 -4643 0
-2166 -4656 0
-2168 -4669 0
-2153 -4700 0
-2140 -4713 0
-2126 -4726 0
-2128 -4739 0
-2110 -4770 0
-2112 -4783 0
-2114 -4814 0
-2116 -4845 0
-2079 -4878 0
-2066 -4876 0
-2053 -4890 0
-2040 -4903 0
-2027 -4916 0
-2014 -4929 0
-2000 -4942 0
-2002 -4955 0
-1987 -4986 0
-1974 -4999 0
-1960 -5012 0
-1962 -5025 0
-1944 -5056 0
-1946 -5069 0
-1948 -5100 0
-1950 -5131 0
-1931 -5162 0
-1918 -5175 0
-1904 -5188 0
-1906 -5201 0
-1888 -5232 0
-1890 -5245 0
-1892 -5276 0
-1894 -5307 0
-1869 -5338 0
-1872 -5351 0
-1875 -5382 0
-1877 -5413 0
-1878 -5444 0
-1874 -5475 0
-1871 -5506 0
-9 -3644 0
-9 -3476 -3734 0
-9 -3370 -3752 0
-9 -3326 -3768 0
-9 -3194 -3808 0
-9 -3150 -3824 0
-9 -3080 -3864 0
-9 -3016 -3928 0
-9 -2908 -3974 0
-9 -2864 -3990 0
-9 -2794 -4030 0
-9 -2730 -4094 0
-9 -2684 -4140 0
-9 -2620 -4204 0
-9 -2580 -4274 0
-9 -2564 -4318 0
-9 -2456 -4426 0
-9 -2412 -4442 0
-9 -2342 -4482 0
-9 -2278 -4546 0
-9 -2232 -4592 0
-9 -2168 -4656 0
-9 -2128 -4726 0
-9 -2112 -4770 0
-9 -2066 -4878 0
-9 -2002 -4942 0
-9 -1962 -5012 0
-9 -1946 -5056 0
-9 -1906 -5188 0
-9 -1890 -5232 0
-9 -1872 -5338 0
-9 -5506 0
-12 -3613 0
-12 -3476 -3737 0
-12 -3370 -3754 0
-12 -3313 -3768 0
-12 -3194 -3810 0
-12 -3137 -3824 0
-12 -3067 -3864 0
-12 -3016 -3915 0
-12 -2908 -3976 0
-12 -2851 -3990 0
-12 -2781 -4030 0
-12 -2730 -4081 0
-12 -2671 -4140 0
-12 -2620 -4191 0
-12 -2580 -4261 0
-12 -2566 -4318 0
-12 -2456 -4428 0
-12 -2399 -4442 0
-12 -2329 -4482 0
-12 -2278 -4533 0
-12 -2219 -4592 0
-12 -2168 -4643 0
-12 -2128 -4713 0
-12 -2114 -4770 0
-12 -2053 -4878 0
-12 -2002 -4929 0
-12 -1962 -4999 0
-12 -1948 -5056 0
-12 -1906 -5175 0
-12 -1892 -5232 0
-12 -1875 -5338 0
-12 -5475 0
-16 -3582 0
-16 -3476 -3739 0
-16 -3370 -3756 0
-16 -3300 -3768 0
-16 -3194 -3812 0
-16 -3124 -3824 0
-16 -3054 -3864 0
-16 -3016 -3902 0
-16 -2908 -3978 0
-16 -2838 -3990 0
-16 -2768 -4030 0
-16 -2730 -4068 0
-16 -2658 -4140 0
-16 -2620 -4178 0
-16 -2580 -4248 0
-16 -2568 -4318 0
-16 -2456 -4430 0
-16 -2386 -4442 0
-16 -2316 -4482 0
-16 -2278 -4520 0
-16 -2206 -4592 0
-16 -2168 -4630 0
-16 -2128 -4700 0
-16 -2116 -4770 0
-16 -2040 -4878 0
-16 -2002 -4916 0
-16 -1962 -4986 0
-16 -1950 -5056 0
-16 -1906 -5162 0
-16 -1894 -5232 0
-16 -1877 -5338 0
-16 -5444 0
-15 -3551 0
-15 -3476 -3740 0
-15 -3326 -3754 0
-15 -3313 -3752 0
-15 -3150 -3810 0
-15 -3137 -3808 0
-15 -3041 -3864 0
-15 -3016 -3889 0
-15 -2864 -3976 0
-15 -2851 -3974 0
-15 -2755 -4030 0
-15 -2730 -4055 0
-15 -2645 -4140 0
-15 -2620 -4165 0
-15 -2564 -4261 0
-15 -2566 -4274 0
-15 -2412 -4428 0
-15 -2399 -4426 0
-15 -2303 -4482 0
-15 -2278 -4507 0
-15 -2193 -4592 0
-15 -2168 -4617 0
-15 -2112 -4713 0
-15 -2114 -4726 0
-15 -2027 -4878 0
-15 -2002 -4903 0
-15 -1946 -4999 0
-15 -1948 -5012 0
-15 -1890 -5175 0
-15 -1892 -5188 0
-15 -1878 -5338 0
-15 -5413 0
-13 -3520 0
-13 -3476 -3736 0
-13 -3326 -3756 0
-13 -3300 -3752 0
-13 -3150 -3812 0
-13 -3124 -3808 0
-13 -3028 -3864 0
-13 -3016 -3876 0
-13 -2864 -3978 0
-13 -2838 -3974 0
-13 -2742 -4030 0
-13 -2730 -4042 0
-13 -2632 -4140 0
-13 -2620 -4152 0
-13 -2564 -4248 0
-13 -2568 -4274 0
-13 -2412 -4430 0
-13 -2386 -4426 0
-13 -2290 -4482 0
-13 -2278 -4494 0
-13 -2180 -4592 0
-13 -2168 -4604 0
-13 -2112 -4700 0
-13 -2116 -4726 0
-13 -2014 -4878 0
-13 -2002 -4890 0
-13 -1946 -4986 0
-13 -1950 -5012 0
-13 -1890 -5162 0
-13 -1894 -5188 0
-13 -1874 -5338 0
-13 -5382 0
-10 -3489 0
-10 -3476 -3733 0
-10 -3313 -3756 0
-10 -3300 -3754 0
-10 -3137 -3812 0
-10 -3124 -3810 0
-10 -3014 -3864 0
-10 -3016 -3862 0
-10 -2851 -3978 0
-10 -2838 -3976 0
-10 -2728 -4030 0
-10 -2730 -4028 0
-10 -2618 -4140 0
-10 -2620 -4138 0
-10 -2566 -4248 0
-10 -2568 -4261 0
-10 -2399 -4430 0
-10 -2386 -4428 0
-10 -2276 -4482 0
-10 -2278 -4480 0
-10 -2166 -4592 0
-10 -2168 -4590 0
-10 -2114 -4700 0
-10 -2116 -4713 0
-10 -2000 -4878 0
-10 -2002 -4876 0
-10 -1948 -4986 0
-10 -1950 -4999 0
-10 -1892 -5162 0
-10 -1894 -5175 0
-10 -1871 -5338 0
-10 -5351 0
-7 -3476 0
-7 -3016 -3864 0
-7 -2730 -4030 0
-7 -2620 -4140 0
-7 -2278 -4482 0
-7 -2168 -4592 0
-7 -2002 -4878 0
-7 -5338 0
-32 -3445 0
-32 -3370 -3740 0
-32 -3326 -3737 0
-32 -3313 -3734 0
-32 -3080 -3810 0
-32 -3067 -3808 0
-32 -3041 -3824 0
-32 -3016 -3849 0
-32 -2794 -3976 0
-32 -2781 -3974 0
-32 -2755 -3990 0
-32 -2730 -4015 0
-32 -2605 -4140 0
-32 -2580 -4165 0
-32 -2564 -4191 0
-32 -2566 -4204 0
-32 -2342 -4428 0
-32 -2329 -4426 0
-32 -2303 -4442 0
-32 -2278 -4467 0
-32 -2153 -4592 0
-32 -2128 -4617 0
-32 -2112 -4643 0
-32 -2114 -4656 0
-32 -1987 -4878 0
-32 -1962 -4903 0
-32 -1946 -4929 0
-32 -1948 -4942 0
-32 -1872 -5175 0
-32 -1875 -5188 0
-32 -1878 -5232 0
-32 -5307 0
-30 -3414 0
-30 -3370 -3736 0
-30 -3326 -3739 0
-30 -3300 -3734 0
-30 -3080 -3812 0
-30 -3054 -3808 0
-30 -3028 -3824 0
-30 -3016 -3836 0
-30 -2794 -3978 0
-30 -2768 -3974 0
-30 -2742 -3990 0
-30 -2730 -4002 0
-30 -2592 -4140 0
-30 -2580 -4152 0
-30 -2564 -4178 0
-30 -2568 -4204 0
-30 -2342 -4430 0
-30 -2316 -4426 0
-30 -2290 -4442 0
-30 -2278 -4454 0
-30 -2140 -4592 0
-30 -2128 -4604 0
-30 -2112 -4630 0
-30 -2116 -4656 0
-30 -1974 -4878 0
-30 -1962 -4890 0
-30 -1946 -4916 0
-30 -1950 -4942 0
-30 -1872 -5162 0
-30 -1877 -5188 0
-30 -1874 -5232 0
-30 -5276 0
-28 -3383 0
-28 -3370 -3733 0
-28 -3313 -3739 0
-28 -3300 -3737 0
-28 -3067 -3812 0
-28 -3054 -3810 0
-28 -3014 -3824 0
-28 -3016 -3822 0
-28 -2781 -3978 0
-28 -2768 -3976 0
-28 -2728 -3990 0
-28 -2730 -3988 0
-28 -2578 -4140 0
-28 -2580 -4138 0
-28 -2566 -4178 0
-28 -2568 -4191 0
-28 -2329 -4430 0
-28 -2316 -4428 0
-28 -2276 -4442 0
-28 -2278 -4440 0
-28 -2126 -4592 0
-28 -2128 -4590 0
-28 -2114 -4630 0
-28 -2116 -4643 0
-28 -1960 -4878 0
-28 -1962 -4876 0
-28 -1948 -4916 0
-28 -1950 -4929 0
-28 -1875 -5162 0
-28 -1877 -5175 0
-28 -1871 -5232 0
-28 -5245 0
-26 -3370 0
-26 -3016 -3824 0
-26 -2730 -3990 0
-26 -2580 -4140 0
-26 -2278 -4442 0
-26 -2128 -4592 0
-26 -1962 -4878 0
-26 -5232 0
-44 -3339 0
-44 -3326 -3733 0
-44 -3313 -3736 0
-44 -3300 -3740 0
-44 -3041 -3812 0
-44 -3028 -3810 0
-44 -3014 -3808 0
-44 -3016 -3806 0
-44 -2755 -3978 0
-44 -2742 -3976 0
-44 -2728 -3974 0
-44 -2730 -3972 0
-44 -2562 -4140 0
-44 -2564 -4138 0
-44 -2566 -4152 0
-44 -2568 -4165 0
-44 -2303 -4430 0
-44 -2290 -4428 0
-44 -2276 -4426 0
-44 -2278 -4424 0
-44 -2110 -4592 0
-44 -2112 -4590 0
-44 -2114 -4604 0
-44 -2116 -4617 0
-44 -1944 -4878 0
-44 -1946 -4876 0
-44 -1948 -4890 0
-44 -1950 -4903 0
-44 -1878 -5162 0
-44 -1874 -5175 0
-44 -1871 -5188 0
-44 -5201 0
-42 -3326 0
-42 -3016 -3808 0
-42 -2730 -3974 0
-42 -2564 -4140 0
-42 -2278 -4426 0
-42 -2112 -4592 0
-42 -1946 -4878 0
-42 -5188 0
-56 -3313 0
-56 -3016 -3810 0
-56 -2730 -3976 0
-56 -2566 -4140 0
-56 -2278 -4428 0
-56 -2114 -4592 0
-56 -1948 -4878 0
-56 -5175 0
-69 -3300 0
-69 -3016 -3812 0
-69 -2730 -3978 0
-69 -2568 -4140 0
-69 -2278 -4430 0
-69 -2116 -4592 0
-69 -1950 -4878 0
-69 -5162 0
-88 -3269 0
-88 -3194 -3740 0
-88 -3150 -3737 0
-88 -3137 -3734 0
-88 -3080 -3754 0
-88 -3067 -3752 0
-88 -3041 -3768 0
-88 -3016 -3793 0
-88 -2684 -3976 0
-88 -2671 -3974 0
-88 -2645 -3990 0
-88 -2620 -4015 0
-88 -2605 -4030 0
-88 -2580 -4055 0
-88 -2564 -4081 0
-88 -2566 -4094 0
-88 -2232 -4428 0
-88 -2219 -4426 0
-88 -2193 -4442 0
-88 -2168 -4467 0
-88 -2153 -4482 0
-88 -2128 -4507 0
-88 -2112 -4533 0
-88 -2114 -4546 0
-88 -1931 -4878 0
-88 -1906 -4903 0
-88 -1890 -4929 0
-88 -1892 -4942 0
-88 -1872 -4999 0
-88 -1875 -5012 0
-88 -1878 -5056 0
-88 -5131 0
-86 -3238 0
-86 -3194 -3736 0
-86 -3150 -3739 0
-86 -3124 -3734 0
-86 -3080 -3756 0
-86 -3054 -3752 0
-86 -3028 -3768 0
-86 -3016 -3780 0
-86 -2684 -3978 0
-86 -2658 -3974 0
-86 -2632 -3990 0
-86 -2620 -4002 0
-86 -2592 -4030 0
-86 -2580 -4042 0
-86 -2564 -4068 0
-86 -2568 -4094 0
-86 -2232 -4430 0
-86 -2206 -4426 0
-86 -2180 -4442 0
-86 -2168 -4454 0
-86 -2140 -4482 0
-86 -2128 -4494 0
-86 -2112 -4520 0
-86 -2116 -4546 0
-86 -1918 -4878 0
-86 -1906 -4890 0
-86 -1890 -4916 0
-86 -1894 -4942 0
-86 -1872 -4986 0
-86 -1877 -5012 0
-86 -1874 -5056 0
-86 -5100 0
-84 -3207 0
-84 -3194 -3733 0
-84 -3137 -3739 0
-84 -3124 -3737 0
-84 -3067 -3756 0
-84 -3054 -3754 0
-84 -3014 -3768 0
-84 -3016 -3766 0
-84 -2671 -3978 0
-84 -2658 -3976 0
-84 -2618 -3990 0
-84 -2620 -3988 0
-84 -2578 -4030 0
-84 -2580 -4028 0
-84 -2566 -4068 0
-84 -2568 -4081 0
-84 -2219 -4430 0
-84 -2206 -4428 0
-84 -2166 -4442 0
-84 -2168 -4440 0
-84 -2126 -4482 0
-84 -2128 -4480 0
-84 -2114 -4520 0
-84 -2116 -4533 0
-84 -1904 -4878 0
-84 -1906 -4876 0
-84 -1892 -4916 0
-84 -1894 -4929 0
-84 -1875 -4986 0
-84 -1877 -4999 0
-84 -1871 -5056 0
-84 -5069 0
-82 -3194 0
-82 -3016 -3768 0
-82 -2620 -3990 0
-82 -2580 -4030 0
-82 -2168 -4442 0
-82 -2128 -4482 0
-82 -1906 -4878 0
-82 -5056 0
-100 -3163 0
-100 -3150 -3733 0
-100 -3137 -3736 0
-100 -3124 -3740 0
-100 -3041 -3756 0
-100 -3028 -3754 0
-100 -3014 -3752 0
-100 -3016 -3750 0
-100 -2645 -3978 0
-100 -2632 -3976 0
-100 -2618 -3974 0
-100 -2620 -3972 0
-100 -2562 -4030 0
-100 -2564 -4028 0
-100 -2566 -4042 0
-100 -2568 -4055 0
-100 -2193 -4430 0
-100 -2180 -4428 0
-100 -2166 -4426 0
-100 -2168 -4424 0
-100 -2110 -4482 0
-100 -2112 -4480 0
-100 -2114 -4494 0
-100 -2116 -4507 0
-100 -1888 -4878 0
-100 -1890 -4876 0
-100 -1892 -4890 0
-100 -1894 -4903 0
-100 -1878 -4986 0
-100 -1874 -4999 0
-100 -1871 -5012 0
-100 -5025 0
-98 -3150 0
-98 -3016 -3752 0
-98 -2620 -3974 0
-98 -2564 -4030 0
-98 -2168 -4426 0
-98 -2112 -4482 0
-98 -1890 -4878 0
-98 -5012 0
-112 -3137 0
-112 -3016 -3754 0
-112 -2620 -3976 0
-112 -2566 -4030 0
-112 -2168 -4428 0
-112 -2114 -4482 0
-112 -1892 -4878 0
-112 -4999 0
-125 -3124 0
-125 -3016 -3756 0
-125 -2620 -3978 0
-125 -2568 -4030 0
-125 -2168 -4430 0
-125 -2116 -4482 0
-125 -1894 -4878 0
-125 -4986 0
-140 -3093 0
-140 -3080 -3733 0
-140 -3067 -3736 0
-140 -3054 -3740 0
-140 -3041 -3739 0
-140 -3028 -3737 0
-140 -3014 -3734 0
-140 -3016 -3731 0
-140 -2605 -3978 0
-140 -2592 -3976 0
-140 -2578 -3974 0
-140 -2580 -3972 0
-140 -2562 -3990 0
-140 -2564 -3988 0
-140 -2566 -4002 0
-140 -2568 -4015 0
-140 -2153 -4430 0
-140 -2140 -4428 0
-140 -2126 -4426 0
-140 -2128 -4424 0
-140 -2110 -4442 0
-140 -2112 -4440 0
-140 -2114 -4454 0
-140 -2116 -4467 0
-140 -1869 -4878 0
-140 -1872 -4876 0
-140 -1875 -4890 0
-140 -1877 -4903 0
-140 -1878 -4916 0
-140 -1874 -4929 0
-140 -1871 -4942 0
-140 -4955 0
-138 -3080 0
-138 -3016 -3734 0
-138 -2580 -3974 0
-138 -2564 -3990 0
-138 -2128 -4426 0
-138 -2112 -4442 0
-138 -1872 -4878 0
-138 -4942 0
-152 -3067 0
-152 -3016 -3737 0
-152 -2580 -3976 0
-152 -2566 -3990 0
-152 -2128 -4428 0
-152 -2114 -4442 0
-152 -1875 -4878 0
-152 -4929 0
-165 -3054 0
-165 -3016 -3739 0
-165 -2580 -3978 0
-165 -2568 -3990 0
-165 -2128 -4430 0
-165 -2116 -4442 0
-165 -1877 -4878 0
-165 -4916 0
-178 -3041 0
-178 -3016 -3740 0
-178 -2564 -3976 0
-178 -2566 -3974 0
-178 -2112 -4428 0
-178 -2114 -4426 0
-178 -1878 -4878 0
-178 -4903 0
-191 -3028 0
-191 -3016 -3736 0
-191 -2564 -3978 0
-191 -2568 -3974 0
-191 -2112 -4430 0
-191 -2116 -4426 0
-191 -1874 -4878 0
-191 -4890 0
-204 -3014 0
-204 -3016 -3733 0
-204 -2566 -3978 0
-204 -2568 -3976 0
-204 -2114 -4430 0
-204 -2116 -4428 0
-204 -1871 -4878 0
-204 -4876 0
-217 -3016 0
-217 -4878 0
-254 -2983 0
-254 -2908 -3740 0
-254 -2864 -3737 0
-254 -2851 -3734 0
-254 -2794 -3754 0
-254 -2781 -3752 0
-254 -2755 -3768 0
-254 -2730 -3793 0
-254 -2684 -3810 0
-254 -2671 -3808 0
-254 -2645 -3824 0
-254 -2620 -3849 0
-254 -2605 -3864 0
-254 -2580 -3889 0
-254 -2564 -3915 0
-254 -2566 -3928 0
-254 -2066 -4428 0
-254 -2053 -4426 0
-254 -2027 -4442 0
-254 -2002 -4467 0
-254 -1987 -4482 0
-254 -1962 -4507 0
-254 -1946 -4533 0
-254 -1948 -4546 0
-254 -1931 -4592 0
-254 -1906 -4617 0
-254 -1890 -4643 0
-254 -1892 -4656 0
-254 -1872 -4713 0
-254 -1875 -4726 0
-254 -1878 -4770 0
-254 -4845 0
-252 -2952 0
-252 -2908 -3736 0
-252 -2864 -3739 0
-252 -2838 -3734 0
-252 -2794 -3756 0
-252 -2768 -3752 0
-252 -2742 -3768 0
-252 -2730 -3780 0
-252 -2684 -3812 0
-252 -2658 -3808 0
-252 -2632 -3824 0
-252 -2620 -3836 0
-252 -2592 -3864 0
-252 -2580 -3876 0
-252 -2564 -3902 0
-252 -2568 -3928 0
-252 -2066 -4430 0
-252 -2040 -4426 0
-252 -2014 -4442 0
-252 -2002 -4454 0
-252 -1974 -4482 0
-252 -1962 -4494 0
-252 -1946 -4520 0
-252 -1950 -4546 0
-252 -1918 -4592 0
-252 -1906 -4604 0
-252 -1890 -4630 0
-252 -1894 -4656 0
-252 -1872 -4700 0
-252 -1877 -4726 0
-252 -1874 -4770 0
-252 -4814 0
-250 -2921 0
-250 -2908 -3733 0
-250 -2851 -3739 0
-250 -2838 -3737 0
-250 -2781 -3756 0
-250 -2768 -3754 0
-250 -2728 -3768 0
-250 -2730 -3766 0
-250 -2671 -3812 0
-250 -2658 -3810 0
-250 -2618 -3824 0
-250 -2620 -3822 0
-250 -2578 -3864 0
-250 -2580 -3862 0
-250 -2566 -3902 0
-250 -2568 -3915 0
-250 -2053 -4430 0
-250 -2040 -4428 0
-250 -2000 -4442 0
-250 -2002 -4440 0
-250 -1960 -4482 0
-250 -1962 -4480 0
-250 -1948 -4520 0
-250 -1950 -4533 0
-250 -1904 -4592 0
-250 -1906 -4590 0
-250 -1892 -4630 0
-250 -1894 -4643 0
-250 -1875 -4700 0
-250 -1877 -4713 0
-250 -1871 -4770 0
-250 -4783 0
-248 -2908 0
-248 -2730 -3768 0
-248 -2620 -3824 0
-248 -2580 -3864 0
-248 -2002 -4442 0
-248 -1962 -4482 0
-248 -1906 -4592 0
-248 -4770 0
-266 -2877 0
-266 -2864 -3733 0
-266 -2851 -3736 0
-266 -2838 -3740 0
-266 -2755 -3756 0
-266 -2742 -3754 0
-266 -2728 -3752 0
-266 -2730 -3750 0
-266 -2645 -3812 0
-266 -2632 -3810 0
-266 -2618 -3808 0
-266 -2620 -3806 0
-266 -2562 -3864 0
-266 -2564 -3862 0
-266 -2566 -3876 0
-266 -2568 -3889 0
-266 -2027 -4430 0
-266 -2014 -4428 0
-266 -2000 -4426 0
-266 -2002 -4424 0
-266 -1944 -4482 0
-266 -1946 -4480 0
-266 -1948 -4494 0
-266 -1950 -4507 0
-266 -1888 -4592 0
-266 -1890 -4590 0
-266 -1892 -4604 0
-266 -1894 -4617 0
-266 -1878 -4700 0
-266 -1874 -4713 0
-266 -1871 -4726 0
-266 -4739 0
-264 -2864 0
-264 -2730 -3752 0
-264 -2620 -3808 0
-264 -2564 -3864 0
-264 -2002 -4426 0
-264 -1946 -4482 0
-264 -1890 -4592 0
-264 -4726 0
-278 -2851 0
-278 -2730 -3754 0
-278 -2620 -3810 0
-278 -2566 -3864 0
-278 -2002 -4428 0
-278 -1948 -4482 0
-278 -1892 -4592 0
-278 -4713 0
-291 -2838 0
-291 -2730 -3756 0
-291 -2620 -3812 0
-291 -2568 -3864 0
-291 -2002 -4430 0
-291 -1950 -4482 0
-291 -1894 -4592 0
-291 -4700 0
-306 -2807 0
-306 -2794 -3733 0
-306 -2781 -3736 0
-306 -2768 -3740 0
-306 -2755 -3739 0
-306 -2742 -3737 0
-306 -2728 -3734 0
-306 -2730 -3731 0
-306 -2605 -3812 0
-306 -2592 -3810 0
-306 -2578 -3808 0
-306 -2580 -3806 0
-306 -2562 -3824 0
-306 -2564 -3822 0
-306 -2566 -3836 0
-306 -2568 -3849 0
-306 -1987 -4430 0
-306 -1974 -4428 0
-306 -1960 -4426 0
-306 -1962 -4424 0
-306 -1944 -4442 0
-306 -1946 -4440 0
-306 -1948 -4454 0
-306 -1950 -4467 0
-306 -1869 -4592 0
-306 -1872 -4590 0
-306 -1875 -4604 0
-306 -1877 -4617 0
-306 -1878 -4630 0
-306 -1874 -4643 0
-306 -1871 -4656 0
-306 -4669 0
-304 -2794 0
-304 -2730 -3734 0
-304 -2580 -3808 0
-304 -2564 -3824 0
-304 -1962 -4426 0
-304 -1946 -4442 0
-304 -1872 -4592 0
-304 -4656 0
-318 -2781 0
-318 -2730 -3737 0
-318 -2580 -3810 0
-318 -2566 -3824 0
-318 -1962 -4428 0
-318 -1948 -4442 0
-318 -1875 -4592 0
-318 -4643 0
-331 -2768 0
-331 -2730 -3739 0
-331 -2580 -3812 0
-331 -2568 -3824 0
-331 -1962 -4430 0
-331 -1950 -4442 0
-331 -1877 -4592 0
-331 -4630 0
-344 -2755 0
-344 -2730 -3740 0
-344 -2564 -3810 0
-344 -2566 -3808 0
-344 -1946 -4428 0
-344 -1948 -4426 0
-344 -1878 -4592 0
-344 -4617 0
-357 -2742 0
-357 -2730 -3736 0
-357 -2564 -3812 0
-357 -2568 -3808 0
-357 -1946 -4430 0
-357 -1950 -4426 0
-357 -1874 -4592 0
-357 -4604 0
-370 -2728 0
-370 -2730 -3733 0
-370 -2566 -3812 0
-370 -2568 -3810 0
-370 -1948 -4430 0
-370 -1950 -4428 0
-370 -1871 -4592 0
-370 -4590 0
-383 -2730 0
-383 -4592 0
-416 -2697 0
-416 -2684 -3733 0
-416 -2671 -3736 0
-416 -2658 -3740 0
-416 -2645 -3739 0
-416 -2632 -3737 0
-416 -2618 -3734 0
-416 -2620 -3731 0
-416 -2605 -3756 0
-416 -2592 -3754 0
-416 -2578 -3752 0
-416 -2580 -3750 0
-416 -2562 -3768 0
-416 -2564 -3766 0
-416 -2566 -3780 0
-416 -2568 -3793 0
-416 -1931 -4430 0
-416 -1918 -4428 0
-416 -1904 -4426 0
-416 -1906 -4424 0
-416 -1888 -4442 0
-416 -1890 -4440 0
-416 -1892 -4454 0
-416 -1894 -4467 0
-416 -1869 -4482 0
-416 -1872 -4480 0
-416 -1875 -4494 0
-416 -1877 -4507 0
-416 -1878 -4520 0
-416 -1874 -4533 0
-416 -1871 -4546 0
-416 -4559 0
-414 -2684 0
-414 -2620 -3734 0
-414 -2580 -3752 0
-414 -2564 -3768 0
-414 -1906 -4426 0
-414 -1890 -4442 0
-414 -1872 -4482 0
-414 -4546 0
-428 -2671 0
-428 -2620 -3737 0
-428 -2580 -3754 0
-428 -2566 -3768 0
-428 -1906 -4428 0
-428 -1892 -4442 0
-428 -1875 -4482 0
-428 -4533 0
-441 -2658 0
-441 -2620 -3739 0
-441 -2580 -3756 0
-441 -2568 -3768 0
-441 -1906 -4430 0
-441 -1894 -4442 0
-441 -1877 -4482 0
-441 -4520 0
-454 -2645 0
-454 -2620 -3740 0
-454 -2564 -3754 0
-454 -2566 -3752 0
-454 -1890 -4428 0
-454 -1892 -4426 0
-454 -1878 -4482 0
-454 -4507 0
-467 -2632 0
-467 -2620 -3736 0
-467 -2564 -3756 0
-467 -2568 -3752 0
-467 -1890 -4430 0
-467 -1894 -4426 0
-467 -1874 -4482 0
-467 -4494 0
-480 -2618 0
-480 -2620 -3733 0
-480 -2566 -3756 0
-480 -2568 -3754 0
-480 -1892 -4430 0
-480 -1894 -4428 0
-480 -1871 -4482 0
-480 -4480 0
-493 -2620 0
-493 -4482 0
-524 -2605 0
-524 -2580 -3740 0
-524 -2564 -3737 0
-524 -2566 -3734 0
-524 -1872 -4428 0
-524 -1875 -4426 0
-524 -1878 -4442 0
-524 -4467 0
-537 -2592 0
-537 -2580 -3736 0
-537 -2564 -3739 0
-537 -2568 -3734 0
-537 -1872 -4430 0
-537 -1877 -4426 0
-537 -1874 -4442 0
-537 -4454 0
-550 -2578 0
-550 -2580 -3733 0
-550 -2566 -3739 0
-550 -2568 -3737 0
-550 -1875 -4430 0
-550 -1877 -4428 0
-550 -1871 -4442 0
-550 -4440 0
-563 -2580 0
-563 -4442 0
-594 -2562 0
-594 -2564 -3733 0
-594 -2566 -3736 0
-594 -2568 -3740 0
-594 -1878 -4430 0
-594 -1874 -4428 0
-594 -1871 -4426 0
-594 -4424 0
-607 -2564 0
-607 -4426 0
-638 -2566 0
-638 -4428 0
-669 -2568 0
-669 -4430 0
-706 -2531 0
-706 -2456 -3740 0
-706 -2412 -3737 0
-706 -2399 -3734 0
-706 -2342 -3754 0
-706 -2329 -3752 0
-706 -2303 -3768 0
-706 -2278 -3793 0
-706 -2232 -3810 0
-706 -2219 -3808 0
-706 -2193 -3824 0
-706 -2168 -3849 0
-706 -2153 -3864 0
-706 -2128 -3889 0
-706 -2112 -3915 0
-706 -2114 -3928 0
-706 -2066 -3976 0
-706 -2053 -3974 0
-706 -2027 -3990 0
-706 -2002 -4015 0
-706 -1987 -4030 0
-706 -1962 -4055 0
-706 -1946 -4081 0
-706 -1948 -4094 0
-706 -1931 -4140 0
-706 -1906 -4165 0
-706 -1890 -4191 0
-706 -1892 -4204 0
-706 -1872 -4261 0
-706 -1875 -4274 0
-706 -1878 -4318 0
-706 -4393 0
-704 -2500 0
-704 -2456 -3736 0
-704 -2412 -3739 0
-704 -2386 -3734 0
-704 -2342 -3756 0
-704 -2316 -3752 0
-704 -2290 -3768 0
-704 -2278 -3780 0
-704 -2232 -3812 0
-704 -2206 -3808 0
-704 -2180 -3824 0
-704 -2168 -3836 0
-704 -2140 -3864 0
-704 -2128 -3876 0
-704 -2112 -3902 0
-704 -2116 -3928 0
-704 -2066 -3978 0
-704 -2040 -3974 0
-704 -2014 -3990 0
-704 -2002 -4002 0
-704 -1974 -4030 0
-704 -1962 -4042 0
-704 -1946 -4068 0
-704 -1950 -4094 0
-704 -1918 -4140 0
-704 -1906 -4152 0
-704 -1890 -4178 0
-704 -1894 -4204 0
-704 -1872 -4248 0
-704 -1877 -4274 0
-704 -1874 -4318 0
-704 -4362 0
-702 -2469 0
-702 -2456 -3733 0
-702 -2399 -3739 0
-702 -2386 -3737 0
-702 -2329 -3756 0
-702 -2316 -3754 0
-702 -2276 -3768 0
-702 -2278 -3766 0
-702 -2219 -3812 0
-702 -2206 -3810 0
-702 -2166 -3824 0
-702 -2168 -3822 0
-702 -2126 -3864 0
-702 -2128 -3862 0
-702 -2114 -3902 0
-702 -2116 -3915 0
-702 -2053 -3978 0
-702 -2040 -3976 0
-702 -2000 -3990 0
-702 -2002 -3988 0
-702 -1960 -4030 0
-702 -1962 -4028 0
-702 -1948 -4068 0
-702 -1950 -4081 0
-702 -1904 -4140 0
-702 -1906 -4138 0
-702 -1892 -4178 0
-702 -1894 -4191 0
-702 -1875 -4248 0
-702 -1877 -4261 0
-702 -1871 -4318 0
-702 -4331 0
-700 -2456 0
-700 -2278 -3768 0
-700 -2168 -3824 0
-700 -2128 -3864 0
-700 -2002 -3990 0
-700 -1962 -4030 0
-700 -1906 -4140 0
-700 -4318 0
-718 -2425 0
-718 -2412 -3733 0
-718 -2399 -3736 0
-718 -2386 -3740 0
-718 -2303 -3756 0
-718 -2290 -3754 0
-718 -2276 -3752 0
-718 -2278 -3750 0
-718 -2193 -3812 0
-718 -2180 -3810 0
-718 -2166 -3808 0
-718 -2168 -3806 0
-718 -2110 -3864 0
-718 -2112 -3862 0
-718 -2114 -3876 0
-718 -2116 -3889 0
-718 -2027 -3978 0
-718 -2014 -3976 0
-718 -2000 -3974 0
-718 -2002 -3972 0
-718 -1944 -4030 0
-718 -1946 -4028 0
-718 -1948 -4042 0
-718 -1950 -4055 0
-718 -1888 -4140 0
-718 -1890 -4138 0
-718 -1892 -4152 0
-718 -1894 -4165 0
-718 -1878 -4248 0
-718 -1874 -4261 0
-718 -1871 -4274 0
-718 -4287 0
-716 -2412 0
-716 -2278 -3752 0
-716 -2168 -3808 0
-716 -2112 -3864 0
-716 -2002 -3974 0
-716 -1946 -4030 0
-716 -1890 -4140 0
-716 -4274 0
-730 -2399 0
-730 -2278 -3754 0
-730 -2168 -3810 0
-730 -2114 -3864 0
-730 -2002 -3976 0
-730 -1948 -4030 0
-730 -1892 -4140 0
-730 -4261 0
-743 -2386 0
-743 -2278 -3756 0
-743 -2168 -3812 0
-743 -2116 -3864 0
-743 -2002 -3978 0
-743 -1950 -4030 0
-743 -1894 -4140 0
-743 -4248 0
-758 -2355 0
-758 -2342 -3733 0
-758 -2329 -3736 0
-758 -2316 -3740 0
-758 -2303 -3739 0
-758 -2290 -3737 0
-758 -2276 -3734 0
-758 -2278 -3731 0
-758 -2153 -3812 0
-758 -2140 -3810 0
-758 -2126 -3808 0
-758 -2128 -3806 0
-758 -2110 -3824 0
-758 -2112 -3822 0
-758 -2114 -3836 0
-758 -2116 -3849 0
-758 -1987 -3978 0
-758 -1974 -3976 0
-758 -1960 -3974 0
-758 -1962 -3972 0
-758 -1944 -3990 0
-758 -1946 -3988 0
-758 -1948 -4002 0
-758 -1950 -4015 0
-758 -1869 -4140 0
-758 -1872 -4138 0
-758 -1875 -4152 0
-758 -1877 -4165 0
-758 -1878 -4178 0
-758 -1874 -4191 0
-758 -1871 -4204 0
-758 -4217 0
-756 -2342 0
-756 -2278 -3734 0
-756 -2128 -3808 0
-756 -2112 -3824 0
-756 -1962 -3974 0
-756 -1946 -3990 0
-756 -1872 -4140 0
-756 -4204 0
-770 -2329 0
-770 -2278 -3737 0
-770 -2128 -3810 0
-770 -2114 -3824 0
-770 -1962 -3976 0
-770 -1948 -3990 0
-770 -1875 -4140 0
-770 -4191 0
-783 -2316 0
-783 -2278 -3739 0
-783 -2128 -3812 0
-783 -2116 -3824 0
-783 -1962 -3978 0
-783 -1950 -3990 0
-783 -1877 -4140 0
-783 -4178 0
-796 -2303 0
-796 -2278 -3740 0
-796 -2112 -3810 0
-796 -2114 -3808 0
-796 -1946 -3976 0
-796 -1948 -3974 0
-796 -1878 -4140 0
-796 -4165 0
-809 -2290 0
-809 -2278 -3736 0
-809 -2112 -3812 0
-809 -2116 -3808 0
-809 -1946 -3978 0
-809 -1950 -3974 0
-809 -1874 -4140 0
-809 -4152 0
-822 -2276 0
-822 -2278 -3733 0
-822 -2114 -3812 0
-822 -2116 -3810 0
-822 -1948 -3978 0
-822 -1950 -3976 0
-822 -1871 -4140 0
-822 -4138 0
-835 -2278 0
-835 -4140 0
-868 -2245 0
-868 -2232 -3733 0
-868 -2219 -3736 0
-868 -2206 -3740 0
-868 -2193 -3739 0
-868 -2180 -3737 0
-868 -2166 -3734 0
-868 -2168 -3731 0
-868 -2153 -3756 0
-868 -2140 -3754 0
-868 -2126 -3752 0
-868 -2128 -3750 0
-868 -2110 -3768 0
-868 -2112 -3766 0
-868 -2114 -3780 0
-868 -2116 -3793 0
-868 -1931 -3978 0
-868 -1918 -3976 0
-868 -1904 -3974 0
-868 -1906 -3972 0
-868 -1888 -3990 0
-868 -1890 -3988 0
-868 -1892 -4002 0
-868 -1894 -4015 0
-868 -1869 -4030 0
-868 -1872 -4028 0
-868 -1875 -4042 0
-868 -1877 -4055 0
-868 -1878 -4068 0
-868 -1874 -4081 0
-868 -1871 -4094 0
-868 -4107 0
-866 -2232 0
-866 -2168 -3734 0
-866 -2128 -3752 0
-866 -2112 -3768 0
-866 -1906 -3974 0
-866 -1890 -3990 0
-866 -1872 -4030 0
-866 -4094 0
-880 -2219 0
-880 -2168 -3737 0
-880 -2128 -3754 0
-880 -2114 -3768 0
-880 -1906 -3976 0
-880 -1892 -3990 0
-880 -1875 -4030 0
-880 -4081 0
-893 -2206 0
-893 -2168 -3739 0
-893 -2128 -3756 0
-893 -2116 -3768 0
-893 -1906 -3978 0
-893 -1894 -3990 0
-893 -1877 -4030 0
-893 -4068 0
-906 -2193 0
-906 -2168 -3740 0
-906 -2112 -3754 0
-906 -2114 -3752 0
-906 -1890 -3976 0
-906 -1892 -3974 0
-906 -1878 -4030 0
-906 -4055 0
-919 -2180 0
-919 -2168 -3736 0
-919 -2112 -3756 0
-919 -2116 -3752 0
-919 -1890 -3978 0
-919 -1894 -3974 0
-919 -1874 -4030 0
-919 -4042 0
-932 -2166 0
-932 -2168 -3733 0
-932 -2114 -3756 0
-932 -2116 -3754 0
-932 -1892 -3978 0
-932 -1894 -3976 0
-932 -1871 -4030 0
-932 -4028 0
-945 -2168 0
-945 -4030 0
-976 -2153 0
-976 -2128 -3740 0
-976 -2112 -3737 0
-976 -2114 -3734 0
-976 -1872 -3976 0
-976 -1875 -3974 0
-976 -1878 -3990 0
-976 -4015 0
-989 -2140 0
-989 -2128 -3736 0
-989 -2112 -3739 0
-989 -2116 -3734 0
-989 -1872 -3978 0
-989 -1877 -3974 0
-989 -1874 -3990 0
-989 -4002 0
-1002 -2126 0
-1002 -2128 -3733 0
-1002 -2114 -3739 0
-1002 -2116 -3737 0
-1002 -1875 -3978 0
-1002 -1877 -3976 0
-1002 -1871 -3990 0
-1002 -3988 0
-1015 -2128 0
-1015 -3990 0
-1046 -2110 0
-1046 -2112 -3733 0
-1046 -2114 -3736 0
-1046 -2116 -3740 0
-1046 -1878 -3978 0
-1046 -1874 -3976 0
-1046 -1871 -3974 0
-1046 -3972 0
-1059 -2112 0
-1059 -3974 0
-1090 -2114 0
-1090 -3976 0
-1121 -2116 0
-1121 -3978 0
-1154 -2079 0
-1154 -2066 -3733 0
-1154 -2053 -3736 0
-1154 -2040 -3740 0
-1154 -2027 -3739 0
-1154 -2014 -3737 0
-1154 -2000 -3734 0
-1154 -2002 -3731 0
-1154 -1987 -3756 0
-1154 -1974 -3754 0
-1154 -1960 -3752 0
-1154 -1962 -3750 0
-1154 -1944 -3768 0
-1154 -1946 -3766 0
-1154 -1948 -3780 0
-1154 -1950 -3793 0
-1154 -1931 -3812 0
-1154 -1918 -3810 0
-1154 -1904 -3808 0
-1154 -1906 -3806 0
-1154 -1888 -3824 0
-1154 -1890 -3822 0
-1154 -1892 -3836 0
-1154 -1894 -3849 0
-1154 -1869 -3864 0
-1154 -1872 -3862 0
-1154 -1875 -3876 0
-1154 -1877 -3889 0
-1154 -1878 -3902 0
-1154 -1874 -3915 0
-1154 -1871 -3928 0
-1154 -3941 0
-1152 -2066 0
-1152 -2002 -3734 0
-1152 -1962 -3752 0
-1152 -1946 -3768 0
-1152 -1906 -3808 0
-1152 -1890 -3824 0
-1152 -1872 -3864 0
-1152 -3928 0
-1166 -2053 0
-1166 -2002 -3737 0
-1166 -1962 -3754 0
-1166 -1948 -3768 0
-1166 -1906 -3810 0
-1166 -1892 -3824 0
-1166 -1875 -3864 0
-1166 -3915 0
-1179 -2040 0
-1179 -2002 -3739 0
-1179 -1962 -3756 0
-1179 -1950 -3768 0
-1179 -1906 -3812 0
-1179 -1894 -3824 0
-1179 -1877 -3864 0
-1179 -3902 0
-1192 -2027 0
-1192 -2002 -3740 0
-1192 -1946 -3754 0
-1192 -1948 -3752 0
-1192 -1890 -3810 0
-1192 -1892 -3808 0
-1192 -1878 -3864 0
-1192 -3889 0
-1205 -2014 0
-1205 -2002 -3736 0
-1205 -1946 -3756 0
-1205 -1950 -3752 0
-1205 -1890 -3812 0
-1205 -1894 -3808 0
-1205 -1874 -3864 0
-1205 -3876 0
-1218 -2000 0
-1218 -2002 -3733 0
-1218 -1948 -3756 0
-1218 -1950 -3754 0
-1218 -1892 -3812 0
-1218 -1894 -3810 0
-1218 -1871 -3864 0
-1218 -3862 0
-1231 -2002 0
-1231 -3864 0
-1262 -1987 0
-1262 -1962 -3740 0
-1262 -1946 -3737 0
-1262 -1948 -3734 0
-1262 -1872 -3810 0
-1262 -1875 -3808 0
-1262 -1878 -3824 0
-1262 -3849 0
-1275 -1974 0
-1275 -1962 -3736 0
-1275 -1946 -3739 0
-1275 -1950 -3734 0
-1275 -1872 -3812 0
-1275 -1877 -3808 0
-1275 -1874 -3824 0
-1275 -3836 0
-1288 -1960 0
-1288 -1962 -3733 0
-1288 -1948 -3739 0
-1288 -1950 -3737 0
-1288 -1875 -3812 0
-1288 -1877 -3810 0
-1288 -1871 -3824 0
-1288 -3822 0
-1301 -1962 0
-1301 -3824 0
-1332 -1944 0
-1332 -1946 -3733 0
-1332 -1948 -3736 0
-1332 -1950 -3740 0
-1332 -1878 -3812 0
-1332 -1874 -3810 0
-1332 -1871 -3808 0
-1332 -3806 0
-1345 -1946 0
-1345 -3808 0
-1376 -1948 0
-1376 -3810 0
-1407 -1950 0
-1407 -3812 0
-1438 -1931 0
-1438 -1906 -3740 0
-1438 -1890 -3737 0
-1438 -1892 -3734 0
-1438 -1872 -3754 0
-1438 -1875 -3752 0
-1438 -1878 -3768 0
-1438 -3793 0
-1451 -1918 0
-1451 -1906 -3736 0
-1451 -1890 -3739 0
-1451 -1894 -3734 0
-1451 -1872 -3756 0
-1451 -1877 -3752 0
-1451 -1874 -3768 0
-1451 -3780 0
-1464 -1904 0
-1464 -1906 -3733 0
-1464 -1892 -3739 0
-1464 -1894 -3737 0
-1464 -1875 -3756 0
-1464 -1877 -3754 0
-1464 -1871 -3768 0
-1464 -3766 0
-1477 -1906 0
-1477 -3768 0
-1508 -1888 0
-1508 -1890 -3733 0
-1508 -1892 -3736 0
-1508 -1894 -3740 0
-1508 -1878 -3756 0
-1508 -1874 -3754 0
-1508 -1871 -3752 0
-1508 -3750 0
-1521 -1890 0
-1521 -3752 0
-1552 -1892 0
-1552 -3754 0
-1583 -1894 0
-1583 -3756 0
-1614 -1869 0
-1614 -1872 -3733 0
-1614 -1875 -3736 0
-1614 -1877 -3740 0
-1614 -1878 -3739 0
-1614 -1874 -3737 0
-1614 -1871 -3734 0
-1614 -3731 0
-1627 -1872 0
-1627 -3734 0
-1658 -1875 0
-1658 -3737 0
-1689 -1877 0
-1689 -3739 0
-1720 -1878 0
-1720 -3740 0
-1751 -1874 0
-1751 -3736 0
-1782 -1871 0
-1782 -3733 0
-704 0
-702 0
-758 0
-868 0
-1154 0
706 0
669 0
-2531 0
-2456 -3740 0
-2412 -3737 0
-2399 -3734 0
-2342 -3754 0
-2329 -3752 0
-2303 -3768 0
-2278 -3793 0
-2232 -3810 0
-2219 -3808 0
-2193 -3824 0
-2168 -3849 0
-2153 -3864 0
-2128 -3889 0
-2112 -3915 0
-2114 -3928 0
-2066 -3976 0
-2053 -3974 0
-2027 -3990 0
-2002 -4015 0
-1987 -4030 0
-1962 -4055 0
-1946 -4081 0
-1948 -4094 0
-1931 -4140 0
-1906 -4165 0
-1890 -4191 0
-1892 -4204 0
-1872 -4261 0
-1875 -4274 0
-1878 -4318 0
-4393 0
-2425 0
-2412 -3733 0
-2399 -3736 0
-2386 -3740 0
-2303 -3756 0
-2290 -3754 0
-2276 -3752 0
-2278 -3750 0
-2193 -3812 0
-2180 -3810 0
-2166 -3808 0
-2168 -3806 0
-2110 -3864 0
-2112 -3862 0
-2114 -3876 0
-2116 -3889 0
-2027 -3978 0
-2014 -3976 0
-2000 -3974 0
-2002 -3972 0
-1944 -4030 0
-1946 -4028 0
-1948 -4042 0
-1950 -4055 0
-1888 -4140 0
-1890 -4138 0
-1892 -4152 0
-1894 -4165 0
-1878 -4248 0
-1874 -4261 0
-1871 -4274 0
-4287 0
-550 1658 0
550 -1658 0
-537 1627 0
537 -1627 0
-441 1477 0
441 -1477 0
-416 1438 0
416 -1438 0
-331 1301 0
331 -1301 0
-306 1262 0
306 -1262 0
-250 1166 0
250 -1166 0
-252 1152 0
252 -1152 0
-165 1015 0
165 -1015 0
-140 976 0
140 -976 0
-84 880 0
84 -880 0
-86 866 0
86 -866 0
-28 770 0
28 -770 0
-30 756 0
30 -756 0
-16 700 0
16 -700 0
-1 706 0
1 -706 0
-2568 0
-2564 0
-2620 0
-2730 0
-3016 0
2566 0
2500 0
-638 0
-594 -3736 0
-550 -3739 0
-524 -3734 0
-480 -3756 0
-454 -3752 0
-428 -3768 0
-416 -3780 0
-370 -3812 0
-344 -3808 0
-318 -3824 0
-306 -3836 0
-278 -3864 0
-266 -3876 0
-250 -3902 0
-254 -3928 0
-204 -3978 0
-178 -3974 0
-152 -3990 0
-140 -4002 0
-112 -4030 0
-100 -4042 0
-84 -4068 0
-88 -4094 0
-56 -4140 0
-44 -4152 0
-28 -4178 0
-32 -4204 0
-10 -4248 0
-15 -4274 0
-12 -4318 0
-4362 0
-563 0
-550 -3733 0
-537 -3736 0
-524 -3740 0
-441 -3756 0
-428 -3754 0
-414 -3752 0
-416 -3750 0
-331 -3812 0
-318 -3810 0
-304 -3808 0
-306 -3806 0
-248 -3864 0
-250 -3862 0
-252 -3876 0
-254 -3889 0
-165 -3978 0
-152 -3976 0
-138 -3974 0
-140 -3972 0
-82 -4030 0
-84 -4028 0
-86 -4042 0
-88 -4055 0
-26 -4140 0
-28 -4138 0
-30 -4152 0
-32 -4165 0
-16 -4248 0
-12 -4261 0
-9 -4274 0
-4287 0
-2412 3551 0
2412 -3551 0
-2386 3489 0
2386 -3489 0
-2290 3339 0
2290 -3339 0
-2278 3313 0
2278 -3313 0
-2180 3163 0
2180 -3163 0
-2168 3137 0
2168 -3137 0
-2112 3041 0
2112 -3041 0
-2116 3014 0
2116 -3014 0
-2014 2877 0
2014 -2877 0
-2002 2851 0
2002 -2851 0
-1946 2755 0
1946 -2755 0
-1950 2728 0
1950 -2728 0
-1890 2645 0
1890 -2645 0
-1894 2618 0
1894 -2618 0
-1874 2562 0
1874 -2562 0
-3 2566 0
3 -2566 0
-4430 0
-4428 0
-4442 0
-4878 0
4426 0
4331 0
-607 0
-594 -1871 0
-537 -1877 0
-524 -1875 0
-467 -1894 0
-454 -1892 0
-414 -1906 0
-416 -1904 0
-357 -1950 0
-344 -1948 0
-304 -1962 0
-306 -1960 0
-264 -2002 0
-266 -2000 0
-252 -2040 0
-254 -2053 0
-191 -2116 0
-178 -2114 0
-138 -2128 0
-140 -2126 0
-98 -2168 0
-100 -2166 0
-86 -2206 0
-88 -2219 0
-42 -2278 0
-44 -2276 0
-30 -2316 0
-32 -2329 0
-13 -2386 0
-15 -2399 0
-9 -2456 0
-2469 0
-493 0
-480 -1871 0
-467 -1874 0
-454 -1878 0
-441 -1877 0
-428 -1875 0
-414 -1872 0
-416 -1869 0
-291 -1950 0
-278 -1948 0
-264 -1946 0
-266 -1944 0
-248 -1962 0
-250 -1960 0
-252 -1974 0
-254 -1987 0
-125 -2116 0
-112 -2114 0
-98 -2112 0
-100 -2110 0
-82 -2128 0
-84 -2126 0
-86 -2140 0
-88 -2153 0
-7 -2278 0
-10 -2276 0
-13 -2290 0
-15 -2303 0
-16 -2316 0
-12 -2329 0
-9 -2342 0
-2355 0
-383 0
-370 -1871 0
-357 -1874 0
-344 -1878 0
-331 -1877 0
-318 -1875 0
-304 -1872 0
-306 -1869 0
-291 -1894 0
-278 -1892 0
-264 -1890 0
-266 -1888 0
-248 -1906 0
-250 -1904 0
-252 -1918 0
-254 -1931 0
-69 -2116 0
-56 -2114 0
-42 -2112 0
-44 -2110 0
-26 -2128 0
-28 -2126 0
-30 -2140 0
-32 -2153 0
-7 -2168 0
-10 -2166 0
-13 -2180 0
-15 -2193 0
-16 -2206 0
-12 -2219 0
-9 -2232 0
-2245 0
-3988 4955 0
3988 -4955 0
-3990 4942 0
3990 -4942 0
-3976 4903 0
3976 -4903 0
-3978 4890 0
3978 -4890 0
-3737 4467 0
3737 -4467 0
-3739 4454 0
3739 -4454 0
-3733 4424 0
3733 -4424 0
-5 4426 0
5 -4426 0
