p cnf 6848 21986
1 0
-253 0
118 0
-370 0
199 0
-451 0
244 0
-496 0
-1 -118 -208 -235 0
-1 -118 -217 -226 0
-1 -127 -172 -244 0
-1 -127 -181 -235 0
-1 -127 -190 -226 0
-1 -136 -163 -244 0
-1 -136 -181 -217 0
-1 -136 -190 -208 0
-1 -145 -163 -235 0
-1 -145 -172 -217 0
-1 -145 -190 -199 0
-1 -154 -163 -226 0
-1 -154 -172 -208 0
-1 -154 -181 -199 0
-10 -73 -199 -244 0
-10 -73 -208 -235 0
-10 -73 -217 -226 0
-10 -82 -172 -244 0
-10 -82 -181 -235 0
-10 -82 -190 -226 0
-10 -91 -163 -244 0
-10 -91 -181 -217 0
-10 -91 -190 -208 0
-10 -100 -163 -235 0
-10 -100 -172 -217 0
-10 -100 -190 -199 0
-10 -109 -163 -226 0
-10 -109 -172 -208 0
-10 -109 -181 -199 0
-19 -64 -199 -244 0
-19 -64 -208 -235 0
-19 -64 -217 -226 0
-19 -82 -136 -244 0
-19 -82 -145 -235 0
-19 -82 -154 -226 0
-19 -91 -127 -244 0
-19 -91 -145 -217 0
-19 -91 -154 -208 0
-19 -100 -127 -235 0
-19 -100 -136 -217 0
-19 -100 -154 -199 0
-19 -109 -127 -226 0
-19 -109 -136 -208 0
-19 -109 -145 -199 0
-28 -64 -172 -244 0
-28 -64 -181 -235 0
-28 -64 -190 -226 0
-28 -73 -136 -244 0
-28 -73 -145 -235 0
-28 -73 -154 -226 0
-28 -91 -118 -244 0
-28 -91 -145 -190 0
-28 -91 -154 -181 0
-28 -100 -118 -235 0
-28 -100 -136 -190 0
-28 -100 -154 -172 0
-28 -109 -118 -226 0
-28 -109 -136 -181 0
-28 -109 -145 -172 0
-37 -64 -163 -244 0
-37 -64 -181 -217 0
-37 -64 -190 -208 0
-37 -73 -127 -244 0
-37 -73 -145 -217 0
-37 -73 -154 -208 0
-37 -82 -118 -244 0
-37 -82 -145 -190 0
-37 -82 -154 -181 0
-37 -100 -118 -217 0
-37 -100 -127 -190 0
-37 -100 -154 -163 0
-37 -109 -118 -208 0
-37 -109 -127 -181 0
-37 -109 -145 -163 0
-46 -64 -163 -235 0
-46 -64 -172 -217 0
-46 -64 -190 -199 0
-46 -73 -127 -235 0
-46 -73 -136 -217 0
-46 -73 -154 -199 0
-46 -82 -118 -235 0
-46 -82 -136 -190 0
-46 -82 -154 -172 0
-46 -91 -118 -217 0
-46 -91 -127 -190 0
-46 -91 -154 -163 0
-46 -109 -118 -199 0
-46 -109 -127 -172 0
-46 -109 -136 -163 0
-55 -64 -163 -226 0
-55 -64 -172 -208 0
-55 -64 -181 -199 0
-55 -73 -127 -226 0
-55 -73 -136 -208 0
-55 -73 -145 -199 0
-55 -82 -118 -226 0
-55 -82 -136 -181 0
-55 -82 -145 -172 0
-55 -91 -118 -208 0
-55 -91 -127 -181 0
-55 -91 -145 -163 0
-55 -100 -118 -199 0
-55 -100 -127 -172 0
-55 -100 -136 -163 0
14 0
-266 0
77 0
-329 0
212 0
-464 0
239 0
-491 0
-5 -122 -203 -248 0
-5 -122 -212 -239 0
-5 -122 -221 -230 0
-5 -131 -176 -248 0
-5 -131 -185 -239 0
-5 -131 -194 -230 0
-5 -140 -167 -248 0
-5 -140 -185 -221 0
-5 -140 -194 -212 0
-5 -149 -167 -239 0
-5 -149 -176 -221 0
-5 -149 -194 -203 0
-5 -158 -167 -230 0
-5 -158 -176 -212 0
-5 -158 -185 -203 0
-14 -77 -203 -248 0
-14 -77 -221 -230 0
-14 -86 -176 -248 0
-14 -86 -185 -239 0
-14 -86 -194 -230 0
-14 -95 -167 -248 0
-14 -95 -185 -221 0
-14 -95 -194 -212 0
-14 -104 -167 -239 0
-14 -104 -176 -221 0
-14 -104 -194 -203 0
-14 -113 -167 -230 0
-14 -113 -176 -212 0
-14 -113 -185 -203 0
-23 -68 -203 -248 0
-23 -68 -212 -239 0
-23 -68 -221 -230 0
-23 -86 -140 -248 0
-23 -86 -149 -239 0
-23 -86 -158 -230 0
-23 -95 -131 -248 0
-23 -95 -149 -221 0
-23 -95 -158 -212 0
-23 -104 -131 -239 0
-23 -104 -140 -221 0
-23 -104 -158 -203 0
-23 -113 -131 -230 0
-23 -113 -140 -212 0
-23 -113 -149 -203 0
-32 -68 -176 -248 0
-32 -68 -185 -239 0
-32 -68 -194 -230 0
-32 -77 -140 -248 0
-32 -77 -149 -239 0
-32 -77 -158 -230 0
-32 -95 -122 -248 0
-32 -95 -149 -194 0
-32 -95 -158 -185 0
-32 -104 -122 -239 0
-32 -104 -140 -194 0
-32 -104 -158 -176 0
-32 -113 -122 -230 0
-32 -113 -140 -185 0
-32 -113 -149 -176 0
-41 -68 -167 -248 0
-41 -68 -185 -221 0
-41 -68 -194 -212 0
-41 -77 -131 -248 0
-41 -77 -149 -221 0
-41 -77 -158 -212 0
-41 -86 -122 -248 0
-41 -86 -149 -194 0
-41 -86 -158 -185 0
-41 -104 -122 -221 0
-41 -104 -131 -194 0
-41 -104 -158 -167 0
-41 -113 -122 -212 0
-41 -113 -131 -185 0
-41 -113 -149 -167 0
-50 -68 -167 -239 0
-50 -68 -176 -221 0
-50 -68 -194 -203 0
-50 -77 -131 -239 0
-50 -77 -140 -221 0
-50 -77 -158 -203 0
-50 -86 -122 -239 0
-50 -86 -140 -194 0
-50 -86 -158 -176 0
-50 -95 -122 -221 0
-50 -95 -131 -194 0
-50 -95 -158 -167 0
-50 -113 -122 -203 0
-50 -113 -131 -176 0
-50 -113 -140 -167 0
-59 -68 -167 -230 0
-59 -68 -176 -212 0
-59 -68 -185 -203 0
-59 -77 -131 -230 0
-59 -77 -140 -212 0
-59 -77 -149 -203 0
-59 -86 -122 -230 0
-59 -86 -140 -185 0
-59 -86 -149 -176 0
-59 -95 -122 -212 0
-59 -95 -131 -185 0
-59 -95 -149 -167 0
-59 -104 -122 -203 0
-59 -104 -131 -176 0
-59 -104 -140 -167 0
27 0
-279 0
90 0
-342 0
162 0
-414 0
234 0
-486 0
-9 -126 -207 -252 0
-9 -126 -216 -243 0
-9 -126 -225 -234 0
-9 -135 -180 -252 0
-9 -135 -189 -243 0
-9 -135 -198 -234 0
-9 -144 -171 -252 0
-9 -144 -189 -225 0
-9 -144 -198 -216 0
-9 -153 -171 -243 0
-9 -153 -180 -225 0
-9 -153 -198 -207 0
-9 -162 -171 -234 0
-9 -162 -180 -216 0
-9 -162 -189 -207 0
-18 -81 -207 -252 0
-18 -81 -216 -243 0
-18 -81 -225 -234 0
-18 -90 -180 -252 0
-18 -90 -189 -243 0
-18 -90 -198 -234 0
-18 -99 -171 -252 0
-18 -99 -189 -225 0
-18 -99 -198 -216 0
-18 -108 -171 -243 0
-18 -108 -180 -225 0
-18 -108 -198 -207 0
-18 -117 -171 -234 0
-18 -117 -180 -216 0
-18 -117 -189 -207 0
-27 -72 -207 -252 0
-27 -72 -216 -243 0
-27 -72 -225 -234 0
-27 -90 -144 -252 0
-27 -90 -153 -243 0
-27 -99 -135 -252 0
-27 -99 -153 -225 0
-27 -99 -162 -216 0
-27 -108 -135 -243 0
-27 -108 -144 -225 0
-27 -108 -162 -207 0
-27 -117 -135 -234 0
-27 -117 -144 -216 0
-27 -117 -153 -207 0
-36 -72 -180 -252 0
-36 -72 -189 -243 0
-36 -72 -198 -234 0
-36 -81 -144 -252 0
-36 -81 -153 -243 0
-36 -81 -162 -234 0
-36 -99 -126 -252 0
-36 -99 -153 -198 0
-36 -99 -162 -189 0
-36 -108 -126 -243 0
-36 -108 -144 -198 0
-36 -108 -162 -180 0
-36 -117 -126 -234 0
-36 -117 -144 -189 0
-36 -117 -153 -180 0
-45 -72 -171 -252 0
-45 -72 -189 -225 0
-45 -72 -198 -216 0
-45 -81 -135 -252 0
-45 -81 -153 -225 0
-45 -81 -162 -216 0
-45 -90 -126 -252 0
-45 -90 -153 -198 0
-45 -90 -162 -189 0
-45 -108 -126 -225 0
-45 -108 -135 -198 0
-45 -108 -162 -171 0
-45 -117 -126 -216 0
-45 -117 -135 -189 0
-45 -117 -153 -171 0
-54 -72 -171 -243 0
-54 -72 -180 -225 0
-54 -72 -198 -207 0
-54 -81 -135 -243 0
-54 -81 -144 -225 0
-54 -81 -162 -207 0
-54 -90 -126 -243 0
-54 -90 -144 -198 0
-54 -90 -162 -180 0
-54 -99 -126 -225 0
-54 -99 -135 -198 0
-54 -99 -162 -171 0
-54 -117 -126 -207 0
-54 -117 -135 -180 0
-54 -117 -144 -171 0
-63 -72 -171 -234 0
-63 -72 -180 -216 0
-63 -72 -189 -207 0
-63 -81 -135 -234 0
-63 -81 -144 -216 0
-63 -81 -153 -207 0
-63 -90 -126 -234 0
-63 -90 -144 -189 0
-63 -90 -153 -180 0
-63 -99 -126 -216 0
-63 -99 -135 -189 0
-63 -99 -153 -171 0
-63 -108 -126 -207 0
-63 -108 -135 -180 0
-63 -108 -144 -171 0
-523 509 526 0
-524 510 526 0
-525 511 526 0
-516 509 526 0
-517 510 526 0
-518 511 526 0
-516 -523 510 526 0
-516 -524 511 526 0
-516 -525 526 0
-517 -523 511 526 0
-517 -524 526 0
-517 -525 509 0
-518 -523 526 0
-518 -524 509 0
-518 -525 510 0
-526 505 0
-519 505 0
-526 -519 506 0
-520 506 0
-526 -520 507 0
-521 507 0
-526 -521 508 0
-522 508 0
-526 -522 0
-512 505 0
-526 -512 506 0
-513 506 0
-526 -513 507 0
-514 507 0
-526 -514 508 0
-515 508 0
-526 -515 0
-512 -519 506 0
-526 -512 -519 507 0
-512 -520 507 0
-526 -512 -520 508 0
-512 -521 508 0
-526 -512 -521 0
-512 -522 0
-526 -512 -522 0
-513 -519 507 0
-526 -513 -519 508 0
-513 -520 508 0
-526 -513 -520 0
-513 -521 0
-526 -513 -521 0
-513 -522 0
-526 -513 -522 0
-514 -519 508 0
-526 -514 -519 0
-514 -520 0
-526 -514 -520 0
-514 -521 0
-526 -514 -521 0
-514 -522 0
-526 -514 -522 0
-515 -519 0
-526 -515 -519 0
-515 -520 0
-526 -515 -520 0
-515 -521 0
-526 -515 -521 0
-515 -522 0
-526 -515 -522 0
-538 523 541 0
-539 524 541 0
-540 525 541 0
-531 523 541 0
-532 524 541 0
-533 525 541 0
-531 -538 524 541 0
-531 -539 525 541 0
-531 -540 541 0
-532 -538 525 541 0
-532 -539 541 0
-532 -540 523 0
-533 -538 541 0
-533 -539 523 0
-533 -540 524 0
-541 519 0
-534 519 0
-541 -534 520 0
-535 520 0
-541 -535 521 0
-536 521 0
-541 -536 522 0
-537 522 0
-541 -537 0
-527 519 0
-541 -527 520 0
-528 520 0
-541 -528 521 0
-529 521 0
-541 -529 522 0
-530 522 0
-541 -530 0
-527 -534 520 0
-541 -527 -534 521 0
-527 -535 521 0
-541 -527 -535 522 0
-527 -536 522 0
-541 -527 -536 0
-527 -537 0
-541 -527 -537 0
-528 -534 521 0
-541 -528 -534 522 0
-528 -535 522 0
-541 -528 -535 0
-528 -536 0
-541 -528 -536 0
-528 -537 0
-541 -528 -537 0
-529 -534 522 0
-541 -529 -534 0
-529 -535 0
-541 -529 -535 0
-529 -536 0
-541 -529 -536 0
-529 -537 0
-541 -529 -537 0
-530 -534 0
-541 -530 -534 0
-530 -535 0
-541 -530 -535 0
-530 -536 0
-541 -530 -536 0
-530 -537 0
-541 -530 -537 0
-553 538 556 0
-554 539 556 0
-555 540 556 0
-546 538 556 0
-547 539 556 0
-548 540 556 0
-546 -553 539 556 0
-546 -554 540 556 0
-546 -555 556 0
-547 -553 540 556 0
-547 -554 556 0
-547 -555 538 0
-548 -553 556 0
-548 -554 538 0
-548 -555 539 0
-556 534 0
-549 534 0
-556 -549 535 0
-550 535 0
-556 -550 536 0
-551 536 0
-556 -551 537 0
-552 537 0
-556 -552 0
-542 534 0
-556 -542 535 0
-543 535 0
-556 -543 536 0
-544 536 0
-556 -544 537 0
-545 537 0
-556 -545 0
-542 -549 535 0
-556 -542 -549 536 0
-542 -550 536 0
-556 -542 -550 537 0
-542 -551 537 0
-556 -542 -551 0
-542 -552 0
-556 -542 -552 0
-543 -549 536 0
-556 -543 -549 537 0
-543 -550 537 0
-556 -543 -550 0
-543 -551 0
-556 -543 -551 0
-543 -552 0
-556 -543 -552 0
-544 -549 537 0
-556 -544 -549 0
-544 -550 0
-556 -544 -550 0
-544 -551 0
-556 -544 -551 0
-544 -552 0
-556 -544 -552 0
-545 -549 0
-556 -545 -549 0
-545 -550 0
-556 -545 -550 0
-545 -551 0
-556 -545 -551 0
-545 -552 0
-556 -545 -552 0
-567 553 570 0
-568 554 570 0
-569 555 570 0
-561 553 570 0
-562 554 570 0
-563 555 570 0
-561 -567 554 570 0
-561 -568 555 570 0
-561 -569 570 0
-562 -567 555 570 0
-562 -568 570 0
-562 -569 553 0
-563 -567 570 0
-563 -568 553 0
-563 -569 554 0
-570 549 0
-564 549 0
-570 -564 550 0
-565 550 0
-570 -565 551 0
-566 551 0
-570 -566 552 0
-557 549 0
-570 -557 550 0
-558 550 0
-570 -558 551 0
-559 551 0
-570 -559 552 0
-560 552 0
-570 -560 0
-557 -564 550 0
-570 -557 -564 551 0
-557 -565 551 0
-570 -557 -565 552 0
-557 -566 552 0
-570 -557 -566 0
-558 -564 551 0
-570 -558 -564 552 0
-558 -565 552 0
-570 -558 -565 0
-558 -566 0
-570 -558 -566 0
-559 -564 552 0
-570 -559 -564 0
-559 -565 0
-570 -559 -565 0
-559 -566 0
-570 -559 -566 0
-560 -564 0
-570 -560 -564 0
-560 -565 0
-570 -560 -565 0
-560 -566 0
-570 -560 -566 0
-577 567 580 0
-578 568 580 0
-579 569 580 0
-573 567 580 0
-574 568 580 0
-575 569 580 0
-573 -577 568 580 0
-573 -578 569 580 0
-573 -579 580 0
-574 -577 569 580 0
-574 -578 580 0
-574 -579 567 0
-575 -577 580 0
-575 -578 567 0
-575 -579 568 0
-580 564 0
-576 564 0
-580 -576 565 0
-571 564 0
-580 -571 565 0
-572 565 0
-580 -572 566 0
-571 -576 565 0
-580 -571 -576 566 0
-572 -576 566 0
-580 -572 -576 0
-252 585 0
-588 585 0
-589 586 0
-588 -252 586 0
-589 -252 587 0
-251 588 0
-250 588 0
-250 -251 589 0
-585 577 590 0
-586 578 590 0
-587 579 590 0
-582 577 590 0
-583 578 590 0
-584 579 590 0
-582 -585 578 590 0
-582 -586 579 590 0
-582 -587 590 0
-583 -585 579 590 0
-583 -586 590 0
-583 -587 577 0
-584 -585 590 0
-584 -586 577 0
-584 -587 578 0
-590 576 0
-581 576 0
-590 -581 0
-247 591 0
-246 591 0
-246 -247 592 0
-249 593 0
-248 593 0
-248 -249 594 0
-593 582 595 0
-594 583 595 0
-591 582 595 0
-592 583 595 0
-591 -593 583 595 0
-591 -594 584 595 0
-592 -593 584 595 0
-592 -594 595 0
-595 581 0
-601 573 604 0
-602 574 604 0
-603 575 604 0
-597 573 604 0
-598 574 604 0
-599 575 604 0
-597 -601 574 604 0
-597 -602 575 604 0
-597 -603 604 0
-598 -601 575 604 0
-598 -602 604 0
-598 -603 573 0
-599 -601 604 0
-599 -602 573 0
-599 -603 574 0
-604 571 0
-600 571 0
-604 -600 572 0
-596 571 0
-604 -596 572 0
-596 -600 572 0
-604 -596 -600 0
-243 605 0
-242 605 0
-242 -243 606 0
-245 607 0
-244 607 0
-244 -245 608 0
-607 601 609 0
-608 602 609 0
-605 601 609 0
-606 602 609 0
-605 -607 602 609 0
-605 -608 603 609 0
-606 -607 603 609 0
-606 -608 609 0
-609 600 0
-239 610 0
-238 610 0
-238 -239 611 0
-241 612 0
-240 612 0
-240 -241 613 0
-612 597 614 0
-613 598 614 0
-610 597 614 0
-611 598 614 0
-610 -612 598 614 0
-610 -613 599 614 0
-611 -612 599 614 0
-611 -613 614 0
-614 596 0
-622 561 625 0
-623 562 625 0
-624 563 625 0
-617 561 625 0
-618 562 625 0
-619 563 625 0
-617 -622 562 625 0
-617 -623 563 625 0
-617 -624 625 0
-618 -622 563 625 0
-618 -623 625 0
-618 -624 561 0
-619 -622 625 0
-619 -623 561 0
-619 -624 562 0
-625 557 0
-620 557 0
-625 -620 558 0
-621 558 0
-625 -621 559 0
-615 557 0
-625 -615 558 0
-616 558 0
-625 -616 559 0
-615 -620 558 0
-625 -615 -620 559 0
-615 -621 559 0
-625 -615 -621 560 0
-616 -620 559 0
-625 -616 -620 560 0
-616 -621 560 0
-625 -616 -621 0
-631 622 634 0
-632 623 634 0
-633 624 634 0
-627 622 634 0
-628 623 634 0
-629 624 634 0
-627 -631 623 634 0
-627 -632 624 634 0
-627 -633 634 0
-628 -631 624 634 0
-628 -632 634 0
-628 -633 622 0
-629 -631 634 0
-629 -632 622 0
-629 -633 623 0
-634 620 0
-630 620 0
-634 -630 621 0
-626 620 0
-634 -626 621 0
-626 -630 621 0
-634 -626 -630 0
-235 635 0
-234 635 0
-234 -235 636 0
-237 637 0
-236 637 0
-236 -237 638 0
-637 631 639 0
-638 632 639 0
-635 631 639 0
-636 632 639 0
-635 -637 632 639 0
-635 -638 633 639 0
-636 -637 633 639 0
-636 -638 639 0
-639 630 0
-231 640 0
-230 640 0
-230 -231 641 0
-233 642 0
-232 642 0
-232 -233 643 0
-642 627 644 0
-643 628 644 0
-640 627 644 0
-641 628 644 0
-640 -642 628 644 0
-640 -643 629 644 0
-641 -642 629 644 0
-641 -643 644 0
-644 626 0
-650 617 653 0
-651 618 653 0
-652 619 653 0
-646 617 653 0
-647 618 653 0
-648 619 653 0
-646 -650 618 653 0
-646 -651 619 653 0
-646 -652 653 0
-647 -650 619 653 0
-647 -651 653 0
-647 -652 617 0
-648 -650 653 0
-648 -651 617 0
-648 -652 618 0
-653 615 0
-649 615 0
-653 -649 616 0
-645 615 0
-653 -645 616 0
-645 -649 616 0
-653 -645 -649 0
-227 654 0
-226 654 0
-226 -227 655 0
-229 656 0
-228 656 0
-228 -229 657 0
-656 650 658 0
-657 651 658 0
-654 650 658 0
-655 651 658 0
-654 -656 651 658 0
-654 -657 652 658 0
-655 -656 652 658 0
-655 -657 658 0
-658 649 0
-223 659 0
-222 659 0
-222 -223 660 0
-225 661 0
-224 661 0
-224 -225 662 0
-661 646 663 0
-662 647 663 0
-659 646 663 0
-660 647 663 0
-659 -661 647 663 0
-659 -662 648 663 0
-660 -661 648 663 0
-660 -662 663 0
-663 645 0
-675 546 678 0
-676 547 678 0
-677 548 678 0
-668 546 678 0
-669 547 678 0
-670 548 678 0
-668 -675 547 678 0
-668 -676 548 678 0
-668 -677 678 0
-669 -675 548 678 0
-669 -676 678 0
-669 -677 546 0
-670 -675 678 0
-670 -676 546 0
-670 -677 547 0
-678 542 0
-671 542 0
-678 -671 543 0
-672 543 0
-678 -672 544 0
-673 544 0
-678 -673 545 0
-674 545 0
-678 -674 0
-664 542 0
-678 -664 543 0
-665 543 0
-678 -665 544 0
-666 544 0
-678 -666 545 0
-667 545 0
-678 -667 0
-664 -671 543 0
-678 -664 -671 544 0
-664 -672 544 0
-678 -664 -672 545 0
-664 -673 545 0
-678 -664 -673 0
-664 -674 0
-678 -664 -674 0
-665 -671 544 0
-678 -665 -671 545 0
-665 -672 545 0
-678 -665 -672 0
-665 -673 0
-678 -665 -673 0
-665 -674 0
-678 -665 -674 0
-666 -671 545 0
-678 -666 -671 0
-666 -672 0
-678 -666 -672 0
-666 -673 0
-678 -666 -673 0
-666 -674 0
-678 -666 -674 0
-667 -671 0
-678 -667 -671 0
-667 -672 0
-678 -667 -672 0
-667 -673 0
-678 -667 -673 0
-667 -674 0
-678 -667 -674 0
-686 675 689 0
-687 676 689 0
-688 677 689 0
-681 675 689 0
-682 676 689 0
-683 677 689 0
-681 -686 676 689 0
-681 -687 677 689 0
-681 -688 689 0
-682 -686 677 689 0
-682 -687 689 0
-682 -688 675 0
-683 -686 689 0
-683 -687 675 0
-683 -688 676 0
-689 671 0
-684 671 0
-689 -684 672 0
-685 672 0
-689 -685 673 0
-679 671 0
-689 -679 672 0
-680 672 0
-689 -680 673 0
-679 -684 672 0
-689 -679 -684 673 0
-679 -685 673 0
-689 -679 -685 674 0
-680 -684 673 0
-689 -680 -684 674 0
-680 -685 674 0
-689 -680 -685 0
-695 686 698 0
-696 687 698 0
-697 688 698 0
-691 686 698 0
-692 687 698 0
-693 688 698 0
-691 -695 687 698 0
-691 -696 688 698 0
-691 -697 698 0
-692 -695 688 698 0
-692 -696 698 0
-692 -697 686 0
-693 -695 698 0
-693 -696 686 0
-693 -697 687 0
-698 684 0
-694 684 0
-698 -694 685 0
-690 684 0
-698 -690 685 0
-690 -694 685 0
-698 -690 -694 0
-219 699 0
-218 699 0
-218 -219 700 0
-221 701 0
-220 701 0
-220 -221 702 0
-701 695 703 0
-702 696 703 0
-699 695 703 0
-700 696 703 0
-699 -701 696 703 0
-699 -702 697 703 0
-700 -701 697 703 0
-700 -702 703 0
-703 694 0
-215 704 0
-214 704 0
-214 -215 705 0
-217 706 0
-216 706 0
-216 -217 707 0
-706 691 708 0
-707 692 708 0
-704 691 708 0
-705 692 708 0
-704 -706 692 708 0
-704 -707 693 708 0
-705 -706 693 708 0
-705 -707 708 0
-708 690 0
-714 681 717 0
-715 682 717 0
-716 683 717 0
-710 681 717 0
-711 682 717 0
-712 683 717 0
-710 -714 682 717 0
-710 -715 683 717 0
-710 -716 717 0
-711 -714 683 717 0
-711 -715 717 0
-711 -716 681 0
-712 -714 717 0
-712 -715 681 0
-712 -716 682 0
-717 679 0
-713 679 0
-717 -713 680 0
-709 679 0
-717 -709 680 0
-709 -713 680 0
-717 -709 -713 0
-211 718 0
-210 718 0
-210 -211 719 0
-213 720 0
-212 720 0
-212 -213 721 0
-720 714 722 0
-721 715 722 0
-718 714 722 0
-719 715 722 0
-718 -720 715 722 0
-718 -721 716 722 0
-719 -720 716 722 0
-719 -721 722 0
-722 713 0
-207 723 0
-206 723 0
-206 -207 724 0
-209 725 0
-208 725 0
-208 -209 726 0
-725 710 727 0
-726 711 727 0
-723 710 727 0
-724 711 727 0
-723 -725 711 727 0
-723 -726 712 727 0
-724 -725 712 727 0
-724 -726 727 0
-727 709 0
-735 668 738 0
-736 669 738 0
-737 670 738 0
-730 668 738 0
-731 669 738 0
-732 670 738 0
-730 -735 669 738 0
-730 -736 670 738 0
-730 -737 738 0
-731 -735 670 738 0
-731 -736 738 0
-731 -737 668 0
-732 -735 738 0
-732 -736 668 0
-732 -737 669 0
-738 664 0
-733 664 0
-738 -733 665 0
-734 665 0
-738 -734 666 0
-728 664 0
-738 -728 665 0
-729 665 0
-738 -729 666 0
-728 -733 665 0
-738 -728 -733 666 0
-728 -734 666 0
-738 -728 -734 667 0
-729 -733 666 0
-738 -729 -733 667 0
-729 -734 667 0
-738 -729 -734 0
-744 735 747 0
-745 736 747 0
-746 737 747 0
-740 735 747 0
-741 736 747 0
-742 737 747 0
-740 -744 736 747 0
-740 -745 737 747 0
-740 -746 747 0
-741 -744 737 747 0
-741 -745 747 0
-741 -746 735 0
-742 -744 747 0
-742 -745 735 0
-742 -746 736 0
-747 733 0
-743 733 0
-747 -743 734 0
-739 733 0
-747 -739 734 0
-739 -743 734 0
-747 -739 -743 0
-203 748 0
-202 748 0
-202 -203 749 0
-205 750 0
-204 750 0
-204 -205 751 0
-750 744 752 0
-751 745 752 0
-748 744 752 0
-749 745 752 0
-748 -750 745 752 0
-748 -751 746 752 0
-749 -750 746 752 0
-749 -751 752 0
-752 743 0
-199 753 0
-198 753 0
-198 -199 754 0
-201 755 0
-200 755 0
-200 -201 756 0
-755 740 757 0
-756 741 757 0
-753 740 757 0
-754 741 757 0
-753 -755 741 757 0
-753 -756 742 757 0
-754 -755 742 757 0
-754 -756 757 0
-757 739 0
-763 730 766 0
-764 731 766 0
-765 732 766 0
-759 730 766 0
-760 731 766 0
-761 732 766 0
-759 -763 731 766 0
-759 -764 732 766 0
-759 -765 766 0
-760 -763 732 766 0
-760 -764 766 0
-760 -765 730 0
-761 -763 766 0
-761 -764 730 0
-761 -765 731 0
-766 728 0
-762 728 0
-766 -762 729 0
-758 728 0
-766 -758 729 0
-758 -762 729 0
-766 -758 -762 0
-195 767 0
-194 767 0
-194 -195 768 0
-197 769 0
-196 769 0
-196 -197 770 0
-769 763 771 0
-770 764 771 0
-767 763 771 0
-768 764 771 0
-767 -769 764 771 0
-767 -770 765 771 0
-768 -769 765 771 0
-768 -770 771 0
-771 762 0
-191 772 0
-190 772 0
-190 -191 773 0
-193 774 0
-192 774 0
-192 -193 775 0
-774 759 776 0
-775 760 776 0
-772 759 776 0
-773 760 776 0
-772 -774 760 776 0
-772 -775 761 776 0
-773 -774 761 776 0
-773 -775 776 0
-776 758 0
-788 531 791 0
-789 532 791 0
-790 533 791 0
-781 531 791 0
-782 532 791 0
-783 533 791 0
-781 -788 532 791 0
-781 -789 533 791 0
-781 -790 791 0
-782 -788 533 791 0
-782 -789 791 0
-782 -790 531 0
-783 -788 791 0
-783 -789 531 0
-783 -790 532 0
-791 527 0
-784 527 0
-791 -784 528 0
-785 528 0
-791 -785 529 0
-786 529 0
-791 -786 530 0
-787 530 0
-791 -787 0
-777 527 0
-791 -777 528 0
-778 528 0
-791 -778 529 0
-779 529 0
-791 -779 530 0
-780 530 0
-791 -780 0
-777 -784 528 0
-791 -777 -784 529 0
-777 -785 529 0
-791 -777 -785 530 0
-777 -786 530 0
-791 -777 -786 0
-777 -787 0
-791 -777 -787 0
-778 -784 529 0
-791 -778 -784 530 0
-778 -785 530 0
-791 -778 -785 0
-778 -786 0
-791 -778 -786 0
-778 -787 0
-791 -778 -787 0
-779 -784 530 0
-791 -779 -784 0
-779 -785 0
-791 -779 -785 0
-779 -786 0
-791 -779 -786 0
-779 -787 0
-791 -779 -787 0
-780 -784 0
-791 -780 -784 0
-780 -785 0
-791 -780 -785 0
-780 -786 0
-791 -780 -786 0
-780 -787 0
-791 -780 -787 0
-802 788 805 0
-803 789 805 0
-804 790 805 0
-796 788 805 0
-797 789 805 0
-798 790 805 0
-796 -802 789 805 0
-796 -803 790 805 0
-796 -804 805 0
-797 -802 790 805 0
-797 -803 805 0
-797 -804 788 0
-798 -802 805 0
-798 -803 788 0
-798 -804 789 0
-805 784 0
-799 784 0
-805 -799 785 0
-800 785 0
-805 -800 786 0
-801 786 0
-805 -801 787 0
-792 784 0
-805 -792 785 0
-793 785 0
-805 -793 786 0
-794 786 0
-805 -794 787 0
-795 787 0
-805 -795 0
-792 -799 785 0
-805 -792 -799 786 0
-792 -800 786 0
-805 -792 -800 787 0
-792 -801 787 0
-805 -792 -801 0
-793 -799 786 0
-805 -793 -799 787 0
-793 -800 787 0
-805 -793 -800 0
-793 -801 0
-805 -793 -801 0
-794 -799 787 0
-805 -794 -799 0
-794 -800 0
-805 -794 -800 0
-794 -801 0
-805 -794 -801 0
-795 -799 0
-805 -795 -799 0
-795 -800 0
-805 -795 -800 0
-795 -801 0
-805 -795 -801 0
-812 802 815 0
-813 803 815 0
-814 804 815 0
-808 802 815 0
-809 803 815 0
-810 804 815 0
-808 -812 803 815 0
-808 -813 804 815 0
-808 -814 815 0
-809 -812 804 815 0
-809 -813 815 0
-809 -814 802 0
-810 -812 815 0
-810 -813 802 0
-810 -814 803 0
-815 799 0
-811 799 0
-815 -811 800 0
-806 799 0
-815 -806 800 0
-807 800 0
-815 -807 801 0
-806 -811 800 0
-815 -806 -811 801 0
-807 -811 801 0
-815 -807 -811 0
-189 820 0
-823 820 0
-824 821 0
-823 -189 821 0
-824 -189 822 0
-188 823 0
-187 823 0
-187 -188 824 0
-820 812 825 0
-821 813 825 0
-822 814 825 0
-817 812 825 0
-818 813 825 0
-819 814 825 0
-817 -820 813 825 0
-817 -821 814 825 0
-817 -822 825 0
-818 -820 814 825 0
-818 -821 825 0
-818 -822 812 0
-819 -820 825 0
-819 -821 812 0
-819 -822 813 0
-825 811 0
-816 811 0
-825 -816 0
-184 826 0
-183 826 0
-183 -184 827 0
-186 828 0
-185 828 0
-185 -186 829 0
-828 817 830 0
-829 818 830 0
-826 817 830 0
-827 818 830 0
-826 -828 818 830 0
-826 -829 819 830 0
-827 -828 819 830 0
-827 -829 830 0
-830 816 0
-836 808 839 0
-837 809 839 0
-838 810 839 0
-832 808 839 0
-833 809 839 0
-834 810 839 0
-832 -836 809 839 0
-832 -837 810 839 0
-832 -838 839 0
-833 -836 810 839 0
-833 -837 839 0
-833 -838 808 0
-834 -836 839 0
-834 -837 808 0
-834 -838 809 0
-839 806 0
-835 806 0
-839 -835 807 0
-831 806 0
-839 -831 807 0
-831 -835 807 0
-839 -831 -835 0
-180 840 0
-179 840 0
-179 -180 841 0
-182 842 0
-181 842 0
-181 -182 843 0
-842 836 844 0
-843 837 844 0
-840 836 844 0
-841 837 844 0
-840 -842 837 844 0
-840 -843 838 844 0
-841 -842 838 844 0
-841 -843 844 0
-844 835 0
-176 845 0
-175 845 0
-175 -176 846 0
-178 847 0
-177 847 0
-177 -178 848 0
-847 832 849 0
-848 833 849 0
-845 832 849 0
-846 833 849 0
-845 -847 833 849 0
-845 -848 834 849 0
-846 -847 834 849 0
-846 -848 849 0
-849 831 0
-857 796 860 0
-858 797 860 0
-859 798 860 0
-852 796 860 0
-853 797 860 0
-854 798 860 0
-852 -857 797 860 0
-852 -858 798 860 0
-852 -859 860 0
-853 -857 798 860 0
-853 -858 860 0
-853 -859 796 0
-854 -857 860 0
-854 -858 796 0
-854 -859 797 0
-860 792 0
-855 792 0
-860 -855 793 0
-856 793 0
-860 -856 794 0
-850 792 0
-860 -850 793 0
-851 793 0
-860 -851 794 0
-850 -855 793 0
-860 -850 -855 794 0
-850 -856 794 0
-860 -850 -856 795 0
-851 -855 794 0
-860 -851 -855 795 0
-851 -856 795 0
-860 -851 -856 0
-866 857 869 0
-867 858 869 0
-868 859 869 0
-862 857 869 0
-863 858 869 0
-864 859 869 0
-862 -866 858 869 0
-862 -867 859 869 0
-862 -868 869 0
-863 -866 859 869 0
-863 -867 869 0
-863 -868 857 0
-864 -866 869 0
-864 -867 857 0
-864 -868 858 0
-869 855 0
-865 855 0
-869 -865 856 0
-861 855 0
-869 -861 856 0
-861 -865 856 0
-869 -861 -865 0
-172 870 0
-171 870 0
-171 -172 871 0
-174 872 0
-173 872 0
-173 -174 873 0
-872 866 874 0
-873 867 874 0
-870 866 874 0
-871 867 874 0
-870 -872 867 874 0
-870 -873 868 874 0
-871 -872 868 874 0
-871 -873 874 0
-874 865 0
-168 875 0
-167 875 0
-167 -168 876 0
-170 877 0
-169 877 0
-169 -170 878 0
-877 862 879 0
-878 863 879 0
-875 862 879 0
-876 863 879 0
-875 -877 863 879 0
-875 -878 864 879 0
-876 -877 864 879 0
-876 -878 879 0
-879 861 0
-885 852 888 0
-886 853 888 0
-887 854 888 0
-881 852 888 0
-882 853 888 0
-883 854 888 0
-881 -885 853 888 0
-881 -886 854 888 0
-881 -887 888 0
-882 -885 854 888 0
-882 -886 888 0
-882 -887 852 0
-883 -885 888 0
-883 -886 852 0
-883 -887 853 0
-888 850 0
-884 850 0
-888 -884 851 0
-880 850 0
-888 -880 851 0
-880 -884 851 0
-888 -880 -884 0
-164 889 0
-163 889 0
-163 -164 890 0
-166 891 0
-165 891 0
-165 -166 892 0
-891 885 893 0
-892 886 893 0
-889 885 893 0
-890 886 893 0
-889 -891 886 893 0
-889 -892 887 893 0
-890 -891 887 893 0
-890 -892 893 0
-893 884 0
-160 894 0
-159 894 0
-159 -160 895 0
-162 896 0
-161 896 0
-161 -162 897 0
-896 881 898 0
-897 882 898 0
-894 881 898 0
-895 882 898 0
-894 -896 882 898 0
-894 -897 883 898 0
-895 -896 883 898 0
-895 -897 898 0
-898 880 0
-910 781 913 0
-911 782 913 0
-912 783 913 0
-903 781 913 0
-904 782 913 0
-905 783 913 0
-903 -910 782 913 0
-903 -911 783 913 0
-903 -912 913 0
-904 -910 783 913 0
-904 -911 913 0
-904 -912 781 0
-905 -910 913 0
-905 -911 781 0
-905 -912 782 0
-913 777 0
-906 777 0
-913 -906 778 0
-907 778 0
-913 -907 779 0
-908 779 0
-913 -908 780 0
-909 780 0
-913 -909 0
-899 777 0
-913 -899 778 0
-900 778 0
-913 -900 779 0
-901 779 0
-913 -901 780 0
-902 780 0
-913 -902 0
-899 -906 778 0
-913 -899 -906 779 0
-899 -907 779 0
-913 -899 -907 780 0
-899 -908 780 0
-913 -899 -908 0
-899 -909 0
-913 -899 -909 0
-900 -906 779 0
-913 -900 -906 780 0
-900 -907 780 0
-913 -900 -907 0
-900 -908 0
-913 -900 -908 0
-900 -909 0
-913 -900 -909 0
-901 -906 780 0
-913 -901 -906 0
-901 -907 0
-913 -901 -907 0
-901 -908 0
-913 -901 -908 0
-901 -909 0
-913 -901 -909 0
-902 -906 0
-913 -902 -906 0
-902 -907 0
-913 -902 -907 0
-902 -908 0
-913 -902 -908 0
-902 -909 0
-913 -902 -909 0
-921 910 924 0
-922 911 924 0
-923 912 924 0
-916 910 924 0
-917 911 924 0
-918 912 924 0
-916 -921 911 924 0
-916 -922 912 924 0
-916 -923 924 0
-917 -921 912 924 0
-917 -922 924 0
-917 -923 910 0
-918 -921 924 0
-918 -922 910 0
-918 -923 911 0
-924 906 0
-919 906 0
-924 -919 907 0
-920 907 0
-924 -920 908 0
-914 906 0
-924 -914 907 0
-915 907 0
-924 -915 908 0
-914 -919 907 0
-924 -914 -919 908 0
-914 -920 908 0
-924 -914 -920 909 0
-915 -919 908 0
-924 -915 -919 909 0
-915 -920 909 0
-924 -915 -920 0
-930 921 933 0
-931 922 933 0
-932 923 933 0
-926 921 933 0
-927 922 933 0
-928 923 933 0
-926 -930 922 933 0
-926 -931 923 933 0
-926 -932 933 0
-927 -930 923 933 0
-927 -931 933 0
-927 -932 921 0
-928 -930 933 0
-928 -931 921 0
-928 -932 922 0
-933 919 0
-929 919 0
-933 -929 920 0
-925 919 0
-933 -925 920 0
-925 -929 920 0
-933 -925 -929 0
-156 934 0
-155 934 0
-155 -156 935 0
-158 936 0
-157 936 0
-157 -158 937 0
-936 930 938 0
-937 931 938 0
-934 930 938 0
-935 931 938 0
-934 -936 931 938 0
-934 -937 932 938 0
-935 -936 932 938 0
-935 -937 938 0
-938 929 0
-152 939 0
-151 939 0
-151 -152 940 0
-154 941 0
-153 941 0
-153 -154 942 0
-941 926 943 0
-942 927 943 0
-939 926 943 0
-940 927 943 0
-939 -941 927 943 0
-939 -942 928 943 0
-940 -941 928 943 0
-940 -942 943 0
-943 925 0
-949 916 952 0
-950 917 952 0
-951 918 952 0
-945 916 952 0
-946 917 952 0
-947 918 952 0
-945 -949 917 952 0
-945 -950 918 952 0
-945 -951 952 0
-946 -949 918 952 0
-946 -950 952 0
-946 -951 916 0
-947 -949 952 0
-947 -950 916 0
-947 -951 917 0
-952 914 0
-948 914 0
-952 -948 915 0
-944 914 0
-952 -944 915 0
-944 -948 915 0
-952 -944 -948 0
-148 953 0
-147 953 0
-147 -148 954 0
-150 955 0
-149 955 0
-149 -150 956 0
-955 949 957 0
-956 950 957 0
-953 949 957 0
-954 950 957 0
-953 -955 950 957 0
-953 -956 951 957 0
-954 -955 951 957 0
-954 -956 957 0
-957 948 0
-144 958 0
-143 958 0
-143 -144 959 0
-146 960 0
-145 960 0
-145 -146 961 0
-960 945 962 0
-961 946 962 0
-958 945 962 0
-959 946 962 0
-958 -960 946 962 0
-958 -961 947 962 0
-959 -960 947 962 0
-959 -961 962 0
-962 944 0
-970 903 973 0
-971 904 973 0
-972 905 973 0
-965 903 973 0
-966 904 973 0
-967 905 973 0
-965 -970 904 973 0
-965 -971 905 973 0
-965 -972 973 0
-966 -970 905 973 0
-966 -971 973 0
-966 -972 903 0
-967 -970 973 0
-967 -971 903 0
-967 -972 904 0
-973 899 0
-968 899 0
-973 -968 900 0
-969 900 0
-973 -969 901 0
-963 899 0
-973 -963 900 0
-964 900 0
-973 -964 901 0
-963 -968 900 0
-973 -963 -968 901 0
-963 -969 901 0
-973 -963 -969 902 0
-964 -968 901 0
-973 -964 -968 902 0
-964 -969 902 0
-973 -964 -969 0
-979 970 982 0
-980 971 982 0
-981 972 982 0
-975 970 982 0
-976 971 982 0
-977 972 982 0
-975 -979 971 982 0
-975 -980 972 982 0
-975 -981 982 0
-976 -979 972 982 0
-976 -980 982 0
-976 -981 970 0
-977 -979 982 0
-977 -980 970 0
-977 -981 971 0
-982 968 0
-978 968 0
-982 -978 969 0
-974 968 0
-982 -974 969 0
-974 -978 969 0
-982 -974 -978 0
-140 983 0
-139 983 0
-139 -140 984 0
-142 985 0
-141 985 0
-141 -142 986 0
-985 979 987 0
-986 980 987 0
-983 979 987 0
-984 980 987 0
-983 -985 980 987 0
-983 -986 981 987 0
-984 -985 981 987 0
-984 -986 987 0
-987 978 0
-136 988 0
-135 988 0
-135 -136 989 0
-138 990 0
-137 990 0
-137 -138 991 0
-990 975 992 0
-991 976 992 0
-988 975 992 0
-989 976 992 0
-988 -990 976 992 0
-988 -991 977 992 0
-989 -990 977 992 0
-989 -991 992 0
-992 974 0
-998 965 1001 0
-999 966 1001 0
-1000 967 1001 0
-994 965 1001 0
-995 966 1001 0
-996 967 1001 0
-994 -998 966 1001 0
-994 -999 967 1001 0
-994 -1000 1001 0
-995 -998 967 1001 0
-995 -999 1001 0
-995 -1000 965 0
-996 -998 1001 0
-996 -999 965 0
-996 -1000 966 0
-1001 963 0
-997 963 0
-1001 -997 964 0
-993 963 0
-1001 -993 964 0
-993 -997 964 0
-1001 -993 -997 0
-132 1002 0
-131 1002 0
-131 -132 1003 0
-134 1004 0
-133 1004 0
-133 -134 1005 0
-1004 998 1006 0
-1005 999 1006 0
-1002 998 1006 0
-1003 999 1006 0
-1002 -1004 999 1006 0
-1002 -1005 1000 1006 0
-1003 -1004 1000 1006 0
-1003 -1005 1006 0
-1006 997 0
-128 1007 0
-127 1007 0
-127 -128 1008 0
-130 1009 0
-129 1009 0
-129 -130 1010 0
-1009 994 1011 0
-1010 995 1011 0
-1007 994 1011 0
-1008 995 1011 0
-1007 -1009 995 1011 0
-1007 -1010 996 1011 0
-1008 -1009 996 1011 0
-1008 -1010 1011 0
-1011 993 0
-1023 516 1026 0
-1024 517 1026 0
-1025 518 1026 0
-1016 516 1026 0
-1017 517 1026 0
-1018 518 1026 0
-1016 -1023 517 1026 0
-1016 -1024 518 1026 0
-1016 -1025 1026 0
-1017 -1023 518 1026 0
-1017 -1024 1026 0
-1017 -1025 516 0
-1018 -1023 1026 0
-1018 -1024 516 0
-1018 -1025 517 0
-1026 512 0
-1019 512 0
-1026 -1019 513 0
-1020 513 0
-1026 -1020 514 0
-1021 514 0
-1026 -1021 515 0
-1022 515 0
-1026 -1022 0
-1012 512 0
-1026 -1012 513 0
-1013 513 0
-1026 -1013 514 0
-1014 514 0
-1026 -1014 515 0
-1015 515 0
-1026 -1015 0
-1012 -1019 513 0
-1026 -1012 -1019 514 0
-1012 -1020 514 0
-1026 -1012 -1020 515 0
-1012 -1021 515 0
-1026 -1012 -1021 0
-1012 -1022 0
-1026 -1012 -1022 0
-1013 -1019 514 0
-1026 -1013 -1019 515 0
-1013 -1020 515 0
-1026 -1013 -1020 0
-1013 -1021 0
-1026 -1013 -1021 0
-1013 -1022 0
-1026 -1013 -1022 0
-1014 -1019 515 0
-1026 -1014 -1019 0
-1014 -1020 0
-1026 -1014 -1020 0
-1014 -1021 0
-1026 -1014 -1021 0
-1014 -1022 0
-1026 -1014 -1022 0
-1015 -1019 0
-1026 -1015 -1019 0
-1015 -1020 0
-1026 -1015 -1020 0
-1015 -1021 0
-1026 -1015 -1021 0
-1015 -1022 0
-1026 -1015 -1022 0
-1038 1023 1041 0
-1039 1024 1041 0
-1040 1025 1041 0
-1031 1023 1041 0
-1032 1024 1041 0
-1033 1025 1041 0
-1031 -1038 1024 1041 0
-1031 -1039 1025 1041 0
-1031 -1040 1041 0
-1032 -1038 1025 1041 0
-1032 -1039 1041 0
-1032 -1040 1023 0
-1033 -1038 1041 0
-1033 -1039 1023 0
-1033 -1040 1024 0
-1041 1019 0
-1034 1019 0
-1041 -1034 1020 0
-1035 1020 0
-1041 -1035 1021 0
-1036 1021 0
-1041 -1036 1022 0
-1037 1022 0
-1041 -1037 0
-1027 1019 0
-1041 -1027 1020 0
-1028 1020 0
-1041 -1028 1021 0
-1029 1021 0
-1041 -1029 1022 0
-1030 1022 0
-1041 -1030 0
-1027 -1034 1020 0
-1041 -1027 -1034 1021 0
-1027 -1035 1021 0
-1041 -1027 -1035 1022 0
-1027 -1036 1022 0
-1041 -1027 -1036 0
-1027 -1037 0
-1041 -1027 -1037 0
-1028 -1034 1021 0
-1041 -1028 -1034 1022 0
-1028 -1035 1022 0
-1041 -1028 -1035 0
-1028 -1036 0
-1041 -1028 -1036 0
-1028 -1037 0
-1041 -1028 -1037 0
-1029 -1034 1022 0
-1041 -1029 -1034 0
-1029 -1035 0
-1041 -1029 -1035 0
-1029 -1036 0
-1041 -1029 -1036 0
-1029 -1037 0
-1041 -1029 -1037 0
-1030 -1034 0
-1041 -1030 -1034 0
-1030 -1035 0
-1041 -1030 -1035 0
-1030 -1036 0
-1041 -1030 -1036 0
-1030 -1037 0
-1041 -1030 -1037 0
-1052 1038 1055 0
-1053 1039 1055 0
-1054 1040 1055 0
-1046 1038 1055 0
-1047 1039 1055 0
-1048 1040 1055 0
-1046 -1052 1039 1055 0
-1046 -1053 1040 1055 0
-1046 -1054 1055 0
-1047 -1052 1040 1055 0
-1047 -1053 1055 0
-1047 -1054 1038 0
-1048 -1052 1055 0
-1048 -1053 1038 0
-1048 -1054 1039 0
-1055 1034 0
-1049 1034 0
-1055 -1049 1035 0
-1050 1035 0
-1055 -1050 1036 0
-1051 1036 0
-1055 -1051 1037 0
-1042 1034 0
-1055 -1042 1035 0
-1043 1035 0
-1055 -1043 1036 0
-1044 1036 0
-1055 -1044 1037 0
-1045 1037 0
-1055 -1045 0
-1042 -1049 1035 0
-1055 -1042 -1049 1036 0
-1042 -1050 1036 0
-1055 -1042 -1050 1037 0
-1042 -1051 1037 0
-1055 -1042 -1051 0
-1043 -1049 1036 0
-1055 -1043 -1049 1037 0
-1043 -1050 1037 0
-1055 -1043 -1050 0
-1043 -1051 0
-1055 -1043 -1051 0
-1044 -1049 1037 0
-1055 -1044 -1049 0
-1044 -1050 0
-1055 -1044 -1050 0
-1044 -1051 0
-1055 -1044 -1051 0
-1045 -1049 0
-1055 -1045 -1049 0
-1045 -1050 0
-1055 -1045 -1050 0
-1045 -1051 0
-1055 -1045 -1051 0
-1062 1052 1065 0
-1063 1053 1065 0
-1064 1054 1065 0
-1058 1052 1065 0
-1059 1053 1065 0
-1060 1054 1065 0
-1058 -1062 1053 1065 0
-1058 -1063 1054 1065 0
-1058 -1064 1065 0
-1059 -1062 1054 1065 0
-1059 -1063 1065 0
-1059 -1064 1052 0
-1060 -1062 1065 0
-1060 -1063 1052 0
-1060 -1064 1053 0
-1065 1049 0
-1061 1049 0
-1065 -1061 1050 0
-1056 1049 0
-1065 -1056 1050 0
-1057 1050 0
-1065 -1057 1051 0
-1056 -1061 1050 0
-1065 -1056 -1061 1051 0
-1057 -1061 1051 0
-1065 -1057 -1061 0
-126 1070 0
-1073 1070 0
-1074 1071 0
-1073 -126 1071 0
-1074 -126 1072 0
-125 1073 0
-124 1073 0
-124 -125 1074 0
-1070 1062 1075 0
-1071 1063 1075 0
-1072 1064 1075 0
-1067 1062 1075 0
-1068 1063 1075 0
-1069 1064 1075 0
-1067 -1070 1063 1075 0
-1067 -1071 1064 1075 0
-1067 -1072 1075 0
-1068 -1070 1064 1075 0
-1068 -1071 1075 0
-1068 -1072 1062 0
-1069 -1070 1075 0
-1069 -1071 1062 0
-1069 -1072 1063 0
-1075 1061 0
-1066 1061 0
-1075 -1066 0
-121 1076 0
-120 1076 0
-120 -121 1077 0
-123 1078 0
-122 1078 0
-122 -123 1079 0
-1078 1067 1080 0
-1079 1068 1080 0
-1076 1067 1080 0
-1077 1068 1080 0
-1076 -1078 1068 1080 0
-1076 -1079 1069 1080 0
-1077 -1078 1069 1080 0
-1077 -1079 1080 0
-1080 1066 0
-1086 1058 1089 0
-1087 1059 1089 0
-1088 1060 1089 0
-1082 1058 1089 0
-1083 1059 1089 0
-1084 1060 1089 0
-1082 -1086 1059 1089 0
-1082 -1087 1060 1089 0
-1082 -1088 1089 0
-1083 -1086 1060 1089 0
-1083 -1087 1089 0
-1083 -1088 1058 0
-1084 -1086 1089 0
-1084 -1087 1058 0
-1084 -1088 1059 0
-1089 1056 0
-1085 1056 0
-1089 -1085 1057 0
-1081 1056 0
-1089 -1081 1057 0
-1081 -1085 1057 0
-1089 -1081 -1085 0
-117 1090 0
-116 1090 0
-116 -117 1091 0
-119 1092 0
-118 1092 0
-118 -119 1093 0
-1092 1086 1094 0
-1093 1087 1094 0
-1090 1086 1094 0
-1091 1087 1094 0
-1090 -1092 1087 1094 0
-1090 -1093 1088 1094 0
-1091 -1092 1088 1094 0
-1091 -1093 1094 0
-1094 1085 0
-113 1095 0
-112 1095 0
-112 -113 1096 0
-115 1097 0
-114 1097 0
-114 -115 1098 0
-1097 1082 1099 0
-1098 1083 1099 0
-1095 1082 1099 0
-1096 1083 1099 0
-1095 -1097 1083 1099 0
-1095 -1098 1084 1099 0
-1096 -1097 1084 1099 0
-1096 -1098 1099 0
-1099 1081 0
-1107 1046 1110 0
-1108 1047 1110 0
-1109 1048 1110 0
-1102 1046 1110 0
-1103 1047 1110 0
-1104 1048 1110 0
-1102 -1107 1047 1110 0
-1102 -1108 1048 1110 0
-1102 -1109 1110 0
-1103 -1107 1048 1110 0
-1103 -1108 1110 0
-1103 -1109 1046 0
-1104 -1107 1110 0
-1104 -1108 1046 0
-1104 -1109 1047 0
-1110 1042 0
-1105 1042 0
-1110 -1105 1043 0
-1106 1043 0
-1110 -1106 1044 0
-1100 1042 0
-1110 -1100 1043 0
-1101 1043 0
-1110 -1101 1044 0
-1100 -1105 1043 0
-1110 -1100 -1105 1044 0
-1100 -1106 1044 0
-1110 -1100 -1106 1045 0
-1101 -1105 1044 0
-1110 -1101 -1105 1045 0
-1101 -1106 1045 0
-1110 -1101 -1106 0
-1116 1107 1119 0
-1117 1108 1119 0
-1118 1109 1119 0
-1112 1107 1119 0
-1113 1108 1119 0
-1114 1109 1119 0
-1112 -1116 1108 1119 0
-1112 -1117 1109 1119 0
-1112 -1118 1119 0
-1113 -1116 1109 1119 0
-1113 -1117 1119 0
-1113 -1118 1107 0
-1114 -1116 1119 0
-1114 -1117 1107 0
-1114 -1118 1108 0
-1119 1105 0
-1115 1105 0
-1119 -1115 1106 0
-1111 1105 0
-1119 -1111 1106 0
-1111 -1115 1106 0
-1119 -1111 -1115 0
-109 1120 0
-108 1120 0
-108 -109 1121 0
-111 1122 0
-110 1122 0
-110 -111 1123 0
-1122 1116 1124 0
-1123 1117 1124 0
-1120 1116 1124 0
-1121 1117 1124 0
-1120 -1122 1117 1124 0
-1120 -1123 1118 1124 0
-1121 -1122 1118 1124 0
-1121 -1123 1124 0
-1124 1115 0
-105 1125 0
-104 1125 0
-104 -105 1126 0
-107 1127 0
-106 1127 0
-106 -107 1128 0
-1127 1112 1129 0
-1128 1113 1129 0
-1125 1112 1129 0
-1126 1113 1129 0
-1125 -1127 1113 1129 0
-1125 -1128 1114 1129 0
-1126 -1127 1114 1129 0
-1126 -1128 1129 0
-1129 1111 0
-1135 1102 1138 0
-1136 1103 1138 0
-1137 1104 1138 0
-1131 1102 1138 0
-1132 1103 1138 0
-1133 1104 1138 0
-1131 -1135 1103 1138 0
-1131 -1136 1104 1138 0
-1131 -1137 1138 0
-1132 -1135 1104 1138 0
-1132 -1136 1138 0
-1132 -1137 1102 0
-1133 -1135 1138 0
-1133 -1136 1102 0
-1133 -1137 1103 0
-1138 1100 0
-1134 1100 0
-1138 -1134 1101 0
-1130 1100 0
-1138 -1130 1101 0
-1130 -1134 1101 0
-1138 -1130 -1134 0
-101 1139 0
-100 1139 0
-100 -101 1140 0
-103 1141 0
-102 1141 0
-102 -103 1142 0
-1141 1135 1143 0
-1142 1136 1143 0
-1139 1135 1143 0
-1140 1136 1143 0
-1139 -1141 1136 1143 0
-1139 -1142 1137 1143 0
-1140 -1141 1137 1143 0
-1140 -1142 1143 0
-1143 1134 0
-97 1144 0
-96 1144 0
-96 -97 1145 0
-99 1146 0
-98 1146 0
-98 -99 1147 0
-1146 1131 1148 0
-1147 1132 1148 0
-1144 1131 1148 0
-1145 1132 1148 0
-1144 -1146 1132 1148 0
-1144 -1147 1133 1148 0
-1145 -1146 1133 1148 0
-1145 -1147 1148 0
-1148 1130 0
-1160 1031 1163 0
-1161 1032 1163 0
-1162 1033 1163 0
-1153 1031 1163 0
-1154 1032 1163 0
-1155 1033 1163 0
-1153 -1160 1032 1163 0
-1153 -1161 1033 1163 0
-1153 -1162 1163 0
-1154 -1160 1033 1163 0
-1154 -1161 1163 0
-1154 -1162 1031 0
-1155 -1160 1163 0
-1155 -1161 1031 0
-1155 -1162 1032 0
-1163 1027 0
-1156 1027 0
-1163 -1156 1028 0
-1157 1028 0
-1163 -1157 1029 0
-1158 1029 0
-1163 -1158 1030 0
-1159 1030 0
-1163 -1159 0
-1149 1027 0
-1163 -1149 1028 0
-1150 1028 0
-1163 -1150 1029 0
-1151 1029 0
-1163 -1151 1030 0
-1152 1030 0
-1163 -1152 0
-1149 -1156 1028 0
-1163 -1149 -1156 1029 0
-1149 -1157 1029 0
-1163 -1149 -1157 1030 0
-1149 -1158 1030 0
-1163 -1149 -1158 0
-1149 -1159 0
-1163 -1149 -1159 0
-1150 -1156 1029 0
-1163 -1150 -1156 1030 0
-1150 -1157 1030 0
-1163 -1150 -1157 0
-1150 -1158 0
-1163 -1150 -1158 0
-1150 -1159 0
-1163 -1150 -1159 0
-1151 -1156 1030 0
-1163 -1151 -1156 0
-1151 -1157 0
-1163 -1151 -1157 0
-1151 -1158 0
-1163 -1151 -1158 0
-1151 -1159 0
-1163 -1151 -1159 0
-1152 -1156 0
-1163 -1152 -1156 0
-1152 -1157 0
-1163 -1152 -1157 0
-1152 -1158 0
-1163 -1152 -1158 0
-1152 -1159 0
-1163 -1152 -1159 0
-1171 1160 1174 0
-1172 1161 1174 0
-1173 1162 1174 0
-1166 1160 1174 0
-1167 1161 1174 0
-1168 1162 1174 0
-1166 -1171 1161 1174 0
-1166 -1172 1162 1174 0
-1166 -1173 1174 0
-1167 -1171 1162 1174 0
-1167 -1172 1174 0
-1167 -1173 1160 0
-1168 -1171 1174 0
-1168 -1172 1160 0
-1168 -1173 1161 0
-1174 1156 0
-1169 1156 0
-1174 -1169 1157 0
-1170 1157 0
-1174 -1170 1158 0
-1164 1156 0
-1174 -1164 1157 0
-1165 1157 0
-1174 -1165 1158 0
-1164 -1169 1157 0
-1174 -1164 -1169 1158 0
-1164 -1170 1158 0
-1174 -1164 -1170 1159 0
-1165 -1169 1158 0
-1174 -1165 -1169 1159 0
-1165 -1170 1159 0
-1174 -1165 -1170 0
-1180 1171 1183 0
-1181 1172 1183 0
-1182 1173 1183 0
-1176 1171 1183 0
-1177 1172 1183 0
-1178 1173 1183 0
-1176 -1180 1172 1183 0
-1176 -1181 1173 1183 0
-1176 -1182 1183 0
-1177 -1180 1173 1183 0
-1177 -1181 1183 0
-1177 -1182 1171 0
-1178 -1180 1183 0
-1178 -1181 1171 0
-1178 -1182 1172 0
-1183 1169 0
-1179 1169 0
-1183 -1179 1170 0
-1175 1169 0
-1183 -1175 1170 0
-1175 -1179 1170 0
-1183 -1175 -1179 0
-93 1184 0
-92 1184 0
-92 -93 1185 0
-95 1186 0
-94 1186 0
-94 -95 1187 0
-1186 1180 1188 0
-1187 1181 1188 0
-1184 1180 1188 0
-1185 1181 1188 0
-1184 -1186 1181 1188 0
-1184 -1187 1182 1188 0
-1185 -1186 1182 1188 0
-1185 -1187 1188 0
-1188 1179 0
-89 1189 0
-88 1189 0
-88 -89 1190 0
-91 1191 0
-90 1191 0
-90 -91 1192 0
-1191 1176 1193 0
-1192 1177 1193 0
-1189 1176 1193 0
-1190 1177 1193 0
-1189 -1191 1177 1193 0
-1189 -1192 1178 1193 0
-1190 -1191 1178 1193 0
-1190 -1192 1193 0
-1193 1175 0
-1199 1166 1202 0
-1200 1167 1202 0
-1201 1168 1202 0
-1195 1166 1202 0
-1196 1167 1202 0
-1197 1168 1202 0
-1195 -1199 1167 1202 0
-1195 -1200 1168 1202 0
-1195 -1201 1202 0
-1196 -1199 1168 1202 0
-1196 -1200 1202 0
-1196 -1201 1166 0
-1197 -1199 1202 0
-1197 -1200 1166 0
-1197 -1201 1167 0
-1202 1164 0
-1198 1164 0
-1202 -1198 1165 0
-1194 1164 0
-1202 -1194 1165 0
-1194 -1198 1165 0
-1202 -1194 -1198 0
-85 1203 0
-84 1203 0
-84 -85 1204 0
-87 1205 0
-86 1205 0
-86 -87 1206 0
-1205 1199 1207 0
-1206 1200 1207 0
-1203 1199 1207 0
-1204 1200 1207 0
-1203 -1205 1200 1207 0
-1203 -1206 1201 1207 0
-1204 -1205 1201 1207 0
-1204 -1206 1207 0
-1207 1198 0
-81 1208 0
-80 1208 0
-80 -81 1209 0
-83 1210 0
-82 1210 0
-82 -83 1211 0
-1210 1195 1212 0
-1211 1196 1212 0
-1208 1195 1212 0
-1209 1196 1212 0
-1208 -1210 1196 1212 0
-1208 -1211 1197 1212 0
-1209 -1210 1197 1212 0
-1209 -1211 1212 0
-1212 1194 0
-1220 1153 1223 0
-1221 1154 1223 0
-1222 1155 1223 0
-1215 1153 1223 0
-1216 1154 1223 0
-1217 1155 1223 0
-1215 -1220 1154 1223 0
-1215 -1221 1155 1223 0
-1215 -1222 1223 0
-1216 -1220 1155 1223 0
-1216 -1221 1223 0
-1216 -1222 1153 0
-1217 -1220 1223 0
-1217 -1221 1153 0
-1217 -1222 1154 0
-1223 1149 0
-1218 1149 0
-1223 -1218 1150 0
-1219 1150 0
-1223 -1219 1151 0
-1213 1149 0
-1223 -1213 1150 0
-1214 1150 0
-1223 -1214 1151 0
-1213 -1218 1150 0
-1223 -1213 -1218 1151 0
-1213 -1219 1151 0
-1223 -1213 -1219 1152 0
-1214 -1218 1151 0
-1223 -1214 -1218 1152 0
-1214 -1219 1152 0
-1223 -1214 -1219 0
-1229 1220 1232 0
-1230 1221 1232 0
-1231 1222 1232 0
-1225 1220 1232 0
-1226 1221 1232 0
-1227 1222 1232 0
-1225 -1229 1221 1232 0
-1225 -1230 1222 1232 0
-1225 -1231 1232 0
-1226 -1229 1222 1232 0
-1226 -1230 1232 0
-1226 -1231 1220 0
-1227 -1229 1232 0
-1227 -1230 1220 0
-1227 -1231 1221 0
-1232 1218 0
-1228 1218 0
-1232 -1228 1219 0
-1224 1218 0
-1232 -1224 1219 0
-1224 -1228 1219 0
-1232 -1224 -1228 0
-77 1233 0
-76 1233 0
-76 -77 1234 0
-79 1235 0
-78 1235 0
-78 -79 1236 0
-1235 1229 1237 0
-1236 1230 1237 0
-1233 1229 1237 0
-1234 1230 1237 0
-1233 -1235 1230 1237 0
-1233 -1236 1231 1237 0
-1234 -1235 1231 1237 0
-1234 -1236 1237 0
-1237 1228 0
-73 1238 0
-72 1238 0
-72 -73 1239 0
-75 1240 0
-74 1240 0
-74 -75 1241 0
-1240 1225 1242 0
-1241 1226 1242 0
-1238 1225 1242 0
-1239 1226 1242 0
-1238 -1240 1226 1242 0
-1238 -1241 1227 1242 0
-1239 -1240 1227 1242 0
-1239 -1241 1242 0
-1242 1224 0
-1248 1215 1251 0
-1249 1216 1251 0
-1250 1217 1251 0
-1244 1215 1251 0
-1245 1216 1251 0
-1246 1217 1251 0
-1244 -1248 1216 1251 0
-1244 -1249 1217 1251 0
-1244 -1250 1251 0
-1245 -1248 1217 1251 0
-1245 -1249 1251 0
-1245 -1250 1215 0
-1246 -1248 1251 0
-1246 -1249 1215 0
-1246 -1250 1216 0
-1251 1213 0
-1247 1213 0
-1251 -1247 1214 0
-1243 1213 0
-1251 -1243 1214 0
-1243 -1247 1214 0
-1251 -1243 -1247 0
-69 1252 0
-68 1252 0
-68 -69 1253 0
-71 1254 0
-70 1254 0
-70 -71 1255 0
-1254 1248 1256 0
-1255 1249 1256 0
-1252 1248 1256 0
-1253 1249 1256 0
-1252 -1254 1249 1256 0
-1252 -1255 1250 1256 0
-1253 -1254 1250 1256 0
-1253 -1255 1256 0
-1256 1247 0
-65 1257 0
-64 1257 0
-64 -65 1258 0
-67 1259 0
-66 1259 0
-66 -67 1260 0
-1259 1244 1261 0
-1260 1245 1261 0
-1257 1244 1261 0
-1258 1245 1261 0
-1257 -1259 1245 1261 0
-1257 -1260 1246 1261 0
-1258 -1259 1246 1261 0
-1258 -1260 1261 0
-1261 1243 0
-1273 1016 1276 0
-1274 1017 1276 0
-1275 1018 1276 0
-1266 1016 1276 0
-1267 1017 1276 0
-1268 1018 1276 0
-1266 -1273 1017 1276 0
-1266 -1274 1018 1276 0
-1266 -1275 1276 0
-1267 -1273 1018 1276 0
-1267 -1274 1276 0
-1267 -1275 1016 0
-1268 -1273 1276 0
-1268 -1274 1016 0
-1268 -1275 1017 0
-1276 1012 0
-1269 1012 0
-1276 -1269 1013 0
-1270 1013 0
-1276 -1270 1014 0
-1271 1014 0
-1276 -1271 1015 0
-1272 1015 0
-1276 -1272 0
-1262 1012 0
-1276 -1262 1013 0
-1263 1013 0
-1276 -1263 1014 0
-1264 1014 0
-1276 -1264 1015 0
-1265 1015 0
-1276 -1265 0
-1262 -1269 1013 0
-1276 -1262 -1269 1014 0
-1262 -1270 1014 0
-1276 -1262 -1270 1015 0
-1262 -1271 1015 0
-1276 -1262 -1271 0
-1262 -1272 0
-1276 -1262 -1272 0
-1263 -1269 1014 0
-1276 -1263 -1269 1015 0
-1263 -1270 1015 0
-1276 -1263 -1270 0
-1263 -1271 0
-1276 -1263 -1271 0
-1263 -1272 0
-1276 -1263 -1272 0
-1264 -1269 1015 0
-1276 -1264 -1269 0
-1264 -1270 0
-1276 -1264 -1270 0
-1264 -1271 0
-1276 -1264 -1271 0
-1264 -1272 0
-1276 -1264 -1272 0
-1265 -1269 0
-1276 -1265 -1269 0
-1265 -1270 0
-1276 -1265 -1270 0
-1265 -1271 0
-1276 -1265 -1271 0
-1265 -1272 0
-1276 -1265 -1272 0
-1287 1273 1290 0
-1288 1274 1290 0
-1289 1275 1290 0
-1281 1273 1290 0
-1282 1274 1290 0
-1283 1275 1290 0
-1281 -1287 1274 1290 0
-1281 -1288 1275 1290 0
-1281 -1289 1290 0
-1282 -1287 1275 1290 0
-1282 -1288 1290 0
-1282 -1289 1273 0
-1283 -1287 1290 0
-1283 -1288 1273 0
-1283 -1289 1274 0
-1290 1269 0
-1284 1269 0
-1290 -1284 1270 0
-1285 1270 0
-1290 -1285 1271 0
-1286 1271 0
-1290 -1286 1272 0
-1277 1269 0
-1290 -1277 1270 0
-1278 1270 0
-1290 -1278 1271 0
-1279 1271 0
-1290 -1279 1272 0
-1280 1272 0
-1290 -1280 0
-1277 -1284 1270 0
-1290 -1277 -1284 1271 0
-1277 -1285 1271 0
-1290 -1277 -1285 1272 0
-1277 -1286 1272 0
-1290 -1277 -1286 0
-1278 -1284 1271 0
-1290 -1278 -1284 1272 0
-1278 -1285 1272 0
-1290 -1278 -1285 0
-1278 -1286 0
-1290 -1278 -1286 0
-1279 -1284 1272 0
-1290 -1279 -1284 0
-1279 -1285 0
-1290 -1279 -1285 0
-1279 -1286 0
-1290 -1279 -1286 0
-1280 -1284 0
-1290 -1280 -1284 0
-1280 -1285 0
-1290 -1280 -1285 0
-1280 -1286 0
-1290 -1280 -1286 0
-1297 1287 1300 0
-1298 1288 1300 0
-1299 1289 1300 0
-1293 1287 1300 0
-1294 1288 1300 0
-1295 1289 1300 0
-1293 -1297 1288 1300 0
-1293 -1298 1289 1300 0
-1293 -1299 1300 0
-1294 -1297 1289 1300 0
-1294 -1298 1300 0
-1294 -1299 1287 0
-1295 -1297 1300 0
-1295 -1298 1287 0
-1295 -1299 1288 0
-1300 1284 0
-1296 1284 0
-1300 -1296 1285 0
-1291 1284 0
-1300 -1291 1285 0
-1292 1285 0
-1300 -1292 1286 0
-1291 -1296 1285 0
-1300 -1291 -1296 1286 0
-1292 -1296 1286 0
-1300 -1292 -1296 0
-63 1305 0
-1308 1305 0
-1309 1306 0
-1308 -63 1306 0
-1309 -63 1307 0
-62 1308 0
-61 1308 0
-61 -62 1309 0
-1305 1297 1310 0
-1306 1298 1310 0
-1307 1299 1310 0
-1302 1297 1310 0
-1303 1298 1310 0
-1304 1299 1310 0
-1302 -1305 1298 1310 0
-1302 -1306 1299 1310 0
-1302 -1307 1310 0
-1303 -1305 1299 1310 0
-1303 -1306 1310 0
-1303 -1307 1297 0
-1304 -1305 1310 0
-1304 -1306 1297 0
-1304 -1307 1298 0
-1310 1296 0
-1301 1296 0
-1310 -1301 0
-58 1311 0
-57 1311 0
-57 -58 1312 0
-60 1313 0
-59 1313 0
-59 -60 1314 0
-1313 1302 1315 0
-1314 1303 1315 0
-1311 1302 1315 0
-1312 1303 1315 0
-1311 -1313 1303 1315 0
-1311 -1314 1304 1315 0
-1312 -1313 1304 1315 0
-1312 -1314 1315 0
-1315 1301 0
-1321 1293 1324 0
-1322 1294 1324 0
-1323 1295 1324 0
-1317 1293 1324 0
-1318 1294 1324 0
-1319 1295 1324 0
-1317 -1321 1294 1324 0
-1317 -1322 1295 1324 0
-1317 -1323 1324 0
-1318 -1321 1295 1324 0
-1318 -1322 1324 0
-1318 -1323 1293 0
-1319 -1321 1324 0
-1319 -1322 1293 0
-1319 -1323 1294 0
-1324 1291 0
-1320 1291 0
-1324 -1320 1292 0
-1316 1291 0
-1324 -1316 1292 0
-1316 -1320 1292 0
-1324 -1316 -1320 0
-54 1325 0
-53 1325 0
-53 -54 1326 0
-56 1327 0
-55 1327 0
-55 -56 1328 0
-1327 1321 1329 0
-1328 1322 1329 0
-1325 1321 1329 0
-1326 1322 1329 0
-1325 -1327 1322 1329 0
-1325 -1328 1323 1329 0
-1326 -1327 1323 1329 0
-1326 -1328 1329 0
-1329 1320 0
-50 1330 0
-49 1330 0
-49 -50 1331 0
-52 1332 0
-51 1332 0
-51 -52 1333 0
-1332 1317 1334 0
-1333 1318 1334 0
-1330 1317 1334 0
-1331 1318 1334 0
-1330 -1332 1318 1334 0
-1330 -1333 1319 1334 0
-1331 -1332 1319 1334 0
-1331 -1333 1334 0
-1334 1316 0
-1342 1281 1345 0
-1343 1282 1345 0
-1344 1283 1345 0
-1337 1281 1345 0
-1338 1282 1345 0
-1339 1283 1345 0
-1337 -1342 1282 1345 0
-1337 -1343 1283 1345 0
-1337 -1344 1345 0
-1338 -1342 1283 1345 0
-1338 -1343 1345 0
-1338 -1344 1281 0
-1339 -1342 1345 0
-1339 -1343 1281 0
-1339 -1344 1282 0
-1345 1277 0
-1340 1277 0
-1345 -1340 1278 0
-1341 1278 0
-1345 -1341 1279 0
-1335 1277 0
-1345 -1335 1278 0
-1336 1278 0
-1345 -1336 1279 0
-1335 -1340 1278 0
-1345 -1335 -1340 1279 0
-1335 -1341 1279 0
-1345 -1335 -1341 1280 0
-1336 -1340 1279 0
-1345 -1336 -1340 1280 0
-1336 -1341 1280 0
-1345 -1336 -1341 0
-1351 1342 1354 0
-1352 1343 1354 0
-1353 1344 1354 0
-1347 1342 1354 0
-1348 1343 1354 0
-1349 1344 1354 0
-1347 -1351 1343 1354 0
-1347 -1352 1344 1354 0
-1347 -1353 1354 0
-1348 -1351 1344 1354 0
-1348 -1352 1354 0
-1348 -1353 1342 0
-1349 -1351 1354 0
-1349 -1352 1342 0
-1349 -1353 1343 0
-1354 1340 0
-1350 1340 0
-1354 -1350 1341 0
-1346 1340 0
-1354 -1346 1341 0
-1346 -1350 1341 0
-1354 -1346 -1350 0
-46 1355 0
-45 1355 0
-45 -46 1356 0
-48 1357 0
-47 1357 0
-47 -48 1358 0
-1357 1351 1359 0
-1358 1352 1359 0
-1355 1351 1359 0
-1356 1352 1359 0
-1355 -1357 1352 1359 0
-1355 -1358 1353 1359 0
-1356 -1357 1353 1359 0
-1356 -1358 1359 0
-1359 1350 0
-42 1360 0
-41 1360 0
-41 -42 1361 0
-44 1362 0
-43 1362 0
-43 -44 1363 0
-1362 1347 1364 0
-1363 1348 1364 0
-1360 1347 1364 0
-1361 1348 1364 0
-1360 -1362 1348 1364 0
-1360 -1363 1349 1364 0
-1361 -1362 1349 1364 0
-1361 -1363 1364 0
-1364 1346 0
-1370 1337 1373 0
-1371 1338 1373 0
-1372 1339 1373 0
-1366 1337 1373 0
-1367 1338 1373 0
-1368 1339 1373 0
-1366 -1370 1338 1373 0
-1366 -1371 1339 1373 0
-1366 -1372 1373 0
-1367 -1370 1339 1373 0
-1367 -1371 1373 0
-1367 -1372 1337 0
-1368 -1370 1373 0
-1368 -1371 1337 0
-1368 -1372 1338 0
-1373 1335 0
-1369 1335 0
-1373 -1369 1336 0
-1365 1335 0
-1373 -1365 1336 0
-1365 -1369 1336 0
-1373 -1365 -1369 0
-38 1374 0
-37 1374 0
-37 -38 1375 0
-40 1376 0
-39 1376 0
-39 -40 1377 0
-1376 1370 1378 0
-1377 1371 1378 0
-1374 1370 1378 0
-1375 1371 1378 0
-1374 -1376 1371 1378 0
-1374 -1377 1372 1378 0
-1375 -1376 1372 1378 0
-1375 -1377 1378 0
-1378 1369 0
-34 1379 0
-33 1379 0
-33 -34 1380 0
-36 1381 0
-35 1381 0
-35 -36 1382 0
-1381 1366 1383 0
-1382 1367 1383 0
-1379 1366 1383 0
-1380 1367 1383 0
-1379 -1381 1367 1383 0
-1379 -1382 1368 1383 0
-1380 -1381 1368 1383 0
-1380 -1382 1383 0
-1383 1365 0
-1395 1266 1398 0
-1396 1267 1398 0
-1397 1268 1398 0
-1388 1266 1398 0
-1389 1267 1398 0
-1390 1268 1398 0
-1388 -1395 1267 1398 0
-1388 -1396 1268 1398 0
-1388 -1397 1398 0
-1389 -1395 1268 1398 0
-1389 -1396 1398 0
-1389 -1397 1266 0
-1390 -1395 1398 0
-1390 -1396 1266 0
-1390 -1397 1267 0
-1398 1262 0
-1391 1262 0
-1398 -1391 1263 0
-1392 1263 0
-1398 -1392 1264 0
-1393 1264 0
-1398 -1393 1265 0
-1394 1265 0
-1398 -1394 0
-1384 1262 0
-1398 -1384 1263 0
-1385 1263 0
-1398 -1385 1264 0
-1386 1264 0
-1398 -1386 1265 0
-1387 1265 0
-1398 -1387 0
-1384 -1391 1263 0
-1398 -1384 -1391 1264 0
-1384 -1392 1264 0
-1398 -1384 -1392 1265 0
-1384 -1393 1265 0
-1398 -1384 -1393 0
-1384 -1394 0
-1398 -1384 -1394 0
-1385 -1391 1264 0
-1398 -1385 -1391 1265 0
-1385 -1392 1265 0
-1398 -1385 -1392 0
-1385 -1393 0
-1398 -1385 -1393 0
-1385 -1394 0
-1398 -1385 -1394 0
-1386 -1391 1265 0
-1398 -1386 -1391 0
-1386 -1392 0
-1398 -1386 -1392 0
-1386 -1393 0
-1398 -1386 -1393 0
-1386 -1394 0
-1398 -1386 -1394 0
-1387 -1391 0
-1398 -1387 -1391 0
-1387 -1392 0
-1398 -1387 -1392 0
-1387 -1393 0
-1398 -1387 -1393 0
-1387 -1394 0
-1398 -1387 -1394 0
-1406 1395 1409 0
-1407 1396 1409 0
-1408 1397 1409 0
-1401 1395 1409 0
-1402 1396 1409 0
-1403 1397 1409 0
-1401 -1406 1396 1409 0
-1401 -1407 1397 1409 0
-1401 -1408 1409 0
-1402 -1406 1397 1409 0
-1402 -1407 1409 0
-1402 -1408 1395 0
-1403 -1406 1409 0
-1403 -1407 1395 0
-1403 -1408 1396 0
-1409 1391 0
-1404 1391 0
-1409 -1404 1392 0
-1405 1392 0
-1409 -1405 1393 0
-1399 1391 0
-1409 -1399 1392 0
-1400 1392 0
-1409 -1400 1393 0
-1399 -1404 1392 0
-1409 -1399 -1404 1393 0
-1399 -1405 1393 0
-1409 -1399 -1405 1394 0
-1400 -1404 1393 0
-1409 -1400 -1404 1394 0
-1400 -1405 1394 0
-1409 -1400 -1405 0
-1415 1406 1418 0
-1416 1407 1418 0
-1417 1408 1418 0
-1411 1406 1418 0
-1412 1407 1418 0
-1413 1408 1418 0
-1411 -1415 1407 1418 0
-1411 -1416 1408 1418 0
-1411 -1417 1418 0
-1412 -1415 1408 1418 0
-1412 -1416 1418 0
-1412 -1417 1406 0
-1413 -1415 1418 0
-1413 -1416 1406 0
-1413 -1417 1407 0
-1418 1404 0
-1414 1404 0
-1418 -1414 1405 0
-1410 1404 0
-1418 -1410 1405 0
-1410 -1414 1405 0
-1418 -1410 -1414 0
-30 1419 0
-29 1419 0
-29 -30 1420 0
-32 1421 0
-31 1421 0
-31 -32 1422 0
-1421 1415 1423 0
-1422 1416 1423 0
-1419 1415 1423 0
-1420 1416 1423 0
-1419 -1421 1416 1423 0
-1419 -1422 1417 1423 0
-1420 -1421 1417 1423 0
-1420 -1422 1423 0
-1423 1414 0
-26 1424 0
-25 1424 0
-25 -26 1425 0
-28 1426 0
-27 1426 0
-27 -28 1427 0
-1426 1411 1428 0
-1427 1412 1428 0
-1424 1411 1428 0
-1425 1412 1428 0
-1424 -1426 1412 1428 0
-1424 -1427 1413 1428 0
-1425 -1426 1413 1428 0
-1425 -1427 1428 0
-1428 1410 0
-1434 1401 1437 0
-1435 1402 1437 0
-1436 1403 1437 0
-1430 1401 1437 0
-1431 1402 1437 0
-1432 1403 1437 0
-1430 -1434 1402 1437 0
-1430 -1435 1403 1437 0
-1430 -1436 1437 0
-1431 -1434 1403 1437 0
-1431 -1435 1437 0
-1431 -1436 1401 0
-1432 -1434 1437 0
-1432 -1435 1401 0
-1432 -1436 1402 0
-1437 1399 0
-1433 1399 0
-1437 -1433 1400 0
-1429 1399 0
-1437 -1429 1400 0
-1429 -1433 1400 0
-1437 -1429 -1433 0
-22 1438 0
-21 1438 0
-21 -22 1439 0
-24 1440 0
-23 1440 0
-23 -24 1441 0
-1440 1434 1442 0
-1441 1435 1442 0
-1438 1434 1442 0
-1439 1435 1442 0
-1438 -1440 1435 1442 0
-1438 -1441 1436 1442 0
-1439 -1440 1436 1442 0
-1439 -1441 1442 0
-1442 1433 0
-18 1443 0
-17 1443 0
-17 -18 1444 0
-20 1445 0
-19 1445 0
-19 -20 1446 0
-1445 1430 1447 0
-1446 1431 1447 0
-1443 1430 1447 0
-1444 1431 1447 0
-1443 -1445 1431 1447 0
-1443 -1446 1432 1447 0
-1444 -1445 1432 1447 0
-1444 -1446 1447 0
-1447 1429 0
-1455 1388 1458 0
-1456 1389 1458 0
-1457 1390 1458 0
-1450 1388 1458 0
-1451 1389 1458 0
-1452 1390 1458 0
-1450 -1455 1389 1458 0
-1450 -1456 1390 1458 0
-1450 -1457 1458 0
-1451 -1455 1390 1458 0
-1451 -1456 1458 0
-1451 -1457 1388 0
-1452 -1455 1458 0
-1452 -1456 1388 0
-1452 -1457 1389 0
-1458 1384 0
-1453 1384 0
-1458 -1453 1385 0
-1454 1385 0
-1458 -1454 1386 0
-1448 1384 0
-1458 -1448 1385 0
-1449 1385 0
-1458 -1449 1386 0
-1448 -1453 1385 0
-1458 -1448 -1453 1386 0
-1448 -1454 1386 0
-1458 -1448 -1454 1387 0
-1449 -1453 1386 0
-1458 -1449 -1453 1387 0
-1449 -1454 1387 0
-1458 -1449 -1454 0
-1464 1455 1467 0
-1465 1456 1467 0
-1466 1457 1467 0
-1460 1455 1467 0
-1461 1456 1467 0
-1462 1457 1467 0
-1460 -1464 1456 1467 0
-1460 -1465 1457 1467 0
-1460 -1466 1467 0
-1461 -1464 1457 1467 0
-1461 -1465 1467 0
-1461 -1466 1455 0
-1462 -1464 1467 0
-1462 -1465 1455 0
-1462 -1466 1456 0
-1467 1453 0
-1463 1453 0
-1467 -1463 1454 0
-1459 1453 0
-1467 -1459 1454 0
-1459 -1463 1454 0
-1467 -1459 -1463 0
-14 1468 0
-13 1468 0
-13 -14 1469 0
-16 1470 0
-15 1470 0
-15 -16 1471 0
-1470 1464 1472 0
-1471 1465 1472 0
-1468 1464 1472 0
-1469 1465 1472 0
-1468 -1470 1465 1472 0
-1468 -1471 1466 1472 0
-1469 -1470 1466 1472 0
-1469 -1471 1472 0
-1472 1463 0
-10 1473 0
-9 1473 0
-9 -10 1474 0
-12 1475 0
-11 1475 0
-11 -12 1476 0
-1475 1460 1477 0
-1476 1461 1477 0
-1473 1460 1477 0
-1474 1461 1477 0
-1473 -1475 1461 1477 0
-1473 -1476 1462 1477 0
-1474 -1475 1462 1477 0
-1474 -1476 1477 0
-1477 1459 0
-1483 1450 1486 0
-1484 1451 1486 0
-1485 1452 1486 0
-1479 1450 1486 0
-1480 1451 1486 0
-1481 1452 1486 0
-1479 -1483 1451 1486 0
-1479 -1484 1452 1486 0
-1479 -1485 1486 0
-1480 -1483 1452 1486 0
-1480 -1484 1486 0
-1480 -1485 1450 0
-1481 -1483 1486 0
-1481 -1484 1450 0
-1481 -1485 1451 0
-1486 1448 0
-1482 1448 0
-1486 -1482 1449 0
-1478 1448 0
-1486 -1478 1449 0
-1478 -1482 1449 0
-1486 -1478 -1482 0
-6 1487 0
-5 1487 0
-5 -6 1488 0
-8 1489 0
-7 1489 0
-7 -8 1490 0
-1489 1483 1491 0
-1490 1484 1491 0
-1487 1483 1491 0
-1488 1484 1491 0
-1487 -1489 1484 1491 0
-1487 -1490 1485 1491 0
-1488 -1489 1485 1491 0
-1488 -1490 1491 0
-1491 1482 0
-2 1492 0
-1 1492 0
-1 -2 1493 0
-4 1494 0
-3 1494 0
-3 -4 1495 0
-1494 1479 1496 0
-1495 1480 1496 0
-1492 1479 1496 0
-1493 1480 1496 0
-1492 -1494 1480 1496 0
-1492 -1495 1481 1496 0
-1493 -1494 1481 1496 0
-1493 -1495 1496 0
-1496 1478 0
-508 -509 0
-508 -510 0
-508 -511 0
-1497 203 0
-1497 248 0
-1498 230 0
-1498 221 0
-1499 173 0
-1499 128 0
-1499 248 0
-1500 128 0
-1500 182 0
-1501 230 0
-1501 191 0
-1501 128 0
-1502 164 0
-1502 137 0
-1502 248 0
-1503 182 0
-1503 137 0
-1503 221 0
-1504 191 0
-1504 137 0
-1505 164 0
-1505 146 0
-1506 146 0
-1506 173 0
-1506 221 0
-1507 191 0
-1507 203 0
-1507 146 0
-1508 230 0
-1508 164 0
-1508 155 0
-1509 155 0
-1509 173 0
-1510 155 0
-1510 182 0
-1510 203 0
-1511 73 0
-1511 203 0
-1511 10 0
-1511 248 0
-1512 73 0
-1512 10 0
-1513 73 0
-1513 10 0
-1513 230 0
-1513 221 0
-1514 83 0
-1514 173 0
-1514 10 0
-1514 248 0
-1515 83 0
-1515 10 0
-1515 182 0
-1516 83 0
-1516 191 0
-1516 10 0
-1516 230 0
-1517 92 0
-1517 10 0
-1517 248 0
-1517 164 0
-1518 92 0
-1518 10 0
-1518 182 0
-1518 221 0
-1519 92 0
-1519 191 0
-1519 10 0
-1520 101 0
-1520 164 0
-1520 10 0
-1521 101 0
-1521 10 0
-1521 173 0
-1521 221 0
-1522 101 0
-1522 191 0
-1522 203 0
-1522 10 0
-1523 230 0
-1523 164 0
-1523 10 0
-1523 110 0
-1524 10 0
-1524 173 0
-1524 110 0
-1525 203 0
-1525 10 0
-1525 110 0
-1525 182 0
-1526 64 0
-1526 19 0
-1526 248 0
-1526 203 0
-1527 64 0
-1527 19 0
-1528 230 0
-1528 64 0
-1528 19 0
-1528 221 0
-1529 83 0
-1529 137 0
-1529 19 0
-1529 248 0
-1530 83 0
-1530 146 0
-1530 19 0
-1531 83 0
-1531 155 0
-1531 19 0
-1531 230 0
-1532 92 0
-1532 128 0
-1532 248 0
-1532 19 0
-1533 92 0
-1533 146 0
-1533 19 0
-1533 221 0
-1534 92 0
-1534 155 0
-1534 19 0
-1535 101 0
-1535 128 0
-1535 19 0
-1536 101 0
-1536 19 0
-1536 137 0
-1536 221 0
-1537 101 0
-1537 155 0
-1537 19 0
-1537 203 0
-1538 230 0
-1538 128 0
-1538 19 0
-1538 110 0
-1539 19 0
-1539 137 0
-1539 110 0
-1540 203 0
-1540 146 0
-1540 19 0
-1540 110 0
-1541 29 0
-1541 64 0
-1541 173 0
-1541 248 0
-1542 29 0
-1542 64 0
-1542 182 0
-1543 29 0
-1543 191 0
-1543 64 0
-1543 230 0
-1544 29 0
-1544 137 0
-1544 73 0
-1544 248 0
-1545 29 0
-1545 146 0
-1545 73 0
-1546 29 0
-1546 155 0
-1546 73 0
-1546 230 0
-1547 29 0
-1547 92 0
-1547 248 0
-1548 29 0
-1548 92 0
-1548 191 0
-1548 146 0
-1549 29 0
-1549 92 0
-1549 155 0
-1549 182 0
-1550 29 0
-1550 101 0
-1551 29 0
-1551 191 0
-1551 101 0
-1551 137 0
-1552 29 0
-1552 101 0
-1552 173 0
-1552 155 0
-1553 29 0
-1553 230 0
-1553 110 0
-1554 29 0
-1554 137 0
-1554 182 0
-1554 110 0
-1555 29 0
-1555 146 0
-1555 173 0
-1555 110 0
-1556 164 0
-1556 64 0
-1556 248 0
-1556 38 0
-1557 64 0
-1557 38 0
-1557 182 0
-1557 221 0
-1558 191 0
-1558 64 0
-1558 38 0
-1559 73 0
-1559 128 0
-1559 248 0
-1559 38 0
-1560 73 0
-1560 38 0
-1560 146 0
-1560 221 0
-1561 73 0
-1561 155 0
-1561 38 0
-1562 83 0
-1562 248 0
-1562 38 0
-1563 83 0
-1563 191 0
-1563 146 0
-1563 38 0
-1564 83 0
-1564 155 0
-1564 38 0
-1564 182 0
-1565 101 0
-1565 38 0
-1565 221 0
-1566 101 0
-1566 191 0
-1566 128 0
-1566 38 0
-1567 101 0
-1567 164 0
-1567 155 0
-1567 38 0
-1568 110 0
-1568 38 0
-1569 38 0
-1569 128 0
-1569 110 0
-1569 182 0
-1570 164 0
-1570 146 0
-1570 110 0
-1570 38 0
-1571 164 0
-1571 64 0
-1571 47 0
-1572 64 0
-1572 47 0
-1572 173 0
-1572 221 0
-1573 191 0
-1573 64 0
-1573 47 0
-1573 203 0
-1574 73 0
-1574 47 0
-1574 128 0
-1575 73 0
-1575 47 0
-1575 137 0
-1575 221 0
-1576 73 0
-1576 155 0
-1576 47 0
-1576 203 0
-1577 83 0
-1577 47 0
-1578 83 0
-1578 191 0
-1578 47 0
-1578 137 0
-1579 83 0
-1579 155 0
-1579 47 0
-1579 173 0
-1580 92 0
-1580 47 0
-1580 221 0
-1581 92 0
-1581 191 0
-1581 128 0
-1581 47 0
-1582 92 0
-1582 155 0
-1582 47 0
-1582 164 0
-1583 203 0
-1583 47 0
-1583 110 0
-1584 47 0
-1584 128 0
-1584 173 0
-1584 110 0
-1585 164 0
-1585 47 0
-1585 137 0
-1585 110 0
-1586 230 0
-1586 164 0
-1586 64 0
-1586 56 0
-1587 64 0
-1587 56 0
-1587 173 0
-1588 64 0
-1588 56 0
-1588 182 0
-1588 203 0
-1589 73 0
-1589 56 0
-1589 128 0
-1589 230 0
-1590 73 0
-1590 56 0
-1590 137 0
-1591 73 0
-1591 203 0
-1591 146 0
-1591 56 0
-1592 83 0
-1592 56 0
-1592 230 0
-1593 83 0
-1593 56 0
-1593 137 0
-1593 182 0
-1594 83 0
-1594 146 0
-1594 173 0
-1594 56 0
-1595 92 0
-1595 56 0
-1596 92 0
-1596 56 0
-1596 128 0
-1596 182 0
-1597 56 0
-1597 92 0
-1597 146 0
-1597 164 0
-1598 101 0
-1598 203 0
-1598 56 0
-1599 101 0
-1599 56 0
-1599 128 0
-1599 173 0
-1600 101 0
-1600 164 0
-1600 56 0
-1600 137 0
-1 -118 -212 -239 1497 1498 1499 1500 1501 1502 1503 1504 1505 1506 1507 1508 1509 1510 1511 1512 1513 1514 1515 1516 1517 1518 1519 1520 1521 1522 1523 1524 1525 1526 1527 1528 1529 1530 1531 1532 1533 1534 1535 1536 1537 1538 1539 1540 1541 1542 1543 1544 1545 1546 1547 1548 1549 1550 1551 1552 1553 1554 1555 1556 1557 1558 1559 1560 1561 1562 1563 1564 1565 1566 1567 1568 1569 1570 1571 1572 1573 1574 1575 1576 1577 1578 1579 1580 1581 1582 1583 1584 1585 1586 1587 1588 1589 1590 1591 1592 1593 1594 1595 1596 1597 1598 1599 1600 0
-1601 122 0
-1601 5 0
-1602 122 0
-1602 5 0
-1602 208 0
-1602 235 0
-1603 122 0
-1603 217 0
-1603 226 0
-1603 5 0
-1604 130 0
-1604 5 0
-1604 175 0
-1605 184 0
-1605 5 0
-1605 130 0
-1605 235 0
-1606 193 0
-1606 226 0
-1606 5 0
-1606 130 0
-1607 166 0
-1607 5 0
-1607 139 0
-1608 184 0
-1608 217 0
-1608 5 0
-1608 139 0
-1609 193 0
-1609 208 0
-1609 5 0
-1609 139 0
-1610 166 0
-1610 5 0
-1610 235 0
-1610 148 0
-1611 5 0
-1611 217 0
-1611 148 0
-1611 175 0
-1612 5 0
-1612 193 0
-1612 148 0
-1613 166 0
-1613 157 0
-1613 226 0
-1613 5 0
-1614 157 0
-1614 208 0
-1614 5 0
-1614 175 0
-1615 184 0
-1615 157 0
-1615 5 0
-1616 208 0
-1616 235 0
-1617 217 0
-1617 226 0
-1618 85 0
-1618 175 0
-1619 184 0
-1619 85 0
-1619 235 0
-1620 85 0
-1620 226 0
-1620 193 0
-1621 166 0
-1621 94 0
-1622 184 0
-1622 217 0
-1622 94 0
-1623 193 0
-1623 208 0
-1623 94 0
-1624 103 0
-1624 166 0
-1624 235 0
-1625 103 0
-1625 217 0
-1625 175 0
-1626 103 0
-1626 193 0
-1627 112 0
-1627 166 0
-1627 226 0
-1628 112 0
-1628 208 0
-1628 175 0
-1629 112 0
-1629 184 0
-1630 23 0
-1630 68 0
-1631 23 0
-1631 208 0
-1631 235 0
-1631 68 0
-1632 23 0
-1632 217 0
-1632 226 0
-1632 68 0
-1633 23 0
-1633 85 0
-1633 139 0
-1634 23 0
-1634 85 0
-1634 148 0
-1634 235 0
-1635 23 0
-1635 85 0
-1635 157 0
-1635 226 0
-1636 23 0
-1636 94 0
-1636 130 0
-1637 23 0
-1637 217 0
-1637 94 0
-1637 148 0
-1638 23 0
-1638 157 0
-1638 208 0
-1638 94 0
-1639 23 0
-1639 103 0
-1639 130 0
-1639 235 0
-1640 23 0
-1640 217 0
-1640 103 0
-1640 139 0
-1641 23 0
-1641 157 0
-1641 103 0
-1642 112 0
-1642 23 0
-1642 226 0
-1642 130 0
-1643 112 0
-1643 23 0
-1643 208 0
-1643 139 0
-1644 112 0
-1644 23 0
-1644 148 0
-1645 31 0
-1645 68 0
-1645 175 0
-1646 184 0
-1646 235 0
-1646 31 0
-1646 68 0
-1647 31 0
-1647 193 0
-1647 226 0
-1647 68 0
-1648 31 0
-1648 139 0
-1649 31 0
-1649 235 0
-1649 148 0
-1650 31 0
-1650 157 0
-1650 226 0
-1651 122 0
-1651 31 0
-1651 94 0
-1652 31 0
-1652 193 0
-1652 94 0
-1652 148 0
-1653 184 0
-1653 157 0
-1653 94 0
-1653 31 0
-1654 122 0
-1654 31 0
-1654 103 0
-1654 235 0
-1655 31 0
-1655 193 0
-1655 103 0
-1655 139 0
-1656 31 0
-1656 157 0
-1656 103 0
-1656 175 0
-1657 112 0
-1657 31 0
-1657 226 0
-1657 122 0
-1658 112 0
-1658 31 0
-1658 184 0
-1658 139 0
-1659 112 0
-1659 31 0
-1659 148 0
-1659 175 0
-1660 40 0
-1660 166 0
-1660 68 0
-1661 40 0
-1661 184 0
-1661 217 0
-1661 68 0
-1662 40 0
-1662 193 0
-1662 208 0
-1662 68 0
-1663 40 0
-1663 130 0
-1664 40 0
-1664 217 0
-1664 148 0
-1665 40 0
-1665 157 0
-1665 208 0
-1666 40 0
-1666 85 0
-1666 122 0
-1667 40 0
-1667 85 0
-1667 148 0
-1667 193 0
-1668 40 0
-1668 184 0
-1668 85 0
-1668 157 0
-1669 40 0
-1669 103 0
-1669 217 0
-1669 122 0
-1670 40 0
-1670 103 0
-1670 193 0
-1670 130 0
-1671 40 0
-1671 103 0
-1671 157 0
-1671 166 0
-1672 40 0
-1672 112 0
-1672 208 0
-1672 122 0
-1673 40 0
-1673 184 0
-1673 112 0
-1673 130 0
-1674 40 0
-1674 112 0
-1674 166 0
-1674 148 0
-1675 166 0
-1675 235 0
-1675 49 0
-1675 68 0
-1676 68 0
-1676 217 0
-1676 49 0
-1676 175 0
-1677 193 0
-1677 49 0
-1677 68 0
-1678 130 0
-1678 235 0
-1678 49 0
-1679 217 0
-1679 49 0
-1679 139 0
-1680 157 0
-1680 49 0
-1681 122 0
-1681 85 0
-1681 235 0
-1681 49 0
-1682 85 0
-1682 49 0
-1682 193 0
-1682 139 0
-1683 85 0
-1683 157 0
-1683 49 0
-1683 175 0
-1684 122 0
-1684 217 0
-1684 94 0
-1684 49 0
-1685 193 0
-1685 49 0
-1685 130 0
-1685 94 0
-1686 157 0
-1686 49 0
-1686 166 0
-1686 94 0
-1687 112 0
-1687 122 0
-1687 49 0
-1688 112 0
-1688 130 0
-1688 49 0
-1688 175 0
-1689 112 0
-1689 166 0
-1689 49 0
-1689 139 0
-1690 58 0
-1690 226 0
-1690 166 0
-1690 68 0
-1691 208 0
-1691 58 0
-1691 68 0
-1691 175 0
-1692 184 0
-1692 58 0
-1692 68 0
-1693 58 0
-1693 226 0
-1693 130 0
-1694 208 0
-1694 58 0
-1694 139 0
-1695 58 0
-1695 148 0
-1696 122 0
-1696 58 0
-1696 85 0
-1696 226 0
-1697 184 0
-1697 85 0
-1697 58 0
-1697 139 0
-1698 85 0
-1698 58 0
-1698 148 0
-1698 175 0
-1699 122 0
-1699 208 0
-1699 58 0
-1699 94 0
-1700 184 0
-1700 130 0
-1700 58 0
-1700 94 0
-1701 58 0
-1701 166 0
-1701 148 0
-1701 94 0
-1702 122 0
-1702 103 0
-1702 58 0
-1703 103 0
-1703 58 0
-1703 130 0
-1703 175 0
-1704 103 0
-1704 58 0
-1704 166 0
-1704 139 0
-14 -77 -199 -244 1601 1602 1603 1604 1605 1606 1607 1608 1609 1610 1611 1612 1613 1614 1615 1616 1617 1618 1619 1620 1621 1622 1623 1624 1625 1626 1627 1628 1629 1630 1631 1632 1633 1634 1635 1636 1637 1638 1639 1640 1641 1642 1643 1644 1645 1646 1647 1648 1649 1650 1651 1652 1653 1654 1655 1656 1657 1658 1659 1660 1661 1662 1663 1664 1665 1666 1667 1668 1669 1670 1671 1672 1673 1674 1675 1676 1677 1678 1679 1680 1681 1682 1683 1684 1685 1686 1687 1688 1689 1690 1691 1692 1693 1694 1695 1696 1697 1698 1699 1700 1701 1702 1703 1704 0
-1705 251 0
-1705 121 0
-1705 201 0
-1706 210 0
-1706 242 0
-1706 121 0
-1707 218 0
-1707 121 0
-1708 251 0
-1708 174 0
-1709 183 0
-1709 242 0
-1710 163 0
-1710 251 0
-1710 141 0
-1711 183 0
-1711 141 0
-1711 218 0
-1712 141 0
-1712 210 0
-1713 163 0
-1713 242 0
-1713 150 0
-1714 218 0
-1714 174 0
-1714 150 0
-1715 201 0
-1715 150 0
-1716 163 0
-1716 158 0
-1717 158 0
-1717 174 0
-1717 210 0
-1718 183 0
-1718 201 0
-1718 158 0
-1719 73 0
-1719 201 0
-1719 251 0
-1719 11 0
-1720 73 0
-1720 210 0
-1720 11 0
-1720 242 0
-1721 73 0
-1721 218 0
-1721 11 0
-1722 251 0
-1722 82 0
-1722 11 0
-1722 174 0
-1723 183 0
-1723 82 0
-1723 11 0
-1723 242 0
-1724 11 0
-1724 82 0
-1725 163 0
-1725 251 0
-1725 93 0
-1725 11 0
-1726 183 0
-1726 93 0
-1726 218 0
-1726 11 0
-1727 93 0
-1727 11 0
-1727 210 0
-1728 163 0
-1728 102 0
-1728 11 0
-1728 242 0
-1729 102 0
-1729 218 0
-1729 11 0
-1729 174 0
-1730 102 0
-1730 11 0
-1730 201 0
-1731 163 0
-1731 11 0
-1731 110 0
-1732 174 0
-1732 11 0
-1732 210 0
-1732 110 0
-1733 183 0
-1733 201 0
-1733 11 0
-1733 110 0
-1734 201 0
-1734 65 0
-1734 251 0
-1734 19 0
-1735 65 0
-1735 210 0
-1735 19 0
-1735 242 0
-1736 218 0
-1736 19 0
-1736 65 0
-1737 251 0
-1737 141 0
-1737 19 0
-1737 82 0
-1738 82 0
-1738 19 0
-1738 242 0
-1738 150 0
-1739 158 0
-1739 19 0
-1739 82 0
-1740 251 0
-1740 93 0
-1740 19 0
-1741 93 0
-1741 218 0
-1741 19 0
-1741 150 0
-1742 93 0
-1742 158 0
-1742 19 0
-1742 210 0
-1743 102 0
-1743 19 0
-1743 242 0
-1744 102 0
-1744 141 0
-1744 218 0
-1744 19 0
-1745 102 0
-1745 158 0
-1745 19 0
-1745 201 0
-1746 19 0
-1746 110 0
-1747 141 0
-1747 19 0
-1747 210 0
-1747 110 0
-1748 201 0
-1748 19 0
-1748 110 0
-1748 150 0
-1749 251 0
-1749 65 0
-1749 28 0
-1749 174 0
-1750 183 0
-1750 65 0
-1750 28 0
-1750 242 0
-1751 65 0
-1751 28 0
-1752 73 0
-1752 251 0
-1752 141 0
-1752 28 0
-1753 73 0
-1753 28 0
-1753 242 0
-1753 150 0
-1754 73 0
-1754 158 0
-1754 28 0
-1755 251 0
-1755 93 0
-1755 28 0
-1755 121 0
-1756 93 0
-1756 28 0
-1756 150 0
-1757 183 0
-1757 93 0
-1757 158 0
-1757 28 0
-1758 102 0
-1758 28 0
-1758 242 0
-1758 121 0
-1759 102 0
-1759 141 0
-1759 28 0
-1760 102 0
-1760 158 0
-1760 28 0
-1760 174 0
-1761 110 0
-1761 28 0
-1761 121 0
-1762 183 0
-1762 141 0
-1762 110 0
-1762 28 0
-1763 28 0
-1763 110 0
-1763 174 0
-1763 150 0
-1764 163 0
-1764 251 0
-1764 65 0
-1764 39 0
-1765 183 0
-1765 218 0
-1765 65 0
-1765 39 0
-1766 65 0
-1766 210 0
-1766 39 0
-1767 73 0
-1767 251 0
-1767 39 0
-1768 73 0
-1768 39 0
-1768 218 0
-1768 150 0
-1769 73 0
-1769 158 0
-1769 210 0
-1769 39 0
-1770 251 0
-1770 39 0
-1770 82 0
-1770 121 0
-1771 39 0
-1771 82 0
-1771 150 0
-1772 183 0
-1772 158 0
-1772 82 0
-1772 39 0
-1773 102 0
-1773 39 0
-1773 218 0
-1773 121 0
-1774 102 0
-1774 39 0
-1775 163 0
-1775 102 0
-1775 158 0
-1775 39 0
-1776 39 0
-1776 110 0
-1776 210 0
-1776 121 0
-1777 183 0
-1777 110 0
-1777 39 0
-1778 163 0
-1778 39 0
-1778 110 0
-1778 150 0
-1779 163 0
-1779 65 0
-1779 48 0
-1779 242 0
-1780 174 0
-1780 218 0
-1780 48 0
-1780 65 0
-1781 201 0
-1781 65 0
-1781 48 0
-1782 73 0
-1782 48 0
-1782 242 0
-1783 73 0
-1783 141 0
-1783 218 0
-1783 48 0
-1784 73 0
-1784 201 0
-1784 158 0
-1784 48 0
-1785 82 0
-1785 48 0
-1785 242 0
-1785 121 0
-1786 141 0
-1786 48 0
-1786 82 0
-1787 82 0
-1787 158 0
-1787 48 0
-1787 174 0
-1788 93 0
-1788 218 0
-1788 48 0
-1788 121 0
-1789 93 0
-1789 48 0
-1790 163 0
-1790 93 0
-1790 158 0
-1790 48 0
-1791 201 0
-1791 48 0
-1791 110 0
-1791 121 0
-1792 48 0
-1792 174 0
-1792 110 0
-1793 163 0
-1793 141 0
-1793 48 0
-1793 110 0
-1794 163 0
-1794 56 0
-1794 65 0
-1795 56 0
-1795 174 0
-1795 210 0
-1795 65 0
-1796 183 0
-1796 201 0
-1796 56 0
-1796 65 0
-1797 73 0
-1797 56 0
-1798 73 0
-1798 141 0
-1798 56 0
-1798 210 0
-1799 73 0
-1799 201 0
-1799 56 0
-1799 150 0
-1800 56 0
-1800 82 0
-1800 121 0
-1801 183 0
-1801 141 0
-1801 56 0
-1801 82 0
-1802 82 0
-1802 56 0
-1802 174 0
-1802 150 0
-1803 56 0
-1803 93 0
-1803 210 0
-1803 121 0
-1804 183 0
-1804 93 0
-1804 56 0
-1805 163 0
-1805 150 0
-1805 93 0
-1805 56 0
-1806 102 0
-1806 56 0
-1806 121 0
-1806 201 0
-1807 102 0
-1807 56 0
-1807 174 0
-1808 163 0
-1808 102 0
-1808 141 0
-1808 56 0
-1 -130 -191 -234 1705 1706 1707 1708 1709 1710 1711 1712 1713 1714 1715 1716 1717 1718 1719 1720 1721 1722 1723 1724 1725 1726 1727 1728 1729 1730 1731 1732 1733 1734 1735 1736 1737 1738 1739 1740 1741 1742 1743 1744 1745 1746 1747 1748 1749 1750 1751 1752 1753 1754 1755 1756 1757 1758 1759 1760 1761 1762 1763 1764 1765 1766 1767 1768 1769 1770 1771 1772 1773 1774 1775 1776 1777 1778 1779 1780 1781 1782 1783 1784 1785 1786 1787 1788 1789 1790 1791 1792 1793 1794 1795 1796 1797 1798 1799 1800 1801 1802 1803 1804 1805 1806 1807 1808 0
-1809 202 0
-1809 125 0
-1809 5 0
-1809 249 0
-1810 237 0
-1810 125 0
-1810 5 0
-1811 222 0
-1811 5 0
-1811 125 0
-1811 227 0
-1812 175 0
-1812 134 0
-1812 5 0
-1812 249 0
-1813 237 0
-1813 134 0
-1813 185 0
-1813 5 0
-1814 134 0
-1814 195 0
-1814 5 0
-1814 227 0
-1815 142 0
-1815 5 0
-1815 167 0
-1815 249 0
-1816 222 0
-1816 142 0
-1816 185 0
-1816 5 0
-1817 142 0
-1817 195 0
-1817 5 0
-1818 237 0
-1818 5 0
-1818 152 0
-1818 167 0
-1819 222 0
-1819 152 0
-1819 5 0
-1819 175 0
-1820 202 0
-1820 152 0
-1820 195 0
-1820 5 0
-1821 5 0
-1821 227 0
-1821 167 0
-1822 5 0
-1822 175 0
-1823 202 0
-1823 185 0
-1823 5 0
-1824 202 0
-1824 15 0
-1824 249 0
-1825 237 0
-1825 15 0
-1826 222 0
-1826 227 0
-1826 15 0
-1827 15 0
-1827 249 0
-1827 86 0
-1827 175 0
-1828 237 0
-1828 185 0
-1828 86 0
-1828 15 0
-1829 86 0
-1829 195 0
-1829 227 0
-1829 15 0
-1830 15 0
-1830 94 0
-1830 167 0
-1830 249 0
-1831 222 0
-1831 185 0
-1831 94 0
-1831 15 0
-1832 94 0
-1832 195 0
-1832 15 0
-1833 237 0
-1833 104 0
-1833 167 0
-1833 15 0
-1834 222 0
-1834 15 0
-1834 104 0
-1834 175 0
-1835 202 0
-1835 104 0
-1835 195 0
-1835 15 0
-1836 167 0
-1836 114 0
-1836 227 0
-1836 15 0
-1837 15 0
-1837 114 0
-1837 175 0
-1838 202 0
-1838 185 0
-1838 114 0
-1838 15 0
-1839 69 0
-1839 23 0
-1839 202 0
-1839 249 0
-1840 69 0
-1840 23 0
-1840 237 0
-1841 69 0
-1841 23 0
-1841 222 0
-1841 227 0
-1842 142 0
-1842 86 0
-1842 23 0
-1842 249 0
-1843 237 0
-1843 23 0
-1843 152 0
-1843 86 0
-1844 23 0
-1844 86 0
-1844 227 0
-1845 134 0
-1845 94 0
-1845 23 0
-1845 249 0
-1846 222 0
-1846 23 0
-1846 152 0
-1846 94 0
-1847 23 0
-1847 94 0
-1848 237 0
-1848 134 0
-1848 104 0
-1848 23 0
-1849 222 0
-1849 142 0
-1849 104 0
-1849 23 0
-1850 202 0
-1850 23 0
-1850 104 0
-1851 134 0
-1851 114 0
-1851 227 0
-1851 23 0
-1852 142 0
-1852 114 0
-1852 23 0
-1853 202 0
-1853 152 0
-1853 114 0
-1853 23 0
-1854 69 0
-1854 175 0
-1854 32 0
-1854 249 0
-1855 69 0
-1855 185 0
-1855 32 0
-1855 237 0
-1856 69 0
-1856 32 0
-1856 195 0
-1856 227 0
-1857 142 0
-1857 32 0
-1857 249 0
-1858 237 0
-1858 152 0
-1858 32 0
-1859 32 0
-1859 227 0
-1860 125 0
-1860 32 0
-1860 94 0
-1860 249 0
-1861 152 0
-1861 32 0
-1861 94 0
-1861 195 0
-1862 185 0
-1862 32 0
-1862 94 0
-1863 237 0
-1863 125 0
-1863 32 0
-1863 104 0
-1864 142 0
-1864 32 0
-1864 195 0
-1864 104 0
-1865 32 0
-1865 104 0
-1865 175 0
-1866 125 0
-1866 32 0
-1866 227 0
-1866 114 0
-1867 142 0
-1867 185 0
-1867 32 0
-1867 114 0
-1868 152 0
-1868 32 0
-1868 114 0
-1868 175 0
-1869 69 0
-1869 167 0
-1869 249 0
-1870 222 0
-1870 185 0
-1870 69 0
-1871 69 0
-1871 195 0
-1872 134 0
-1872 249 0
-1873 222 0
-1873 152 0
-1874 125 0
-1874 86 0
-1874 249 0
-1875 152 0
-1875 86 0
-1875 195 0
-1876 185 0
-1876 86 0
-1877 222 0
-1877 125 0
-1877 104 0
-1878 134 0
-1878 104 0
-1878 195 0
-1879 104 0
-1879 167 0
-1880 125 0
-1880 114 0
-1881 134 0
-1881 185 0
-1881 114 0
-1882 152 0
-1882 114 0
-1882 167 0
-1883 69 0
-1883 237 0
-1883 167 0
-1883 50 0
-1884 69 0
-1884 50 0
-1884 222 0
-1884 175 0
-1885 69 0
-1885 202 0
-1885 195 0
-1885 50 0
-1886 237 0
-1886 134 0
-1886 50 0
-1887 222 0
-1887 142 0
-1887 50 0
-1888 202 0
-1888 50 0
-1889 237 0
-1889 125 0
-1889 86 0
-1889 50 0
-1890 142 0
-1890 86 0
-1890 195 0
-1890 50 0
-1891 50 0
-1891 86 0
-1891 175 0
-1892 222 0
-1892 125 0
-1892 94 0
-1892 50 0
-1893 134 0
-1893 94 0
-1893 195 0
-1893 50 0
-1894 94 0
-1894 167 0
-1894 50 0
-1895 202 0
-1895 125 0
-1895 114 0
-1895 50 0
-1896 134 0
-1896 50 0
-1896 114 0
-1896 175 0
-1897 142 0
-1897 114 0
-1897 167 0
-1897 50 0
-1898 69 0
-1898 167 0
-1898 227 0
-1898 60 0
-1899 69 0
-1899 60 0
-1899 175 0
-1900 69 0
-1900 202 0
-1900 185 0
-1900 60 0
-1901 134 0
-1901 227 0
-1901 60 0
-1902 142 0
-1902 60 0
-1903 202 0
-1903 152 0
-1903 60 0
-1904 125 0
-1904 86 0
-1904 227 0
-1904 60 0
-1905 142 0
-1905 185 0
-1905 86 0
-1905 60 0
-1906 60 0
-1906 152 0
-1906 86 0
-1906 175 0
-1907 125 0
-1907 94 0
-1907 60 0
-1908 134 0
-1908 185 0
-1908 94 0
-1908 60 0
-1909 152 0
-1909 94 0
-1909 167 0
-1909 60 0
-1910 202 0
-1910 125 0
-1910 104 0
-1910 60 0
-1911 134 0
-1911 104 0
-1911 60 0
-1911 175 0
-1912 142 0
-1912 104 0
-1912 167 0
-1912 60 0
-40 -77 -162 -212 1809 1810 1811 1812 1813 1814 1815 1816 1817 1818 1819 1820 1821 1822 1823 1824 1825 1826 1827 1828 1829 1830 1831 1832 1833 1834 1835 1836 1837 1838 1839 1840 1841 1842 1843 1844 1845 1846 1847 1848 1849 1850 1851 1852 1853 1854 1855 1856 1857 1858 1859 1860 1861 1862 1863 1864 1865 1866 1867 1868 1869 1870 1871 1872 1873 1874 1875 1876 1877 1878 1879 1880 1881 1882 1883 1884 1885 1886 1887 1888 1889 1890 1891 1892 1893 1894 1895 1896 1897 1898 1899 1900 1901 1902 1903 1904 1905 1906 1907 1908 1909 1910 1911 1912 0
-1913 205 0
-1913 6 0
-1914 214 0
-1914 235 0
-1914 6 0
-1915 223 0
-1915 226 0
-1915 6 0
-1916 172 0
-1916 129 0
-1916 6 0
-1917 129 0
-1917 235 0
-1917 181 0
-1917 6 0
-1918 190 0
-1918 226 0
-1918 129 0
-1918 6 0
-1919 165 0
-1919 136 0
-1919 6 0
-1920 223 0
-1920 136 0
-1920 181 0
-1920 6 0
-1921 190 0
-1921 214 0
-1921 136 0
-1921 6 0
-1922 145 0
-1922 165 0
-1922 235 0
-1922 6 0
-1923 223 0
-1923 145 0
-1923 172 0
-1923 6 0
-1924 190 0
-1924 145 0
-1924 205 0
-1924 6 0
-1925 154 0
-1925 165 0
-1925 226 0
-1925 6 0
-1926 154 0
-1926 214 0
-1926 172 0
-1926 6 0
-1927 154 0
-1927 205 0
-1927 6 0
-1927 181 0
-1928 205 0
-1928 79 0
-1928 13 0
-1929 214 0
-1929 235 0
-1929 79 0
-1929 13 0
-1930 223 0
-1930 226 0
-1930 13 0
-1930 79 0
-1931 172 0
-1931 13 0
-1932 181 0
-1932 235 0
-1932 13 0
-1933 190 0
-1933 226 0
-1933 13 0
-1934 165 0
-1934 13 0
-1934 97 0
-1935 223 0
-1935 97 0
-1935 181 0
-1935 13 0
-1936 190 0
-1936 214 0
-1936 13 0
-1936 97 0
-1937 165 0
-1937 235 0
-1937 106 0
-1937 13 0
-1938 223 0
-1938 172 0
-1938 13 0
-1938 106 0
-1939 190 0
-1939 205 0
-1939 106 0
-1939 13 0
-1940 115 0
-1940 226 0
-1940 13 0
-1940 165 0
-1941 214 0
-1941 172 0
-1941 13 0
-1941 115 0
-1942 205 0
-1942 115 0
-1942 181 0
-1942 13 0
-1943 22 0
-1943 70 0
-1943 205 0
-1944 22 0
-1944 70 0
-1944 214 0
-1944 235 0
-1945 22 0
-1945 70 0
-1945 226 0
-1945 223 0
-1946 22 0
-1946 136 0
-1947 22 0
-1947 145 0
-1947 235 0
-1948 22 0
-1948 226 0
-1948 154 0
-1949 22 0
-1949 129 0
-1949 97 0
-1950 22 0
-1950 223 0
-1950 145 0
-1950 97 0
-1951 22 0
-1951 214 0
-1951 97 0
-1951 154 0
-1952 22 0
-1952 235 0
-1952 129 0
-1952 106 0
-1953 22 0
-1953 223 0
-1953 136 0
-1953 106 0
-1954 22 0
-1954 154 0
-1954 205 0
-1954 106 0
-1955 22 0
-1955 115 0
-1955 226 0
-1955 129 0
-1956 22 0
-1956 214 0
-1956 115 0
-1956 136 0
-1957 22 0
-1957 145 0
-1957 115 0
-1957 205 0
-1958 70 0
-1958 172 0
-1958 33 0
-1959 181 0
-1959 70 0
-1959 33 0
-1959 235 0
-1960 190 0
-1960 70 0
-1960 226 0
-1960 33 0
-1961 136 0
-1961 33 0
-1961 79 0
-1962 145 0
-1962 33 0
-1962 235 0
-1962 79 0
-1963 154 0
-1963 226 0
-1963 33 0
-1963 79 0
-1964 33 0
-1964 97 0
-1965 190 0
-1965 145 0
-1965 33 0
-1965 97 0
-1966 154 0
-1966 33 0
-1966 181 0
-1966 97 0
-1967 33 0
-1967 235 0
-1967 106 0
-1968 190 0
-1968 136 0
-1968 33 0
-1968 106 0
-1969 154 0
-1969 172 0
-1969 33 0
-1969 106 0
-1970 115 0
-1970 33 0
-1970 226 0
-1971 115 0
-1971 33 0
-1971 181 0
-1971 136 0
-1972 145 0
-1972 115 0
-1972 33 0
-1972 172 0
-1973 70 0
-1973 165 0
-1974 70 0
-1974 181 0
-1974 223 0
-1975 190 0
-1975 70 0
-1975 214 0
-1976 129 0
-1976 79 0
-1977 223 0
-1977 145 0
-1977 79 0
-1978 154 0
-1978 214 0
-1978 79 0
-1979 190 0
-1979 145 0
-1980 154 0
-1980 181 0
-1981 223 0
-1981 106 0
-1982 190 0
-1982 129 0
-1982 106 0
-1983 154 0
-1983 165 0
-1983 106 0
-1984 214 0
-1984 115 0
-1985 181 0
-1985 115 0
-1985 129 0
-1986 145 0
-1986 115 0
-1986 165 0
-1987 70 0
-1987 165 0
-1987 235 0
-1987 49 0
-1988 70 0
-1988 172 0
-1988 49 0
-1988 223 0
-1989 190 0
-1989 70 0
-1989 205 0
-1989 49 0
-1990 129 0
-1990 235 0
-1990 49 0
-1990 79 0
-1991 223 0
-1991 136 0
-1991 49 0
-1991 79 0
-1992 154 0
-1992 205 0
-1992 49 0
-1992 79 0
-1993 235 0
-1993 49 0
-1994 190 0
-1994 136 0
-1994 49 0
-1995 154 0
-1995 172 0
-1995 49 0
-1996 223 0
-1996 49 0
-1996 97 0
-1997 190 0
-1997 129 0
-1997 49 0
-1997 97 0
-1998 154 0
-1998 165 0
-1998 49 0
-1998 97 0
-1999 115 0
-1999 205 0
-1999 49 0
-2000 49 0
-2000 172 0
-2000 129 0
-2000 115 0
-2001 115 0
-2001 136 0
-2001 49 0
-2001 165 0
-2002 70 0
-2002 165 0
-2002 58 0
-2002 226 0
-2003 70 0
-2003 214 0
-2003 172 0
-2003 58 0
-2004 181 0
-2004 70 0
-2004 58 0
-2004 205 0
-2005 58 0
-2005 226 0
-2005 129 0
-2005 79 0
-2006 58 0
-2006 214 0
-2006 136 0
-2006 79 0
-2007 145 0
-2007 58 0
-2007 205 0
-2007 79 0
-2008 58 0
-2008 226 0
-2009 58 0
-2009 136 0
-2009 181 0
-2010 145 0
-2010 172 0
-2010 58 0
-2011 214 0
-2011 58 0
-2011 97 0
-2012 129 0
-2012 58 0
-2012 181 0
-2012 97 0
-2013 145 0
-2013 165 0
-2013 58 0
-2013 97 0
-2014 58 0
-2014 205 0
-2014 106 0
-2015 172 0
-2015 58 0
-2015 129 0
-2015 106 0
-2016 58 0
-2016 165 0
-2016 136 0
-2016 106 0
-40 -90 -118 -244 1913 1914 1915 1916 1917 1918 1919 1920 1921 1922 1923 1924 1925 1926 1927 1928 1929 1930 1931 1932 1933 1934 1935 1936 1937 1938 1939 1940 1941 1942 1943 1944 1945 1946 1947 1948 1949 1950 1951 1952 1953 1954 1955 1956 1957 1958 1959 1960 1961 1962 1963 1964 1965 1966 1967 1968 1969 1970 1971 1972 1973 1974 1975 1976 1977 1978 1979 1980 1981 1982 1983 1984 1985 1986 1987 1988 1989 1990 1991 1992 1993 1994 1995 1996 1997 1998 1999 2000 2001 2002 2003 2004 2005 2006 2007 2008 2009 2010 2011 2012 2013 2014 2015 2016 0
-2017 251 0
-2017 121 0
-2017 6 0
-2017 207 0
-2018 6 0
-2018 216 0
-2018 242 0
-2018 121 0
-2019 224 0
-2019 6 0
-2019 121 0
-2020 6 0
-2020 251 0
-2020 174 0
-2020 132 0
-2021 183 0
-2021 132 0
-2021 242 0
-2021 6 0
-2022 6 0
-2022 132 0
-2023 251 0
-2023 141 0
-2023 165 0
-2023 6 0
-2024 183 0
-2024 141 0
-2024 6 0
-2024 224 0
-2025 141 0
-2025 216 0
-2025 6 0
-2026 6 0
-2026 165 0
-2026 242 0
-2026 150 0
-2027 6 0
-2027 224 0
-2027 174 0
-2027 150 0
-2028 150 0
-2028 6 0
-2028 207 0
-2029 158 0
-2029 6 0
-2029 165 0
-2030 6 0
-2030 158 0
-2030 216 0
-2030 174 0
-2031 183 0
-2031 158 0
-2031 6 0
-2031 207 0
-2032 251 0
-2032 79 0
-2032 207 0
-2033 216 0
-2033 242 0
-2033 79 0
-2034 224 0
-2034 79 0
-2035 251 0
-2035 174 0
-2036 183 0
-2036 242 0
-2037 99 0
-2037 165 0
-2037 251 0
-2038 183 0
-2038 99 0
-2038 224 0
-2039 99 0
-2039 216 0
-2040 108 0
-2040 165 0
-2040 242 0
-2041 108 0
-2041 224 0
-2041 174 0
-2042 108 0
-2042 207 0
-2043 165 0
-2043 116 0
-2044 116 0
-2044 216 0
-2044 174 0
-2045 183 0
-2045 116 0
-2045 207 0
-2046 22 0
-2046 251 0
-2046 71 0
-2046 207 0
-2047 22 0
-2047 71 0
-2047 216 0
-2047 242 0
-2048 22 0
-2048 71 0
-2048 224 0
-2049 22 0
-2049 251 0
-2049 141 0
-2050 22 0
-2050 242 0
-2050 150 0
-2051 22 0
-2051 158 0
-2052 22 0
-2052 99 0
-2052 251 0
-2052 132 0
-2053 22 0
-2053 99 0
-2053 224 0
-2053 150 0
-2054 22 0
-2054 99 0
-2054 158 0
-2054 216 0
-2055 22 0
-2055 108 0
-2055 242 0
-2055 132 0
-2056 22 0
-2056 141 0
-2056 108 0
-2056 224 0
-2057 22 0
-2057 158 0
-2057 108 0
-2057 207 0
-2058 22 0
-2058 116 0
-2058 132 0
-2059 22 0
-2059 141 0
-2059 116 0
-2059 216 0
-2060 22 0
-2060 150 0
-2060 116 0
-2060 207 0
-2061 251 0
-2061 71 0
-2061 33 0
-2061 174 0
-2062 183 0
-2062 71 0
-2062 33 0
-2062 242 0
-2063 71 0
-2063 33 0
-2064 251 0
-2064 141 0
-2064 33 0
-2064 79 0
-2065 150 0
-2065 33 0
-2065 242 0
-2065 79 0
-2066 158 0
-2066 33 0
-2066 79 0
-2067 251 0
-2067 33 0
-2067 99 0
-2067 121 0
-2068 99 0
-2068 33 0
-2068 150 0
-2069 183 0
-2069 99 0
-2069 158 0
-2069 33 0
-2070 108 0
-2070 33 0
-2070 242 0
-2070 121 0
-2071 108 0
-2071 141 0
-2071 33 0
-2072 108 0
-2072 158 0
-2072 33 0
-2072 174 0
-2073 116 0
-2073 33 0
-2073 121 0
-2074 183 0
-2074 141 0
-2074 116 0
-2074 33 0
-2075 116 0
-2075 33 0
-2075 174 0
-2075 150 0
-2076 251 0
-2076 71 0
-2076 42 0
-2076 165 0
-2077 183 0
-2077 71 0
-2077 42 0
-2077 224 0
-2078 71 0
-2078 42 0
-2078 216 0
-2079 251 0
-2079 42 0
-2079 79 0
-2079 132 0
-2080 224 0
-2080 42 0
-2080 79 0
-2080 150 0
-2081 216 0
-2081 158 0
-2081 42 0
-2081 79 0
-2082 251 0
-2082 42 0
-2082 121 0
-2083 42 0
-2083 150 0
-2084 183 0
-2084 158 0
-2084 42 0
-2085 108 0
-2085 224 0
-2085 42 0
-2085 121 0
-2086 108 0
-2086 42 0
-2086 132 0
-2087 108 0
-2087 158 0
-2087 42 0
-2087 165 0
-2088 42 0
-2088 116 0
-2088 216 0
-2088 121 0
-2089 183 0
-2089 42 0
-2089 116 0
-2089 132 0
-2090 150 0
-2090 42 0
-2090 116 0
-2090 165 0
-2091 51 0
-2091 71 0
-2091 165 0
-2091 242 0
-2092 51 0
-2092 71 0
-2092 174 0
-2092 224 0
-2093 51 0
-2093 71 0
-2093 207 0
-2094 51 0
-2094 132 0
-2094 242 0
-2094 79 0
-2095 51 0
-2095 141 0
-2095 79 0
-2095 224 0
-2096 51 0
-2096 158 0
-2096 79 0
-2096 207 0
-2097 51 0
-2097 242 0
-2097 121 0
-2098 51 0
-2098 141 0
-2099 51 0
-2099 158 0
-2099 174 0
-2100 51 0
-2100 224 0
-2100 99 0
-2100 121 0
-2101 51 0
-2101 99 0
-2101 132 0
-2102 51 0
-2102 158 0
-2102 99 0
-2102 165 0
-2103 51 0
-2103 116 0
-2103 121 0
-2103 207 0
-2104 51 0
-2104 116 0
-2104 174 0
-2104 132 0
-2105 51 0
-2105 141 0
-2105 165 0
-2105 116 0
-2106 71 0
-2106 165 0
-2106 59 0
-2107 59 0
-2107 71 0
-2107 216 0
-2107 174 0
-2108 183 0
-2108 71 0
-2108 59 0
-2108 207 0
-2109 79 0
-2109 59 0
-2109 132 0
-2110 141 0
-2110 216 0
-2110 59 0
-2110 79 0
-2111 207 0
-2111 79 0
-2111 59 0
-2111 150 0
-2112 59 0
-2112 121 0
-2113 183 0
-2113 141 0
-2113 59 0
-2114 59 0
-2114 174 0
-2114 150 0
-2115 99 0
-2115 216 0
-2115 59 0
-2115 121 0
-2116 183 0
-2116 99 0
-2116 59 0
-2116 132 0
-2117 99 0
-2117 165 0
-2117 59 0
-2117 150 0
-2118 108 0
-2118 121 0
-2118 59 0
-2118 207 0
-2119 108 0
-2119 59 0
-2119 174 0
-2119 132 0
-2120 108 0
-2120 141 0
-2120 165 0
-2120 59 0
-14 -90 -191 -234 2017 2018 2019 2020 2021 2022 2023 2024 2025 2026 2027 2028 2029 2030 2031 2032 2033 2034 2035 2036 2037 2038 2039 2040 2041 2042 2043 2044 2045 2046 2047 2048 2049 2050 2051 2052 2053 2054 2055 2056 2057 2058 2059 2060 2061 2062 2063 2064 2065 2066 2067 2068 2069 2070 2071 2072 2073 2074 2075 2076 2077 2078 2079 2080 2081 2082 2083 2084 2085 2086 2087 2088 2089 2090 2091 2092 2093 2094 2095 2096 2097 2098 2099 2100 2101 2102 2103 2104 2105 2106 2107 2108 2109 2110 2111 2112 2113 2114 2115 2116 2117 2118 2119 2120 0
-2121 9 0
-2121 206 0
-2121 120 0
-2122 9 0
-2122 214 0
-2122 238 0
-2122 120 0
-2123 223 0
-2123 9 0
-2123 120 0
-2123 229 0
-2124 9 0
-2124 179 0
-2124 129 0
-2125 9 0
-2125 187 0
-2125 129 0
-2125 238 0
-2126 9 0
-2126 196 0
-2126 129 0
-2126 229 0
-2127 9 0
-2127 171 0
-2128 9 0
-2128 187 0
-2128 223 0
-2129 9 0
-2129 214 0
-2129 196 0
-2130 9 0
-2130 145 0
-2130 171 0
-2130 238 0
-2131 9 0
-2131 145 0
-2131 179 0
-2131 223 0
-2132 9 0
-2132 145 0
-2132 196 0
-2132 206 0
-2133 154 0
-2133 9 0
-2133 171 0
-2133 229 0
-2134 154 0
-2134 9 0
-2134 179 0
-2134 214 0
-2135 154 0
-2135 9 0
-2135 187 0
-2135 206 0
-2136 16 0
-2136 81 0
-2136 206 0
-2137 16 0
-2137 81 0
-2137 214 0
-2137 238 0
-2138 16 0
-2138 81 0
-2138 223 0
-2138 229 0
-2139 16 0
-2139 179 0
-2140 16 0
-2140 238 0
-2140 187 0
-2141 16 0
-2141 196 0
-2141 229 0
-2142 16 0
-2142 171 0
-2142 98 0
-2143 16 0
-2143 223 0
-2143 187 0
-2143 98 0
-2144 16 0
-2144 214 0
-2144 196 0
-2144 98 0
-2145 16 0
-2145 238 0
-2145 171 0
-2145 106 0
-2146 16 0
-2146 223 0
-2146 179 0
-2146 106 0
-2147 16 0
-2147 106 0
-2147 206 0
-2147 196 0
-2148 16 0
-2148 171 0
-2148 115 0
-2148 229 0
-2149 16 0
-2149 214 0
-2149 115 0
-2149 179 0
-2150 16 0
-2150 115 0
-2150 187 0
-2150 206 0
-2151 70 0
-2151 206 0
-2152 70 0
-2152 214 0
-2152 238 0
-2153 223 0
-2153 70 0
-2153 229 0
-2154 238 0
-2154 145 0
-2155 154 0
-2155 229 0
-2156 98 0
-2156 129 0
-2157 98 0
-2157 223 0
-2157 145 0
-2158 98 0
-2158 214 0
-2158 154 0
-2159 238 0
-2159 129 0
-2159 106 0
-2160 223 0
-2160 106 0
-2161 154 0
-2161 106 0
-2161 206 0
-2162 115 0
-2162 129 0
-2162 229 0
-2163 214 0
-2163 115 0
-2164 145 0
-2164 115 0
-2164 206 0
-2165 36 0
-2165 70 0
-2165 179 0
-2166 36 0
-2166 70 0
-2166 187 0
-2166 238 0
-2167 36 0
-2167 70 0
-2167 196 0
-2167 229 0
-2168 36 0
-2168 81 0
-2169 36 0
-2169 81 0
-2169 145 0
-2169 238 0
-2170 36 0
-2170 81 0
-2170 154 0
-2170 229 0
-2171 36 0
-2171 98 0
-2171 120 0
-2172 36 0
-2172 145 0
-2172 196 0
-2172 98 0
-2173 36 0
-2173 98 0
-2173 187 0
-2173 154 0
-2174 36 0
-2174 238 0
-2174 106 0
-2174 120 0
-2175 36 0
-2175 106 0
-2175 196 0
-2176 36 0
-2176 179 0
-2176 106 0
-2176 154 0
-2177 36 0
-2177 115 0
-2177 120 0
-2177 229 0
-2178 36 0
-2178 115 0
-2178 187 0
-2179 36 0
-2179 145 0
-2179 115 0
-2179 179 0
-2180 70 0
-2180 171 0
-2180 44 0
-2181 70 0
-2181 187 0
-2181 44 0
-2181 223 0
-2182 70 0
-2182 214 0
-2182 44 0
-2182 196 0
-2183 81 0
-2183 129 0
-2183 44 0
-2184 81 0
-2184 145 0
-2184 44 0
-2184 223 0
-2185 154 0
-2185 81 0
-2185 214 0
-2185 44 0
-2186 44 0
-2186 120 0
-2187 145 0
-2187 44 0
-2187 196 0
-2188 154 0
-2188 187 0
-2188 44 0
-2189 223 0
-2189 44 0
-2189 106 0
-2189 120 0
-2190 129 0
-2190 196 0
-2190 44 0
-2190 106 0
-2191 154 0
-2191 171 0
-2191 44 0
-2191 106 0
-2192 214 0
-2192 115 0
-2192 44 0
-2192 120 0
-2193 115 0
-2193 187 0
-2193 129 0
-2193 44 0
-2194 145 0
-2194 171 0
-2194 115 0
-2194 44 0
-2195 52 0
-2195 70 0
-2195 171 0
-2195 238 0
-2196 52 0
-2196 70 0
-2196 179 0
-2196 223 0
-2197 52 0
-2197 70 0
-2197 196 0
-2197 206 0
-2198 81 0
-2198 52 0
-2198 129 0
-2198 238 0
-2199 81 0
-2199 52 0
-2199 223 0
-2200 154 0
-2200 81 0
-2200 52 0
-2200 206 0
-2201 52 0
-2201 238 0
-2201 120 0
-2202 52 0
-2202 196 0
-2203 154 0
-2203 52 0
-2203 179 0
-2204 98 0
-2204 52 0
-2204 120 0
-2204 223 0
-2205 98 0
-2205 52 0
-2205 129 0
-2205 196 0
-2206 98 0
-2206 52 0
-2206 171 0
-2206 154 0
-2207 52 0
-2207 115 0
-2207 206 0
-2207 120 0
-2208 52 0
-2208 179 0
-2208 115 0
-2208 129 0
-2209 52 0
-2209 171 0
-2209 115 0
-2210 70 0
-2210 171 0
-2210 61 0
-2210 229 0
-2211 70 0
-2211 214 0
-2211 179 0
-2211 61 0
-2212 70 0
-2212 187 0
-2212 206 0
-2212 61 0
-2213 81 0
-2213 61 0
-2213 129 0
-2213 229 0
-2214 81 0
-2214 214 0
-2214 61 0
-2215 81 0
-2215 145 0
-2215 206 0
-2215 61 0
-2216 61 0
-2216 229 0
-2216 120 0
-2217 187 0
-2217 61 0
-2218 145 0
-2218 179 0
-2218 61 0
-2219 98 0
-2219 214 0
-2219 61 0
-2219 120 0
-2220 98 0
-2220 187 0
-2220 129 0
-2220 61 0
-2221 98 0
-2221 145 0
-2221 171 0
-2221 61 0
-2222 61 0
-2222 106 0
-2222 206 0
-2222 120 0
-2223 179 0
-2223 61 0
-2223 129 0
-2223 106 0
-2224 171 0
-2224 106 0
-2224 61 0
-27 -90 -137 -244 2121 2122 2123 2124 2125 2126 2127 2128 2129 2130 2131 2132 2133 2134 2135 2136 2137 2138 2139 2140 2141 2142 2143 2144 2145 2146 2147 2148 2149 2150 2151 2152 2153 2154 2155 2156 2157 2158 2159 2160 2161 2162 2163 2164 2165 2166 2167 2168 2169 2170 2171 2172 2173 2174 2175 2176 2177 2178 2179 2180 2181 2182 2183 2184 2185 2186 2187 2188 2189 2190 2191 2192 2193 2194 2195 2196 2197 2198 2199 2200 2201 2202 2203 2204 2205 2206 2207 2208 2209 2210 2211 2212 2213 2214 2215 2216 2217 2218 2219 2220 2221 2222 2223 2224 0
-370 -389 -2225 0
370 389 -2225 0
370 -389 2225 0
-370 389 2225 0
-2225 -443 -2226 0
2225 443 -2226 0
2225 -443 2226 0
-2225 443 2226 0
-2226 -491 -2227 0
2226 491 -2227 0
2226 -491 2227 0
-2226 491 2227 0
-1 -118 -137 -191 -212 -239 2227 0
-266 -292 -2228 0
266 292 -2228 0
266 -292 2228 0
-266 292 2228 0
-2228 -382 -2229 0
2228 382 -2229 0
2228 -382 2229 0
-2228 382 2229 0
-2229 -451 -2230 0
2229 451 -2230 0
2229 -451 2230 0
-2229 451 2230 0
-14 -40 -77 -130 -199 -244 2230 0
-2231 201 0
-2231 125 0
-2231 252 0
-2232 125 0
-2232 210 0
-2232 243 0
-2233 125 0
-2233 219 0
-2234 133 0
-2234 177 0
-2234 252 0
-2235 133 0
-2235 186 0
-2235 243 0
-2236 133 0
-2236 195 0
-2237 252 0
-2237 144 0
-2238 186 0
-2238 144 0
-2238 219 0
-2239 144 0
-2239 210 0
-2239 195 0
-2240 153 0
-2240 243 0
-2241 177 0
-2241 153 0
-2241 219 0
-2242 201 0
-2242 153 0
-2242 195 0
-2243 177 0
-2243 210 0
-2244 201 0
-2244 186 0
-2245 74 0
-2245 252 0
-2245 12 0
-2245 201 0
-2246 74 0
-2246 12 0
-2246 210 0
-2246 243 0
-2247 74 0
-2247 219 0
-2247 12 0
-2248 12 0
-2248 177 0
-2248 252 0
-2248 82 0
-2249 186 0
-2249 12 0
-2249 82 0
-2249 243 0
-2250 12 0
-2250 195 0
-2250 82 0
-2251 252 0
-2251 93 0
-2251 12 0
-2252 93 0
-2252 219 0
-2252 12 0
-2252 186 0
-2253 12 0
-2253 93 0
-2253 195 0
-2253 210 0
-2254 102 0
-2254 12 0
-2254 243 0
-2255 102 0
-2255 177 0
-2255 219 0
-2255 12 0
-2256 102 0
-2256 195 0
-2256 12 0
-2256 201 0
-2257 12 0
-2257 111 0
-2258 177 0
-2258 12 0
-2258 210 0
-2258 111 0
-2259 201 0
-2259 186 0
-2259 12 0
-2259 111 0
-2260 201 0
-2260 252 0
-2260 66 0
-2260 20 0
-2261 20 0
-2261 66 0
-2261 210 0
-2261 243 0
-2262 20 0
-2262 219 0
-2262 66 0
-2263 20 0
-2263 252 0
-2263 144 0
-2263 82 0
-2264 153 0
-2264 20 0
-2264 82 0
-2264 243 0
-2265 20 0
-2265 82 0
-2266 133 0
-2266 252 0
-2266 93 0
-2266 20 0
-2267 93 0
-2267 153 0
-2267 219 0
-2267 20 0
-2268 93 0
-2268 20 0
-2268 210 0
-2269 133 0
-2269 102 0
-2269 20 0
-2269 243 0
-2270 102 0
-2270 144 0
-2270 219 0
-2270 20 0
-2271 102 0
-2271 20 0
-2271 201 0
-2272 133 0
-2272 20 0
-2272 111 0
-2273 20 0
-2273 144 0
-2273 210 0
-2273 111 0
-2274 201 0
-2274 153 0
-2274 20 0
-2274 111 0
-2275 177 0
-2275 252 0
-2275 66 0
-2275 28 0
-2276 186 0
-2276 66 0
-2276 28 0
-2276 243 0
-2277 195 0
-2277 66 0
-2277 28 0
-2278 74 0
-2278 252 0
-2278 144 0
-2278 28 0
-2279 74 0
-2279 153 0
-2279 28 0
-2279 243 0
-2280 74 0
-2280 28 0
-2281 125 0
-2281 93 0
-2281 252 0
-2281 28 0
-2282 93 0
-2282 153 0
-2282 28 0
-2282 195 0
-2283 93 0
-2283 28 0
-2283 186 0
-2284 102 0
-2284 125 0
-2284 28 0
-2284 243 0
-2285 102 0
-2285 144 0
-2285 28 0
-2285 195 0
-2286 102 0
-2286 177 0
-2286 28 0
-2287 125 0
-2287 28 0
-2287 111 0
-2288 186 0
-2288 144 0
-2288 28 0
-2288 111 0
-2289 177 0
-2289 153 0
-2289 28 0
-2289 111 0
-2290 252 0
-2290 66 0
-2290 39 0
-2291 186 0
-2291 219 0
-2291 66 0
-2291 39 0
-2292 195 0
-2292 66 0
-2292 210 0
-2292 39 0
-2293 133 0
-2293 74 0
-2293 252 0
-2293 39 0
-2294 74 0
-2294 153 0
-2294 219 0
-2294 39 0
-2295 74 0
-2295 210 0
-2295 39 0
-2296 125 0
-2296 252 0
-2296 82 0
-2296 39 0
-2297 153 0
-2297 195 0
-2297 82 0
-2297 39 0
-2298 186 0
-2298 82 0
-2298 39 0
-2299 102 0
-2299 125 0
-2299 219 0
-2299 39 0
-2300 133 0
-2300 102 0
-2300 195 0
-2300 39 0
-2301 102 0
-2301 39 0
-2302 39 0
-2302 125 0
-2302 210 0
-2302 111 0
-2303 133 0
-2303 39 0
-2303 186 0
-2303 111 0
-2304 39 0
-2304 153 0
-2304 111 0
-2305 48 0
-2305 66 0
-2305 243 0
-2306 48 0
-2306 177 0
-2306 219 0
-2306 66 0
-2307 201 0
-2307 195 0
-2307 48 0
-2307 66 0
-2308 133 0
-2308 74 0
-2308 48 0
-2308 243 0
-2309 74 0
-2309 48 0
-2309 144 0
-2309 219 0
-2310 74 0
-2310 48 0
-2310 201 0
-2311 125 0
-2311 48 0
-2311 82 0
-2311 243 0
-2312 144 0
-2312 48 0
-2312 82 0
-2312 195 0
-2313 177 0
-2313 48 0
-2313 82 0
-2314 48 0
-2314 125 0
-2314 93 0
-2314 219 0
-2315 133 0
-2315 93 0
-2315 195 0
-2315 48 0
-2316 93 0
-2316 48 0
-2317 201 0
-2317 125 0
-2317 48 0
-2317 111 0
-2318 133 0
-2318 177 0
-2318 48 0
-2318 111 0
-2319 144 0
-2319 48 0
-2319 111 0
-2320 57 0
-2320 66 0
-2321 177 0
-2321 57 0
-2321 66 0
-2321 210 0
-2322 201 0
-2322 186 0
-2322 57 0
-2322 66 0
-2323 133 0
-2323 74 0
-2323 57 0
-2324 57 0
-2324 74 0
-2324 144 0
-2324 210 0
-2325 74 0
-2325 153 0
-2325 57 0
-2325 201 0
-2326 125 0
-2326 57 0
-2326 82 0
-2327 57 0
-2327 186 0
-2327 144 0
-2327 82 0
-2328 177 0
-2328 153 0
-2328 57 0
-2328 82 0
-2329 125 0
-2329 93 0
-2329 57 0
-2329 210 0
-2330 133 0
-2330 93 0
-2330 57 0
-2330 186 0
-2331 93 0
-2331 57 0
-2331 153 0
-2332 102 0
-2332 125 0
-2332 57 0
-2332 201 0
-2333 133 0
-2333 102 0
-2333 177 0
-2333 57 0
-2334 57 0
-2334 102 0
-2334 144 0
-1 -162 -166 -234 2231 2232 2233 2234 2235 2236 2237 2238 2239 2240 2241 2242 2243 2244 2245 2246 2247 2248 2249 2250 2251 2252 2253 2254 2255 2256 2257 2258 2259 2260 2261 2262 2263 2264 2265 2266 2267 2268 2269 2270 2271 2272 2273 2274 2275 2276 2277 2278 2279 2280 2281 2282 2283 2284 2285 2286 2287 2288 2289 2290 2291 2292 2293 2294 2295 2296 2297 2298 2299 2300 2301 2302 2303 2304 2305 2306 2307 2308 2309 2310 2311 2312 2313 2314 2315 2316 2317 2318 2319 2320 2321 2322 2323 2324 2325 2326 2327 2328 2329 2330 2331 2332 2333 2334 0
-2335 2 0
-2335 125 0
-2335 203 0
-2335 249 0
-2336 2 0
-2336 125 0
-2336 240 0
-2337 222 0
-2337 125 0
-2337 2 0
-2337 230 0
-2338 176 0
-2338 134 0
-2338 2 0
-2338 249 0
-2339 134 0
-2339 2 0
-2339 240 0
-2339 185 0
-2340 230 0
-2340 134 0
-2340 2 0
-2340 195 0
-2341 2 0
-2341 143 0
-2341 167 0
-2341 249 0
-2342 2 0
-2342 143 0
-2342 222 0
-2342 185 0
-2343 2 0
-2343 143 0
-2343 195 0
-2344 2 0
-2344 240 0
-2344 152 0
-2344 167 0
-2345 176 0
-2345 2 0
-2345 152 0
-2345 222 0
-2346 2 0
-2346 152 0
-2346 195 0
-2346 203 0
-2347 230 0
-2347 2 0
-2347 167 0
-2348 176 0
-2348 2 0
-2349 185 0
-2349 2 0
-2349 203 0
-2350 203 0
-2350 12 0
-2350 249 0
-2351 240 0
-2351 12 0
-2352 222 0
-2352 230 0
-2352 12 0
-2353 176 0
-2353 86 0
-2353 12 0
-2353 249 0
-2354 185 0
-2354 86 0
-2354 240 0
-2354 12 0
-2355 230 0
-2355 86 0
-2355 195 0
-2355 12 0
-2356 95 0
-2356 167 0
-2356 12 0
-2356 249 0
-2357 222 0
-2357 185 0
-2357 95 0
-2357 12 0
-2358 195 0
-2358 95 0
-2358 12 0
-2359 240 0
-2359 167 0
-2359 12 0
-2359 104 0
-2360 176 0
-2360 104 0
-2360 222 0
-2360 12 0
-2361 203 0
-2361 104 0
-2361 195 0
-2361 12 0
-2362 230 0
-2362 114 0
-2362 167 0
-2362 12 0
-2363 176 0
-2363 114 0
-2363 12 0
-2364 185 0
-2364 114 0
-2364 12 0
-2364 203 0
-2365 69 0
-2365 203 0
-2365 20 0
-2365 249 0
-2366 69 0
-2366 240 0
-2366 20 0
-2367 69 0
-2367 222 0
-2367 230 0
-2367 20 0
-2368 143 0
-2368 86 0
-2368 20 0
-2368 249 0
-2369 152 0
-2369 86 0
-2369 240 0
-2369 20 0
-2370 230 0
-2370 86 0
-2370 20 0
-2371 134 0
-2371 95 0
-2371 20 0
-2371 249 0
-2372 222 0
-2372 152 0
-2372 95 0
-2372 20 0
-2373 95 0
-2373 20 0
-2374 134 0
-2374 104 0
-2374 240 0
-2374 20 0
-2375 222 0
-2375 143 0
-2375 104 0
-2375 20 0
-2376 203 0
-2376 104 0
-2376 20 0
-2377 230 0
-2377 134 0
-2377 114 0
-2377 20 0
-2378 143 0
-2378 114 0
-2378 20 0
-2379 152 0
-2379 114 0
-2379 20 0
-2379 203 0
-2380 29 0
-2380 176 0
-2380 69 0
-2380 249 0
-2381 29 0
-2381 185 0
-2381 240 0
-2381 69 0
-2382 29 0
-2382 69 0
-2382 195 0
-2382 230 0
-2383 29 0
-2383 143 0
-2383 249 0
-2384 29 0
-2384 152 0
-2384 240 0
-2385 29 0
-2385 230 0
-2386 29 0
-2386 125 0
-2386 95 0
-2386 249 0
-2387 29 0
-2387 152 0
-2387 195 0
-2387 95 0
-2388 29 0
-2388 185 0
-2388 95 0
-2389 29 0
-2389 125 0
-2389 104 0
-2389 240 0
-2390 29 0
-2390 143 0
-2390 104 0
-2390 195 0
-2391 29 0
-2391 104 0
-2391 176 0
-2392 29 0
-2392 125 0
-2392 114 0
-2392 230 0
-2393 29 0
-2393 143 0
-2393 114 0
-2393 185 0
-2394 29 0
-2394 152 0
-2394 114 0
-2394 176 0
-2395 69 0
-2395 167 0
-2395 249 0
-2396 69 0
-2396 185 0
-2396 222 0
-2397 69 0
-2397 195 0
-2398 134 0
-2398 249 0
-2399 222 0
-2399 152 0
-2400 125 0
-2400 86 0
-2400 249 0
-2401 152 0
-2401 86 0
-2401 195 0
-2402 185 0
-2402 86 0
-2403 222 0
-2403 125 0
-2403 104 0
-2404 134 0
-2404 104 0
-2404 195 0
-2405 104 0
-2405 167 0
-2406 125 0
-2406 114 0
-2407 134 0
-2407 185 0
-2407 114 0
-2408 152 0
-2408 114 0
-2408 167 0
-2409 69 0
-2409 240 0
-2409 47 0
-2409 167 0
-2410 69 0
-2410 47 0
-2410 222 0
-2410 176 0
-2411 69 0
-2411 203 0
-2411 47 0
-2411 195 0
-2412 134 0
-2412 240 0
-2412 47 0
-2413 222 0
-2413 143 0
-2413 47 0
-2414 203 0
-2414 47 0
-2415 125 0
-2415 86 0
-2415 47 0
-2415 240 0
-2416 143 0
-2416 86 0
-2416 47 0
-2416 195 0
-2417 176 0
-2417 86 0
-2417 47 0
-2418 222 0
-2418 125 0
-2418 47 0
-2418 95 0
-2419 134 0
-2419 47 0
-2419 95 0
-2419 195 0
-2420 95 0
-2420 47 0
-2420 167 0
-2421 125 0
-2421 114 0
-2421 47 0
-2421 203 0
-2422 176 0
-2422 134 0
-2422 114 0
-2422 47 0
-2423 143 0
-2423 114 0
-2423 47 0
-2423 167 0
-2424 69 0
-2424 167 0
-2424 57 0
-2424 230 0
-2425 69 0
-2425 57 0
-2425 176 0
-2426 69 0
-2426 185 0
-2426 57 0
-2426 203 0
-2427 230 0
-2427 134 0
-2427 57 0
-2428 143 0
-2428 57 0
-2429 152 0
-2429 57 0
-2429 203 0
-2430 230 0
-2430 125 0
-2430 86 0
-2430 57 0
-2431 143 0
-2431 86 0
-2431 57 0
-2431 185 0
-2432 176 0
-2432 152 0
-2432 86 0
-2432 57 0
-2433 125 0
-2433 57 0
-2433 95 0
-2434 134 0
-2434 185 0
-2434 57 0
-2434 95 0
-2435 95 0
-2435 152 0
-2435 57 0
-2435 167 0
-2436 125 0
-2436 104 0
-2436 57 0
-2436 203 0
-2437 176 0
-2437 134 0
-2437 104 0
-2437 57 0
-2438 143 0
-2438 104 0
-2438 57 0
-2438 167 0
-38 -77 -162 -212 2335 2336 2337 2338 2339 2340 2341 2342 2343 2344 2345 2346 2347 2348 2349 2350 2351 2352 2353 2354 2355 2356 2357 2358 2359 2360 2361 2362 2363 2364 2365 2366 2367 2368 2369 2370 2371 2372 2373 2374 2375 2376 2377 2378 2379 2380 2381 2382 2383 2384 2385 2386 2387 2388 2389 2390 2391 2392 2393 2394 2395 2396 2397 2398 2399 2400 2401 2402 2403 2404 2405 2406 2407 2408 2409 2410 2411 2412 2413 2414 2415 2416 2417 2418 2419 2420 2421 2422 2423 2424 2425 2426 2427 2428 2429 2430 2431 2432 2433 2434 2435 2436 2437 2438 0
-2439 3 0
-2439 206 0
-2440 238 0
-2440 214 0
-2440 3 0
-2441 223 0
-2441 3 0
-2441 229 0
-2442 129 0
-2442 3 0
-2442 173 0
-2443 238 0
-2443 129 0
-2443 3 0
-2443 181 0
-2444 190 0
-2444 3 0
-2444 129 0
-2444 229 0
-2445 3 0
-2445 137 0
-2445 165 0
-2446 223 0
-2446 137 0
-2446 3 0
-2446 181 0
-2447 190 0
-2447 214 0
-2447 3 0
-2447 137 0
-2448 238 0
-2448 145 0
-2448 3 0
-2448 165 0
-2449 223 0
-2449 145 0
-2449 3 0
-2449 173 0
-2450 190 0
-2450 145 0
-2450 3 0
-2450 206 0
-2451 154 0
-2451 3 0
-2451 165 0
-2451 229 0
-2452 154 0
-2452 214 0
-2452 3 0
-2452 173 0
-2453 154 0
-2453 3 0
-2453 181 0
-2453 206 0
-2454 10 0
-2454 206 0
-2454 79 0
-2455 238 0
-2455 214 0
-2455 10 0
-2455 79 0
-2456 223 0
-2456 10 0
-2456 79 0
-2456 229 0
-2457 10 0
-2457 173 0
-2458 238 0
-2458 10 0
-2458 181 0
-2459 190 0
-2459 10 0
-2459 229 0
-2460 98 0
-2460 10 0
-2460 165 0
-2461 98 0
-2461 223 0
-2461 10 0
-2461 181 0
-2462 98 0
-2462 190 0
-2462 214 0
-2462 10 0
-2463 238 0
-2463 10 0
-2463 106 0
-2463 165 0
-2464 223 0
-2464 10 0
-2464 173 0
-2464 106 0
-2465 190 0
-2465 10 0
-2465 106 0
-2465 206 0
-2466 10 0
-2466 165 0
-2466 115 0
-2466 229 0
-2467 214 0
-2467 10 0
-2467 173 0
-2467 115 0
-2468 10 0
-2468 115 0
-2468 181 0
-2468 206 0
-2469 70 0
-2469 19 0
-2469 206 0
-2470 70 0
-2470 214 0
-2470 19 0
-2470 238 0
-2471 223 0
-2471 70 0
-2471 19 0
-2471 229 0
-2472 19 0
-2472 137 0
-2473 238 0
-2473 145 0
-2473 19 0
-2474 154 0
-2474 19 0
-2474 229 0
-2475 98 0
-2475 19 0
-2475 129 0
-2476 98 0
-2476 223 0
-2476 145 0
-2476 19 0
-2477 98 0
-2477 214 0
-2477 19 0
-2477 154 0
-2478 238 0
-2478 19 0
-2478 129 0
-2478 106 0
-2479 223 0
-2479 19 0
-2479 137 0
-2479 106 0
-2480 154 0
-2480 19 0
-2480 206 0
-2480 106 0
-2481 115 0
-2481 19 0
-2481 129 0
-2481 229 0
-2482 214 0
-2482 115 0
-2482 19 0
-2482 137 0
-2483 145 0
-2483 115 0
-2483 19 0
-2483 206 0
-2484 30 0
-2484 70 0
-2484 173 0
-2485 30 0
-2485 70 0
-2485 181 0
-2485 238 0
-2486 190 0
-2486 30 0
-2486 70 0
-2486 229 0
-2487 30 0
-2487 137 0
-2487 79 0
-2488 30 0
-2488 145 0
-2488 238 0
-2488 79 0
-2489 154 0
-2489 30 0
-2489 79 0
-2489 229 0
-2490 98 0
-2490 30 0
-2491 98 0
-2491 30 0
-2491 145 0
-2491 190 0
-2492 98 0
-2492 30 0
-2492 181 0
-2492 154 0
-2493 30 0
-2493 106 0
-2493 238 0
-2494 190 0
-2494 30 0
-2494 137 0
-2494 106 0
-2495 154 0
-2495 30 0
-2495 173 0
-2495 106 0
-2496 30 0
-2496 115 0
-2496 229 0
-2497 30 0
-2497 137 0
-2497 115 0
-2497 181 0
-2498 30 0
-2498 145 0
-2498 115 0
-2498 173 0
-2499 70 0
-2499 165 0
-2500 70 0
-2500 181 0
-2500 223 0
-2501 190 0
-2501 70 0
-2501 214 0
-2502 129 0
-2502 79 0
-2503 223 0
-2503 145 0
-2503 79 0
-2504 154 0
-2504 214 0
-2504 79 0
-2505 190 0
-2505 145 0
-2506 154 0
-2506 181 0
-2507 223 0
-2507 106 0
-2508 190 0
-2508 129 0
-2508 106 0
-2509 154 0
-2509 165 0
-2509 106 0
-2510 214 0
-2510 115 0
-2511 129 0
-2511 115 0
-2511 181 0
-2512 145 0
-2512 115 0
-2512 165 0
-2513 70 0
-2513 46 0
-2513 238 0
-2513 165 0
-2514 70 0
-2514 46 0
-2514 173 0
-2514 223 0
-2515 190 0
-2515 70 0
-2515 46 0
-2515 206 0
-2516 238 0
-2516 46 0
-2516 129 0
-2516 79 0
-2517 223 0
-2517 46 0
-2517 137 0
-2517 79 0
-2518 154 0
-2518 46 0
-2518 206 0
-2518 79 0
-2519 238 0
-2519 46 0
-2520 190 0
-2520 46 0
-2520 137 0
-2521 154 0
-2521 46 0
-2521 173 0
-2522 98 0
-2522 223 0
-2522 46 0
-2523 98 0
-2523 190 0
-2523 46 0
-2523 129 0
-2524 98 0
-2524 46 0
-2524 154 0
-2524 165 0
-2525 46 0
-2525 115 0
-2525 206 0
-2526 129 0
-2526 46 0
-2526 173 0
-2526 115 0
-2527 46 0
-2527 137 0
-2527 115 0
-2527 165 0
-2528 55 0
-2528 70 0
-2528 165 0
-2528 229 0
-2529 55 0
-2529 214 0
-2529 70 0
-2529 173 0
-2530 55 0
-2530 70 0
-2530 181 0
-2530 206 0
-2531 55 0
-2531 129 0
-2531 79 0
-2531 229 0
-2532 55 0
-2532 214 0
-2532 137 0
-2532 79 0
-2533 55 0
-2533 145 0
-2533 206 0
-2533 79 0
-2534 55 0
-2534 229 0
-2535 181 0
-2535 55 0
-2535 137 0
-2536 55 0
-2536 145 0
-2536 173 0
-2537 98 0
-2537 55 0
-2537 214 0
-2538 98 0
-2538 55 0
-2538 129 0
-2538 181 0
-2539 98 0
-2539 55 0
-2539 145 0
-2539 165 0
-2540 55 0
-2540 106 0
-2540 206 0
-2541 55 0
-2541 129 0
-2541 173 0
-2541 106 0
-2542 55 0
-2542 165 0
-2542 137 0
-2542 106 0
-38 -90 -118 -244 2439 2440 2441 2442 2443 2444 2445 2446 2447 2448 2449 2450 2451 2452 2453 2454 2455 2456 2457 2458 2459 2460 2461 2462 2463 2464 2465 2466 2467 2468 2469 2470 2471 2472 2473 2474 2475 2476 2477 2478 2479 2480 2481 2482 2483 2484 2485 2486 2487 2488 2489 2490 2491 2492 2493 2494 2495 2496 2497 2498 2499 2500 2501 2502 2503 2504 2505 2506 2507 2508 2509 2510 2511 2512 2513 2514 2515 2516 2517 2518 2519 2520 2521 2522 2523 2524 2525 2526 2527 2528 2529 2530 2531 2532 2533 2534 2535 2536 2537 2538 2539 2540 2541 2542 0
-2543 122 0
-2543 201 0
-2543 4 0
-2543 251 0
-2544 122 0
-2544 210 0
-2544 4 0
-2544 242 0
-2545 122 0
-2545 218 0
-2545 4 0
-2546 251 0
-2546 177 0
-2546 4 0
-2546 130 0
-2547 130 0
-2547 186 0
-2547 4 0
-2547 242 0
-2548 194 0
-2548 4 0
-2548 130 0
-2549 251 0
-2549 141 0
-2549 4 0
-2550 141 0
-2550 218 0
-2550 4 0
-2550 186 0
-2551 141 0
-2551 194 0
-2551 4 0
-2551 210 0
-2552 4 0
-2552 242 0
-2552 150 0
-2553 177 0
-2553 218 0
-2553 4 0
-2553 150 0
-2554 201 0
-2554 194 0
-2554 4 0
-2554 150 0
-2555 158 0
-2555 4 0
-2556 177 0
-2556 158 0
-2556 4 0
-2556 210 0
-2557 201 0
-2557 158 0
-2557 4 0
-2557 186 0
-2558 74 0
-2558 251 0
-2558 201 0
-2559 74 0
-2559 210 0
-2559 242 0
-2560 74 0
-2560 218 0
-2561 251 0
-2561 177 0
-2561 82 0
-2562 82 0
-2562 242 0
-2562 186 0
-2563 194 0
-2563 82 0
-2564 251 0
-2564 93 0
-2565 93 0
-2565 218 0
-2565 186 0
-2566 93 0
-2566 194 0
-2566 210 0
-2567 102 0
-2567 242 0
-2568 102 0
-2568 177 0
-2568 218 0
-2569 102 0
-2569 194 0
-2569 201 0
-2570 177 0
-2570 210 0
-2571 201 0
-2571 186 0
-2572 23 0
-2572 65 0
-2572 251 0
-2572 201 0
-2573 23 0
-2573 65 0
-2573 210 0
-2573 242 0
-2574 23 0
-2574 65 0
-2574 218 0
-2575 23 0
-2575 141 0
-2575 251 0
-2575 82 0
-2576 23 0
-2576 82 0
-2576 242 0
-2576 150 0
-2577 23 0
-2577 158 0
-2577 82 0
-2578 23 0
-2578 93 0
-2578 130 0
-2578 251 0
-2579 23 0
-2579 93 0
-2579 218 0
-2579 150 0
-2580 93 0
-2580 23 0
-2580 158 0
-2580 210 0
-2581 23 0
-2581 102 0
-2581 130 0
-2581 242 0
-2582 23 0
-2582 102 0
-2582 218 0
-2582 141 0
-2583 23 0
-2583 102 0
-2583 158 0
-2583 201 0
-2584 23 0
-2584 130 0
-2585 23 0
-2585 141 0
-2585 210 0
-2586 23 0
-2586 150 0
-2586 201 0
-2587 31 0
-2587 177 0
-2587 65 0
-2587 251 0
-2588 31 0
-2588 65 0
-2588 242 0
-2588 186 0
-2589 31 0
-2589 65 0
-2589 194 0
-2590 31 0
-2590 141 0
-2590 74 0
-2590 251 0
-2591 31 0
-2591 74 0
-2591 242 0
-2591 150 0
-2592 31 0
-2592 158 0
-2592 74 0
-2593 122 0
-2593 31 0
-2593 93 0
-2593 251 0
-2594 31 0
-2594 93 0
-2594 194 0
-2594 150 0
-2595 93 0
-2595 31 0
-2595 158 0
-2595 186 0
-2596 122 0
-2596 31 0
-2596 102 0
-2596 242 0
-2597 31 0
-2597 102 0
-2597 194 0
-2597 141 0
-2598 31 0
-2598 177 0
-2598 102 0
-2598 158 0
-2599 122 0
-2599 31 0
-2600 31 0
-2600 141 0
-2600 186 0
-2601 31 0
-2601 177 0
-2601 150 0
-2602 251 0
-2602 42 0
-2602 65 0
-2603 218 0
-2603 42 0
-2603 65 0
-2603 186 0
-2604 42 0
-2604 194 0
-2604 210 0
-2604 65 0
-2605 74 0
-2605 42 0
-2605 130 0
-2605 251 0
-2606 74 0
-2606 42 0
-2606 218 0
-2606 150 0
-2607 74 0
-2607 158 0
-2607 42 0
-2607 210 0
-2608 122 0
-2608 251 0
-2608 42 0
-2608 82 0
-2609 82 0
-2609 42 0
-2609 194 0
-2609 150 0
-2610 158 0
-2610 42 0
-2610 82 0
-2610 186 0
-2611 122 0
-2611 102 0
-2611 42 0
-2611 218 0
-2612 102 0
-2612 42 0
-2612 130 0
-2612 194 0
-2613 102 0
-2613 158 0
-2613 42 0
-2614 122 0
-2614 42 0
-2614 210 0
-2615 42 0
-2615 130 0
-2615 186 0
-2616 42 0
-2616 150 0
-2617 51 0
-2617 65 0
-2617 242 0
-2618 51 0
-2618 177 0
-2618 65 0
-2618 218 0
-2619 51 0
-2619 65 0
-2619 194 0
-2619 201 0
-2620 130 0
-2620 51 0
-2620 74 0
-2620 242 0
-2621 51 0
-2621 141 0
-2621 218 0
-2621 74 0
-2622 51 0
-2622 158 0
-2622 74 0
-2622 201 0
-2623 122 0
-2623 51 0
-2623 82 0
-2623 242 0
-2624 51 0
-2624 141 0
-2624 194 0
-2624 82 0
-2625 51 0
-2625 177 0
-2625 158 0
-2625 82 0
-2626 122 0
-2626 51 0
-2626 93 0
-2626 218 0
-2627 51 0
-2627 93 0
-2627 130 0
-2627 194 0
-2628 93 0
-2628 51 0
-2628 158 0
-2629 122 0
-2629 51 0
-2629 201 0
-2630 51 0
-2630 177 0
-2630 130 0
-2631 51 0
-2631 141 0
-2632 65 0
-2632 59 0
-2633 59 0
-2633 177 0
-2633 65 0
-2633 210 0
-2634 201 0
-2634 65 0
-2634 59 0
-2634 186 0
-2635 74 0
-2635 130 0
-2635 59 0
-2636 74 0
-2636 141 0
-2636 59 0
-2636 210 0
-2637 74 0
-2637 150 0
-2637 59 0
-2637 201 0
-2638 122 0
-2638 59 0
-2638 82 0
-2639 59 0
-2639 141 0
-2639 186 0
-2639 82 0
-2640 59 0
-2640 177 0
-2640 82 0
-2640 150 0
-2641 122 0
-2641 59 0
-2641 93 0
-2641 210 0
-2642 93 0
-2642 130 0
-2642 59 0
-2642 186 0
-2643 93 0
-2643 59 0
-2643 150 0
-2644 122 0
-2644 102 0
-2644 59 0
-2644 201 0
-2645 102 0
-2645 177 0
-2645 130 0
-2645 59 0
-2646 102 0
-2646 141 0
-2646 59 0
-14 -110 -166 -234 2543 2544 2545 2546 2547 2548 2549 2550 2551 2552 2553 2554 2555 2556 2557 2558 2559 2560 2561 2562 2563 2564 2565 2566 2567 2568 2569 2570 2571 2572 2573 2574 2575 2576 2577 2578 2579 2580 2581 2582 2583 2584 2585 2586 2587 2588 2589 2590 2591 2592 2593 2594 2595 2596 2597 2598 2599 2600 2601 2602 2603 2604 2605 2606 2607 2608 2609 2610 2611 2612 2613 2614 2615 2616 2617 2618 2619 2620 2621 2622 2623 2624 2625 2626 2627 2628 2629 2630 2631 2632 2633 2634 2635 2636 2637 2638 2639 2640 2641 2642 2643 2644 2645 2646 0
-2647 8 0
-2647 202 0
-2647 126 0
-2647 249 0
-2648 8 0
-2648 126 0
-2648 237 0
-2649 8 0
-2649 222 0
-2649 126 0
-2649 227 0
-2650 8 0
-2650 134 0
-2650 178 0
-2650 249 0
-2651 8 0
-2651 134 0
-2651 237 0
-2651 188 0
-2652 8 0
-2652 134 0
-2652 227 0
-2652 198 0
-2653 8 0
-2653 142 0
-2653 170 0
-2653 249 0
-2654 8 0
-2654 142 0
-2654 222 0
-2654 188 0
-2655 8 0
-2655 142 0
-2655 198 0
-2656 8 0
-2656 152 0
-2656 170 0
-2656 237 0
-2657 8 0
-2657 152 0
-2657 178 0
-2657 222 0
-2658 8 0
-2658 202 0
-2658 152 0
-2658 198 0
-2659 8 0
-2659 170 0
-2659 227 0
-2660 8 0
-2660 178 0
-2661 8 0
-2661 202 0
-2661 188 0
-2662 202 0
-2662 18 0
-2662 78 0
-2662 249 0
-2663 237 0
-2663 18 0
-2663 78 0
-2664 222 0
-2664 18 0
-2664 227 0
-2664 78 0
-2665 178 0
-2665 18 0
-2665 86 0
-2665 249 0
-2666 237 0
-2666 18 0
-2666 86 0
-2666 188 0
-2667 18 0
-2667 86 0
-2667 227 0
-2667 198 0
-2668 170 0
-2668 18 0
-2668 249 0
-2669 222 0
-2669 18 0
-2669 188 0
-2670 18 0
-2670 198 0
-2671 170 0
-2671 18 0
-2671 104 0
-2671 237 0
-2672 178 0
-2672 18 0
-2672 104 0
-2672 222 0
-2673 202 0
-2673 18 0
-2673 104 0
-2673 198 0
-2674 170 0
-2674 18 0
-2674 114 0
-2674 227 0
-2675 178 0
-2675 18 0
-2675 114 0
-2676 202 0
-2676 18 0
-2676 114 0
-2676 188 0
-2677 69 0
-2677 202 0
-2677 249 0
-2678 69 0
-2678 237 0
-2679 69 0
-2679 222 0
-2679 227 0
-2680 142 0
-2680 86 0
-2680 249 0
-2681 237 0
-2681 152 0
-2681 86 0
-2682 86 0
-2682 227 0
-2683 134 0
-2683 249 0
-2684 222 0
-2684 152 0
-2685 237 0
-2685 134 0
-2685 104 0
-2686 222 0
-2686 142 0
-2686 104 0
-2687 202 0
-2687 104 0
-2688 134 0
-2688 114 0
-2688 227 0
-2689 142 0
-2689 114 0
-2690 202 0
-2690 152 0
-2690 114 0
-2691 69 0
-2691 178 0
-2691 35 0
-2691 249 0
-2692 69 0
-2692 237 0
-2692 188 0
-2692 35 0
-2693 69 0
-2693 227 0
-2693 35 0
-2693 198 0
-2694 35 0
-2694 142 0
-2694 78 0
-2694 249 0
-2695 237 0
-2695 152 0
-2695 78 0
-2695 35 0
-2696 227 0
-2696 78 0
-2696 35 0
-2697 35 0
-2697 126 0
-2697 249 0
-2698 35 0
-2698 152 0
-2698 198 0
-2699 188 0
-2699 35 0
-2700 237 0
-2700 104 0
-2700 126 0
-2700 35 0
-2701 35 0
-2701 142 0
-2701 104 0
-2701 198 0
-2702 178 0
-2702 104 0
-2702 35 0
-2703 114 0
-2703 126 0
-2703 227 0
-2703 35 0
-2704 142 0
-2704 114 0
-2704 188 0
-2704 35 0
-2705 178 0
-2705 152 0
-2705 114 0
-2705 35 0
-2706 69 0
-2706 170 0
-2706 43 0
-2706 249 0
-2707 69 0
-2707 43 0
-2707 222 0
-2707 188 0
-2708 69 0
-2708 43 0
-2708 198 0
-2709 134 0
-2709 43 0
-2709 78 0
-2709 249 0
-2710 222 0
-2710 152 0
-2710 43 0
-2710 78 0
-2711 43 0
-2711 78 0
-2712 43 0
-2712 126 0
-2712 86 0
-2712 249 0
-2713 152 0
-2713 43 0
-2713 86 0
-2713 198 0
-2714 188 0
-2714 43 0
-2714 86 0
-2715 222 0
-2715 43 0
-2715 126 0
-2715 104 0
-2716 134 0
-2716 43 0
-2716 104 0
-2716 198 0
-2717 170 0
-2717 43 0
-2717 104 0
-2718 43 0
-2718 126 0
-2718 114 0
-2719 134 0
-2719 43 0
-2719 188 0
-2719 114 0
-2720 170 0
-2720 152 0
-2720 43 0
-2720 114 0
-2721 69 0
-2721 170 0
-2721 53 0
-2721 237 0
-2722 69 0
-2722 178 0
-2722 53 0
-2722 222 0
-2723 69 0
-2723 202 0
-2723 53 0
-2723 198 0
-2724 237 0
-2724 134 0
-2724 53 0
-2724 78 0
-2725 222 0
-2725 142 0
-2725 53 0
-2725 78 0
-2726 202 0
-2726 53 0
-2726 78 0
-2727 237 0
-2727 53 0
-2727 126 0
-2727 86 0
-2728 142 0
-2728 53 0
-2728 86 0
-2728 198 0
-2729 178 0
-2729 53 0
-2729 86 0
-2730 222 0
-2730 53 0
-2730 126 0
-2731 134 0
-2731 53 0
-2731 198 0
-2732 170 0
-2732 53 0
-2733 202 0
-2733 53 0
-2733 126 0
-2733 114 0
-2734 178 0
-2734 134 0
-2734 53 0
-2734 114 0
-2735 170 0
-2735 142 0
-2735 53 0
-2735 114 0
-2736 69 0
-2736 63 0
-2736 170 0
-2736 227 0
-2737 69 0
-2737 63 0
-2737 178 0
-2738 69 0
-2738 202 0
-2738 63 0
-2738 188 0
-2739 134 0
-2739 63 0
-2739 227 0
-2739 78 0
-2740 142 0
-2740 63 0
-2740 78 0
-2741 202 0
-2741 63 0
-2741 152 0
-2741 78 0
-2742 63 0
-2742 86 0
-2742 126 0
-2742 227 0
-2743 142 0
-2743 63 0
-2743 86 0
-2743 188 0
-2744 178 0
-2744 63 0
-2744 86 0
-2744 152 0
-2745 63 0
-2745 126 0
-2746 134 0
-2746 63 0
-2746 188 0
-2747 170 0
-2747 63 0
-2747 152 0
-2748 202 0
-2748 63 0
-2748 104 0
-2748 126 0
-2749 178 0
-2749 134 0
-2749 63 0
-2749 104 0
-2750 170 0
-2750 142 0
-2750 63 0
-2750 104 0
-27 -94 -162 -212 2647 2648 2649 2650 2651 2652 2653 2654 2655 2656 2657 2658 2659 2660 2661 2662 2663 2664 2665 2666 2667 2668 2669 2670 2671 2672 2673 2674 2675 2676 2677 2678 2679 2680 2681 2682 2683 2684 2685 2686 2687 2688 2689 2690 2691 2692 2693 2694 2695 2696 2697 2698 2699 2700 2701 2702 2703 2704 2705 2706 2707 2708 2709 2710 2711 2712 2713 2714 2715 2716 2717 2718 2719 2720 2721 2722 2723 2724 2725 2726 2727 2728 2729 2730 2731 2732 2733 2734 2735 2736 2737 2738 2739 2740 2741 2742 2743 2744 2745 2746 2747 2748 2749 2750 0
-253 -290 -2751 0
253 290 -2751 0
253 -290 2751 0
-253 290 2751 0
-2751 -362 -2752 0
2751 362 -2752 0
2751 -362 2752 0
-2751 362 2752 0
-2752 -491 -2753 0
2752 491 -2753 0
2752 -491 2753 0
-2752 491 2753 0
-1 -38 -110 -118 -212 -239 2753 0
-329 -346 -2754 0
329 346 -2754 0
329 -346 2754 0
-329 346 2754 0
-2754 -418 -2755 0
2754 418 -2755 0
2754 -418 2755 0
-2754 418 2755 0
-2755 -451 -2756 0
2755 451 -2756 0
2755 -451 2756 0
-2755 451 2756 0
-14 -77 -94 -166 -199 -244 2756 0
-2757 124 0
-2757 252 0
-2757 204 0
-2758 124 0
-2758 213 0
-2758 243 0
-2759 222 0
-2759 124 0
-2760 134 0
-2760 252 0
-2760 174 0
-2761 183 0
-2761 134 0
-2761 243 0
-2762 134 0
-2762 192 0
-2763 252 0
-2763 144 0
-2764 183 0
-2764 144 0
-2764 222 0
-2765 192 0
-2765 144 0
-2765 213 0
-2766 153 0
-2766 243 0
-2767 222 0
-2767 153 0
-2767 174 0
-2768 192 0
-2768 153 0
-2768 204 0
-2769 213 0
-2769 174 0
-2770 183 0
-2770 204 0
-2771 73 0
-2771 252 0
-2771 204 0
-2771 12 0
-2772 73 0
-2772 213 0
-2772 12 0
-2772 243 0
-2773 73 0
-2773 222 0
-2773 12 0
-2774 83 0
-2774 252 0
-2774 12 0
-2774 174 0
-2775 83 0
-2775 183 0
-2775 12 0
-2775 243 0
-2776 83 0
-2776 192 0
-2776 12 0
-2777 252 0
-2777 93 0
-2777 12 0
-2778 183 0
-2778 93 0
-2778 222 0
-2778 12 0
-2779 192 0
-2779 93 0
-2779 12 0
-2779 213 0
-2780 102 0
-2780 12 0
-2780 243 0
-2781 222 0
-2781 102 0
-2781 12 0
-2781 174 0
-2782 102 0
-2782 192 0
-2782 204 0
-2782 12 0
-2783 12 0
-2783 111 0
-2784 213 0
-2784 12 0
-2784 174 0
-2784 111 0
-2785 183 0
-2785 204 0
-2785 12 0
-2785 111 0
-2786 252 0
-2786 204 0
-2786 19 0
-2786 66 0
-2787 213 0
-2787 19 0
-2787 66 0
-2787 243 0
-2788 222 0
-2788 19 0
-2788 66 0
-2789 83 0
-2789 252 0
-2789 144 0
-2789 19 0
-2790 83 0
-2790 153 0
-2790 19 0
-2790 243 0
-2791 83 0
-2791 19 0
-2792 134 0
-2792 252 0
-2792 93 0
-2792 19 0
-2793 222 0
-2793 93 0
-2793 153 0
-2793 19 0
-2794 213 0
-2794 93 0
-2794 19 0
-2795 134 0
-2795 102 0
-2795 19 0
-2795 243 0
-2796 222 0
-2796 102 0
-2796 144 0
-2796 19 0
-2797 102 0
-2797 204 0
-2797 19 0
-2798 134 0
-2798 19 0
-2798 111 0
-2799 213 0
-2799 144 0
-2799 19 0
-2799 111 0
-2800 153 0
-2800 204 0
-2800 19 0
-2800 111 0
-2801 29 0
-2801 252 0
-2801 66 0
-2801 174 0
-2802 29 0
-2802 183 0
-2802 66 0
-2802 243 0
-2803 29 0
-2803 192 0
-2803 66 0
-2804 29 0
-2804 73 0
-2804 252 0
-2804 144 0
-2805 29 0
-2805 153 0
-2805 73 0
-2805 243 0
-2806 29 0
-2806 73 0
-2807 29 0
-2807 124 0
-2807 252 0
-2807 93 0
-2808 29 0
-2808 192 0
-2808 93 0
-2808 153 0
-2809 29 0
-2809 93 0
-2809 183 0
-2810 29 0
-2810 102 0
-2810 124 0
-2810 243 0
-2811 29 0
-2811 102 0
-2811 192 0
-2811 144 0
-2812 29 0
-2812 102 0
-2812 174 0
-2813 29 0
-2813 124 0
-2813 111 0
-2814 29 0
-2814 144 0
-2814 183 0
-2814 111 0
-2815 29 0
-2815 153 0
-2815 174 0
-2815 111 0
-2816 252 0
-2816 66 0
-2816 39 0
-2817 183 0
-2817 222 0
-2817 66 0
-2817 39 0
-2818 192 0
-2818 66 0
-2818 39 0
-2818 213 0
-2819 73 0
-2819 134 0
-2819 252 0
-2819 39 0
-2820 73 0
-2820 153 0
-2820 222 0
-2820 39 0
-2821 73 0
-2821 213 0
-2821 39 0
-2822 83 0
-2822 124 0
-2822 252 0
-2822 39 0
-2823 83 0
-2823 192 0
-2823 153 0
-2823 39 0
-2824 83 0
-2824 183 0
-2824 39 0
-2825 222 0
-2825 102 0
-2825 39 0
-2825 124 0
-2826 134 0
-2826 102 0
-2826 192 0
-2826 39 0
-2827 102 0
-2827 39 0
-2828 124 0
-2828 213 0
-2828 39 0
-2828 111 0
-2829 183 0
-2829 134 0
-2829 39 0
-2829 111 0
-2830 39 0
-2830 153 0
-2830 111 0
-2831 48 0
-2831 66 0
-2831 243 0
-2832 222 0
-2832 66 0
-2832 48 0
-2832 174 0
-2833 192 0
-2833 204 0
-2833 48 0
-2833 66 0
-2834 73 0
-2834 134 0
-2834 48 0
-2834 243 0
-2835 73 0
-2835 48 0
-2835 144 0
-2835 222 0
-2836 73 0
-2836 204 0
-2836 48 0
-2837 83 0
-2837 124 0
-2837 48 0
-2837 243 0
-2838 83 0
-2838 192 0
-2838 144 0
-2838 48 0
-2839 83 0
-2839 48 0
-2839 174 0
-2840 222 0
-2840 124 0
-2840 93 0
-2840 48 0
-2841 134 0
-2841 192 0
-2841 93 0
-2841 48 0
-2842 93 0
-2842 48 0
-2843 124 0
-2843 204 0
-2843 48 0
-2843 111 0
-2844 134 0
-2844 48 0
-2844 174 0
-2844 111 0
-2845 144 0
-2845 48 0
-2845 111 0
-2846 57 0
-2846 66 0
-2847 213 0
-2847 57 0
-2847 66 0
-2847 174 0
-2848 183 0
-2848 57 0
-2848 204 0
-2848 66 0
-2849 73 0
-2849 134 0
-2849 57 0
-2850 73 0
-2850 57 0
-2850 213 0
-2850 144 0
-2851 73 0
-2851 57 0
-2851 153 0
-2851 204 0
-2852 83 0
-2852 124 0
-2852 57 0
-2853 83 0
-2853 57 0
-2853 144 0
-2853 183 0
-2854 83 0
-2854 153 0
-2854 57 0
-2854 174 0
-2855 124 0
-2855 213 0
-2855 93 0
-2855 57 0
-2856 183 0
-2856 134 0
-2856 93 0
-2856 57 0
-2857 93 0
-2857 57 0
-2857 153 0
-2858 57 0
-2858 102 0
-2858 204 0
-2858 124 0
-2859 134 0
-2859 102 0
-2859 57 0
-2859 174 0
-2860 57 0
-2860 102 0
-2860 144 0
-1 -162 -164 -234 2757 2758 2759 2760 2761 2762 2763 2764 2765 2766 2767 2768 2769 2770 2771 2772 2773 2774 2775 2776 2777 2778 2779 2780 2781 2782 2783 2784 2785 2786 2787 2788 2789 2790 2791 2792 2793 2794 2795 2796 2797 2798 2799 2800 2801 2802 2803 2804 2805 2806 2807 2808 2809 2810 2811 2812 2813 2814 2815 2816 2817 2818 2819 2820 2821 2822 2823 2824 2825 2826 2827 2828 2829 2830 2831 2832 2833 2834 2835 2836 2837 2838 2839 2840 2841 2842 2843 2844 2845 2846 2847 2848 2849 2850 2851 2852 2853 2854 2855 2856 2857 2858 2859 2860 0
-2861 125 0
-2861 246 0
-2862 237 0
-2862 125 0
-2862 208 0
-2863 125 0
-2863 226 0
-2863 219 0
-2864 133 0
-2864 246 0
-2864 175 0
-2865 133 0
-2865 237 0
-2866 133 0
-2866 226 0
-2866 195 0
-2867 142 0
-2867 246 0
-2867 166 0
-2868 142 0
-2868 219 0
-2869 142 0
-2869 208 0
-2869 195 0
-2870 151 0
-2870 166 0
-2870 237 0
-2871 151 0
-2871 219 0
-2871 175 0
-2872 151 0
-2872 195 0
-2873 166 0
-2873 226 0
-2874 208 0
-2874 175 0
-2875 74 0
-2875 246 0
-2875 12 0
-2876 237 0
-2876 74 0
-2876 208 0
-2876 12 0
-2877 74 0
-2877 226 0
-2877 219 0
-2877 12 0
-2878 12 0
-2878 246 0
-2878 82 0
-2878 175 0
-2879 237 0
-2879 12 0
-2879 82 0
-2880 12 0
-2880 226 0
-2880 195 0
-2880 82 0
-2881 91 0
-2881 166 0
-2881 246 0
-2881 12 0
-2882 91 0
-2882 219 0
-2882 12 0
-2883 91 0
-2883 208 0
-2883 195 0
-2883 12 0
-2884 237 0
-2884 12 0
-2884 166 0
-2884 100 0
-2885 12 0
-2885 219 0
-2885 100 0
-2885 175 0
-2886 12 0
-2886 195 0
-2886 100 0
-2887 166 0
-2887 226 0
-2887 12 0
-2887 111 0
-2888 111 0
-2888 208 0
-2888 12 0
-2888 175 0
-2889 12 0
-2889 111 0
-2890 246 0
-2890 66 0
-2890 20 0
-2891 237 0
-2891 208 0
-2891 66 0
-2891 20 0
-2892 20 0
-2892 226 0
-2892 219 0
-2892 66 0
-2893 20 0
-2893 142 0
-2893 246 0
-2893 82 0
-2894 151 0
-2894 20 0
-2894 237 0
-2894 82 0
-2895 20 0
-2895 226 0
-2895 82 0
-2896 91 0
-2896 246 0
-2896 20 0
-2896 133 0
-2897 91 0
-2897 151 0
-2897 219 0
-2897 20 0
-2898 91 0
-2898 208 0
-2898 20 0
-2899 133 0
-2899 20 0
-2899 237 0
-2899 100 0
-2900 142 0
-2900 20 0
-2900 219 0
-2900 100 0
-2901 20 0
-2901 100 0
-2902 133 0
-2902 226 0
-2902 20 0
-2902 111 0
-2903 142 0
-2903 208 0
-2903 20 0
-2903 111 0
-2904 151 0
-2904 20 0
-2904 111 0
-2905 246 0
-2905 66 0
-2905 28 0
-2905 175 0
-2906 237 0
-2906 66 0
-2906 28 0
-2907 226 0
-2907 66 0
-2907 195 0
-2907 28 0
-2908 142 0
-2908 246 0
-2908 74 0
-2908 28 0
-2909 151 0
-2909 74 0
-2909 237 0
-2909 28 0
-2910 74 0
-2910 226 0
-2910 28 0
-2911 91 0
-2911 125 0
-2911 246 0
-2911 28 0
-2912 91 0
-2912 151 0
-2912 28 0
-2912 195 0
-2913 91 0
-2913 28 0
-2914 237 0
-2914 125 0
-2914 28 0
-2914 100 0
-2915 142 0
-2915 195 0
-2915 100 0
-2915 28 0
-2916 28 0
-2916 100 0
-2916 175 0
-2917 125 0
-2917 226 0
-2917 28 0
-2917 111 0
-2918 142 0
-2918 28 0
-2918 111 0
-2919 151 0
-2919 111 0
-2919 28 0
-2919 175 0
-2920 246 0
-2920 37 0
-2920 166 0
-2920 66 0
-2921 37 0
-2921 219 0
-2921 66 0
-2922 208 0
-2922 37 0
-2922 66 0
-2922 195 0
-2923 133 0
-2923 74 0
-2923 37 0
-2923 246 0
-2924 151 0
-2924 74 0
-2924 37 0
-2924 219 0
-2925 74 0
-2925 208 0
-2925 37 0
-2926 125 0
-2926 246 0
-2926 37 0
-2926 82 0
-2927 151 0
-2927 37 0
-2927 82 0
-2927 195 0
-2928 37 0
-2928 82 0
-2929 125 0
-2929 37 0
-2929 219 0
-2929 100 0
-2930 133 0
-2930 37 0
-2930 100 0
-2930 195 0
-2931 37 0
-2931 166 0
-2931 100 0
-2932 125 0
-2932 208 0
-2932 37 0
-2932 111 0
-2933 133 0
-2933 37 0
-2933 111 0
-2934 151 0
-2934 37 0
-2934 166 0
-2934 111 0
-2935 237 0
-2935 46 0
-2935 166 0
-2935 66 0
-2936 46 0
-2936 219 0
-2936 66 0
-2936 175 0
-2937 46 0
-2937 195 0
-2937 66 0
-2938 133 0
-2938 74 0
-2938 46 0
-2938 237 0
-2939 142 0
-2939 46 0
-2939 74 0
-2939 219 0
-2940 74 0
-2940 46 0
-2941 237 0
-2941 125 0
-2941 46 0
-2941 82 0
-2942 142 0
-2942 46 0
-2942 195 0
-2942 82 0
-2943 46 0
-2943 82 0
-2943 175 0
-2944 91 0
-2944 125 0
-2944 46 0
-2944 219 0
-2945 91 0
-2945 46 0
-2945 195 0
-2945 133 0
-2946 91 0
-2946 46 0
-2946 166 0
-2947 125 0
-2947 46 0
-2947 111 0
-2948 133 0
-2948 111 0
-2948 46 0
-2948 175 0
-2949 142 0
-2949 46 0
-2949 166 0
-2949 111 0
-2950 57 0
-2950 226 0
-2950 166 0
-2950 66 0
-2951 208 0
-2951 57 0
-2951 66 0
-2951 175 0
-2952 57 0
-2952 66 0
-2953 133 0
-2953 74 0
-2953 57 0
-2953 226 0
-2954 57 0
-2954 142 0
-2954 208 0
-2954 74 0
-2955 151 0
-2955 74 0
-2955 57 0
-2956 57 0
-2956 125 0
-2956 226 0
-2956 82 0
-2957 142 0
-2957 57 0
-2957 82 0
-2958 151 0
-2958 57 0
-2958 82 0
-2958 175 0
-2959 91 0
-2959 125 0
-2959 208 0
-2959 57 0
-2960 91 0
-2960 57 0
-2960 133 0
-2961 91 0
-2961 57 0
-2961 166 0
-2961 151 0
-2962 125 0
-2962 57 0
-2962 100 0
-2963 133 0
-2963 57 0
-2963 100 0
-2963 175 0
-2964 57 0
-2964 142 0
-2964 166 0
-2964 100 0
-1 -162 -184 -199 2861 2862 2863 2864 2865 2866 2867 2868 2869 2870 2871 2872 2873 2874 2875 2876 2877 2878 2879 2880 2881 2882 2883 2884 2885 2886 2887 2888 2889 2890 2891 2892 2893 2894 2895 2896 2897 2898 2899 2900 2901 2902 2903 2904 2905 2906 2907 2908 2909 2910 2911 2912 2913 2914 2915 2916 2917 2918 2919 2920 2921 2922 2923 2924 2925 2926 2927 2928 2929 2930 2931 2932 2933 2934 2935 2936 2937 2938 2939 2940 2941 2942 2943 2944 2945 2946 2947 2948 2949 2950 2951 2952 2953 2954 2955 2956 2957 2958 2959 2960 2961 2962 2963 2964 0
-2965 250 0
-2965 204 0
-2965 5 0
-2965 121 0
-2966 213 0
-2966 241 0
-2966 5 0
-2966 121 0
-2967 5 0
-2967 220 0
-2967 121 0
-2968 250 0
-2968 5 0
-2968 131 0
-2968 174 0
-2969 183 0
-2969 5 0
-2969 241 0
-2969 131 0
-2970 190 0
-2970 5 0
-2970 131 0
-2971 250 0
-2971 141 0
-2971 5 0
-2972 183 0
-2972 5 0
-2972 141 0
-2972 220 0
-2973 190 0
-2973 141 0
-2973 5 0
-2973 213 0
-2974 241 0
-2974 5 0
-2974 150 0
-2975 5 0
-2975 220 0
-2975 174 0
-2975 150 0
-2976 190 0
-2976 204 0
-2976 5 0
-2976 150 0
-2977 157 0
-2977 5 0
-2978 157 0
-2978 5 0
-2978 174 0
-2978 213 0
-2979 183 0
-2979 157 0
-2979 204 0
-2979 5 0
-2980 250 0
-2980 76 0
-2980 204 0
-2981 213 0
-2981 76 0
-2981 241 0
-2982 76 0
-2982 220 0
-2983 250 0
-2983 86 0
-2983 174 0
-2984 183 0
-2984 86 0
-2984 241 0
-2985 190 0
-2985 86 0
-2986 250 0
-2986 96 0
-2987 183 0
-2987 220 0
-2987 96 0
-2988 190 0
-2988 213 0
-2988 96 0
-2989 105 0
-2989 241 0
-2990 105 0
-2990 220 0
-2990 174 0
-2991 190 0
-2991 105 0
-2991 204 0
-2992 213 0
-2992 174 0
-2993 183 0
-2993 204 0
-2994 22 0
-2994 204 0
-2994 250 0
-2994 68 0
-2995 22 0
-2995 213 0
-2995 241 0
-2995 68 0
-2996 22 0
-2996 220 0
-2996 68 0
-2997 22 0
-2997 141 0
-2997 86 0
-2997 250 0
-2998 22 0
-2998 86 0
-2998 241 0
-2998 150 0
-2999 22 0
-2999 157 0
-2999 86 0
-3000 22 0
-3000 250 0
-3000 131 0
-3000 96 0
-3001 22 0
-3001 220 0
-3001 96 0
-3001 150 0
-3002 22 0
-3002 157 0
-3002 96 0
-3002 213 0
-3003 22 0
-3003 105 0
-3003 131 0
-3003 241 0
-3004 22 0
-3004 141 0
-3004 105 0
-3004 220 0
-3005 22 0
-3005 157 0
-3005 105 0
-3005 204 0
-3006 22 0
-3006 131 0
-3007 22 0
-3007 141 0
-3007 213 0
-3008 22 0
-3008 204 0
-3008 150 0
-3009 250 0
-3009 32 0
-3009 174 0
-3009 68 0
-3010 183 0
-3010 32 0
-3010 241 0
-3010 68 0
-3011 190 0
-3011 32 0
-3011 68 0
-3012 250 0
-3012 141 0
-3012 32 0
-3012 76 0
-3013 32 0
-3013 241 0
-3013 76 0
-3013 150 0
-3014 157 0
-3014 32 0
-3014 76 0
-3015 250 0
-3015 32 0
-3015 96 0
-3015 121 0
-3016 190 0
-3016 32 0
-3016 96 0
-3016 150 0
-3017 183 0
-3017 157 0
-3017 32 0
-3017 96 0
-3018 105 0
-3018 32 0
-3018 241 0
-3018 121 0
-3019 190 0
-3019 141 0
-3019 32 0
-3019 105 0
-3020 157 0
-3020 32 0
-3020 105 0
-3020 174 0
-3021 32 0
-3021 121 0
-3022 183 0
-3022 141 0
-3022 32 0
-3023 32 0
-3023 174 0
-3023 150 0
-3024 250 0
-3024 42 0
-3024 68 0
-3025 183 0
-3025 42 0
-3025 220 0
-3025 68 0
-3026 190 0
-3026 213 0
-3026 42 0
-3026 68 0
-3027 250 0
-3027 42 0
-3027 131 0
-3027 76 0
-3028 42 0
-3028 220 0
-3028 76 0
-3028 150 0
-3029 157 0
-3029 42 0
-3029 76 0
-3029 213 0
-3030 250 0
-3030 42 0
-3030 86 0
-3030 121 0
-3031 190 0
-3031 42 0
-3031 86 0
-3031 150 0
-3032 183 0
-3032 157 0
-3032 42 0
-3032 86 0
-3033 42 0
-3033 105 0
-3033 220 0
-3033 121 0
-3034 190 0
-3034 42 0
-3034 105 0
-3034 131 0
-3035 157 0
-3035 42 0
-3035 105 0
-3036 213 0
-3036 42 0
-3036 121 0
-3037 183 0
-3037 42 0
-3037 131 0
-3038 42 0
-3038 150 0
-3039 51 0
-3039 241 0
-3039 68 0
-3040 51 0
-3040 220 0
-3040 174 0
-3040 68 0
-3041 190 0
-3041 51 0
-3041 204 0
-3041 68 0
-3042 51 0
-3042 76 0
-3042 241 0
-3042 131 0
-3043 51 0
-3043 141 0
-3043 76 0
-3043 220 0
-3044 51 0
-3044 157 0
-3044 76 0
-3044 204 0
-3045 51 0
-3045 86 0
-3045 241 0
-3045 121 0
-3046 190 0
-3046 51 0
-3046 141 0
-3046 86 0
-3047 51 0
-3047 157 0
-3047 86 0
-3047 174 0
-3048 51 0
-3048 220 0
-3048 96 0
-3048 121 0
-3049 190 0
-3049 51 0
-3049 131 0
-3049 96 0
-3050 51 0
-3050 157 0
-3050 96 0
-3051 51 0
-3051 204 0
-3051 121 0
-3052 51 0
-3052 131 0
-3052 174 0
-3053 51 0
-3053 141 0
-3054 58 0
-3054 68 0
-3055 213 0
-3055 58 0
-3055 174 0
-3055 68 0
-3056 183 0
-3056 58 0
-3056 204 0
-3056 68 0
-3057 76 0
-3057 58 0
-3057 131 0
-3058 141 0
-3058 76 0
-3058 58 0
-3058 213 0
-3059 58 0
-3059 76 0
-3059 204 0
-3059 150 0
-3060 86 0
-3060 58 0
-3060 121 0
-3061 183 0
-3061 141 0
-3061 86 0
-3061 58 0
-3062 86 0
-3062 58 0
-3062 174 0
-3062 150 0
-3063 213 0
-3063 58 0
-3063 96 0
-3063 121 0
-3064 183 0
-3064 58 0
-3064 131 0
-3064 96 0
-3065 58 0
-3065 96 0
-3065 150 0
-3066 58 0
-3066 105 0
-3066 204 0
-3066 121 0
-3067 58 0
-3067 105 0
-3067 131 0
-3067 174 0
-3068 58 0
-3068 141 0
-3068 105 0
-14 -112 -164 -234 2965 2966 2967 2968 2969 2970 2971 2972 2973 2974 2975 2976 2977 2978 2979 2980 2981 2982 2983 2984 2985 2986 2987 2988 2989 2990 2991 2992 2993 2994 2995 2996 2997 2998 2999 3000 3001 3002 3003 3004 3005 3006 3007 3008 3009 3010 3011 3012 3013 3014 3015 3016 3017 3018 3019 3020 3021 3022 3023 3024 3025 3026 3027 3028 3029 3030 3031 3032 3033 3034 3035 3036 3037 3038 3039 3040 3041 3042 3043 3044 3045 3046 3047 3048 3049 3050 3051 3052 3053 3054 3055 3056 3057 3058 3059 3060 3061 3062 3063 3064 3065 3066 3067 3068 0
-3069 122 0
-3069 245 0
-3069 206 0
-3069 6 0
-3070 122 0
-3070 214 0
-3070 6 0
-3071 122 0
-3071 224 0
-3071 6 0
-3071 229 0
-3072 176 0
-3072 245 0
-3072 6 0
-3072 132 0
-3073 6 0
-3073 132 0
-3074 132 0
-3074 194 0
-3074 6 0
-3074 229 0
-3075 140 0
-3075 245 0
-3075 6 0
-3075 168 0
-3076 140 0
-3076 224 0
-3076 6 0
-3077 140 0
-3077 214 0
-3077 194 0
-3077 6 0
-3078 148 0
-3078 6 0
-3078 168 0
-3079 176 0
-3079 224 0
-3079 148 0
-3079 6 0
-3080 6 0
-3080 194 0
-3080 148 0
-3080 206 0
-3081 168 0
-3081 158 0
-3081 6 0
-3081 229 0
-3082 176 0
-3082 214 0
-3082 158 0
-3082 6 0
-3083 6 0
-3083 158 0
-3083 206 0
-3084 80 0
-3084 245 0
-3084 206 0
-3085 80 0
-3085 214 0
-3086 80 0
-3086 224 0
-3086 229 0
-3087 176 0
-3087 245 0
-3088 194 0
-3088 229 0
-3089 98 0
-3089 245 0
-3089 168 0
-3090 98 0
-3090 224 0
-3091 98 0
-3091 214 0
-3091 194 0
-3092 106 0
-3092 168 0
-3093 176 0
-3093 224 0
-3093 106 0
-3094 194 0
-3094 106 0
-3094 206 0
-3095 168 0
-3095 116 0
-3095 229 0
-3096 176 0
-3096 214 0
-3096 116 0
-3097 116 0
-3097 206 0
-3098 23 0
-3098 245 0
-3098 71 0
-3098 206 0
-3099 23 0
-3099 214 0
-3099 71 0
-3100 23 0
-3100 71 0
-3100 224 0
-3100 229 0
-3101 140 0
-3101 23 0
-3101 245 0
-3102 23 0
-3102 148 0
-3103 23 0
-3103 158 0
-3103 229 0
-3104 98 0
-3104 23 0
-3104 245 0
-3104 132 0
-3105 98 0
-3105 23 0
-3105 224 0
-3105 148 0
-3106 98 0
-3106 23 0
-3106 214 0
-3106 158 0
-3107 23 0
-3107 106 0
-3107 132 0
-3108 140 0
-3108 23 0
-3108 224 0
-3108 106 0
-3109 23 0
-3109 158 0
-3109 106 0
-3109 206 0
-3110 23 0
-3110 116 0
-3110 132 0
-3110 229 0
-3111 140 0
-3111 23 0
-3111 214 0
-3111 116 0
-3112 23 0
-3112 116 0
-3112 148 0
-3112 206 0
-3113 176 0
-3113 71 0
-3113 33 0
-3113 245 0
-3114 71 0
-3114 33 0
-3115 71 0
-3115 194 0
-3115 33 0
-3115 229 0
-3116 80 0
-3116 245 0
-3116 33 0
-3116 140 0
-3117 80 0
-3117 33 0
-3117 148 0
-3118 80 0
-3118 158 0
-3118 33 0
-3118 229 0
-3119 98 0
-3119 245 0
-3119 33 0
-3119 122 0
-3120 98 0
-3120 194 0
-3120 33 0
-3120 148 0
-3121 98 0
-3121 158 0
-3121 33 0
-3122 122 0
-3122 33 0
-3122 106 0
-3123 140 0
-3123 194 0
-3123 33 0
-3123 106 0
-3124 176 0
-3124 158 0
-3124 33 0
-3124 106 0
-3125 122 0
-3125 116 0
-3125 33 0
-3125 229 0
-3126 140 0
-3126 116 0
-3126 33 0
-3127 176 0
-3127 148 0
-3127 116 0
-3127 33 0
-3128 41 0
-3128 245 0
-3128 71 0
-3128 168 0
-3129 41 0
-3129 71 0
-3129 224 0
-3130 41 0
-3130 214 0
-3130 194 0
-3130 71 0
-3131 80 0
-3131 41 0
-3131 245 0
-3131 132 0
-3132 80 0
-3132 41 0
-3132 224 0
-3132 148 0
-3133 80 0
-3133 41 0
-3133 214 0
-3133 158 0
-3134 122 0
-3134 41 0
-3134 245 0
-3135 41 0
-3135 194 0
-3135 148 0
-3136 41 0
-3136 158 0
-3137 122 0
-3137 41 0
-3137 224 0
-3137 106 0
-3138 41 0
-3138 194 0
-3138 106 0
-3138 132 0
-3139 41 0
-3139 158 0
-3139 106 0
-3139 168 0
-3140 122 0
-3140 41 0
-3140 214 0
-3140 116 0
-3141 41 0
-3141 116 0
-3141 132 0
-3142 41 0
-3142 116 0
-3142 148 0
-3142 168 0
-3143 71 0
-3143 49 0
-3143 168 0
-3144 176 0
-3144 71 0
-3144 49 0
-3144 224 0
-3145 71 0
-3145 194 0
-3145 49 0
-3145 206 0
-3146 80 0
-3146 49 0
-3146 132 0
-3147 80 0
-3147 224 0
-3147 140 0
-3147 49 0
-3148 80 0
-3148 49 0
-3148 158 0
-3148 206 0
-3149 122 0
-3149 49 0
-3150 140 0
-3150 194 0
-3150 49 0
-3151 176 0
-3151 158 0
-3151 49 0
-3152 98 0
-3152 224 0
-3152 122 0
-3152 49 0
-3153 98 0
-3153 194 0
-3153 49 0
-3153 132 0
-3154 98 0
-3154 158 0
-3154 49 0
-3154 168 0
-3155 122 0
-3155 49 0
-3155 116 0
-3155 206 0
-3156 176 0
-3156 116 0
-3156 49 0
-3156 132 0
-3157 140 0
-3157 116 0
-3157 49 0
-3157 168 0
-3158 168 0
-3158 71 0
-3158 59 0
-3158 229 0
-3159 176 0
-3159 214 0
-3159 71 0
-3159 59 0
-3160 59 0
-3160 71 0
-3160 206 0
-3161 80 0
-3161 132 0
-3161 59 0
-3161 229 0
-3162 80 0
-3162 214 0
-3162 140 0
-3162 59 0
-3163 80 0
-3163 59 0
-3163 148 0
-3163 206 0
-3164 122 0
-3164 59 0
-3164 229 0
-3165 140 0
-3165 59 0
-3166 176 0
-3166 148 0
-3166 59 0
-3167 98 0
-3167 214 0
-3167 122 0
-3167 59 0
-3168 98 0
-3168 59 0
-3168 132 0
-3169 98 0
-3169 148 0
-3169 59 0
-3169 168 0
-3170 122 0
-3170 59 0
-3170 106 0
-3170 206 0
-3171 176 0
-3171 106 0
-3171 59 0
-3171 132 0
-3172 140 0
-3172 106 0
-3172 59 0
-3172 168 0
-14 -90 -184 -239 3069 3070 3071 3072 3073 3074 3075 3076 3077 3078 3079 3080 3081 3082 3083 3084 3085 3086 3087 3088 3089 3090 3091 3092 3093 3094 3095 3096 3097 3098 3099 3100 3101 3102 3103 3104 3105 3106 3107 3108 3109 3110 3111 3112 3113 3114 3115 3116 3117 3118 3119 3120 3121 3122 3123 3124 3125 3126 3127 3128 3129 3130 3131 3132 3133 3134 3135 3136 3137 3138 3139 3140 3141 3142 3143 3144 3145 3146 3147 3148 3149 3150 3151 3152 3153 3154 3155 3156 3157 3158 3159 3160 3161 3162 3163 3164 3165 3166 3167 3168 3169 3170 3171 3172 0
-3173 8 0
-3173 247 0
-3173 120 0
-3174 8 0
-3174 209 0
-3174 235 0
-3174 120 0
-3175 8 0
-3175 217 0
-3175 227 0
-3175 120 0
-3176 8 0
-3176 127 0
-3176 178 0
-3176 247 0
-3177 8 0
-3177 127 0
-3177 235 0
-3177 188 0
-3178 8 0
-3178 127 0
-3178 227 0
-3178 196 0
-3179 8 0
-3179 136 0
-3179 247 0
-3179 169 0
-3180 8 0
-3180 217 0
-3180 136 0
-3180 188 0
-3181 8 0
-3181 136 0
-3181 196 0
-3181 209 0
-3182 8 0
-3182 235 0
-3182 169 0
-3183 8 0
-3183 178 0
-3183 217 0
-3184 8 0
-3184 196 0
-3185 8 0
-3185 154 0
-3185 227 0
-3185 169 0
-3186 8 0
-3186 178 0
-3186 209 0
-3186 154 0
-3187 8 0
-3187 188 0
-3187 154 0
-3188 16 0
-3188 247 0
-3188 78 0
-3189 16 0
-3189 209 0
-3189 235 0
-3189 78 0
-3190 16 0
-3190 217 0
-3190 227 0
-3190 78 0
-3191 16 0
-3191 85 0
-3191 178 0
-3191 247 0
-3192 16 0
-3192 85 0
-3192 235 0
-3192 188 0
-3193 16 0
-3193 85 0
-3193 227 0
-3193 196 0
-3194 16 0
-3194 247 0
-3194 94 0
-3194 169 0
-3195 16 0
-3195 217 0
-3195 94 0
-3195 188 0
-3196 16 0
-3196 94 0
-3196 196 0
-3196 209 0
-3197 16 0
-3197 104 0
-3197 235 0
-3197 169 0
-3198 16 0
-3198 178 0
-3198 104 0
-3198 217 0
-3199 16 0
-3199 104 0
-3199 196 0
-3200 16 0
-3200 227 0
-3200 169 0
-3201 16 0
-3201 178 0
-3201 209 0
-3202 16 0
-3202 188 0
-3203 247 0
-3203 67 0
-3204 209 0
-3204 235 0
-3204 67 0
-3205 217 0
-3205 227 0
-3205 67 0
-3206 85 0
-3206 136 0
-3206 247 0
-3207 85 0
-3207 235 0
-3208 154 0
-3208 85 0
-3208 227 0
-3209 127 0
-3209 247 0
-3209 94 0
-3210 217 0
-3210 94 0
-3211 154 0
-3211 94 0
-3211 209 0
-3212 127 0
-3212 104 0
-3212 235 0
-3213 217 0
-3213 104 0
-3213 136 0
-3214 154 0
-3214 104 0
-3215 127 0
-3215 227 0
-3216 136 0
-3216 209 0
-3217 178 0
-3217 247 0
-3217 34 0
-3217 67 0
-3218 34 0
-3218 235 0
-3218 188 0
-3218 67 0
-3219 34 0
-3219 227 0
-3219 196 0
-3219 67 0
-3220 136 0
-3220 247 0
-3220 34 0
-3220 78 0
-3221 34 0
-3221 235 0
-3221 78 0
-3222 154 0
-3222 78 0
-3222 227 0
-3222 34 0
-3223 247 0
-3223 34 0
-3223 94 0
-3223 120 0
-3224 94 0
-3224 34 0
-3224 196 0
-3225 154 0
-3225 94 0
-3225 34 0
-3225 188 0
-3226 34 0
-3226 104 0
-3226 235 0
-3226 120 0
-3227 104 0
-3227 136 0
-3227 34 0
-3227 196 0
-3228 154 0
-3228 178 0
-3228 104 0
-3228 34 0
-3229 34 0
-3229 227 0
-3229 120 0
-3230 188 0
-3230 136 0
-3230 34 0
-3231 178 0
-3231 34 0
-3232 43 0
-3232 247 0
-3232 67 0
-3232 169 0
-3233 217 0
-3233 43 0
-3233 188 0
-3233 67 0
-3234 196 0
-3234 43 0
-3234 209 0
-3234 67 0
-3235 127 0
-3235 43 0
-3235 247 0
-3235 78 0
-3236 217 0
-3236 43 0
-3236 78 0
-3237 154 0
-3237 43 0
-3237 209 0
-3237 78 0
-3238 85 0
-3238 43 0
-3238 247 0
-3238 120 0
-3239 85 0
-3239 43 0
-3239 196 0
-3240 154 0
-3240 85 0
-3240 43 0
-3240 188 0
-3241 217 0
-3241 43 0
-3241 104 0
-3241 120 0
-3242 127 0
-3242 43 0
-3242 196 0
-3242 104 0
-3243 154 0
-3243 43 0
-3243 104 0
-3243 169 0
-3244 43 0
-3244 209 0
-3244 120 0
-3245 127 0
-3245 43 0
-3245 188 0
-3246 43 0
-3246 169 0
-3247 169 0
-3247 53 0
-3247 235 0
-3247 67 0
-3248 178 0
-3248 217 0
-3248 53 0
-3248 67 0
-3249 53 0
-3249 67 0
-3249 196 0
-3250 127 0
-3250 53 0
-3250 235 0
-3250 78 0
-3251 217 0
-3251 53 0
-3251 136 0
-3251 78 0
-3252 154 0
-3252 53 0
-3252 78 0
-3253 85 0
-3253 53 0
-3253 235 0
-3253 120 0
-3254 85 0
-3254 53 0
-3254 136 0
-3254 196 0
-3255 154 0
-3255 85 0
-3255 53 0
-3255 178 0
-3256 217 0
-3256 53 0
-3256 94 0
-3256 120 0
-3257 127 0
-3257 53 0
-3257 94 0
-3257 196 0
-3258 154 0
-3258 53 0
-3258 94 0
-3258 169 0
-3259 53 0
-3259 120 0
-3260 178 0
-3260 127 0
-3260 53 0
-3261 53 0
-3261 136 0
-3261 169 0
-3262 61 0
-3262 67 0
-3262 227 0
-3262 169 0
-3263 178 0
-3263 61 0
-3263 209 0
-3263 67 0
-3264 61 0
-3264 188 0
-3264 67 0
-3265 127 0
-3265 227 0
-3265 78 0
-3265 61 0
-3266 136 0
-3266 209 0
-3266 78 0
-3266 61 0
-3267 78 0
-3267 61 0
-3268 85 0
-3268 61 0
-3268 227 0
-3268 120 0
-3269 85 0
-3269 136 0
-3269 188 0
-3269 61 0
-3270 178 0
-3270 85 0
-3270 61 0
-3271 61 0
-3271 94 0
-3271 209 0
-3271 120 0
-3272 127 0
-3272 94 0
-3272 188 0
-3272 61 0
-3273 61 0
-3273 94 0
-3273 169 0
-3274 61 0
-3274 104 0
-3274 120 0
-3275 178 0
-3275 127 0
-3275 104 0
-3275 61 0
-3276 61 0
-3276 104 0
-3276 136 0
-3276 169 0
-27 -112 -146 -199 3173 3174 3175 3176 3177 3178 3179 3180 3181 3182 3183 3184 3185 3186 3187 3188 3189 3190 3191 3192 3193 3194 3195 3196 3197 3198 3199 3200 3201 3202 3203 3204 3205 3206 3207 3208 3209 3210 3211 3212 3213 3214 3215 3216 3217 3218 3219 3220 3221 3222 3223 3224 3225 3226 3227 3228 3229 3230 3231 3232 3233 3234 3235 3236 3237 3238 3239 3240 3241 3242 3243 3244 3245 3246 3247 3248 3249 3250 3251 3252 3253 3254 3255 3256 3257 3258 3259 3260 3261 3262 3263 3264 3265 3266 3267 3268 3269 3270 3271 3272 3273 3274 3275 3276 0
-3277 9 0
-3277 248 0
-3277 206 0
-3277 120 0
-3278 9 0
-3278 215 0
-3278 120 0
-3279 230 0
-3279 9 0
-3279 224 0
-3279 120 0
-3280 9 0
-3280 179 0
-3280 129 0
-3280 248 0
-3281 9 0
-3281 129 0
-3281 188 0
-3282 230 0
-3282 9 0
-3282 129 0
-3282 197 0
-3283 9 0
-3283 171 0
-3283 137 0
-3283 248 0
-3284 9 0
-3284 224 0
-3284 137 0
-3284 188 0
-3285 9 0
-3285 215 0
-3285 137 0
-3285 197 0
-3286 9 0
-3286 171 0
-3287 9 0
-3287 179 0
-3287 224 0
-3288 9 0
-3288 206 0
-3288 197 0
-3289 230 0
-3289 9 0
-3289 155 0
-3289 171 0
-3290 9 0
-3290 155 0
-3290 215 0
-3290 179 0
-3291 9 0
-3291 155 0
-3291 188 0
-3291 206 0
-3292 16 0
-3292 81 0
-3292 248 0
-3292 206 0
-3293 16 0
-3293 81 0
-3293 215 0
-3294 16 0
-3294 81 0
-3294 224 0
-3294 230 0
-3295 16 0
-3295 179 0
-3295 248 0
-3296 16 0
-3296 188 0
-3297 16 0
-3297 230 0
-3297 197 0
-3298 16 0
-3298 171 0
-3298 248 0
-3298 98 0
-3299 16 0
-3299 224 0
-3299 188 0
-3299 98 0
-3300 16 0
-3300 215 0
-3300 197 0
-3300 98 0
-3301 16 0
-3301 171 0
-3301 107 0
-3302 16 0
-3302 179 0
-3302 107 0
-3302 224 0
-3303 16 0
-3303 107 0
-3303 206 0
-3303 197 0
-3304 16 0
-3304 171 0
-3304 116 0
-3304 230 0
-3305 16 0
-3305 179 0
-3305 116 0
-3305 215 0
-3306 16 0
-3306 116 0
-3306 188 0
-3306 206 0
-3307 70 0
-3307 248 0
-3307 206 0
-3308 70 0
-3308 215 0
-3309 230 0
-3309 70 0
-3309 224 0
-3310 137 0
-3310 248 0
-3311 230 0
-3311 155 0
-3312 98 0
-3312 129 0
-3312 248 0
-3313 98 0
-3313 224 0
-3314 98 0
-3314 155 0
-3314 215 0
-3315 129 0
-3315 107 0
-3316 224 0
-3316 137 0
-3316 107 0
-3317 155 0
-3317 206 0
-3317 107 0
-3318 230 0
-3318 116 0
-3318 129 0
-3319 116 0
-3319 215 0
-3319 137 0
-3320 116 0
-3320 206 0
-3321 36 0
-3321 70 0
-3321 179 0
-3321 248 0
-3322 36 0
-3322 70 0
-3322 188 0
-3323 36 0
-3323 70 0
-3323 230 0
-3323 197 0
-3324 36 0
-3324 81 0
-3324 137 0
-3324 248 0
-3325 36 0
-3325 81 0
-3326 36 0
-3326 81 0
-3326 155 0
-3326 230 0
-3327 36 0
-3327 98 0
-3327 248 0
-3327 120 0
-3328 36 0
-3328 197 0
-3328 98 0
-3329 36 0
-3329 155 0
-3329 188 0
-3329 98 0
-3330 36 0
-3330 107 0
-3330 120 0
-3331 36 0
-3331 137 0
-3331 197 0
-3331 107 0
-3332 36 0
-3332 155 0
-3332 179 0
-3332 107 0
-3333 36 0
-3333 116 0
-3333 230 0
-3333 120 0
-3334 36 0
-3334 116 0
-3334 137 0
-3334 188 0
-3335 36 0
-3335 179 0
-3335 116 0
-3336 70 0
-3336 171 0
-3336 248 0
-3336 44 0
-3337 70 0
-3337 224 0
-3337 188 0
-3337 44 0
-3338 70 0
-3338 215 0
-3338 44 0
-3338 197 0
-3339 81 0
-3339 129 0
-3339 248 0
-3339 44 0
-3340 81 0
-3340 224 0
-3340 44 0
-3341 81 0
-3341 155 0
-3341 215 0
-3341 44 0
-3342 248 0
-3342 44 0
-3342 120 0
-3343 44 0
-3343 197 0
-3344 188 0
-3344 155 0
-3344 44 0
-3345 224 0
-3345 44 0
-3345 107 0
-3345 120 0
-3346 107 0
-3346 129 0
-3346 44 0
-3346 197 0
-3347 155 0
-3347 171 0
-3347 44 0
-3347 107 0
-3348 116 0
-3348 215 0
-3348 44 0
-3348 120 0
-3349 129 0
-3349 116 0
-3349 188 0
-3349 44 0
-3350 171 0
-3350 116 0
-3350 44 0
-3351 70 0
-3351 171 0
-3351 53 0
-3352 70 0
-3352 179 0
-3352 53 0
-3352 224 0
-3353 70 0
-3353 53 0
-3353 206 0
-3353 197 0
-3354 81 0
-3354 53 0
-3354 129 0
-3355 81 0
-3355 224 0
-3355 53 0
-3355 137 0
-3356 81 0
-3356 155 0
-3356 53 0
-3356 206 0
-3357 53 0
-3357 120 0
-3358 53 0
-3358 137 0
-3358 197 0
-3359 155 0
-3359 53 0
-3359 179 0
-3360 98 0
-3360 224 0
-3360 53 0
-3360 120 0
-3361 98 0
-3361 53 0
-3361 129 0
-3361 197 0
-3362 98 0
-3362 155 0
-3362 53 0
-3362 171 0
-3363 53 0
-3363 116 0
-3363 206 0
-3363 120 0
-3364 179 0
-3364 53 0
-3364 116 0
-3364 129 0
-3365 171 0
-3365 53 0
-3365 116 0
-3365 137 0
-3366 230 0
-3366 62 0
-3366 70 0
-3366 171 0
-3367 62 0
-3367 70 0
-3367 215 0
-3367 179 0
-3368 62 0
-3368 70 0
-3368 188 0
-3368 206 0
-3369 230 0
-3369 81 0
-3369 62 0
-3369 129 0
-3370 81 0
-3370 62 0
-3370 215 0
-3370 137 0
-3371 81 0
-3371 62 0
-3371 206 0
-3372 230 0
-3372 62 0
-3372 120 0
-3373 188 0
-3373 62 0
-3373 137 0
-3374 62 0
-3374 179 0
-3375 98 0
-3375 62 0
-3375 215 0
-3375 120 0
-3376 98 0
-3376 62 0
-3376 129 0
-3376 188 0
-3377 98 0
-3377 62 0
-3377 171 0
-3378 62 0
-3378 107 0
-3378 206 0
-3378 120 0
-3379 62 0
-3379 179 0
-3379 129 0
-3379 107 0
-3380 62 0
-3380 171 0
-3380 137 0
-3380 107 0
-27 -90 -146 -239 3277 3278 3279 3280 3281 3282 3283 3284 3285 3286 3287 3288 3289 3290 3291 3292 3293 3294 3295 3296 3297 3298 3299 3300 3301 3302 3303 3304 3305 3306 3307 3308 3309 3310 3311 3312 3313 3314 3315 3316 3317 3318 3319 3320 3321 3322 3323 3324 3325 3326 3327 3328 3329 3330 3331 3332 3333 3334 3335 3336 3337 3338 3339 3340 3341 3342 3343 3344 3345 3346 3347 3348 3349 3350 3351 3352 3353 3354 3355 3356 3357 3358 3359 3360 3361 3362 3363 3364 3365 3366 3367 3368 3369 3370 3371 3372 3373 3374 3375 3376 3377 3378 3379 3380 0
-370 -398 -3381 0
370 398 -3381 0
370 -398 3381 0
-370 398 3381 0
-3381 -416 -3382 0
3381 416 -3382 0
3381 -416 3382 0
-3381 416 3382 0
-3382 -464 -3383 0
3382 464 -3383 0
3382 -464 3383 0
-3382 464 3383 0
-1 -118 -146 -164 -212 -239 3383 0
-329 -364 -3384 0
329 364 -3384 0
329 -364 3384 0
-329 364 3384 0
-3384 -436 -3385 0
3384 436 -3385 0
3384 -436 3385 0
-3384 436 3385 0
-3385 -496 -3386 0
3385 496 -3386 0
3385 -496 3386 0
-3385 496 3386 0
-14 -77 -112 -184 -199 -244 3386 0
-3387 202 0
-3387 119 0
-3387 248 0
-3388 119 0
-3388 236 0
-3389 119 0
-3389 227 0
-3389 221 0
-3390 128 0
-3390 248 0
-3391 185 0
-3391 128 0
-3391 236 0
-3392 194 0
-3392 128 0
-3392 227 0
-3393 167 0
-3393 136 0
-3393 248 0
-3394 185 0
-3394 136 0
-3394 221 0
-3395 194 0
-3395 136 0
-3396 146 0
-3396 167 0
-3396 236 0
-3397 146 0
-3397 221 0
-3398 202 0
-3398 146 0
-3398 194 0
-3399 167 0
-3399 227 0
-3400 202 0
-3400 185 0
-3401 202 0
-3401 10 0
-3401 74 0
-3401 248 0
-3402 74 0
-3402 10 0
-3402 236 0
-3403 74 0
-3403 10 0
-3403 227 0
-3403 221 0
-3404 83 0
-3404 10 0
-3404 248 0
-3405 83 0
-3405 185 0
-3405 10 0
-3405 236 0
-3406 83 0
-3406 10 0
-3406 227 0
-3406 194 0
-3407 91 0
-3407 167 0
-3407 10 0
-3407 248 0
-3408 91 0
-3408 185 0
-3408 10 0
-3408 221 0
-3409 91 0
-3409 10 0
-3409 194 0
-3410 101 0
-3410 10 0
-3410 167 0
-3410 236 0
-3411 101 0
-3411 10 0
-3411 221 0
-3412 101 0
-3412 202 0
-3412 10 0
-3412 194 0
-3413 10 0
-3413 227 0
-3413 167 0
-3413 110 0
-3414 10 0
-3414 110 0
-3415 202 0
-3415 185 0
-3415 10 0
-3415 110 0
-3416 202 0
-3416 64 0
-3416 248 0
-3416 20 0
-3417 64 0
-3417 20 0
-3417 236 0
-3418 64 0
-3418 20 0
-3418 227 0
-3418 221 0
-3419 83 0
-3419 136 0
-3419 248 0
-3419 20 0
-3420 83 0
-3420 146 0
-3420 20 0
-3420 236 0
-3421 83 0
-3421 227 0
-3421 20 0
-3422 91 0
-3422 128 0
-3422 248 0
-3422 20 0
-3423 91 0
-3423 146 0
-3423 20 0
-3423 221 0
-3424 91 0
-3424 20 0
-3425 101 0
-3425 128 0
-3425 20 0
-3425 236 0
-3426 101 0
-3426 20 0
-3426 136 0
-3426 221 0
-3427 101 0
-3427 202 0
-3427 20 0
-3428 128 0
-3428 227 0
-3428 20 0
-3428 110 0
-3429 136 0
-3429 110 0
-3429 20 0
-3430 202 0
-3430 146 0
-3430 110 0
-3430 20 0
-3431 29 0
-3431 64 0
-3431 248 0
-3432 29 0
-3432 185 0
-3432 64 0
-3432 236 0
-3433 29 0
-3433 64 0
-3433 194 0
-3433 227 0
-3434 29 0
-3434 74 0
-3434 136 0
-3434 248 0
-3435 29 0
-3435 74 0
-3435 146 0
-3435 236 0
-3436 29 0
-3436 74 0
-3436 227 0
-3437 29 0
-3437 91 0
-3437 119 0
-3437 248 0
-3438 29 0
-3438 91 0
-3438 146 0
-3438 194 0
-3439 29 0
-3439 185 0
-3439 91 0
-3440 29 0
-3440 101 0
-3440 119 0
-3440 236 0
-3441 29 0
-3441 101 0
-3441 194 0
-3441 136 0
-3442 29 0
-3442 101 0
-3443 29 0
-3443 119 0
-3443 227 0
-3443 110 0
-3444 29 0
-3444 185 0
-3444 136 0
-3444 110 0
-3445 29 0
-3445 146 0
-3445 110 0
-3446 167 0
-3446 64 0
-3446 37 0
-3446 248 0
-3447 64 0
-3447 37 0
-3447 221 0
-3447 185 0
-3448 64 0
-3448 194 0
-3448 37 0
-3449 74 0
-3449 37 0
-3449 128 0
-3449 248 0
-3450 74 0
-3450 146 0
-3450 37 0
-3450 221 0
-3451 74 0
-3451 37 0
-3452 83 0
-3452 119 0
-3452 37 0
-3452 248 0
-3453 83 0
-3453 146 0
-3453 37 0
-3453 194 0
-3454 83 0
-3454 185 0
-3454 37 0
-3455 101 0
-3455 37 0
-3455 119 0
-3455 221 0
-3456 101 0
-3456 37 0
-3456 194 0
-3456 128 0
-3457 101 0
-3457 37 0
-3457 167 0
-3458 37 0
-3458 119 0
-3458 110 0
-3459 185 0
-3459 128 0
-3459 37 0
-3459 110 0
-3460 146 0
-3460 37 0
-3460 167 0
-3460 110 0
-3461 64 0
-3461 47 0
-3461 167 0
-3461 236 0
-3462 64 0
-3462 47 0
-3462 221 0
-3463 202 0
-3463 64 0
-3463 194 0
-3463 47 0
-3464 74 0
-3464 236 0
-3464 128 0
-3464 47 0
-3465 74 0
-3465 136 0
-3465 221 0
-3465 47 0
-3466 202 0
-3466 74 0
-3466 47 0
-3467 83 0
-3467 47 0
-3467 119 0
-3467 236 0
-3468 83 0
-3468 47 0
-3468 194 0
-3468 136 0
-3469 83 0
-3469 47 0
-3470 91 0
-3470 47 0
-3470 119 0
-3470 221 0
-3471 91 0
-3471 47 0
-3471 194 0
-3471 128 0
-3472 91 0
-3472 47 0
-3472 167 0
-3473 202 0
-3473 47 0
-3473 119 0
-3473 110 0
-3474 47 0
-3474 128 0
-3474 110 0
-3475 47 0
-3475 136 0
-3475 167 0
-3475 110 0
-3476 167 0
-3476 64 0
-3476 56 0
-3476 227 0
-3477 64 0
-3477 56 0
-3478 202 0
-3478 64 0
-3478 56 0
-3478 185 0
-3479 74 0
-3479 56 0
-3479 128 0
-3479 227 0
-3480 74 0
-3480 56 0
-3480 136 0
-3481 56 0
-3481 74 0
-3481 146 0
-3481 202 0
-3482 83 0
-3482 56 0
-3482 119 0
-3482 227 0
-3483 83 0
-3483 185 0
-3483 56 0
-3483 136 0
-3484 83 0
-3484 146 0
-3484 56 0
-3485 91 0
-3485 56 0
-3485 119 0
-3486 91 0
-3486 185 0
-3486 56 0
-3486 128 0
-3487 91 0
-3487 146 0
-3487 167 0
-3487 56 0
-3488 101 0
-3488 202 0
-3488 56 0
-3488 119 0
-3489 101 0
-3489 56 0
-3489 128 0
-3490 101 0
-3490 56 0
-3490 136 0
-3490 167 0
-1 -155 -175 -212 3387 3388 3389 3390 3391 3392 3393 3394 3395 3396 3397 3398 3399 3400 3401 3402 3403 3404 3405 3406 3407 3408 3409 3410 3411 3412 3413 3414 3415 3416 3417 3418 3419 3420 3421 3422 3423 3424 3425 3426 3427 3428 3429 3430 3431 3432 3433 3434 3435 3436 3437 3438 3439 3440 3441 3442 3443 3444 3445 3446 3447 3448 3449 3450 3451 3452 3453 3454 3455 3456 3457 3458 3459 3460 3461 3462 3463 3464 3465 3466 3467 3468 3469 3470 3471 3472 3473 3474 3475 3476 3477 3478 3479 3480 3481 3482 3483 3484 3485 3486 3487 3488 3489 3490 0
-3491 124 0
-3491 203 0
-3491 249 0
-3492 124 0
-3492 240 0
-3493 222 0
-3493 124 0
-3493 230 0
-3494 134 0
-3494 249 0
-3495 134 0
-3495 240 0
-3495 182 0
-3496 230 0
-3496 134 0
-3496 192 0
-3497 164 0
-3497 143 0
-3497 249 0
-3498 222 0
-3498 143 0
-3498 182 0
-3499 143 0
-3499 192 0
-3500 164 0
-3500 152 0
-3500 240 0
-3501 222 0
-3501 152 0
-3502 152 0
-3502 192 0
-3502 203 0
-3503 230 0
-3503 164 0
-3504 203 0
-3504 182 0
-3505 73 0
-3505 203 0
-3505 12 0
-3505 249 0
-3506 73 0
-3506 240 0
-3506 12 0
-3507 73 0
-3507 222 0
-3507 230 0
-3507 12 0
-3508 83 0
-3508 12 0
-3508 249 0
-3509 83 0
-3509 240 0
-3509 12 0
-3509 182 0
-3510 83 0
-3510 192 0
-3510 230 0
-3510 12 0
-3511 92 0
-3511 12 0
-3511 164 0
-3511 249 0
-3512 222 0
-3512 92 0
-3512 12 0
-3512 182 0
-3513 92 0
-3513 192 0
-3513 12 0
-3514 101 0
-3514 164 0
-3514 240 0
-3514 12 0
-3515 101 0
-3515 222 0
-3515 12 0
-3516 101 0
-3516 192 0
-3516 12 0
-3516 203 0
-3517 230 0
-3517 164 0
-3517 12 0
-3517 111 0
-3518 12 0
-3518 111 0
-3519 203 0
-3519 12 0
-3519 182 0
-3519 111 0
-3520 203 0
-3520 19 0
-3520 66 0
-3520 249 0
-3521 240 0
-3521 19 0
-3521 66 0
-3522 222 0
-3522 19 0
-3522 230 0
-3522 66 0
-3523 83 0
-3523 143 0
-3523 19 0
-3523 249 0
-3524 83 0
-3524 152 0
-3524 240 0
-3524 19 0
-3525 83 0
-3525 19 0
-3525 230 0
-3526 134 0
-3526 92 0
-3526 19 0
-3526 249 0
-3527 222 0
-3527 92 0
-3527 152 0
-3527 19 0
-3528 92 0
-3528 19 0
-3529 101 0
-3529 134 0
-3529 240 0
-3529 19 0
-3530 101 0
-3530 143 0
-3530 19 0
-3530 222 0
-3531 101 0
-3531 203 0
-3531 19 0
-3532 230 0
-3532 134 0
-3532 19 0
-3532 111 0
-3533 143 0
-3533 19 0
-3533 111 0
-3534 203 0
-3534 152 0
-3534 19 0
-3534 111 0
-3535 29 0
-3535 66 0
-3535 249 0
-3536 29 0
-3536 240 0
-3536 66 0
-3536 182 0
-3537 29 0
-3537 192 0
-3537 230 0
-3537 66 0
-3538 29 0
-3538 143 0
-3538 73 0
-3538 249 0
-3539 29 0
-3539 152 0
-3539 240 0
-3539 73 0
-3540 29 0
-3540 73 0
-3540 230 0
-3541 29 0
-3541 92 0
-3541 124 0
-3541 249 0
-3542 29 0
-3542 92 0
-3542 152 0
-3542 192 0
-3543 29 0
-3543 92 0
-3543 182 0
-3544 29 0
-3544 124 0
-3544 101 0
-3544 240 0
-3545 29 0
-3545 101 0
-3545 143 0
-3545 192 0
-3546 29 0
-3546 101 0
-3547 29 0
-3547 124 0
-3547 230 0
-3547 111 0
-3548 29 0
-3548 143 0
-3548 182 0
-3548 111 0
-3549 29 0
-3549 152 0
-3549 111 0
-3550 164 0
-3550 66 0
-3550 38 0
-3550 249 0
-3551 222 0
-3551 38 0
-3551 66 0
-3551 182 0
-3552 192 0
-3552 66 0
-3552 38 0
-3553 73 0
-3553 134 0
-3553 38 0
-3553 249 0
-3554 73 0
-3554 152 0
-3554 222 0
-3554 38 0
-3555 73 0
-3555 38 0
-3556 83 0
-3556 124 0
-3556 38 0
-3556 249 0
-3557 83 0
-3557 152 0
-3557 192 0
-3557 38 0
-3558 83 0
-3558 38 0
-3558 182 0
-3559 101 0
-3559 124 0
-3559 222 0
-3559 38 0
-3560 101 0
-3560 134 0
-3560 192 0
-3560 38 0
-3561 101 0
-3561 164 0
-3561 38 0
-3562 124 0
-3562 38 0
-3562 111 0
-3563 134 0
-3563 38 0
-3563 182 0
-3563 111 0
-3564 164 0
-3564 152 0
-3564 38 0
-3564 111 0
-3565 164 0
-3565 240 0
-3565 47 0
-3565 66 0
-3566 222 0
-3566 47 0
-3566 66 0
-3567 192 0
-3567 47 0
-3567 66 0
-3567 203 0
-3568 73 0
-3568 134 0
-3568 240 0
-3568 47 0
-3569 73 0
-3569 143 0
-3569 47 0
-3569 222 0
-3570 73 0
-3570 203 0
-3570 47 0
-3571 83 0
-3571 124 0
-3571 240 0
-3571 47 0
-3572 83 0
-3572 143 0
-3572 47 0
-3572 192 0
-3573 83 0
-3573 47 0
-3574 222 0
-3574 92 0
-3574 47 0
-3574 124 0
-3575 134 0
-3575 192 0
-3575 92 0
-3575 47 0
-3576 92 0
-3576 47 0
-3576 164 0
-3577 124 0
-3577 203 0
-3577 47 0
-3577 111 0
-3578 134 0
-3578 47 0
-3578 111 0
-3579 164 0
-3579 143 0
-3579 47 0
-3579 111 0
-3580 230 0
-3580 164 0
-3580 57 0
-3580 66 0
-3581 57 0
-3581 66 0
-3582 203 0
-3582 57 0
-3582 66 0
-3582 182 0
-3583 73 0
-3583 134 0
-3583 57 0
-3583 230 0
-3584 73 0
-3584 143 0
-3584 57 0
-3585 73 0
-3585 152 0
-3585 57 0
-3585 203 0
-3586 83 0
-3586 124 0
-3586 57 0
-3586 230 0
-3587 83 0
-3587 143 0
-3587 57 0
-3587 182 0
-3588 83 0
-3588 152 0
-3588 57 0
-3589 92 0
-3589 57 0
-3589 124 0
-3590 134 0
-3590 92 0
-3590 57 0
-3590 182 0
-3591 92 0
-3591 152 0
-3591 57 0
-3591 164 0
-3592 101 0
-3592 124 0
-3592 203 0
-3592 57 0
-3593 101 0
-3593 134 0
-3593 57 0
-3594 101 0
-3594 164 0
-3594 143 0
-3594 57 0
-1 -162 -173 -212 3491 3492 3493 3494 3495 3496 3497 3498 3499 3500 3501 3502 3503 3504 3505 3506 3507 3508 3509 3510 3511 3512 3513 3514 3515 3516 3517 3518 3519 3520 3521 3522 3523 3524 3525 3526 3527 3528 3529 3530 3531 3532 3533 3534 3535 3536 3537 3538 3539 3540 3541 3542 3543 3544 3545 3546 3547 3548 3549 3550 3551 3552 3553 3554 3555 3556 3557 3558 3559 3560 3561 3562 3563 3564 3565 3566 3567 3568 3569 3570 3571 3572 3573 3574 3575 3576 3577 3578 3579 3580 3581 3582 3583 3584 3585 3586 3587 3588 3589 3590 3591 3592 3593 3594 0
-3595 202 0
-3595 125 0
-3595 249 0
-3596 237 0
-3596 125 0
-3597 222 0
-3597 125 0
-3597 227 0
-3598 134 0
-3598 249 0
-3599 237 0
-3599 134 0
-3599 185 0
-3600 134 0
-3600 195 0
-3600 227 0
-3601 142 0
-3601 167 0
-3601 249 0
-3602 222 0
-3602 142 0
-3602 185 0
-3603 142 0
-3603 195 0
-3604 237 0
-3604 152 0
-3604 167 0
-3605 222 0
-3605 152 0
-3606 202 0
-3606 152 0
-3606 195 0
-3607 167 0
-3607 227 0
-3608 202 0
-3608 185 0
-3609 202 0
-3609 74 0
-3609 12 0
-3609 249 0
-3610 237 0
-3610 74 0
-3610 12 0
-3611 222 0
-3611 74 0
-3611 227 0
-3611 12 0
-3612 83 0
-3612 12 0
-3612 249 0
-3613 83 0
-3613 185 0
-3613 237 0
-3613 12 0
-3614 83 0
-3614 195 0
-3614 227 0
-3614 12 0
-3615 91 0
-3615 167 0
-3615 12 0
-3615 249 0
-3616 91 0
-3616 185 0
-3616 222 0
-3616 12 0
-3617 91 0
-3617 195 0
-3617 12 0
-3618 101 0
-3618 237 0
-3618 167 0
-3618 12 0
-3619 101 0
-3619 222 0
-3619 12 0
-3620 101 0
-3620 202 0
-3620 195 0
-3620 12 0
-3621 167 0
-3621 227 0
-3621 12 0
-3621 111 0
-3622 12 0
-3622 111 0
-3623 202 0
-3623 185 0
-3623 12 0
-3623 111 0
-3624 202 0
-3624 66 0
-3624 20 0
-3624 249 0
-3625 237 0
-3625 66 0
-3625 20 0
-3626 222 0
-3626 20 0
-3626 227 0
-3626 66 0
-3627 83 0
-3627 142 0
-3627 20 0
-3627 249 0
-3628 83 0
-3628 152 0
-3628 237 0
-3628 20 0
-3629 83 0
-3629 227 0
-3629 20 0
-3630 91 0
-3630 134 0
-3630 20 0
-3630 249 0
-3631 91 0
-3631 152 0
-3631 222 0
-3631 20 0
-3632 91 0
-3632 20 0
-3633 101 0
-3633 134 0
-3633 237 0
-3633 20 0
-3634 101 0
-3634 142 0
-3634 222 0
-3634 20 0
-3635 101 0
-3635 202 0
-3635 20 0
-3636 134 0
-3636 227 0
-3636 20 0
-3636 111 0
-3637 142 0
-3637 20 0
-3637 111 0
-3638 202 0
-3638 152 0
-3638 20 0
-3638 111 0
-3639 29 0
-3639 66 0
-3639 249 0
-3640 29 0
-3640 185 0
-3640 237 0
-3640 66 0
-3641 29 0
-3641 195 0
-3641 227 0
-3641 66 0
-3642 29 0
-3642 74 0
-3642 142 0
-3642 249 0
-3643 29 0
-3643 74 0
-3643 152 0
-3643 237 0
-3644 29 0
-3644 74 0
-3644 227 0
-3645 29 0
-3645 125 0
-3645 91 0
-3645 249 0
-3646 29 0
-3646 152 0
-3646 91 0
-3646 195 0
-3647 29 0
-3647 185 0
-3647 91 0
-3648 29 0
-3648 101 0
-3648 125 0
-3648 237 0
-3649 29 0
-3649 142 0
-3649 101 0
-3649 195 0
-3650 29 0
-3650 101 0
-3651 29 0
-3651 125 0
-3651 227 0
-3651 111 0
-3652 29 0
-3652 142 0
-3652 185 0
-3652 111 0
-3653 29 0
-3653 152 0
-3653 111 0
-3654 37 0
-3654 167 0
-3654 66 0
-3654 249 0
-3655 222 0
-3655 185 0
-3655 37 0
-3655 66 0
-3656 37 0
-3656 66 0
-3656 195 0
-3657 134 0
-3657 37 0
-3657 74 0
-3657 249 0
-3658 222 0
-3658 74 0
-3658 152 0
-3658 37 0
-3659 74 0
-3659 37 0
-3660 83 0
-3660 125 0
-3660 37 0
-3660 249 0
-3661 83 0
-3661 152 0
-3661 37 0
-3661 195 0
-3662 83 0
-3662 185 0
-3662 37 0
-3663 101 0
-3663 125 0
-3663 37 0
-3663 222 0
-3664 101 0
-3664 134 0
-3664 37 0
-3664 195 0
-3665 101 0
-3665 37 0
-3665 167 0
-3666 125 0
-3666 37 0
-3666 111 0
-3667 134 0
-3667 185 0
-3667 37 0
-3667 111 0
-3668 152 0
-3668 37 0
-3668 167 0
-3668 111 0
-3669 237 0
-3669 47 0
-3669 167 0
-3669 66 0
-3670 222 0
-3670 47 0
-3670 66 0
-3671 202 0
-3671 47 0
-3671 66 0
-3671 195 0
-3672 237 0
-3672 134 0
-3672 74 0
-3672 47 0
-3673 222 0
-3673 142 0
-3673 74 0
-3673 47 0
-3674 202 0
-3674 74 0
-3674 47 0
-3675 83 0
-3675 125 0
-3675 47 0
-3675 237 0
-3676 83 0
-3676 142 0
-3676 47 0
-3676 195 0
-3677 83 0
-3677 47 0
-3678 91 0
-3678 125 0
-3678 47 0
-3678 222 0
-3679 91 0
-3679 134 0
-3679 47 0
-3679 195 0
-3680 91 0
-3680 47 0
-3680 167 0
-3681 202 0
-3681 125 0
-3681 47 0
-3681 111 0
-3682 134 0
-3682 47 0
-3682 111 0
-3683 142 0
-3683 47 0
-3683 167 0
-3683 111 0
-3684 227 0
-3684 57 0
-3684 167 0
-3684 66 0
-3685 57 0
-3685 66 0
-3686 202 0
-3686 185 0
-3686 57 0
-3686 66 0
-3687 57 0
-3687 134 0
-3687 74 0
-3687 227 0
-3688 57 0
-3688 142 0
-3688 74 0
-3689 57 0
-3689 202 0
-3689 152 0
-3689 74 0
-3690 83 0
-3690 125 0
-3690 57 0
-3690 227 0
-3691 83 0
-3691 142 0
-3691 185 0
-3691 57 0
-3692 83 0
-3692 152 0
-3692 57 0
-3693 91 0
-3693 125 0
-3693 57 0
-3694 91 0
-3694 134 0
-3694 185 0
-3694 57 0
-3695 91 0
-3695 152 0
-3695 57 0
-3695 167 0
-3696 101 0
-3696 202 0
-3696 125 0
-3696 57 0
-3697 101 0
-3697 134 0
-3697 57 0
-3698 101 0
-3698 142 0
-3698 57 0
-3698 167 0
-1 -162 -175 -212 3595 3596 3597 3598 3599 3600 3601 3602 3603 3604 3605 3606 3607 3608 3609 3610 3611 3612 3613 3614 3615 3616 3617 3618 3619 3620 3621 3622 3623 3624 3625 3626 3627 3628 3629 3630 3631 3632 3633 3634 3635 3636 3637 3638 3639 3640 3641 3642 3643 3644 3645 3646 3647 3648 3649 3650 3651 3652 3653 3654 3655 3656 3657 3658 3659 3660 3661 3662 3663 3664 3665 3666 3667 3668 3669 3670 3671 3672 3673 3674 3675 3676 3677 3678 3679 3680 3681 3682 3683 3684 3685 3686 3687 3688 3689 3690 3691 3692 3693 3694 3695 3696 3697 3698 0
-3699 121 0
-3699 5 0
-3699 200 0
-3700 238 0
-3700 208 0
-3700 5 0
-3700 121 0
-3701 121 0
-3701 217 0
-3701 5 0
-3701 229 0
-3702 130 0
-3702 5 0
-3703 238 0
-3703 5 0
-3703 130 0
-3703 181 0
-3704 190 0
-3704 130 0
-3704 5 0
-3704 229 0
-3705 140 0
-3705 5 0
-3705 163 0
-3706 140 0
-3706 217 0
-3706 5 0
-3706 181 0
-3707 140 0
-3707 190 0
-3707 208 0
-3707 5 0
-3708 163 0
-3708 238 0
-3708 5 0
-3708 148 0
-3709 5 0
-3709 217 0
-3709 148 0
-3710 190 0
-3710 5 0
-3710 148 0
-3710 200 0
-3711 163 0
-3711 157 0
-3711 5 0
-3711 229 0
-3712 157 0
-3712 208 0
-3712 5 0
-3713 5 0
-3713 157 0
-3713 181 0
-3713 200 0
-3714 76 0
-3714 200 0
-3715 238 0
-3715 76 0
-3715 208 0
-3716 217 0
-3716 76 0
-3716 229 0
-3717 238 0
-3717 181 0
-3718 190 0
-3718 229 0
-3719 163 0
-3719 95 0
-3720 95 0
-3720 217 0
-3720 181 0
-3721 190 0
-3721 208 0
-3721 95 0
-3722 163 0
-3722 103 0
-3722 238 0
-3723 103 0
-3723 217 0
-3724 190 0
-3724 103 0
-3724 200 0
-3725 112 0
-3725 163 0
-3725 229 0
-3726 112 0
-3726 208 0
-3727 112 0
-3727 181 0
-3727 200 0
-3728 22 0
-3728 68 0
-3728 200 0
-3729 22 0
-3729 238 0
-3729 208 0
-3729 68 0
-3730 22 0
-3730 217 0
-3730 68 0
-3730 229 0
-3731 22 0
-3731 140 0
-3732 22 0
-3732 238 0
-3732 148 0
-3733 22 0
-3733 157 0
-3733 229 0
-3734 22 0
-3734 130 0
-3734 95 0
-3735 22 0
-3735 95 0
-3735 217 0
-3735 148 0
-3736 22 0
-3736 157 0
-3736 208 0
-3736 95 0
-3737 22 0
-3737 103 0
-3737 130 0
-3737 238 0
-3738 22 0
-3738 103 0
-3738 217 0
-3738 140 0
-3739 22 0
-3739 103 0
-3739 157 0
-3739 200 0
-3740 22 0
-3740 112 0
-3740 130 0
-3740 229 0
-3741 22 0
-3741 112 0
-3741 208 0
-3741 140 0
-3742 22 0
-3742 112 0
-3742 148 0
-3742 200 0
-3743 31 0
-3743 68 0
-3744 31 0
-3744 181 0
-3744 238 0
-3744 68 0
-3745 190 0
-3745 31 0
-3745 68 0
-3745 229 0
-3746 140 0
-3746 31 0
-3746 76 0
-3747 31 0
-3747 76 0
-3747 148 0
-3747 238 0
-3748 31 0
-3748 157 0
-3748 76 0
-3748 229 0
-3749 31 0
-3749 95 0
-3749 121 0
-3750 190 0
-3750 31 0
-3750 148 0
-3750 95 0
-3751 95 0
-3751 31 0
-3751 157 0
-3751 181 0
-3752 31 0
-3752 103 0
-3752 238 0
-3752 121 0
-3753 140 0
-3753 31 0
-3753 190 0
-3753 103 0
-3754 31 0
-3754 157 0
-3754 103 0
-3755 112 0
-3755 31 0
-3755 121 0
-3755 229 0
-3756 112 0
-3756 31 0
-3756 140 0
-3756 181 0
-3757 112 0
-3757 31 0
-3757 148 0
-3758 163 0
-3758 41 0
-3758 68 0
-3759 41 0
-3759 217 0
-3759 181 0
-3759 68 0
-3760 190 0
-3760 41 0
-3760 208 0
-3760 68 0
-3761 41 0
-3761 76 0
-3761 130 0
-3762 41 0
-3762 217 0
-3762 76 0
-3762 148 0
-3763 41 0
-3763 157 0
-3763 76 0
-3763 208 0
-3764 41 0
-3764 121 0
-3765 190 0
-3765 41 0
-3765 148 0
-3766 41 0
-3766 157 0
-3766 181 0
-3767 41 0
-3767 217 0
-3767 103 0
-3767 121 0
-3768 190 0
-3768 41 0
-3768 103 0
-3768 130 0
-3769 163 0
-3769 41 0
-3769 157 0
-3769 103 0
-3770 112 0
-3770 41 0
-3770 208 0
-3770 121 0
-3771 112 0
-3771 41 0
-3771 130 0
-3771 181 0
-3772 112 0
-3772 41 0
-3772 148 0
-3772 163 0
-3773 163 0
-3773 238 0
-3773 49 0
-3773 68 0
-3774 217 0
-3774 49 0
-3774 68 0
-3775 190 0
-3775 68 0
-3775 49 0
-3775 200 0
-3776 238 0
-3776 76 0
-3776 130 0
-3776 49 0
-3777 140 0
-3777 217 0
-3777 76 0
-3777 49 0
-3778 157 0
-3778 76 0
-3778 49 0
-3778 200 0
-3779 238 0
-3779 49 0
-3779 121 0
-3780 140 0
-3780 190 0
-3780 49 0
-3781 157 0
-3781 49 0
-3782 217 0
-3782 95 0
-3782 49 0
-3782 121 0
-3783 190 0
-3783 130 0
-3783 95 0
-3783 49 0
-3784 163 0
-3784 157 0
-3784 95 0
-3784 49 0
-3785 112 0
-3785 121 0
-3785 49 0
-3785 200 0
-3786 112 0
-3786 130 0
-3786 49 0
-3787 112 0
-3787 140 0
-3787 49 0
-3787 163 0
-3788 163 0
-3788 58 0
-3788 68 0
-3788 229 0
-3789 208 0
-3789 58 0
-3789 68 0
-3790 58 0
-3790 181 0
-3790 68 0
-3790 200 0
-3791 76 0
-3791 58 0
-3791 130 0
-3791 229 0
-3792 140 0
-3792 76 0
-3792 58 0
-3792 208 0
-3793 76 0
-3793 58 0
-3793 148 0
-3793 200 0
-3794 58 0
-3794 121 0
-3794 229 0
-3795 140 0
-3795 58 0
-3795 181 0
-3796 58 0
-3796 148 0
-3797 208 0
-3797 58 0
-3797 95 0
-3797 121 0
-3798 95 0
-3798 58 0
-3798 181 0
-3798 130 0
-3799 163 0
-3799 95 0
-3799 58 0
-3799 148 0
-3800 103 0
-3800 58 0
-3800 121 0
-3800 200 0
-3801 103 0
-3801 58 0
-3801 130 0
-3802 140 0
-3802 103 0
-3802 58 0
-3802 163 0
-14 -85 -173 -244 3699 3700 3701 3702 3703 3704 3705 3706 3707 3708 3709 3710 3711 3712 3713 3714 3715 3716 3717 3718 3719 3720 3721 3722 3723 3724 3725 3726 3727 3728 3729 3730 3731 3732 3733 3734 3735 3736 3737 3738 3739 3740 3741 3742 3743 3744 3745 3746 3747 3748 3749 3750 3751 3752 3753 3754 3755 3756 3757 3758 3759 3760 3761 3762 3763 3764 3765 3766 3767 3768 3769 3770 3771 3772 3773 3774 3775 3776 3777 3778 3779 3780 3781 3782 3783 3784 3785 3786 3787 3788 3789 3790 3791 3792 3793 3794 3795 3796 3797 3798 3799 3800 3801 3802 0
-3803 6 0
-3803 206 0
-3803 121 0
-3804 238 0
-3804 214 0
-3804 6 0
-3804 121 0
-3805 223 0
-3805 121 0
-3805 6 0
-3805 229 0
-3806 6 0
-3806 132 0
-3807 238 0
-3807 181 0
-3807 6 0
-3807 132 0
-3808 190 0
-3808 132 0
-3808 6 0
-3808 229 0
-3809 140 0
-3809 165 0
-3809 6 0
-3810 140 0
-3810 223 0
-3810 181 0
-3810 6 0
-3811 140 0
-3811 190 0
-3811 214 0
-3811 6 0
-3812 238 0
-3812 165 0
-3812 148 0
-3812 6 0
-3813 223 0
-3813 148 0
-3813 6 0
-3814 190 0
-3814 148 0
-3814 206 0
-3814 6 0
-3815 157 0
-3815 165 0
-3815 6 0
-3815 229 0
-3816 214 0
-3816 157 0
-3816 6 0
-3817 6 0
-3817 157 0
-3817 181 0
-3817 206 0
-3818 206 0
-3818 79 0
-3819 238 0
-3819 214 0
-3819 79 0
-3820 223 0
-3820 79 0
-3820 229 0
-3821 238 0
-3821 181 0
-3822 190 0
-3822 229 0
-3823 98 0
-3823 165 0
-3824 98 0
-3824 223 0
-3824 181 0
-3825 98 0
-3825 190 0
-3825 214 0
-3826 238 0
-3826 165 0
-3826 106 0
-3827 223 0
-3827 106 0
-3828 190 0
-3828 106 0
-3828 206 0
-3829 115 0
-3829 165 0
-3829 229 0
-3830 214 0
-3830 115 0
-3831 115 0
-3831 181 0
-3831 206 0
-3832 22 0
-3832 71 0
-3832 206 0
-3833 22 0
-3833 238 0
-3833 214 0
-3833 71 0
-3834 22 0
-3834 223 0
-3834 71 0
-3834 229 0
-3835 22 0
-3835 140 0
-3836 22 0
-3836 238 0
-3836 148 0
-3837 22 0
-3837 157 0
-3837 229 0
-3838 22 0
-3838 98 0
-3838 132 0
-3839 22 0
-3839 223 0
-3839 148 0
-3839 98 0
-3840 22 0
-3840 214 0
-3840 157 0
-3840 98 0
-3841 22 0
-3841 238 0
-3841 106 0
-3841 132 0
-3842 22 0
-3842 223 0
-3842 140 0
-3842 106 0
-3843 22 0
-3843 157 0
-3843 106 0
-3843 206 0
-3844 22 0
-3844 115 0
-3844 132 0
-3844 229 0
-3845 22 0
-3845 214 0
-3845 115 0
-3845 140 0
-3846 22 0
-3846 115 0
-3846 148 0
-3846 206 0
-3847 71 0
-3847 33 0
-3848 238 0
-3848 71 0
-3848 33 0
-3848 181 0
-3849 190 0
-3849 71 0
-3849 33 0
-3849 229 0
-3850 140 0
-3850 33 0
-3850 79 0
-3851 238 0
-3851 33 0
-3851 148 0
-3851 79 0
-3852 157 0
-3852 33 0
-3852 79 0
-3852 229 0
-3853 98 0
-3853 33 0
-3853 121 0
-3854 98 0
-3854 190 0
-3854 33 0
-3854 148 0
-3855 98 0
-3855 157 0
-3855 33 0
-3855 181 0
-3856 238 0
-3856 33 0
-3856 106 0
-3856 121 0
-3857 140 0
-3857 190 0
-3857 33 0
-3857 106 0
-3858 157 0
-3858 33 0
-3858 106 0
-3859 115 0
-3859 33 0
-3859 121 0
-3859 229 0
-3860 140 0
-3860 115 0
-3860 33 0
-3860 181 0
-3861 115 0
-3861 33 0
-3861 148 0
-3862 41 0
-3862 71 0
-3862 165 0
-3863 41 0
-3863 71 0
-3863 181 0
-3863 223 0
-3864 190 0
-3864 41 0
-3864 71 0
-3864 214 0
-3865 41 0
-3865 79 0
-3865 132 0
-3866 41 0
-3866 148 0
-3866 79 0
-3866 223 0
-3867 41 0
-3867 214 0
-3867 157 0
-3867 79 0
-3868 41 0
-3868 121 0
-3869 190 0
-3869 41 0
-3869 148 0
-3870 41 0
-3870 157 0
-3870 181 0
-3871 223 0
-3871 41 0
-3871 106 0
-3871 121 0
-3872 190 0
-3872 41 0
-3872 106 0
-3872 132 0
-3873 41 0
-3873 157 0
-3873 165 0
-3873 106 0
-3874 41 0
-3874 214 0
-3874 115 0
-3874 121 0
-3875 41 0
-3875 115 0
-3875 181 0
-3875 132 0
-3876 41 0
-3876 115 0
-3876 148 0
-3876 165 0
-3877 238 0
-3877 71 0
-3877 165 0
-3877 49 0
-3878 223 0
-3878 71 0
-3878 49 0
-3879 190 0
-3879 71 0
-3879 49 0
-3879 206 0
-3880 238 0
-3880 79 0
-3880 49 0
-3880 132 0
-3881 140 0
-3881 223 0
-3881 49 0
-3881 79 0
-3882 157 0
-3882 49 0
-3882 206 0
-3882 79 0
-3883 238 0
-3883 49 0
-3883 121 0
-3884 190 0
-3884 140 0
-3884 49 0
-3885 157 0
-3885 49 0
-3886 98 0
-3886 223 0
-3886 49 0
-3886 121 0
-3887 98 0
-3887 190 0
-3887 49 0
-3887 132 0
-3888 98 0
-3888 157 0
-3888 165 0
-3888 49 0
-3889 49 0
-3889 115 0
-3889 206 0
-3889 121 0
-3890 115 0
-3890 49 0
-3890 132 0
-3891 140 0
-3891 115 0
-3891 49 0
-3891 165 0
-3892 71 0
-3892 165 0
-3892 58 0
-3892 229 0
-3893 58 0
-3893 214 0
-3893 71 0
-3894 71 0
-3894 58 0
-3894 181 0
-3894 206 0
-3895 132 0
-3895 58 0
-3895 79 0
-3895 229 0
-3896 140 0
-3896 214 0
-3896 58 0
-3896 79 0
-3897 58 0
-3897 148 0
-3897 206 0
-3897 79 0
-3898 58 0
-3898 121 0
-3898 229 0
-3899 140 0
-3899 58 0
-3899 181 0
-3900 58 0
-3900 148 0
-3901 98 0
-3901 214 0
-3901 58 0
-3901 121 0
-3902 98 0
-3902 58 0
-3902 181 0
-3902 132 0
-3903 98 0
-3903 165 0
-3903 58 0
-3903 148 0
-3904 58 0
-3904 106 0
-3904 206 0
-3904 121 0
-3905 58 0
-3905 106 0
-3905 132 0
-3906 140 0
-3906 165 0
-3906 58 0
-3906 106 0
-14 -90 -173 -244 3803 3804 3805 3806 3807 3808 3809 3810 3811 3812 3813 3814 3815 3816 3817 3818 3819 3820 3821 3822 3823 3824 3825 3826 3827 3828 3829 3830 3831 3832 3833 3834 3835 3836 3837 3838 3839 3840 3841 3842 3843 3844 3845 3846 3847 3848 3849 3850 3851 3852 3853 3854 3855 3856 3857 3858 3859 3860 3861 3862 3863 3864 3865 3866 3867 3868 3869 3870 3871 3872 3873 3874 3875 3876 3877 3878 3879 3880 3881 3882 3883 3884 3885 3886 3887 3888 3889 3890 3891 3892 3893 3894 3895 3896 3897 3898 3899 3900 3901 3902 3903 3904 3905 3906 0
-3907 122 0
-3907 205 0
-3907 6 0
-3908 122 0
-3908 214 0
-3908 235 0
-3908 6 0
-3909 122 0
-3909 223 0
-3909 226 0
-3909 6 0
-3910 6 0
-3910 132 0
-3911 184 0
-3911 235 0
-3911 6 0
-3911 132 0
-3912 193 0
-3912 226 0
-3912 6 0
-3912 132 0
-3913 139 0
-3913 6 0
-3913 168 0
-3914 184 0
-3914 223 0
-3914 6 0
-3914 139 0
-3915 6 0
-3915 214 0
-3915 193 0
-3915 139 0
-3916 148 0
-3916 235 0
-3916 6 0
-3916 168 0
-3917 223 0
-3917 148 0
-3917 6 0
-3918 193 0
-3918 148 0
-3918 6 0
-3918 205 0
-3919 157 0
-3919 226 0
-3919 6 0
-3919 168 0
-3920 214 0
-3920 157 0
-3920 6 0
-3921 184 0
-3921 157 0
-3921 205 0
-3921 6 0
-3922 80 0
-3922 205 0
-3923 80 0
-3923 214 0
-3923 235 0
-3924 80 0
-3924 223 0
-3924 226 0
-3925 184 0
-3925 235 0
-3926 193 0
-3926 226 0
-3927 97 0
-3927 168 0
-3928 184 0
-3928 223 0
-3928 97 0
-3929 214 0
-3929 193 0
-3929 97 0
-3930 168 0
-3930 235 0
-3930 106 0
-3931 223 0
-3931 106 0
-3932 193 0
-3932 106 0
-3932 205 0
-3933 115 0
-3933 226 0
-3933 168 0
-3934 214 0
-3934 115 0
-3935 184 0
-3935 115 0
-3935 205 0
-3936 23 0
-3936 71 0
-3936 205 0
-3937 23 0
-3937 214 0
-3937 71 0
-3937 235 0
-3938 23 0
-3938 71 0
-3938 226 0
-3938 223 0
-3939 23 0
-3939 139 0
-3940 23 0
-3940 148 0
-3940 235 0
-3941 23 0
-3941 157 0
-3941 226 0
-3942 23 0
-3942 97 0
-3942 132 0
-3943 223 0
-3943 148 0
-3943 23 0
-3943 97 0
-3944 23 0
-3944 214 0
-3944 157 0
-3944 97 0
-3945 23 0
-3945 235 0
-3945 132 0
-3945 106 0
-3946 223 0
-3946 139 0
-3946 23 0
-3946 106 0
-3947 23 0
-3947 157 0
-3947 106 0
-3947 205 0
-3948 23 0
-3948 115 0
-3948 226 0
-3948 132 0
-3949 23 0
-3949 214 0
-3949 115 0
-3949 139 0
-3950 23 0
-3950 148 0
-3950 115 0
-3950 205 0
-3951 71 0
-3951 33 0
-3952 184 0
-3952 71 0
-3952 33 0
-3952 235 0
-3953 71 0
-3953 226 0
-3953 33 0
-3953 193 0
-3954 80 0
-3954 33 0
-3954 139 0
-3955 80 0
-3955 148 0
-3955 33 0
-3955 235 0
-3956 80 0
-3956 157 0
-3956 226 0
-3956 33 0
-3957 122 0
-3957 33 0
-3957 97 0
-3958 193 0
-3958 33 0
-3958 148 0
-3958 97 0
-3959 184 0
-3959 157 0
-3959 33 0
-3959 97 0
-3960 122 0
-3960 33 0
-3960 235 0
-3960 106 0
-3961 193 0
-3961 33 0
-3961 106 0
-3961 139 0
-3962 157 0
-3962 33 0
-3962 106 0
-3963 122 0
-3963 115 0
-3963 33 0
-3963 226 0
-3964 184 0
-3964 115 0
-3964 33 0
-3964 139 0
-3965 115 0
-3965 33 0
-3965 148 0
-3966 40 0
-3966 71 0
-3966 168 0
-3967 40 0
-3967 184 0
-3967 71 0
-3967 223 0
-3968 40 0
-3968 214 0
-3968 71 0
-3968 193 0
-3969 40 0
-3969 80 0
-3969 132 0
-3970 40 0
-3970 223 0
-3970 80 0
-3970 148 0
-3971 40 0
-3971 214 0
-3971 157 0
-3971 80 0
-3972 40 0
-3972 122 0
-3973 40 0
-3973 193 0
-3973 148 0
-3974 40 0
-3974 184 0
-3974 157 0
-3975 40 0
-3975 223 0
-3975 106 0
-3975 122 0
-3976 40 0
-3976 193 0
-3976 106 0
-3976 132 0
-3977 40 0
-3977 157 0
-3977 106 0
-3977 168 0
-3978 40 0
-3978 214 0
-3978 115 0
-3978 122 0
-3979 40 0
-3979 184 0
-3979 115 0
-3979 132 0
-3980 40 0
-3980 115 0
-3980 148 0
-3980 168 0
-3981 71 0
-3981 235 0
-3981 49 0
-3981 168 0
-3982 223 0
-3982 71 0
-3982 49 0
-3983 71 0
-3983 49 0
-3983 205 0
-3983 193 0
-3984 80 0
-3984 235 0
-3984 49 0
-3984 132 0
-3985 80 0
-3985 223 0
-3985 49 0
-3985 139 0
-3986 80 0
-3986 157 0
-3986 205 0
-3986 49 0
-3987 122 0
-3987 235 0
-3987 49 0
-3988 193 0
-3988 49 0
-3988 139 0
-3989 157 0
-3989 49 0
-3990 122 0
-3990 223 0
-3990 49 0
-3990 97 0
-3991 193 0
-3991 97 0
-3991 49 0
-3991 132 0
-3992 157 0
-3992 97 0
-3992 49 0
-3992 168 0
-3993 122 0
-3993 115 0
-3993 205 0
-3993 49 0
-3994 115 0
-3994 49 0
-3994 132 0
-3995 115 0
-3995 139 0
-3995 49 0
-3995 168 0
-3996 58 0
-3996 71 0
-3996 226 0
-3996 168 0
-3997 58 0
-3997 214 0
-3997 71 0
-3998 184 0
-3998 71 0
-3998 58 0
-3998 205 0
-3999 80 0
-3999 58 0
-3999 226 0
-3999 132 0
-4000 80 0
-4000 214 0
-4000 58 0
-4000 139 0
-4001 80 0
-4001 148 0
-4001 58 0
-4001 205 0
-4002 122 0
-4002 58 0
-4002 226 0
-4003 184 0
-4003 58 0
-4003 139 0
-4004 58 0
-4004 148 0
-4005 122 0
-4005 214 0
-4005 58 0
-4005 97 0
-4006 184 0
-4006 97 0
-4006 58 0
-4006 132 0
-4007 97 0
-4007 58 0
-4007 148 0
-4007 168 0
-4008 122 0
-4008 58 0
-4008 205 0
-4008 106 0
-4009 58 0
-4009 106 0
-4009 132 0
-4010 139 0
-4010 58 0
-4010 106 0
-4010 168 0
-14 -90 -175 -244 3907 3908 3909 3910 3911 3912 3913 3914 3915 3916 3917 3918 3919 3920 3921 3922 3923 3924 3925 3926 3927 3928 3929 3930 3931 3932 3933 3934 3935 3936 3937 3938 3939 3940 3941 3942 3943 3944 3945 3946 3947 3948 3949 3950 3951 3952 3953 3954 3955 3956 3957 3958 3959 3960 3961 3962 3963 3964 3965 3966 3967 3968 3969 3970 3971 3972 3973 3974 3975 3976 3977 3978 3979 3980 3981 3982 3983 3984 3985 3986 3987 3988 3989 3990 3991 3992 3993 3994 3995 3996 3997 3998 3999 4000 4001 4002 4003 4004 4005 4006 4007 4008 4009 4010 0
-4011 8 0
-4011 201 0
-4011 251 0
-4011 120 0
-4012 8 0
-4012 210 0
-4012 242 0
-4012 120 0
-4013 8 0
-4013 218 0
-4013 120 0
-4014 8 0
-4014 251 0
-4014 127 0
-4014 180 0
-4015 8 0
-4015 189 0
-4015 127 0
-4015 242 0
-4016 8 0
-4016 127 0
-4016 197 0
-4017 8 0
-4017 251 0
-4017 138 0
-4017 169 0
-4018 8 0
-4018 218 0
-4018 189 0
-4018 138 0
-4019 8 0
-4019 138 0
-4019 210 0
-4019 197 0
-4020 8 0
-4020 147 0
-4020 242 0
-4020 169 0
-4021 8 0
-4021 180 0
-4021 218 0
-4021 147 0
-4022 8 0
-4022 201 0
-4022 147 0
-4022 197 0
-4023 8 0
-4023 169 0
-4024 8 0
-4024 180 0
-4024 210 0
-4025 8 0
-4025 201 0
-4025 189 0
-4026 16 0
-4026 201 0
-4026 251 0
-4026 78 0
-4027 16 0
-4027 78 0
-4027 242 0
-4027 210 0
-4028 16 0
-4028 218 0
-4028 78 0
-4029 16 0
-4029 251 0
-4029 180 0
-4030 16 0
-4030 189 0
-4030 242 0
-4031 16 0
-4031 197 0
-4032 16 0
-4032 251 0
-4032 96 0
-4032 169 0
-4033 16 0
-4033 218 0
-4033 96 0
-4033 189 0
-4034 16 0
-4034 96 0
-4034 210 0
-4034 197 0
-4035 16 0
-4035 105 0
-4035 242 0
-4035 169 0
-4036 16 0
-4036 180 0
-4036 218 0
-4036 105 0
-4037 16 0
-4037 201 0
-4037 105 0
-4037 197 0
-4038 16 0
-4038 113 0
-4038 169 0
-4039 16 0
-4039 113 0
-4039 180 0
-4039 210 0
-4040 16 0
-4040 113 0
-4040 189 0
-4040 201 0
-4041 201 0
-4041 251 0
-4041 67 0
-4042 210 0
-4042 67 0
-4042 242 0
-4043 218 0
-4043 67 0
-4044 251 0
-4044 138 0
-4045 147 0
-4045 242 0
-4046 251 0
-4046 127 0
-4046 96 0
-4047 218 0
-4047 147 0
-4047 96 0
-4048 96 0
-4048 210 0
-4049 127 0
-4049 105 0
-4049 242 0
-4050 218 0
-4050 105 0
-4050 138 0
-4051 201 0
-4051 105 0
-4052 113 0
-4052 127 0
-4053 113 0
-4053 210 0
-4053 138 0
-4054 113 0
-4054 147 0
-4054 201 0
-4055 251 0
-4055 180 0
-4055 34 0
-4055 67 0
-4056 189 0
-4056 34 0
-4056 242 0
-4056 67 0
-4057 34 0
-4057 197 0
-4057 67 0
-4058 251 0
-4058 34 0
-4058 78 0
-4058 138 0
-4059 78 0
-4059 147 0
-4059 34 0
-4059 242 0
-4060 34 0
-4060 78 0
-4061 251 0
-4061 34 0
-4061 96 0
-4061 120 0
-4062 147 0
-4062 34 0
-4062 96 0
-4062 197 0
-4063 96 0
-4063 34 0
-4063 189 0
-4064 105 0
-4064 34 0
-4064 242 0
-4064 120 0
-4065 105 0
-4065 34 0
-4065 197 0
-4065 138 0
-4066 180 0
-4066 105 0
-4066 34 0
-4067 113 0
-4067 34 0
-4067 120 0
-4068 113 0
-4068 34 0
-4068 189 0
-4068 138 0
-4069 113 0
-4069 180 0
-4069 147 0
-4069 34 0
-4070 251 0
-4070 67 0
-4070 45 0
-4070 169 0
-4071 45 0
-4071 218 0
-4071 67 0
-4071 189 0
-4072 45 0
-4072 67 0
-4072 210 0
-4072 197 0
-4073 45 0
-4073 251 0
-4073 127 0
-4073 78 0
-4074 45 0
-4074 218 0
-4074 147 0
-4074 78 0
-4075 45 0
-4075 210 0
-4075 78 0
-4076 251 0
-4076 45 0
-4076 120 0
-4077 147 0
-4077 45 0
-4077 197 0
-4078 45 0
-4078 189 0
-4079 218 0
-4079 105 0
-4079 45 0
-4079 120 0
-4080 127 0
-4080 105 0
-4080 45 0
-4080 197 0
-4081 105 0
-4081 45 0
-4081 169 0
-4082 45 0
-4082 113 0
-4082 210 0
-4082 120 0
-4083 45 0
-4083 113 0
-4083 127 0
-4083 189 0
-4084 113 0
-4084 147 0
-4084 45 0
-4084 169 0
-4085 54 0
-4085 67 0
-4085 242 0
-4085 169 0
-4086 180 0
-4086 218 0
-4086 54 0
-4086 67 0
-4087 201 0
-4087 54 0
-4087 67 0
-4087 197 0
-4088 127 0
-4088 54 0
-4088 242 0
-4088 78 0
-4089 218 0
-4089 54 0
-4089 78 0
-4089 138 0
-4090 201 0
-4090 54 0
-4090 78 0
-4091 54 0
-4091 242 0
-4091 120 0
-4092 54 0
-4092 197 0
-4092 138 0
-4093 180 0
-4093 54 0
-4094 218 0
-4094 54 0
-4094 96 0
-4094 120 0
-4095 127 0
-4095 54 0
-4095 96 0
-4095 197 0
-4096 54 0
-4096 96 0
-4096 169 0
-4097 120 0
-4097 113 0
-4097 54 0
-4097 201 0
-4098 113 0
-4098 127 0
-4098 180 0
-4098 54 0
-4099 113 0
-4099 138 0
-4099 54 0
-4099 169 0
-4100 62 0
-4100 67 0
-4100 169 0
-4101 62 0
-4101 180 0
-4101 67 0
-4101 210 0
-4102 62 0
-4102 67 0
-4102 189 0
-4102 201 0
-4103 62 0
-4103 127 0
-4103 78 0
-4104 62 0
-4104 78 0
-4104 210 0
-4104 138 0
-4105 62 0
-4105 147 0
-4105 78 0
-4105 201 0
-4106 62 0
-4106 120 0
-4107 62 0
-4107 189 0
-4107 138 0
-4108 62 0
-4108 180 0
-4108 147 0
-4109 62 0
-4109 96 0
-4109 210 0
-4109 120 0
-4110 62 0
-4110 127 0
-4110 96 0
-4110 189 0
-4111 62 0
-4111 147 0
-4111 96 0
-4111 169 0
-4112 120 0
-4112 62 0
-4112 105 0
-4112 201 0
-4113 62 0
-4113 127 0
-4113 180 0
-4113 105 0
-4114 62 0
-4114 138 0
-4114 105 0
-4114 169 0
-27 -85 -155 -234 4011 4012 4013 4014 4015 4016 4017 4018 4019 4020 4021 4022 4023 4024 4025 4026 4027 4028 4029 4030 4031 4032 4033 4034 4035 4036 4037 4038 4039 4040 4041 4042 4043 4044 4045 4046 4047 4048 4049 4050 4051 4052 4053 4054 4055 4056 4057 4058 4059 4060 4061 4062 4063 4064 4065 4066 4067 4068 4069 4070 4071 4072 4073 4074 4075 4076 4077 4078 4079 4080 4081 4082 4083 4084 4085 4086 4087 4088 4089 4090 4091 4092 4093 4094 4095 4096 4097 4098 4099 4100 4101 4102 4103 4104 4105 4106 4107 4108 4109 4110 4111 4112 4113 4114 0
-4115 8 0
-4115 201 0
-4115 252 0
-4115 126 0
-4116 8 0
-4116 126 0
-4116 210 0
-4116 243 0
-4117 8 0
-4117 126 0
-4117 219 0
-4118 8 0
-4118 252 0
-4118 180 0
-4118 133 0
-4119 8 0
-4119 133 0
-4119 189 0
-4119 243 0
-4120 8 0
-4120 133 0
-4120 198 0
-4121 8 0
-4121 252 0
-4121 144 0
-4121 169 0
-4122 8 0
-4122 144 0
-4122 219 0
-4122 189 0
-4123 8 0
-4123 144 0
-4123 210 0
-4123 198 0
-4124 8 0
-4124 169 0
-4124 153 0
-4124 243 0
-4125 8 0
-4125 180 0
-4125 153 0
-4125 219 0
-4126 8 0
-4126 201 0
-4126 153 0
-4126 198 0
-4127 8 0
-4127 169 0
-4128 8 0
-4128 180 0
-4128 210 0
-4129 8 0
-4129 201 0
-4129 189 0
-4130 201 0
-4130 18 0
-4130 252 0
-4130 78 0
-4131 243 0
-4131 18 0
-4131 210 0
-4131 78 0
-4132 18 0
-4132 219 0
-4132 78 0
-4133 18 0
-4133 180 0
-4133 252 0
-4134 18 0
-4134 189 0
-4134 243 0
-4135 18 0
-4135 198 0
-4136 18 0
-4136 252 0
-4136 96 0
-4136 169 0
-4137 18 0
-4137 219 0
-4137 189 0
-4137 96 0
-4138 18 0
-4138 96 0
-4138 210 0
-4138 198 0
-4139 18 0
-4139 105 0
-4139 169 0
-4139 243 0
-4140 18 0
-4140 180 0
-4140 105 0
-4140 219 0
-4141 201 0
-4141 18 0
-4141 105 0
-4141 198 0
-4142 18 0
-4142 114 0
-4142 169 0
-4143 18 0
-4143 114 0
-4143 180 0
-4143 210 0
-4144 201 0
-4144 18 0
-4144 114 0
-4144 189 0
-4145 69 0
-4145 201 0
-4145 252 0
-4146 69 0
-4146 210 0
-4146 243 0
-4147 69 0
-4147 219 0
-4148 252 0
-4148 144 0
-4149 153 0
-4149 243 0
-4150 133 0
-4150 252 0
-4150 96 0
-4151 153 0
-4151 219 0
-4151 96 0
-4152 96 0
-4152 210 0
-4153 133 0
-4153 105 0
-4153 243 0
-4154 105 0
-4154 144 0
-4154 219 0
-4155 201 0
-4155 105 0
-4156 133 0
-4156 114 0
-4157 114 0
-4157 144 0
-4157 210 0
-4158 201 0
-4158 114 0
-4158 153 0
-4159 69 0
-4159 252 0
-4159 180 0
-4159 34 0
-4160 69 0
-4160 34 0
-4160 189 0
-4160 243 0
-4161 69 0
-4161 34 0
-4161 198 0
-4162 252 0
-4162 144 0
-4162 34 0
-4162 78 0
-4163 153 0
-4163 34 0
-4163 78 0
-4163 243 0
-4164 34 0
-4164 78 0
-4165 252 0
-4165 126 0
-4165 34 0
-4165 96 0
-4166 153 0
-4166 34 0
-4166 96 0
-4166 198 0
-4167 96 0
-4167 34 0
-4167 189 0
-4168 105 0
-4168 126 0
-4168 34 0
-4168 243 0
-4169 105 0
-4169 144 0
-4169 34 0
-4169 198 0
-4170 180 0
-4170 105 0
-4170 34 0
-4171 114 0
-4171 126 0
-4171 34 0
-4172 114 0
-4172 144 0
-4172 34 0
-4172 189 0
-4173 180 0
-4173 153 0
-4173 34 0
-4173 114 0
-4174 69 0
-4174 252 0
-4174 45 0
-4174 169 0
-4175 69 0
-4175 45 0
-4175 219 0
-4175 189 0
-4176 69 0
-4176 45 0
-4176 210 0
-4176 198 0
-4177 133 0
-4177 252 0
-4177 45 0
-4177 78 0
-4178 45 0
-4178 153 0
-4178 219 0
-4178 78 0
-4179 45 0
-4179 210 0
-4179 78 0
-4180 252 0
-4180 126 0
-4180 45 0
-4181 153 0
-4181 45 0
-4181 198 0
-4182 45 0
-4182 189 0
-4183 105 0
-4183 126 0
-4183 219 0
-4183 45 0
-4184 133 0
-4184 105 0
-4184 45 0
-4184 198 0
-4185 105 0
-4185 45 0
-4185 169 0
-4186 45 0
-4186 114 0
-4186 126 0
-4186 210 0
-4187 133 0
-4187 114 0
-4187 45 0
-4187 189 0
-4188 114 0
-4188 153 0
-4188 45 0
-4188 169 0
-4189 69 0
-4189 169 0
-4189 54 0
-4189 243 0
-4190 69 0
-4190 180 0
-4190 54 0
-4190 219 0
-4191 69 0
-4191 201 0
-4191 54 0
-4191 198 0
-4192 133 0
-4192 54 0
-4192 78 0
-4192 243 0
-4193 219 0
-4193 144 0
-4193 54 0
-4193 78 0
-4194 201 0
-4194 54 0
-4194 78 0
-4195 126 0
-4195 54 0
-4195 243 0
-4196 144 0
-4196 54 0
-4196 198 0
-4197 180 0
-4197 54 0
-4198 219 0
-4198 126 0
-4198 54 0
-4198 96 0
-4199 133 0
-4199 54 0
-4199 96 0
-4199 198 0
-4200 54 0
-4200 96 0
-4200 169 0
-4201 201 0
-4201 114 0
-4201 126 0
-4201 54 0
-4202 133 0
-4202 180 0
-4202 54 0
-4202 114 0
-4203 114 0
-4203 144 0
-4203 54 0
-4203 169 0
-4204 69 0
-4204 63 0
-4204 169 0
-4205 69 0
-4205 63 0
-4205 180 0
-4205 210 0
-4206 69 0
-4206 201 0
-4206 63 0
-4206 189 0
-4207 133 0
-4207 63 0
-4207 78 0
-4208 63 0
-4208 144 0
-4208 210 0
-4208 78 0
-4209 201 0
-4209 63 0
-4209 153 0
-4209 78 0
-4210 63 0
-4210 126 0
-4211 63 0
-4211 144 0
-4211 189 0
-4212 63 0
-4212 153 0
-4212 180 0
-4213 63 0
-4213 126 0
-4213 96 0
-4213 210 0
-4214 133 0
-4214 63 0
-4214 96 0
-4214 189 0
-4215 63 0
-4215 153 0
-4215 96 0
-4215 169 0
-4216 201 0
-4216 63 0
-4216 105 0
-4216 126 0
-4217 133 0
-4217 63 0
-4217 180 0
-4217 105 0
-4218 63 0
-4218 105 0
-4218 144 0
-4218 169 0
-27 -85 -162 -234 4115 4116 4117 4118 4119 4120 4121 4122 4123 4124 4125 4126 4127 4128 4129 4130 4131 4132 4133 4134 4135 4136 4137 4138 4139 4140 4141 4142 4143 4144 4145 4146 4147 4148 4149 4150 4151 4152 4153 4154 4155 4156 4157 4158 4159 4160 4161 4162 4163 4164 4165 4166 4167 4168 4169 4170 4171 4172 4173 4174 4175 4176 4177 4178 4179 4180 4181 4182 4183 4184 4185 4186 4187 4188 4189 4190 4191 4192 4193 4194 4195 4196 4197 4198 4199 4200 4201 4202 4203 4204 4205 4206 4207 4208 4209 4210 4211 4212 4213 4214 4215 4216 4217 4218 0
-4219 120 0
-4219 9 0
-4219 251 0
-4219 207 0
-4220 9 0
-4220 216 0
-4220 242 0
-4220 120 0
-4221 9 0
-4221 224 0
-4221 120 0
-4222 9 0
-4222 180 0
-4222 251 0
-4222 129 0
-4223 189 0
-4223 9 0
-4223 129 0
-4223 242 0
-4224 9 0
-4224 129 0
-4224 197 0
-4225 9 0
-4225 171 0
-4225 251 0
-4225 138 0
-4226 9 0
-4226 224 0
-4226 189 0
-4226 138 0
-4227 9 0
-4227 216 0
-4227 197 0
-4227 138 0
-4228 9 0
-4228 171 0
-4228 147 0
-4228 242 0
-4229 9 0
-4229 224 0
-4229 180 0
-4229 147 0
-4230 9 0
-4230 147 0
-4230 197 0
-4230 207 0
-4231 9 0
-4231 171 0
-4232 9 0
-4232 180 0
-4232 216 0
-4233 9 0
-4233 189 0
-4233 207 0
-4234 16 0
-4234 81 0
-4234 251 0
-4234 207 0
-4235 16 0
-4235 81 0
-4235 216 0
-4235 242 0
-4236 16 0
-4236 81 0
-4236 224 0
-4237 16 0
-4237 251 0
-4237 180 0
-4238 16 0
-4238 189 0
-4238 242 0
-4239 16 0
-4239 197 0
-4240 16 0
-4240 99 0
-4240 171 0
-4240 251 0
-4241 16 0
-4241 99 0
-4241 224 0
-4241 189 0
-4242 16 0
-4242 99 0
-4242 216 0
-4242 197 0
-4243 16 0
-4243 171 0
-4243 108 0
-4243 242 0
-4244 16 0
-4244 224 0
-4244 180 0
-4244 108 0
-4245 16 0
-4245 197 0
-4245 108 0
-4245 207 0
-4246 16 0
-4246 171 0
-4246 116 0
-4247 16 0
-4247 180 0
-4247 116 0
-4247 216 0
-4248 16 0
-4248 116 0
-4248 189 0
-4248 207 0
-4249 70 0
-4249 251 0
-4249 207 0
-4250 70 0
-4250 216 0
-4250 242 0
-4251 70 0
-4251 224 0
-4252 251 0
-4252 138 0
-4253 147 0
-4253 242 0
-4254 99 0
-4254 251 0
-4254 129 0
-4255 99 0
-4255 224 0
-4255 147 0
-4256 99 0
-4256 216 0
-4257 108 0
-4257 129 0
-4257 242 0
-4258 108 0
-4258 224 0
-4258 138 0
-4259 108 0
-4259 207 0
-4260 116 0
-4260 129 0
-4261 116 0
-4261 216 0
-4261 138 0
-4262 116 0
-4262 147 0
-4262 207 0
-4263 36 0
-4263 70 0
-4263 180 0
-4263 251 0
-4264 36 0
-4264 70 0
-4264 189 0
-4264 242 0
-4265 36 0
-4265 70 0
-4265 197 0
-4266 36 0
-4266 81 0
-4266 251 0
-4266 138 0
-4267 36 0
-4267 81 0
-4267 147 0
-4267 242 0
-4268 36 0
-4268 81 0
-4269 36 0
-4269 99 0
-4269 251 0
-4269 120 0
-4270 36 0
-4270 99 0
-4270 147 0
-4270 197 0
-4271 36 0
-4271 99 0
-4271 189 0
-4272 36 0
-4272 108 0
-4272 242 0
-4272 120 0
-4273 36 0
-4273 108 0
-4273 197 0
-4273 138 0
-4274 36 0
-4274 180 0
-4274 108 0
-4275 36 0
-4275 116 0
-4275 120 0
-4276 36 0
-4276 116 0
-4276 189 0
-4276 138 0
-4277 36 0
-4277 180 0
-4277 116 0
-4277 147 0
-4278 70 0
-4278 171 0
-4278 251 0
-4278 45 0
-4279 45 0
-4279 70 0
-4279 224 0
-4279 189 0
-4280 70 0
-4280 216 0
-4280 45 0
-4280 197 0
-4281 81 0
-4281 251 0
-4281 129 0
-4281 45 0
-4282 81 0
-4282 224 0
-4282 147 0
-4282 45 0
-4283 81 0
-4283 216 0
-4283 45 0
-4284 251 0
-4284 45 0
-4284 120 0
-4285 147 0
-4285 45 0
-4285 197 0
-4286 45 0
-4286 189 0
-4287 108 0
-4287 224 0
-4287 45 0
-4287 120 0
-4288 108 0
-4288 129 0
-4288 45 0
-4288 197 0
-4289 108 0
-4289 171 0
-4289 45 0
-4290 116 0
-4290 216 0
-4290 45 0
-4290 120 0
-4291 45 0
-4291 116 0
-4291 129 0
-4291 189 0
-4292 171 0
-4292 116 0
-4292 147 0
-4292 45 0
-4293 70 0
-4293 171 0
-4293 54 0
-4293 242 0
-4294 70 0
-4294 224 0
-4294 180 0
-4294 54 0
-4295 70 0
-4295 54 0
-4295 197 0
-4295 207 0
-4296 81 0
-4296 54 0
-4296 129 0
-4296 242 0
-4297 81 0
-4297 224 0
-4297 54 0
-4297 138 0
-4298 81 0
-4298 54 0
-4298 207 0
-4299 54 0
-4299 242 0
-4299 120 0
-4300 54 0
-4300 197 0
-4300 138 0
-4301 180 0
-4301 54 0
-4302 99 0
-4302 224 0
-4302 54 0
-4302 120 0
-4303 99 0
-4303 54 0
-4303 129 0
-4303 197 0
-4304 99 0
-4304 171 0
-4304 54 0
-4305 120 0
-4305 116 0
-4305 54 0
-4305 207 0
-4306 129 0
-4306 180 0
-4306 116 0
-4306 54 0
-4307 171 0
-4307 116 0
-4307 54 0
-4307 138 0
-4308 62 0
-4308 70 0
-4308 171 0
-4309 62 0
-4309 70 0
-4309 180 0
-4309 216 0
-4310 62 0
-4310 70 0
-4310 189 0
-4310 207 0
-4311 81 0
-4311 62 0
-4311 129 0
-4312 81 0
-4312 62 0
-4312 216 0
-4312 138 0
-4313 81 0
-4313 62 0
-4313 147 0
-4313 207 0
-4314 62 0
-4314 120 0
-4315 62 0
-4315 189 0
-4315 138 0
-4316 62 0
-4316 180 0
-4316 147 0
-4317 62 0
-4317 216 0
-4317 99 0
-4317 120 0
-4318 99 0
-4318 62 0
-4318 129 0
-4318 189 0
-4319 62 0
-4319 171 0
-4319 147 0
-4319 99 0
-4320 108 0
-4320 62 0
-4320 120 0
-4320 207 0
-4321 108 0
-4321 62 0
-4321 180 0
-4321 129 0
-4322 108 0
-4322 62 0
-4322 171 0
-4322 138 0
-27 -90 -155 -234 4219 4220 4221 4222 4223 4224 4225 4226 4227 4228 4229 4230 4231 4232 4233 4234 4235 4236 4237 4238 4239 4240 4241 4242 4243 4244 4245 4246 4247 4248 4249 4250 4251 4252 4253 4254 4255 4256 4257 4258 4259 4260 4261 4262 4263 4264 4265 4266 4267 4268 4269 4270 4271 4272 4273 4274 4275 4276 4277 4278 4279 4280 4281 4282 4283 4284 4285 4286 4287 4288 4289 4290 4291 4292 4293 4294 4295 4296 4297 4298 4299 4300 4301 4302 4303 4304 4305 4306 4307 4308 4309 4310 4311 4312 4313 4314 4315 4316 4317 4318 4319 4320 4321 4322 0
-370 -407 -4323 0
370 407 -4323 0
370 -407 4323 0
-370 407 4323 0
-4323 -425 -4324 0
4323 425 -4324 0
4323 -425 4324 0
-4323 425 4324 0
-4324 -491 -4325 0
4324 491 -4325 0
4324 -491 4325 0
-4324 491 4325 0
-1 -118 -155 -173 -212 -239 4325 0
-329 -337 -4326 0
329 337 -4326 0
329 -337 4326 0
-329 337 4326 0
-4326 -427 -4327 0
4326 427 -4327 0
4326 -427 4327 0
-4326 427 4327 0
-4327 -451 -4328 0
4327 451 -4328 0
4327 -451 4328 0
-4327 451 4328 0
-14 -77 -85 -175 -199 -244 4328 0
-4329 250 0
-4329 204 0
-4329 119 0
-4330 213 0
-4330 241 0
-4330 119 0
-4331 119 0
-4331 220 0
-4332 250 0
-4332 177 0
-4333 186 0
-4333 241 0
-4334 250 0
-4334 167 0
-4334 138 0
-4335 186 0
-4335 220 0
-4335 138 0
-4336 213 0
-4336 138 0
-4337 147 0
-4337 167 0
-4337 241 0
-4338 177 0
-4338 147 0
-4338 220 0
-4339 147 0
-4339 204 0
-4340 154 0
-4340 167 0
-4341 154 0
-4341 177 0
-4341 213 0
-4342 154 0
-4342 186 0
-4342 204 0
-4343 250 0
-4343 74 0
-4343 10 0
-4343 204 0
-4344 74 0
-4344 213 0
-4344 10 0
-4344 241 0
-4345 74 0
-4345 10 0
-4345 220 0
-4346 83 0
-4346 177 0
-4346 10 0
-4346 250 0
-4347 83 0
-4347 10 0
-4347 241 0
-4347 186 0
-4348 83 0
-4348 10 0
-4349 250 0
-4349 93 0
-4349 10 0
-4349 167 0
-4350 93 0
-4350 10 0
-4350 220 0
-4350 186 0
-4351 213 0
-4351 93 0
-4351 10 0
-4352 102 0
-4352 10 0
-4352 241 0
-4352 167 0
-4353 102 0
-4353 177 0
-4353 10 0
-4353 220 0
-4354 102 0
-4354 10 0
-4354 204 0
-4355 10 0
-4355 109 0
-4355 167 0
-4356 177 0
-4356 10 0
-4356 109 0
-4356 213 0
-4357 109 0
-4357 10 0
-4357 204 0
-4357 186 0
-4358 250 0
-4358 64 0
-4358 204 0
-4358 20 0
-4359 64 0
-4359 241 0
-4359 20 0
-4359 213 0
-4360 64 0
-4360 220 0
-4360 20 0
-4361 83 0
-4361 250 0
-4361 20 0
-4361 138 0
-4362 83 0
-4362 147 0
-4362 20 0
-4362 241 0
-4363 83 0
-4363 20 0
-4363 154 0
-4364 250 0
-4364 93 0
-4364 20 0
-4365 93 0
-4365 147 0
-4365 220 0
-4365 20 0
-4366 154 0
-4366 213 0
-4366 93 0
-4366 20 0
-4367 102 0
-4367 241 0
-4367 20 0
-4368 102 0
-4368 220 0
-4368 20 0
-4368 138 0
-4369 154 0
-4369 102 0
-4369 204 0
-4369 20 0
-4370 109 0
-4370 20 0
-4371 213 0
-4371 109 0
-4371 20 0
-4371 138 0
-4372 204 0
-4372 109 0
-4372 147 0
-4372 20 0
-4373 29 0
-4373 64 0
-4373 250 0
-4373 177 0
-4374 29 0
-4374 64 0
-4374 186 0
-4374 241 0
-4375 29 0
-4375 64 0
-4376 29 0
-4376 74 0
-4376 250 0
-4376 138 0
-4377 29 0
-4377 74 0
-4377 147 0
-4377 241 0
-4378 29 0
-4378 74 0
-4378 154 0
-4379 29 0
-4379 93 0
-4379 250 0
-4379 119 0
-4380 29 0
-4380 93 0
-4380 147 0
-4381 29 0
-4381 93 0
-4381 154 0
-4381 186 0
-4382 29 0
-4382 102 0
-4382 241 0
-4382 119 0
-4383 29 0
-4383 102 0
-4383 138 0
-4384 29 0
-4384 102 0
-4384 177 0
-4384 154 0
-4385 29 0
-4385 109 0
-4385 119 0
-4386 29 0
-4386 186 0
-4386 109 0
-4386 138 0
-4387 29 0
-4387 177 0
-4387 109 0
-4387 147 0
-4388 250 0
-4388 64 0
-4388 167 0
-4388 39 0
-4389 64 0
-4389 186 0
-4389 220 0
-4389 39 0
-4390 64 0
-4390 39 0
-4390 213 0
-4391 250 0
-4391 74 0
-4391 39 0
-4392 74 0
-4392 147 0
-4392 220 0
-4392 39 0
-4393 154 0
-4393 74 0
-4393 213 0
-4393 39 0
-4394 83 0
-4394 250 0
-4394 119 0
-4394 39 0
-4395 83 0
-4395 147 0
-4395 39 0
-4396 83 0
-4396 39 0
-4396 186 0
-4396 154 0
-4397 102 0
-4397 119 0
-4397 220 0
-4397 39 0
-4398 102 0
-4398 39 0
-4399 154 0
-4399 102 0
-4399 167 0
-4399 39 0
-4400 213 0
-4400 109 0
-4400 119 0
-4400 39 0
-4401 186 0
-4401 109 0
-4401 39 0
-4402 109 0
-4402 147 0
-4402 167 0
-4402 39 0
-4403 48 0
-4403 64 0
-4403 241 0
-4403 167 0
-4404 48 0
-4404 177 0
-4404 220 0
-4404 64 0
-4405 64 0
-4405 204 0
-4405 48 0
-4406 74 0
-4406 241 0
-4406 48 0
-4407 74 0
-4407 48 0
-4407 220 0
-4407 138 0
-4408 154 0
-4408 74 0
-4408 204 0
-4408 48 0
-4409 83 0
-4409 48 0
-4409 241 0
-4409 119 0
-4410 83 0
-4410 48 0
-4410 138 0
-4411 83 0
-4411 177 0
-4411 48 0
-4411 154 0
-4412 48 0
-4412 93 0
-4412 119 0
-4412 220 0
-4413 93 0
-4413 48 0
-4414 154 0
-4414 48 0
-4414 93 0
-4414 167 0
-4415 109 0
-4415 48 0
-4415 204 0
-4415 119 0
-4416 177 0
-4416 109 0
-4416 48 0
-4417 48 0
-4417 109 0
-4417 167 0
-4417 138 0
-4418 55 0
-4418 64 0
-4418 167 0
-4419 55 0
-4419 177 0
-4419 64 0
-4419 213 0
-4420 55 0
-4420 64 0
-4420 186 0
-4420 204 0
-4421 55 0
-4421 74 0
-4422 55 0
-4422 213 0
-4422 74 0
-4422 138 0
-4423 204 0
-4423 55 0
-4423 74 0
-4423 147 0
-4424 83 0
-4424 55 0
-4424 119 0
-4425 83 0
-4425 55 0
-4425 186 0
-4425 138 0
-4426 83 0
-4426 55 0
-4426 177 0
-4426 147 0
-4427 55 0
-4427 213 0
-4427 93 0
-4427 119 0
-4428 55 0
-4428 93 0
-4428 186 0
-4429 55 0
-4429 93 0
-4429 147 0
-4429 167 0
-4430 55 0
-4430 102 0
-4430 204 0
-4430 119 0
-4431 55 0
-4431 177 0
-4431 102 0
-4432 55 0
-4432 102 0
-4432 167 0
-4432 138 0
-1 -128 -193 -234 4329 4330 4331 4332 4333 4334 4335 4336 4337 4338 4339 4340 4341 4342 4343 4344 4345 4346 4347 4348 4349 4350 4351 4352 4353 4354 4355 4356 4357 4358 4359 4360 4361 4362 4363 4364 4365 4366 4367 4368 4369 4370 4371 4372 4373 4374 4375 4376 4377 4378 4379 4380 4381 4382 4383 4384 4385 4386 4387 4388 4389 4390 4391 4392 4393 4394 4395 4396 4397 4398 4399 4400 4401 4402 4403 4404 4405 4406 4407 4408 4409 4410 4411 4412 4413 4414 4415 4416 4417 4418 4419 4420 4421 4422 4423 4424 4425 4426 4427 4428 4429 4430 4431 4432 0
-4433 124 0
-4433 249 0
-4434 237 0
-4434 124 0
-4434 209 0
-4435 124 0
-4435 219 0
-4435 227 0
-4436 133 0
-4436 172 0
-4436 249 0
-4437 133 0
-4437 237 0
-4438 133 0
-4438 192 0
-4438 227 0
-4439 163 0
-4439 142 0
-4439 249 0
-4440 142 0
-4440 219 0
-4441 142 0
-4441 192 0
-4441 209 0
-4442 163 0
-4442 152 0
-4442 237 0
-4443 152 0
-4443 172 0
-4443 219 0
-4444 152 0
-4444 192 0
-4445 163 0
-4445 227 0
-4446 172 0
-4446 209 0
-4447 73 0
-4447 12 0
-4447 249 0
-4448 73 0
-4448 237 0
-4448 209 0
-4448 12 0
-4449 73 0
-4449 219 0
-4449 227 0
-4449 12 0
-4450 172 0
-4450 12 0
-4450 82 0
-4450 249 0
-4451 237 0
-4451 12 0
-4451 82 0
-4452 192 0
-4452 12 0
-4452 227 0
-4452 82 0
-4453 91 0
-4453 163 0
-4453 12 0
-4453 249 0
-4454 91 0
-4454 219 0
-4454 12 0
-4455 91 0
-4455 192 0
-4455 209 0
-4455 12 0
-4456 101 0
-4456 237 0
-4456 12 0
-4456 163 0
-4457 101 0
-4457 172 0
-4457 219 0
-4457 12 0
-4458 101 0
-4458 192 0
-4458 12 0
-4459 163 0
-4459 227 0
-4459 12 0
-4459 111 0
-4460 172 0
-4460 209 0
-4460 12 0
-4460 111 0
-4461 12 0
-4461 111 0
-4462 19 0
-4462 66 0
-4462 249 0
-4463 237 0
-4463 19 0
-4463 209 0
-4463 66 0
-4464 66 0
-4464 227 0
-4464 219 0
-4464 19 0
-4465 142 0
-4465 19 0
-4465 82 0
-4465 249 0
-4466 237 0
-4466 152 0
-4466 19 0
-4466 82 0
-4467 19 0
-4467 227 0
-4467 82 0
-4468 91 0
-4468 133 0
-4468 19 0
-4468 249 0
-4469 91 0
-4469 152 0
-4469 19 0
-4469 219 0
-4470 91 0
-4470 19 0
-4470 209 0
-4471 101 0
-4471 237 0
-4471 19 0
-4471 133 0
-4472 101 0
-4472 142 0
-4472 19 0
-4472 219 0
-4473 101 0
-4473 19 0
-4474 133 0
-4474 19 0
-4474 227 0
-4474 111 0
-4475 142 0
-4475 19 0
-4475 209 0
-4475 111 0
-4476 152 0
-4476 19 0
-4476 111 0
-4477 172 0
-4477 66 0
-4477 28 0
-4477 249 0
-4478 237 0
-4478 66 0
-4478 28 0
-4479 192 0
-4479 28 0
-4479 227 0
-4479 66 0
-4480 73 0
-4480 142 0
-4480 28 0
-4480 249 0
-4481 73 0
-4481 152 0
-4481 237 0
-4481 28 0
-4482 73 0
-4482 227 0
-4482 28 0
-4483 91 0
-4483 124 0
-4483 28 0
-4483 249 0
-4484 91 0
-4484 152 0
-4484 192 0
-4484 28 0
-4485 91 0
-4485 28 0
-4486 101 0
-4486 124 0
-4486 237 0
-4486 28 0
-4487 101 0
-4487 142 0
-4487 192 0
-4487 28 0
-4488 101 0
-4488 172 0
-4488 28 0
-4489 124 0
-4489 227 0
-4489 28 0
-4489 111 0
-4490 142 0
-4490 28 0
-4490 111 0
-4491 152 0
-4491 172 0
-4491 28 0
-4491 111 0
-4492 163 0
-4492 37 0
-4492 66 0
-4492 249 0
-4493 37 0
-4493 219 0
-4493 66 0
-4494 192 0
-4494 37 0
-4494 66 0
-4494 209 0
-4495 73 0
-4495 133 0
-4495 37 0
-4495 249 0
-4496 73 0
-4496 152 0
-4496 37 0
-4496 219 0
-4497 73 0
-4497 37 0
-4497 209 0
-4498 124 0
-4498 37 0
-4498 82 0
-4498 249 0
-4499 152 0
-4499 37 0
-4499 192 0
-4499 82 0
-4500 37 0
-4500 82 0
-4501 101 0
-4501 124 0
-4501 37 0
-4501 219 0
-4502 101 0
-4502 192 0
-4502 37 0
-4502 133 0
-4503 101 0
-4503 37 0
-4503 163 0
-4504 124 0
-4504 37 0
-4504 209 0
-4504 111 0
-4505 133 0
-4505 37 0
-4505 111 0
-4506 163 0
-4506 152 0
-4506 37 0
-4506 111 0
-4507 163 0
-4507 47 0
-4507 237 0
-4507 66 0
-4508 172 0
-4508 47 0
-4508 219 0
-4508 66 0
-4509 192 0
-4509 47 0
-4509 66 0
-4510 73 0
-4510 47 0
-4510 237 0
-4510 133 0
-4511 73 0
-4511 142 0
-4511 47 0
-4511 219 0
-4512 73 0
-4512 47 0
-4513 237 0
-4513 124 0
-4513 47 0
-4513 82 0
-4514 142 0
-4514 192 0
-4514 47 0
-4514 82 0
-4515 172 0
-4515 47 0
-4515 82 0
-4516 91 0
-4516 124 0
-4516 47 0
-4516 219 0
-4517 91 0
-4517 192 0
-4517 47 0
-4517 133 0
-4518 91 0
-4518 47 0
-4518 163 0
-4519 124 0
-4519 47 0
-4519 111 0
-4520 133 0
-4520 172 0
-4520 47 0
-4520 111 0
-4521 163 0
-4521 142 0
-4521 47 0
-4521 111 0
-4522 163 0
-4522 57 0
-4522 227 0
-4522 66 0
-4523 172 0
-4523 57 0
-4523 66 0
-4523 209 0
-4524 57 0
-4524 66 0
-4525 73 0
-4525 57 0
-4525 227 0
-4525 133 0
-4526 73 0
-4526 142 0
-4526 57 0
-4526 209 0
-4527 73 0
-4527 152 0
-4527 57 0
-4528 124 0
-4528 57 0
-4528 227 0
-4528 82 0
-4529 142 0
-4529 57 0
-4529 82 0
-4530 152 0
-4530 172 0
-4530 57 0
-4530 82 0
-4531 91 0
-4531 124 0
-4531 57 0
-4531 209 0
-4532 91 0
-4532 57 0
-4532 133 0
-4533 91 0
-4533 152 0
-4533 57 0
-4533 163 0
-4534 101 0
-4534 124 0
-4534 57 0
-4535 101 0
-4535 172 0
-4535 57 0
-4535 133 0
-4536 101 0
-4536 142 0
-4536 57 0
-4536 163 0
-1 -162 -182 -199 4433 4434 4435 4436 4437 4438 4439 4440 4441 4442 4443 4444 4445 4446 4447 4448 4449 4450 4451 4452 4453 4454 4455 4456 4457 4458 4459 4460 4461 4462 4463 4464 4465 4466 4467 4468 4469 4470 4471 4472 4473 4474 4475 4476 4477 4478 4479 4480 4481 4482 4483 4484 4485 4486 4487 4488 4489 4490 4491 4492 4493 4494 4495 4496 4497 4498 4499 4500 4501 4502 4503 4504 4505 4506 4507 4508 4509 4510 4511 4512 4513 4514 4515 4516 4517 4518 4519 4520 4521 4522 4523 4524 4525 4526 4527 4528 4529 4530 4531 4532 4533 4534 4535 4536 0
-4537 6 0
-4537 248 0
-4537 206 0
-4537 121 0
-4538 215 0
-4538 6 0
-4538 121 0
-4539 230 0
-4539 224 0
-4539 6 0
-4539 121 0
-4540 173 0
-4540 248 0
-4540 6 0
-4540 132 0
-4541 6 0
-4541 132 0
-4542 230 0
-4542 191 0
-4542 6 0
-4542 132 0
-4543 140 0
-4543 165 0
-4543 248 0
-4543 6 0
-4544 140 0
-4544 224 0
-4544 6 0
-4545 140 0
-4545 191 0
-4545 215 0
-4545 6 0
-4546 6 0
-4546 165 0
-4546 149 0
-4547 6 0
-4547 224 0
-4547 173 0
-4547 149 0
-4548 6 0
-4548 191 0
-4548 206 0
-4548 149 0
-4549 230 0
-4549 158 0
-4549 6 0
-4549 165 0
-4550 158 0
-4550 215 0
-4550 173 0
-4550 6 0
-4551 6 0
-4551 158 0
-4551 206 0
-4552 248 0
-4552 206 0
-4552 79 0
-4553 215 0
-4553 79 0
-4554 230 0
-4554 224 0
-4554 79 0
-4555 173 0
-4555 248 0
-4556 230 0
-4556 191 0
-4557 98 0
-4557 165 0
-4557 248 0
-4558 98 0
-4558 224 0
-4559 98 0
-4559 191 0
-4559 215 0
-4560 165 0
-4560 107 0
-4561 224 0
-4561 173 0
-4561 107 0
-4562 191 0
-4562 206 0
-4562 107 0
-4563 230 0
-4563 165 0
-4563 116 0
-4564 116 0
-4564 215 0
-4564 173 0
-4565 116 0
-4565 206 0
-4566 22 0
-4566 71 0
-4566 248 0
-4566 206 0
-4567 22 0
-4567 71 0
-4567 215 0
-4568 22 0
-4568 71 0
-4568 230 0
-4568 224 0
-4569 22 0
-4569 140 0
-4569 248 0
-4570 22 0
-4570 149 0
-4571 22 0
-4571 158 0
-4571 230 0
-4572 22 0
-4572 98 0
-4572 248 0
-4572 132 0
-4573 22 0
-4573 224 0
-4573 149 0
-4573 98 0
-4574 22 0
-4574 158 0
-4574 215 0
-4574 98 0
-4575 22 0
-4575 107 0
-4575 132 0
-4576 22 0
-4576 224 0
-4576 140 0
-4576 107 0
-4577 22 0
-4577 158 0
-4577 206 0
-4577 107 0
-4578 22 0
-4578 116 0
-4578 230 0
-4578 132 0
-4579 22 0
-4579 116 0
-4579 215 0
-4579 140 0
-4580 22 0
-4580 149 0
-4580 116 0
-4580 206 0
-4581 71 0
-4581 173 0
-4581 33 0
-4581 248 0
-4582 71 0
-4582 33 0
-4583 230 0
-4583 191 0
-4583 71 0
-4583 33 0
-4584 140 0
-4584 33 0
-4584 248 0
-4584 79 0
-4585 33 0
-4585 149 0
-4585 79 0
-4586 230 0
-4586 158 0
-4586 33 0
-4586 79 0
-4587 98 0
-4587 33 0
-4587 248 0
-4587 121 0
-4588 98 0
-4588 191 0
-4588 33 0
-4588 149 0
-4589 98 0
-4589 158 0
-4589 33 0
-4590 33 0
-4590 107 0
-4590 121 0
-4591 140 0
-4591 191 0
-4591 33 0
-4591 107 0
-4592 158 0
-4592 33 0
-4592 173 0
-4592 107 0
-4593 230 0
-4593 116 0
-4593 33 0
-4593 121 0
-4594 140 0
-4594 116 0
-4594 33 0
-4595 173 0
-4595 116 0
-4595 33 0
-4595 149 0
-4596 41 0
-4596 71 0
-4596 165 0
-4596 248 0
-4597 41 0
-4597 71 0
-4597 224 0
-4598 41 0
-4598 71 0
-4598 191 0
-4598 215 0
-4599 41 0
-4599 248 0
-4599 79 0
-4599 132 0
-4600 41 0
-4600 224 0
-4600 149 0
-4600 79 0
-4601 41 0
-4601 158 0
-4601 215 0
-4601 79 0
-4602 41 0
-4602 248 0
-4602 121 0
-4603 41 0
-4603 191 0
-4603 149 0
-4604 41 0
-4604 158 0
-4605 41 0
-4605 224 0
-4605 107 0
-4605 121 0
-4606 41 0
-4606 191 0
-4606 107 0
-4606 132 0
-4607 41 0
-4607 158 0
-4607 107 0
-4607 165 0
-4608 41 0
-4608 116 0
-4608 215 0
-4608 121 0
-4609 41 0
-4609 116 0
-4609 132 0
-4610 41 0
-4610 165 0
-4610 116 0
-4610 149 0
-4611 71 0
-4611 165 0
-4611 50 0
-4612 71 0
-4612 173 0
-4612 50 0
-4612 224 0
-4613 191 0
-4613 71 0
-4613 206 0
-4613 50 0
-4614 50 0
-4614 79 0
-4614 132 0
-4615 140 0
-4615 224 0
-4615 79 0
-4615 50 0
-4616 50 0
-4616 158 0
-4616 206 0
-4616 79 0
-4617 50 0
-4617 121 0
-4618 140 0
-4618 191 0
-4618 50 0
-4619 158 0
-4619 173 0
-4619 50 0
-4620 98 0
-4620 224 0
-4620 50 0
-4620 121 0
-4621 98 0
-4621 191 0
-4621 50 0
-4621 132 0
-4622 98 0
-4622 50 0
-4622 158 0
-4622 165 0
-4623 50 0
-4623 116 0
-4623 206 0
-4623 121 0
-4624 50 0
-4624 116 0
-4624 173 0
-4624 132 0
-4625 140 0
-4625 165 0
-4625 116 0
-4625 50 0
-4626 230 0
-4626 71 0
-4626 165 0
-4626 59 0
-4627 71 0
-4627 215 0
-4627 173 0
-4627 59 0
-4628 59 0
-4628 71 0
-4628 206 0
-4629 230 0
-4629 79 0
-4629 59 0
-4629 132 0
-4630 140 0
-4630 215 0
-4630 59 0
-4630 79 0
-4631 59 0
-4631 149 0
-4631 206 0
-4631 79 0
-4632 230 0
-4632 59 0
-4632 121 0
-4633 140 0
-4633 59 0
-4634 59 0
-4634 173 0
-4634 149 0
-4635 98 0
-4635 215 0
-4635 59 0
-4635 121 0
-4636 98 0
-4636 59 0
-4636 132 0
-4637 98 0
-4637 59 0
-4637 165 0
-4637 149 0
-4638 59 0
-4638 107 0
-4638 206 0
-4638 121 0
-4639 107 0
-4639 173 0
-4639 59 0
-4639 132 0
-4640 140 0
-4640 165 0
-4640 59 0
-4640 107 0
-14 -90 -182 -239 4537 4538 4539 4540 4541 4542 4543 4544 4545 4546 4547 4548 4549 4550 4551 4552 4553 4554 4555 4556 4557 4558 4559 4560 4561 4562 4563 4564 4565 4566 4567 4568 4569 4570 4571 4572 4573 4574 4575 4576 4577 4578 4579 4580 4581 4582 4583 4584 4585 4586 4587 4588 4589 4590 4591 4592 4593 4594 4595 4596 4597 4598 4599 4600 4601 4602 4603 4604 4605 4606 4607 4608 4609 4610 4611 4612 4613 4614 4615 4616 4617 4618 4619 4620 4621 4622 4623 4624 4625 4626 4627 4628 4629 4630 4631 4632 4633 4634 4635 4636 4637 4638 4639 4640 0
-4641 122 0
-4641 250 0
-4641 6 0
-4641 207 0
-4642 122 0
-4642 241 0
-4642 216 0
-4642 6 0
-4643 122 0
-4643 223 0
-4643 6 0
-4644 250 0
-4644 177 0
-4644 6 0
-4644 132 0
-4645 186 0
-4645 241 0
-4645 6 0
-4645 132 0
-4646 6 0
-4646 132 0
-4647 250 0
-4647 141 0
-4647 6 0
-4647 168 0
-4648 223 0
-4648 141 0
-4648 186 0
-4648 6 0
-4649 141 0
-4649 216 0
-4649 6 0
-4650 150 0
-4650 241 0
-4650 6 0
-4650 168 0
-4651 223 0
-4651 177 0
-4651 6 0
-4651 150 0
-4652 150 0
-4652 6 0
-4652 207 0
-4653 157 0
-4653 6 0
-4653 168 0
-4654 177 0
-4654 157 0
-4654 216 0
-4654 6 0
-4655 157 0
-4655 186 0
-4655 6 0
-4655 207 0
-4656 80 0
-4656 250 0
-4656 207 0
-4657 80 0
-4657 241 0
-4657 216 0
-4658 80 0
-4658 223 0
-4659 250 0
-4659 177 0
-4660 186 0
-4660 241 0
-4661 250 0
-4661 99 0
-4661 168 0
-4662 99 0
-4662 186 0
-4662 223 0
-4663 99 0
-4663 216 0
-4664 108 0
-4664 241 0
-4664 168 0
-4665 108 0
-4665 223 0
-4665 177 0
-4666 108 0
-4666 207 0
-4667 115 0
-4667 168 0
-4668 177 0
-4668 115 0
-4668 216 0
-4669 186 0
-4669 115 0
-4669 207 0
-4670 250 0
-4670 23 0
-4670 71 0
-4670 207 0
-4671 23 0
-4671 71 0
-4671 241 0
-4671 216 0
-4672 23 0
-4672 71 0
-4672 223 0
-4673 250 0
-4673 23 0
-4673 141 0
-4674 23 0
-4674 241 0
-4674 150 0
-4675 23 0
-4675 157 0
-4676 250 0
-4676 23 0
-4676 99 0
-4676 132 0
-4677 223 0
-4677 23 0
-4677 99 0
-4677 150 0
-4678 23 0
-4678 157 0
-4678 216 0
-4678 99 0
-4679 108 0
-4679 23 0
-4679 241 0
-4679 132 0
-4680 108 0
-4680 23 0
-4680 141 0
-4680 223 0
-4681 108 0
-4681 23 0
-4681 157 0
-4681 207 0
-4682 23 0
-4682 115 0
-4682 132 0
-4683 23 0
-4683 141 0
-4683 115 0
-4683 216 0
-4684 23 0
-4684 115 0
-4684 150 0
-4684 207 0
-4685 250 0
-4685 177 0
-4685 71 0
-4685 33 0
-4686 71 0
-4686 186 0
-4686 33 0
-4686 241 0
-4687 71 0
-4687 33 0
-4688 80 0
-4688 141 0
-4688 33 0
-4688 250 0
-4689 80 0
-4689 241 0
-4689 33 0
-4689 150 0
-4690 80 0
-4690 157 0
-4690 33 0
-4691 122 0
-4691 99 0
-4691 33 0
-4691 250 0
-4692 99 0
-4692 33 0
-4692 150 0
-4693 99 0
-4693 157 0
-4693 186 0
-4693 33 0
-4694 108 0
-4694 33 0
-4694 122 0
-4694 241 0
-4695 108 0
-4695 141 0
-4695 33 0
-4696 108 0
-4696 157 0
-4696 33 0
-4696 177 0
-4697 122 0
-4697 115 0
-4697 33 0
-4698 141 0
-4698 115 0
-4698 33 0
-4698 186 0
-4699 177 0
-4699 115 0
-4699 33 0
-4699 150 0
-4700 250 0
-4700 71 0
-4700 42 0
-4700 168 0
-4701 223 0
-4701 71 0
-4701 42 0
-4701 186 0
-4702 71 0
-4702 42 0
-4702 216 0
-4703 80 0
-4703 42 0
-4703 250 0
-4703 132 0
-4704 80 0
-4704 223 0
-4704 42 0
-4704 150 0
-4705 80 0
-4705 157 0
-4705 42 0
-4705 216 0
-4706 250 0
-4706 42 0
-4706 122 0
-4707 42 0
-4707 150 0
-4708 157 0
-4708 42 0
-4708 186 0
-4709 108 0
-4709 223 0
-4709 42 0
-4709 122 0
-4710 108 0
-4710 42 0
-4710 132 0
-4711 108 0
-4711 157 0
-4711 42 0
-4711 168 0
-4712 122 0
-4712 42 0
-4712 216 0
-4712 115 0
-4713 186 0
-4713 42 0
-4713 115 0
-4713 132 0
-4714 150 0
-4714 42 0
-4714 115 0
-4714 168 0
-4715 51 0
-4715 71 0
-4715 241 0
-4715 168 0
-4716 51 0
-4716 177 0
-4716 71 0
-4716 223 0
-4717 51 0
-4717 71 0
-4717 207 0
-4718 80 0
-4718 51 0
-4718 241 0
-4718 132 0
-4719 80 0
-4719 51 0
-4719 141 0
-4719 223 0
-4720 80 0
-4720 51 0
-4720 157 0
-4720 207 0
-4721 122 0
-4721 51 0
-4721 241 0
-4722 51 0
-4722 141 0
-4723 177 0
-4723 51 0
-4723 157 0
-4724 122 0
-4724 51 0
-4724 99 0
-4724 223 0
-4725 51 0
-4725 99 0
-4725 132 0
-4726 51 0
-4726 157 0
-4726 99 0
-4726 168 0
-4727 122 0
-4727 51 0
-4727 115 0
-4727 207 0
-4728 51 0
-4728 177 0
-4728 115 0
-4728 132 0
-4729 51 0
-4729 141 0
-4729 115 0
-4729 168 0
-4730 71 0
-4730 58 0
-4730 168 0
-4731 58 0
-4731 177 0
-4731 71 0
-4731 216 0
-4732 71 0
-4732 186 0
-4732 58 0
-4732 207 0
-4733 80 0
-4733 58 0
-4733 132 0
-4734 80 0
-4734 141 0
-4734 58 0
-4734 216 0
-4735 80 0
-4735 150 0
-4735 58 0
-4735 207 0
-4736 122 0
-4736 58 0
-4737 141 0
-4737 186 0
-4737 58 0
-4738 177 0
-4738 58 0
-4738 150 0
-4739 122 0
-4739 99 0
-4739 58 0
-4739 216 0
-4740 99 0
-4740 186 0
-4740 58 0
-4740 132 0
-4741 99 0
-4741 150 0
-4741 58 0
-4741 168 0
-4742 108 0
-4742 58 0
-4742 122 0
-4742 207 0
-4743 108 0
-4743 177 0
-4743 58 0
-4743 132 0
-4744 108 0
-4744 141 0
-4744 58 0
-4744 168 0
-14 -90 -193 -234 4641 4642 4643 4644 4645 4646 4647 4648 4649 4650 4651 4652 4653 4654 4655 4656 4657 4658 4659 4660 4661 4662 4663 4664 4665 4666 4667 4668 4669 4670 4671 4672 4673 4674 4675 4676 4677 4678 4679 4680 4681 4682 4683 4684 4685 4686 4687 4688 4689 4690 4691 4692 4693 4694 4695 4696 4697 4698 4699 4700 4701 4702 4703 4704 4705 4706 4707 4708 4709 4710 4711 4712 4713 4714 4715 4716 4717 4718 4719 4720 4721 4722 4723 4724 4725 4726 4727 4728 4729 4730 4731 4732 4733 4734 4735 4736 4737 4738 4739 4740 4741 4742 4743 4744 0
-4745 8 0
-4745 203 0
-4745 245 0
-4745 120 0
-4746 8 0
-4746 120 0
-4746 211 0
-4747 8 0
-4747 120 0
-4747 221 0
-4747 229 0
-4748 8 0
-4748 179 0
-4748 245 0
-4749 8 0
-4749 187 0
-4750 8 0
-4750 197 0
-4750 229 0
-4751 8 0
-4751 170 0
-4751 137 0
-4751 245 0
-4752 8 0
-4752 187 0
-4752 137 0
-4752 221 0
-4753 8 0
-4753 137 0
-4753 197 0
-4753 211 0
-4754 8 0
-4754 145 0
-4754 170 0
-4755 8 0
-4755 179 0
-4755 145 0
-4755 221 0
-4756 8 0
-4756 145 0
-4756 197 0
-4756 203 0
-4757 8 0
-4757 155 0
-4757 170 0
-4757 229 0
-4758 8 0
-4758 155 0
-4758 179 0
-4758 211 0
-4759 8 0
-4759 155 0
-4759 187 0
-4759 203 0
-4760 16 0
-4760 203 0
-4760 245 0
-4760 78 0
-4761 16 0
-4761 78 0
-4761 211 0
-4762 16 0
-4762 78 0
-4762 221 0
-4762 229 0
-4763 16 0
-4763 179 0
-4763 86 0
-4763 245 0
-4764 16 0
-4764 86 0
-4764 187 0
-4765 16 0
-4765 86 0
-4765 197 0
-4765 229 0
-4766 16 0
-4766 170 0
-4766 95 0
-4766 245 0
-4767 16 0
-4767 187 0
-4767 95 0
-4767 221 0
-4768 16 0
-4768 95 0
-4768 197 0
-4768 211 0
-4769 16 0
-4769 170 0
-4770 16 0
-4770 179 0
-4770 221 0
-4771 16 0
-4771 203 0
-4771 197 0
-4772 16 0
-4772 113 0
-4772 170 0
-4772 229 0
-4773 16 0
-4773 113 0
-4773 179 0
-4773 211 0
-4774 16 0
-4774 113 0
-4774 203 0
-4774 187 0
-4775 245 0
-4775 67 0
-4775 203 0
-4776 67 0
-4776 211 0
-4777 67 0
-4777 221 0
-4777 229 0
-4778 245 0
-4778 86 0
-4778 137 0
-4779 145 0
-4779 86 0
-4780 155 0
-4780 86 0
-4780 229 0
-4781 245 0
-4781 95 0
-4782 145 0
-4782 95 0
-4782 221 0
-4783 155 0
-4783 95 0
-4783 211 0
-4784 137 0
-4784 221 0
-4785 155 0
-4785 203 0
-4786 113 0
-4786 229 0
-4787 113 0
-4787 137 0
-4787 211 0
-4788 113 0
-4788 145 0
-4788 203 0
-4789 245 0
-4789 67 0
-4789 179 0
-4789 35 0
-4790 187 0
-4790 67 0
-4790 35 0
-4791 35 0
-4791 67 0
-4791 197 0
-4791 229 0
-4792 245 0
-4792 137 0
-4792 78 0
-4792 35 0
-4793 145 0
-4793 78 0
-4793 35 0
-4794 35 0
-4794 155 0
-4794 78 0
-4794 229 0
-4795 35 0
-4795 245 0
-4795 95 0
-4795 120 0
-4796 145 0
-4796 95 0
-4796 197 0
-4796 35 0
-4797 155 0
-4797 187 0
-4797 95 0
-4797 35 0
-4798 35 0
-4798 120 0
-4799 137 0
-4799 197 0
-4799 35 0
-4800 155 0
-4800 179 0
-4800 35 0
-4801 35 0
-4801 113 0
-4801 229 0
-4801 120 0
-4802 113 0
-4802 187 0
-4802 137 0
-4802 35 0
-4803 113 0
-4803 145 0
-4803 179 0
-4803 35 0
-4804 170 0
-4804 245 0
-4804 44 0
-4804 67 0
-4805 187 0
-4805 44 0
-4805 221 0
-4805 67 0
-4806 67 0
-4806 44 0
-4806 197 0
-4806 211 0
-4807 245 0
-4807 44 0
-4807 78 0
-4808 145 0
-4808 44 0
-4808 221 0
-4808 78 0
-4809 155 0
-4809 44 0
-4809 78 0
-4809 211 0
-4810 245 0
-4810 86 0
-4810 44 0
-4810 120 0
-4811 145 0
-4811 86 0
-4811 44 0
-4811 197 0
-4812 155 0
-4812 86 0
-4812 187 0
-4812 44 0
-4813 44 0
-4813 221 0
-4813 120 0
-4814 44 0
-4814 197 0
-4815 170 0
-4815 155 0
-4815 44 0
-4816 113 0
-4816 120 0
-4816 44 0
-4816 211 0
-4817 113 0
-4817 187 0
-4817 44 0
-4818 170 0
-4818 113 0
-4818 145 0
-4818 44 0
-4819 170 0
-4819 52 0
-4819 67 0
-4820 52 0
-4820 179 0
-4820 67 0
-4820 221 0
-4821 52 0
-4821 203 0
-4821 67 0
-4821 197 0
-4822 52 0
-4822 78 0
-4823 52 0
-4823 78 0
-4823 137 0
-4823 221 0
-4824 52 0
-4824 155 0
-4824 78 0
-4824 203 0
-4825 52 0
-4825 86 0
-4825 120 0
-4826 52 0
-4826 86 0
-4826 137 0
-4826 197 0
-4827 52 0
-4827 155 0
-4827 86 0
-4827 179 0
-4828 52 0
-4828 95 0
-4828 221 0
-4828 120 0
-4829 52 0
-4829 95 0
-4829 197 0
-4830 170 0
-4830 52 0
-4830 155 0
-4830 95 0
-4831 52 0
-4831 113 0
-4831 120 0
-4831 203 0
-4832 52 0
-4832 113 0
-4832 179 0
-4833 170 0
-4833 52 0
-4833 113 0
-4833 137 0
-4834 170 0
-4834 62 0
-4834 67 0
-4834 229 0
-4835 62 0
-4835 179 0
-4835 67 0
-4835 211 0
-4836 62 0
-4836 203 0
-4836 187 0
-4836 67 0
-4837 62 0
-4837 78 0
-4837 229 0
-4838 62 0
-4838 137 0
-4838 78 0
-4838 211 0
-4839 62 0
-4839 145 0
-4839 78 0
-4839 203 0
-4840 62 0
-4840 86 0
-4840 120 0
-4840 229 0
-4841 62 0
-4841 86 0
-4841 187 0
-4841 137 0
-4842 62 0
-4842 145 0
-4842 86 0
-4842 179 0
-4843 62 0
-4843 120 0
-4843 95 0
-4843 211 0
-4844 62 0
-4844 187 0
-4844 95 0
-4845 170 0
-4845 62 0
-4845 145 0
-4845 95 0
-4846 62 0
-4846 203 0
-4846 120 0
-4847 62 0
-4847 179 0
-4848 170 0
-4848 62 0
-4848 137 0
-27 -103 -128 -239 4745 4746 4747 4748 4749 4750 4751 4752 4753 4754 4755 4756 4757 4758 4759 4760 4761 4762 4763 4764 4765 4766 4767 4768 4769 4770 4771 4772 4773 4774 4775 4776 4777 4778 4779 4780 4781 4782 4783 4784 4785 4786 4787 4788 4789 4790 4791 4792 4793 4794 4795 4796 4797 4798 4799 4800 4801 4802 4803 4804 4805 4806 4807 4808 4809 4810 4811 4812 4813 4814 4815 4816 4817 4818 4819 4820 4821 4822 4823 4824 4825 4826 4827 4828 4829 4830 4831 4832 4833 4834 4835 4836 4837 4838 4839 4840 4841 4842 4843 4844 4845 4846 4847 4848 0
-4849 8 0
-4849 126 0
-4849 246 0
-4850 8 0
-4850 208 0
-4850 126 0
-4850 237 0
-4851 8 0
-4851 126 0
-4851 226 0
-4851 219 0
-4852 8 0
-4852 178 0
-4852 246 0
-4852 133 0
-4853 8 0
-4853 187 0
-4853 237 0
-4853 133 0
-4854 8 0
-4854 133 0
-4854 226 0
-4854 198 0
-4855 8 0
-4855 142 0
-4855 246 0
-4855 169 0
-4856 8 0
-4856 142 0
-4856 187 0
-4856 219 0
-4857 8 0
-4857 142 0
-4857 208 0
-4857 198 0
-4858 8 0
-4858 151 0
-4858 237 0
-4858 169 0
-4859 8 0
-4859 178 0
-4859 151 0
-4859 219 0
-4860 8 0
-4860 151 0
-4860 198 0
-4861 8 0
-4861 226 0
-4861 169 0
-4862 8 0
-4862 178 0
-4862 208 0
-4863 8 0
-4863 187 0
-4864 18 0
-4864 246 0
-4864 78 0
-4865 237 0
-4865 18 0
-4865 208 0
-4865 78 0
-4866 18 0
-4866 226 0
-4866 219 0
-4866 78 0
-4867 178 0
-4867 18 0
-4867 246 0
-4867 85 0
-4868 237 0
-4868 18 0
-4868 187 0
-4868 85 0
-4869 18 0
-4869 226 0
-4869 85 0
-4869 198 0
-4870 18 0
-4870 246 0
-4870 94 0
-4870 169 0
-4871 18 0
-4871 187 0
-4871 219 0
-4871 94 0
-4872 18 0
-4872 208 0
-4872 94 0
-4872 198 0
-4873 237 0
-4873 18 0
-4873 169 0
-4874 178 0
-4874 18 0
-4874 219 0
-4875 18 0
-4875 198 0
-4876 18 0
-4876 114 0
-4876 226 0
-4876 169 0
-4877 178 0
-4877 18 0
-4877 114 0
-4877 208 0
-4878 18 0
-4878 114 0
-4878 187 0
-4879 69 0
-4879 246 0
-4880 69 0
-4880 208 0
-4880 237 0
-4881 69 0
-4881 226 0
-4881 219 0
-4882 142 0
-4882 85 0
-4882 246 0
-4883 151 0
-4883 85 0
-4883 237 0
-4884 85 0
-4884 226 0
-4885 133 0
-4885 246 0
-4885 94 0
-4886 151 0
-4886 94 0
-4886 219 0
-4887 208 0
-4887 94 0
-4888 133 0
-4888 237 0
-4889 142 0
-4889 219 0
-4890 133 0
-4890 114 0
-4890 226 0
-4891 142 0
-4891 114 0
-4891 208 0
-4892 151 0
-4892 114 0
-4893 69 0
-4893 178 0
-4893 246 0
-4893 34 0
-4894 69 0
-4894 187 0
-4894 237 0
-4894 34 0
-4895 69 0
-4895 226 0
-4895 34 0
-4895 198 0
-4896 142 0
-4896 246 0
-4896 34 0
-4896 78 0
-4897 151 0
-4897 237 0
-4897 34 0
-4897 78 0
-4898 226 0
-4898 34 0
-4898 78 0
-4899 246 0
-4899 126 0
-4899 34 0
-4899 94 0
-4900 151 0
-4900 94 0
-4900 34 0
-4900 198 0
-4901 187 0
-4901 34 0
-4901 94 0
-4902 237 0
-4902 126 0
-4902 34 0
-4903 142 0
-4903 34 0
-4903 198 0
-4904 178 0
-4904 34 0
-4905 114 0
-4905 126 0
-4905 34 0
-4905 226 0
-4906 142 0
-4906 114 0
-4906 187 0
-4906 34 0
-4907 151 0
-4907 178 0
-4907 114 0
-4907 34 0
-4908 69 0
-4908 43 0
-4908 246 0
-4908 169 0
-4909 69 0
-4909 43 0
-4909 187 0
-4909 219 0
-4910 69 0
-4910 43 0
-4910 208 0
-4910 198 0
-4911 133 0
-4911 43 0
-4911 246 0
-4911 78 0
-4912 151 0
-4912 43 0
-4912 219 0
-4912 78 0
-4913 43 0
-4913 208 0
-4913 78 0
-4914 126 0
-4914 85 0
-4914 43 0
-4914 246 0
-4915 151 0
-4915 85 0
-4915 43 0
-4915 198 0
-4916 85 0
-4916 43 0
-4916 187 0
-4917 43 0
-4917 126 0
-4917 219 0
-4918 133 0
-4918 43 0
-4918 198 0
-4919 43 0
-4919 169 0
-4920 43 0
-4920 126 0
-4920 114 0
-4920 208 0
-4921 133 0
-4921 43 0
-4921 187 0
-4921 114 0
-4922 151 0
-4922 43 0
-4922 114 0
-4922 169 0
-4923 69 0
-4923 52 0
-4923 237 0
-4923 169 0
-4924 69 0
-4924 52 0
-4924 178 0
-4924 219 0
-4925 69 0
-4925 52 0
-4925 198 0
-4926 133 0
-4926 52 0
-4926 237 0
-4926 78 0
-4927 142 0
-4927 52 0
-4927 219 0
-4927 78 0
-4928 52 0
-4928 78 0
-4929 237 0
-4929 52 0
-4929 85 0
-4929 126 0
-4930 142 0
-4930 85 0
-4930 52 0
-4930 198 0
-4931 178 0
-4931 52 0
-4931 85 0
-4932 52 0
-4932 126 0
-4932 219 0
-4932 94 0
-4933 133 0
-4933 52 0
-4933 94 0
-4933 198 0
-4934 52 0
-4934 94 0
-4934 169 0
-4935 52 0
-4935 114 0
-4935 126 0
-4936 133 0
-4936 52 0
-4936 178 0
-4936 114 0
-4937 142 0
-4937 114 0
-4937 52 0
-4937 169 0
-4938 69 0
-4938 63 0
-4938 226 0
-4938 169 0
-4939 69 0
-4939 63 0
-4939 178 0
-4939 208 0
-4940 69 0
-4940 63 0
-4940 187 0
-4941 133 0
-4941 63 0
-4941 226 0
-4941 78 0
-4942 142 0
-4942 63 0
-4942 208 0
-4942 78 0
-4943 151 0
-4943 63 0
-4943 78 0
-4944 126 0
-4944 63 0
-4944 226 0
-4944 85 0
-4945 142 0
-4945 63 0
-4945 187 0
-4945 85 0
-4946 151 0
-4946 63 0
-4946 178 0
-4946 85 0
-4947 63 0
-4947 208 0
-4947 126 0
-4947 94 0
-4948 133 0
-4948 63 0
-4948 187 0
-4948 94 0
-4949 151 0
-4949 63 0
-4949 94 0
-4949 169 0
-4950 63 0
-4950 126 0
-4951 133 0
-4951 63 0
-4951 178 0
-4952 142 0
-4952 63 0
-4952 169 0
-27 -103 -162 -199 4849 4850 4851 4852 4853 4854 4855 4856 4857 4858 4859 4860 4861 4862 4863 4864 4865 4866 4867 4868 4869 4870 4871 4872 4873 4874 4875 4876 4877 4878 4879 4880 4881 4882 4883 4884 4885 4886 4887 4888 4889 4890 4891 4892 4893 4894 4895 4896 4897 4898 4899 4900 4901 4902 4903 4904 4905 4906 4907 4908 4909 4910 4911 4912 4913 4914 4915 4916 4917 4918 4919 4920 4921 4922 4923 4924 4925 4926 4927 4928 4929 4930 4931 4932 4933 4934 4935 4936 4937 4938 4939 4940 4941 4942 4943 4944 4945 4946 4947 4948 4949 4950 4951 4952 0
-370 -380 -4953 0
370 380 -4953 0
370 -380 4953 0
-370 380 4953 0
-4953 -434 -4954 0
4953 434 -4954 0
4953 -434 4954 0
-4953 434 4954 0
-4954 -464 -4955 0
4954 464 -4955 0
4954 -464 4955 0
-4954 464 4955 0
-1 -118 -128 -182 -212 -239 4955 0
-329 -355 -4956 0
329 355 -4956 0
329 -355 4956 0
-329 355 4956 0
-4956 -445 -4957 0
4956 445 -4957 0
4956 -445 4957 0
-4956 445 4957 0
-4957 -496 -4958 0
4957 496 -4958 0
4957 -496 4958 0
-4957 496 4958 0
-14 -77 -103 -193 -199 -244 4958 0
-4959 251 0
-4959 3 0
-4959 207 0
-4960 3 0
-4960 216 0
-4960 242 0
-4961 224 0
-4961 3 0
-4962 251 0
-4962 3 0
-4962 129 0
-4962 174 0
-4963 183 0
-4963 3 0
-4963 129 0
-4963 242 0
-4964 191 0
-4964 3 0
-4964 129 0
-4965 138 0
-4965 251 0
-4965 3 0
-4965 165 0
-4966 183 0
-4966 224 0
-4966 3 0
-4966 138 0
-4967 191 0
-4967 3 0
-4967 216 0
-4967 138 0
-4968 3 0
-4968 147 0
-4968 242 0
-4968 165 0
-4969 224 0
-4969 3 0
-4969 147 0
-4969 174 0
-4970 191 0
-4970 3 0
-4970 147 0
-4970 207 0
-4971 155 0
-4971 3 0
-4971 165 0
-4972 155 0
-4972 3 0
-4972 216 0
-4972 174 0
-4973 183 0
-4973 155 0
-4973 3 0
-4973 207 0
-4974 251 0
-4974 10 0
-4974 79 0
-4974 207 0
-4975 10 0
-4975 216 0
-4975 242 0
-4975 79 0
-4976 224 0
-4976 10 0
-4976 79 0
-4977 251 0
-4977 10 0
-4977 174 0
-4978 183 0
-4978 10 0
-4978 242 0
-4979 191 0
-4979 10 0
-4980 99 0
-4980 10 0
-4980 251 0
-4980 165 0
-4981 183 0
-4981 99 0
-4981 224 0
-4981 10 0
-4982 99 0
-4982 191 0
-4982 10 0
-4982 216 0
-4983 108 0
-4983 10 0
-4983 242 0
-4983 165 0
-4984 108 0
-4984 224 0
-4984 10 0
-4984 174 0
-4985 108 0
-4985 191 0
-4985 10 0
-4985 207 0
-4986 10 0
-4986 116 0
-4986 165 0
-4987 10 0
-4987 116 0
-4987 216 0
-4987 174 0
-4988 183 0
-4988 10 0
-4988 116 0
-4988 207 0
-4989 70 0
-4989 251 0
-4989 19 0
-4989 207 0
-4990 70 0
-4990 19 0
-4990 216 0
-4990 242 0
-4991 70 0
-4991 224 0
-4991 19 0
-4992 251 0
-4992 19 0
-4992 138 0
-4993 147 0
-4993 19 0
-4993 242 0
-4994 155 0
-4994 19 0
-4995 99 0
-4995 251 0
-4995 129 0
-4995 19 0
-4996 99 0
-4996 224 0
-4996 147 0
-4996 19 0
-4997 99 0
-4997 155 0
-4997 19 0
-4997 216 0
-4998 108 0
-4998 19 0
-4998 129 0
-4998 242 0
-4999 108 0
-4999 224 0
-4999 19 0
-4999 138 0
-5000 108 0
-5000 155 0
-5000 19 0
-5000 207 0
-5001 116 0
-5001 129 0
-5001 19 0
-5002 116 0
-5002 216 0
-5002 19 0
-5002 138 0
-5003 116 0
-5003 147 0
-5003 19 0
-5003 207 0
-5004 30 0
-5004 70 0
-5004 251 0
-5004 174 0
-5005 183 0
-5005 30 0
-5005 70 0
-5005 242 0
-5006 30 0
-5006 70 0
-5006 191 0
-5007 30 0
-5007 251 0
-5007 79 0
-5007 138 0
-5008 30 0
-5008 147 0
-5008 242 0
-5008 79 0
-5009 30 0
-5009 155 0
-5009 79 0
-5010 30 0
-5010 251 0
-5010 99 0
-5011 30 0
-5011 191 0
-5011 147 0
-5011 99 0
-5012 183 0
-5012 30 0
-5012 155 0
-5012 99 0
-5013 108 0
-5013 30 0
-5013 242 0
-5014 108 0
-5014 30 0
-5014 191 0
-5014 138 0
-5015 108 0
-5015 30 0
-5015 155 0
-5015 174 0
-5016 30 0
-5016 116 0
-5017 183 0
-5017 30 0
-5017 116 0
-5017 138 0
-5018 30 0
-5018 116 0
-5018 147 0
-5018 174 0
-5019 70 0
-5019 165 0
-5019 251 0
-5019 39 0
-5020 183 0
-5020 70 0
-5020 224 0
-5020 39 0
-5021 70 0
-5021 191 0
-5021 216 0
-5021 39 0
-5022 251 0
-5022 129 0
-5022 79 0
-5022 39 0
-5023 224 0
-5023 147 0
-5023 79 0
-5023 39 0
-5024 155 0
-5024 216 0
-5024 79 0
-5024 39 0
-5025 251 0
-5025 39 0
-5026 191 0
-5026 147 0
-5026 39 0
-5027 183 0
-5027 155 0
-5027 39 0
-5028 108 0
-5028 224 0
-5028 39 0
-5029 108 0
-5029 191 0
-5029 129 0
-5029 39 0
-5030 108 0
-5030 155 0
-5030 165 0
-5030 39 0
-5031 116 0
-5031 216 0
-5031 39 0
-5032 183 0
-5032 116 0
-5032 129 0
-5032 39 0
-5033 116 0
-5033 165 0
-5033 147 0
-5033 39 0
-5034 70 0
-5034 165 0
-5034 48 0
-5034 242 0
-5035 70 0
-5035 224 0
-5035 48 0
-5035 174 0
-5036 70 0
-5036 191 0
-5036 48 0
-5036 207 0
-5037 48 0
-5037 129 0
-5037 242 0
-5037 79 0
-5038 224 0
-5038 48 0
-5038 79 0
-5038 138 0
-5039 155 0
-5039 48 0
-5039 79 0
-5039 207 0
-5040 48 0
-5040 242 0
-5041 191 0
-5041 48 0
-5041 138 0
-5042 155 0
-5042 48 0
-5042 174 0
-5043 99 0
-5043 224 0
-5043 48 0
-5044 48 0
-5044 99 0
-5044 191 0
-5044 129 0
-5045 99 0
-5045 155 0
-5045 165 0
-5045 48 0
-5046 116 0
-5046 48 0
-5046 207 0
-5047 48 0
-5047 116 0
-5047 129 0
-5047 174 0
-5048 165 0
-5048 116 0
-5048 48 0
-5048 138 0
-5049 70 0
-5049 165 0
-5050 70 0
-5050 216 0
-5050 174 0
-5051 183 0
-5051 70 0
-5051 207 0
-5052 129 0
-5052 79 0
-5053 216 0
-5053 79 0
-5053 138 0
-5054 147 0
-5054 79 0
-5054 207 0
-5055 183 0
-5055 138 0
-5056 147 0
-5056 174 0
-5057 99 0
-5057 216 0
-5058 183 0
-5058 99 0
-5058 129 0
-5059 99 0
-5059 165 0
-5059 147 0
-5060 108 0
-5060 207 0
-5061 108 0
-5061 129 0
-5061 174 0
-5062 108 0
-5062 165 0
-5062 138 0
-56 -90 -118 -234 4959 4960 4961 4962 4963 4964 4965 4966 4967 4968 4969 4970 4971 4972 4973 4974 4975 4976 4977 4978 4979 4980 4981 4982 4983 4984 4985 4986 4987 4988 4989 4990 4991 4992 4993 4994 4995 4996 4997 4998 4999 5000 5001 5002 5003 5004 5005 5006 5007 5008 5009 5010 5011 5012 5013 5014 5015 5016 5017 5018 5019 5020 5021 5022 5023 5024 5025 5026 5027 5028 5029 5030 5031 5032 5033 5034 5035 5036 5037 5038 5039 5040 5041 5042 5043 5044 5045 5046 5047 5048 5049 5050 5051 5052 5053 5054 5055 5056 5057 5058 5059 5060 5061 5062 0
-5063 125 0
-5063 246 0
-5063 5 0
-5064 237 0
-5064 125 0
-5064 208 0
-5064 5 0
-5065 5 0
-5065 125 0
-5065 226 0
-5065 219 0
-5066 133 0
-5066 246 0
-5066 5 0
-5066 175 0
-5067 133 0
-5067 184 0
-5067 237 0
-5067 5 0
-5068 133 0
-5068 226 0
-5068 5 0
-5068 195 0
-5069 142 0
-5069 246 0
-5069 5 0
-5069 166 0
-5070 142 0
-5070 184 0
-5070 5 0
-5070 219 0
-5071 142 0
-5071 208 0
-5071 195 0
-5071 5 0
-5072 151 0
-5072 166 0
-5072 237 0
-5072 5 0
-5073 151 0
-5073 5 0
-5073 219 0
-5073 175 0
-5074 151 0
-5074 195 0
-5074 5 0
-5075 166 0
-5075 226 0
-5075 5 0
-5076 208 0
-5076 5 0
-5076 175 0
-5077 184 0
-5077 5 0
-5078 246 0
-5078 15 0
-5079 237 0
-5079 208 0
-5079 15 0
-5080 226 0
-5080 219 0
-5080 15 0
-5081 85 0
-5081 15 0
-5081 246 0
-5081 175 0
-5082 237 0
-5082 184 0
-5082 85 0
-5082 15 0
-5083 85 0
-5083 226 0
-5083 195 0
-5083 15 0
-5084 246 0
-5084 166 0
-5084 94 0
-5084 15 0
-5085 184 0
-5085 94 0
-5085 219 0
-5085 15 0
-5086 208 0
-5086 94 0
-5086 195 0
-5086 15 0
-5087 237 0
-5087 103 0
-5087 166 0
-5087 15 0
-5088 103 0
-5088 15 0
-5088 219 0
-5088 175 0
-5089 103 0
-5089 195 0
-5089 15 0
-5090 114 0
-5090 166 0
-5090 226 0
-5090 15 0
-5091 15 0
-5091 114 0
-5091 208 0
-5091 175 0
-5092 184 0
-5092 114 0
-5092 15 0
-5093 69 0
-5093 23 0
-5093 246 0
-5094 69 0
-5094 23 0
-5094 208 0
-5094 237 0
-5095 69 0
-5095 23 0
-5095 226 0
-5095 219 0
-5096 142 0
-5096 85 0
-5096 246 0
-5096 23 0
-5097 151 0
-5097 23 0
-5097 85 0
-5097 237 0
-5098 23 0
-5098 85 0
-5098 226 0
-5099 133 0
-5099 23 0
-5099 246 0
-5099 94 0
-5100 151 0
-5100 23 0
-5100 94 0
-5100 219 0
-5101 23 0
-5101 208 0
-5101 94 0
-5102 133 0
-5102 23 0
-5102 103 0
-5102 237 0
-5103 219 0
-5103 142 0
-5103 103 0
-5103 23 0
-5104 23 0
-5104 103 0
-5105 133 0
-5105 23 0
-5105 114 0
-5105 226 0
-5106 142 0
-5106 114 0
-5106 208 0
-5106 23 0
-5107 151 0
-5107 23 0
-5107 114 0
-5108 69 0
-5108 31 0
-5108 246 0
-5108 175 0
-5109 69 0
-5109 31 0
-5109 184 0
-5109 237 0
-5110 69 0
-5110 31 0
-5110 226 0
-5110 195 0
-5111 142 0
-5111 246 0
-5111 31 0
-5112 151 0
-5112 31 0
-5112 237 0
-5113 31 0
-5113 226 0
-5114 31 0
-5114 125 0
-5114 94 0
-5114 246 0
-5115 151 0
-5115 31 0
-5115 94 0
-5115 195 0
-5116 184 0
-5116 31 0
-5116 94 0
-5117 237 0
-5117 31 0
-5117 125 0
-5117 103 0
-5118 142 0
-5118 103 0
-5118 195 0
-5118 31 0
-5119 31 0
-5119 103 0
-5119 175 0
-5120 31 0
-5120 125 0
-5120 114 0
-5120 226 0
-5121 184 0
-5121 142 0
-5121 114 0
-5121 31 0
-5122 151 0
-5122 31 0
-5122 114 0
-5122 175 0
-5123 40 0
-5123 166 0
-5123 246 0
-5123 69 0
-5124 40 0
-5124 184 0
-5124 69 0
-5124 219 0
-5125 40 0
-5125 208 0
-5125 195 0
-5125 69 0
-5126 40 0
-5126 246 0
-5126 133 0
-5127 40 0
-5127 151 0
-5127 219 0
-5128 40 0
-5128 208 0
-5129 40 0
-5129 125 0
-5129 246 0
-5129 85 0
-5130 40 0
-5130 85 0
-5130 151 0
-5130 195 0
-5131 40 0
-5131 184 0
-5131 85 0
-5132 40 0
-5132 103 0
-5132 125 0
-5132 219 0
-5133 40 0
-5133 103 0
-5133 195 0
-5133 133 0
-5134 40 0
-5134 103 0
-5134 166 0
-5135 40 0
-5135 125 0
-5135 114 0
-5135 208 0
-5136 40 0
-5136 184 0
-5136 114 0
-5136 133 0
-5137 40 0
-5137 114 0
-5137 166 0
-5137 151 0
-5138 69 0
-5138 166 0
-5138 237 0
-5139 69 0
-5139 219 0
-5139 175 0
-5140 69 0
-5140 195 0
-5141 133 0
-5141 237 0
-5142 142 0
-5142 219 0
-5143 237 0
-5143 125 0
-5143 85 0
-5144 142 0
-5144 85 0
-5144 195 0
-5145 85 0
-5145 175 0
-5146 125 0
-5146 94 0
-5146 219 0
-5147 133 0
-5147 94 0
-5147 195 0
-5148 166 0
-5148 94 0
-5149 125 0
-5149 114 0
-5150 133 0
-5150 114 0
-5150 175 0
-5151 142 0
-5151 114 0
-5151 166 0
-5152 69 0
-5152 166 0
-5152 226 0
-5152 60 0
-5153 69 0
-5153 60 0
-5153 208 0
-5153 175 0
-5154 69 0
-5154 184 0
-5154 60 0
-5155 133 0
-5155 226 0
-5155 60 0
-5156 142 0
-5156 208 0
-5156 60 0
-5157 151 0
-5157 60 0
-5158 125 0
-5158 226 0
-5158 85 0
-5158 60 0
-5159 142 0
-5159 184 0
-5159 85 0
-5159 60 0
-5160 151 0
-5160 60 0
-5160 85 0
-5160 175 0
-5161 125 0
-5161 208 0
-5161 94 0
-5161 60 0
-5162 133 0
-5162 184 0
-5162 94 0
-5162 60 0
-5163 151 0
-5163 166 0
-5163 94 0
-5163 60 0
-5164 103 0
-5164 125 0
-5164 60 0
-5165 133 0
-5165 103 0
-5165 60 0
-5165 175 0
-5166 142 0
-5166 103 0
-5166 166 0
-5166 60 0
-49 -77 -162 -199 5063 5064 5065 5066 5067 5068 5069 5070 5071 5072 5073 5074 5075 5076 5077 5078 5079 5080 5081 5082 5083 5084 5085 5086 5087 5088 5089 5090 5091 5092 5093 5094 5095 5096 5097 5098 5099 5100 5101 5102 5103 5104 5105 5106 5107 5108 5109 5110 5111 5112 5113 5114 5115 5116 5117 5118 5119 5120 5121 5122 5123 5124 5125 5126 5127 5128 5129 5130 5131 5132 5133 5134 5135 5136 5137 5138 5139 5140 5141 5142 5143 5144 5145 5146 5147 5148 5149 5150 5151 5152 5153 5154 5155 5156 5157 5158 5159 5160 5161 5162 5163 5164 5165 5166 0
-5167 6 0
-5167 245 0
-5167 206 0
-5168 214 0
-5168 6 0
-5169 224 0
-5169 6 0
-5169 229 0
-5170 245 0
-5170 129 0
-5170 173 0
-5170 6 0
-5171 129 0
-5171 181 0
-5171 6 0
-5172 191 0
-5172 129 0
-5172 6 0
-5172 229 0
-5173 245 0
-5173 165 0
-5173 137 0
-5173 6 0
-5174 224 0
-5174 137 0
-5174 181 0
-5174 6 0
-5175 191 0
-5175 214 0
-5175 137 0
-5175 6 0
-5176 145 0
-5176 165 0
-5176 6 0
-5177 145 0
-5177 173 0
-5177 6 0
-5177 224 0
-5178 6 0
-5178 191 0
-5178 145 0
-5178 206 0
-5179 155 0
-5179 165 0
-5179 6 0
-5179 229 0
-5180 155 0
-5180 214 0
-5180 173 0
-5180 6 0
-5181 6 0
-5181 155 0
-5181 181 0
-5181 206 0
-5182 245 0
-5182 13 0
-5182 206 0
-5182 79 0
-5183 214 0
-5183 13 0
-5183 79 0
-5184 224 0
-5184 13 0
-5184 79 0
-5184 229 0
-5185 245 0
-5185 173 0
-5185 13 0
-5186 181 0
-5186 13 0
-5187 191 0
-5187 13 0
-5187 229 0
-5188 98 0
-5188 245 0
-5188 165 0
-5188 13 0
-5189 98 0
-5189 224 0
-5189 13 0
-5189 181 0
-5190 98 0
-5190 191 0
-5190 214 0
-5190 13 0
-5191 165 0
-5191 13 0
-5191 106 0
-5192 224 0
-5192 173 0
-5192 106 0
-5192 13 0
-5193 191 0
-5193 13 0
-5193 206 0
-5193 106 0
-5194 165 0
-5194 116 0
-5194 13 0
-5194 229 0
-5195 214 0
-5195 116 0
-5195 173 0
-5195 13 0
-5196 116 0
-5196 181 0
-5196 206 0
-5196 13 0
-5197 22 0
-5197 70 0
-5197 245 0
-5197 206 0
-5198 22 0
-5198 70 0
-5198 214 0
-5199 22 0
-5199 70 0
-5199 224 0
-5199 229 0
-5200 22 0
-5200 245 0
-5200 137 0
-5201 22 0
-5201 145 0
-5202 22 0
-5202 155 0
-5202 229 0
-5203 22 0
-5203 245 0
-5203 129 0
-5203 98 0
-5204 22 0
-5204 145 0
-5204 98 0
-5204 224 0
-5205 22 0
-5205 214 0
-5205 98 0
-5205 155 0
-5206 22 0
-5206 129 0
-5206 106 0
-5207 22 0
-5207 224 0
-5207 137 0
-5207 106 0
-5208 22 0
-5208 155 0
-5208 106 0
-5208 206 0
-5209 22 0
-5209 116 0
-5209 129 0
-5209 229 0
-5210 22 0
-5210 214 0
-5210 116 0
-5210 137 0
-5211 22 0
-5211 145 0
-5211 116 0
-5211 206 0
-5212 70 0
-5212 245 0
-5212 33 0
-5212 173 0
-5213 70 0
-5213 33 0
-5213 181 0
-5214 70 0
-5214 191 0
-5214 33 0
-5214 229 0
-5215 245 0
-5215 33 0
-5215 137 0
-5215 79 0
-5216 145 0
-5216 33 0
-5216 79 0
-5217 155 0
-5217 33 0
-5217 79 0
-5217 229 0
-5218 98 0
-5218 245 0
-5218 33 0
-5219 98 0
-5219 191 0
-5219 145 0
-5219 33 0
-5220 98 0
-5220 155 0
-5220 33 0
-5220 181 0
-5221 33 0
-5221 106 0
-5222 191 0
-5222 33 0
-5222 137 0
-5222 106 0
-5223 155 0
-5223 33 0
-5223 173 0
-5223 106 0
-5224 116 0
-5224 33 0
-5224 229 0
-5225 137 0
-5225 116 0
-5225 181 0
-5225 33 0
-5226 145 0
-5226 173 0
-5226 116 0
-5226 33 0
-5227 41 0
-5227 245 0
-5227 165 0
-5227 70 0
-5228 41 0
-5228 70 0
-5228 181 0
-5228 224 0
-5229 41 0
-5229 214 0
-5229 191 0
-5229 70 0
-5230 41 0
-5230 245 0
-5230 129 0
-5230 79 0
-5231 41 0
-5231 145 0
-5231 79 0
-5231 224 0
-5232 155 0
-5232 41 0
-5232 214 0
-5232 79 0
-5233 41 0
-5233 245 0
-5234 41 0
-5234 145 0
-5234 191 0
-5235 41 0
-5235 155 0
-5235 181 0
-5236 41 0
-5236 224 0
-5236 106 0
-5237 41 0
-5237 191 0
-5237 129 0
-5237 106 0
-5238 41 0
-5238 155 0
-5238 165 0
-5238 106 0
-5239 41 0
-5239 214 0
-5239 116 0
-5240 41 0
-5240 129 0
-5240 116 0
-5240 181 0
-5241 41 0
-5241 145 0
-5241 165 0
-5241 116 0
-5242 70 0
-5242 165 0
-5243 70 0
-5243 224 0
-5243 173 0
-5244 70 0
-5244 191 0
-5244 206 0
-5245 129 0
-5245 79 0
-5246 224 0
-5246 137 0
-5246 79 0
-5247 155 0
-5247 206 0
-5247 79 0
-5248 191 0
-5248 137 0
-5249 155 0
-5249 173 0
-5250 98 0
-5250 224 0
-5251 98 0
-5251 191 0
-5251 129 0
-5252 98 0
-5252 155 0
-5252 165 0
-5253 116 0
-5253 206 0
-5254 129 0
-5254 116 0
-5254 173 0
-5255 165 0
-5255 116 0
-5255 137 0
-5256 70 0
-5256 165 0
-5256 59 0
-5256 229 0
-5257 70 0
-5257 214 0
-5257 173 0
-5257 59 0
-5258 70 0
-5258 59 0
-5258 181 0
-5258 206 0
-5259 79 0
-5259 129 0
-5259 59 0
-5259 229 0
-5260 214 0
-5260 137 0
-5260 59 0
-5260 79 0
-5261 59 0
-5261 145 0
-5261 206 0
-5261 79 0
-5262 59 0
-5262 229 0
-5263 181 0
-5263 137 0
-5263 59 0
-5264 145 0
-5264 173 0
-5264 59 0
-5265 98 0
-5265 214 0
-5265 59 0
-5266 98 0
-5266 129 0
-5266 59 0
-5266 181 0
-5267 98 0
-5267 145 0
-5267 165 0
-5267 59 0
-5268 59 0
-5268 106 0
-5268 206 0
-5269 129 0
-5269 173 0
-5269 59 0
-5269 106 0
-5270 165 0
-5270 137 0
-5270 59 0
-5270 106 0
-49 -90 -118 -239 5167 5168 5169 5170 5171 5172 5173 5174 5175 5176 5177 5178 5179 5180 5181 5182 5183 5184 5185 5186 5187 5188 5189 5190 5191 5192 5193 5194 5195 5196 5197 5198 5199 5200 5201 5202 5203 5204 5205 5206 5207 5208 5209 5210 5211 5212 5213 5214 5215 5216 5217 5218 5219 5220 5221 5222 5223 5224 5225 5226 5227 5228 5229 5230 5231 5232 5233 5234 5235 5236 5237 5238 5239 5240 5241 5242 5243 5244 5245 5246 5247 5248 5249 5250 5251 5252 5253 5254 5255 5256 5257 5258 5259 5260 5261 5262 5263 5264 5265 5266 5267 5268 5269 5270 0
-5271 123 0
-5271 247 0
-5271 7 0
-5271 203 0
-5272 238 0
-5272 123 0
-5272 7 0
-5273 230 0
-5273 123 0
-5273 220 0
-5273 7 0
-5274 179 0
-5274 247 0
-5274 131 0
-5274 7 0
-5275 131 0
-5275 238 0
-5275 188 0
-5275 7 0
-5276 230 0
-5276 131 0
-5276 196 0
-5276 7 0
-5277 140 0
-5277 170 0
-5277 247 0
-5277 7 0
-5278 140 0
-5278 7 0
-5278 220 0
-5278 188 0
-5279 140 0
-5279 196 0
-5279 7 0
-5280 170 0
-5280 238 0
-5280 149 0
-5280 7 0
-5281 179 0
-5281 220 0
-5281 149 0
-5281 7 0
-5282 203 0
-5282 196 0
-5282 149 0
-5282 7 0
-5283 170 0
-5283 230 0
-5283 7 0
-5284 179 0
-5284 7 0
-5285 203 0
-5285 188 0
-5285 7 0
-5286 17 0
-5286 75 0
-5286 247 0
-5286 203 0
-5287 17 0
-5287 75 0
-5287 238 0
-5288 230 0
-5288 17 0
-5288 75 0
-5288 220 0
-5289 83 0
-5289 17 0
-5289 179 0
-5289 247 0
-5290 83 0
-5290 17 0
-5290 188 0
-5290 238 0
-5291 83 0
-5291 17 0
-5291 230 0
-5291 196 0
-5292 170 0
-5292 17 0
-5292 247 0
-5293 188 0
-5293 17 0
-5293 220 0
-5294 17 0
-5294 196 0
-5295 101 0
-5295 17 0
-5295 170 0
-5295 238 0
-5296 101 0
-5296 17 0
-5296 179 0
-5296 220 0
-5297 101 0
-5297 17 0
-5297 203 0
-5297 196 0
-5298 170 0
-5298 17 0
-5298 109 0
-5298 230 0
-5299 17 0
-5299 179 0
-5299 109 0
-5300 17 0
-5300 203 0
-5300 109 0
-5300 188 0
-5301 203 0
-5301 65 0
-5301 247 0
-5302 238 0
-5302 65 0
-5303 230 0
-5303 65 0
-5303 220 0
-5304 83 0
-5304 247 0
-5304 140 0
-5305 83 0
-5305 238 0
-5305 149 0
-5306 83 0
-5306 230 0
-5307 247 0
-5307 131 0
-5308 220 0
-5308 149 0
-5309 101 0
-5309 238 0
-5309 131 0
-5310 101 0
-5310 140 0
-5310 220 0
-5311 101 0
-5311 203 0
-5312 230 0
-5312 109 0
-5312 131 0
-5313 140 0
-5313 109 0
-5314 203 0
-5314 109 0
-5314 149 0
-5315 179 0
-5315 65 0
-5315 247 0
-5315 35 0
-5316 238 0
-5316 65 0
-5316 188 0
-5316 35 0
-5317 230 0
-5317 65 0
-5317 196 0
-5317 35 0
-5318 140 0
-5318 75 0
-5318 247 0
-5318 35 0
-5319 238 0
-5319 75 0
-5319 149 0
-5319 35 0
-5320 230 0
-5320 75 0
-5320 35 0
-5321 123 0
-5321 247 0
-5321 35 0
-5322 196 0
-5322 149 0
-5322 35 0
-5323 188 0
-5323 35 0
-5324 101 0
-5324 238 0
-5324 123 0
-5324 35 0
-5325 101 0
-5325 140 0
-5325 196 0
-5325 35 0
-5326 101 0
-5326 179 0
-5326 35 0
-5327 230 0
-5327 123 0
-5327 109 0
-5327 35 0
-5328 140 0
-5328 109 0
-5328 188 0
-5328 35 0
-5329 179 0
-5329 109 0
-5329 149 0
-5329 35 0
-5330 170 0
-5330 65 0
-5330 247 0
-5330 44 0
-5331 65 0
-5331 220 0
-5331 188 0
-5331 44 0
-5332 65 0
-5332 44 0
-5332 196 0
-5333 75 0
-5333 247 0
-5333 131 0
-5333 44 0
-5334 75 0
-5334 220 0
-5334 44 0
-5334 149 0
-5335 75 0
-5335 44 0
-5336 83 0
-5336 123 0
-5336 247 0
-5336 44 0
-5337 83 0
-5337 44 0
-5337 149 0
-5337 196 0
-5338 83 0
-5338 44 0
-5338 188 0
-5339 101 0
-5339 123 0
-5339 220 0
-5339 44 0
-5340 101 0
-5340 131 0
-5340 44 0
-5340 196 0
-5341 101 0
-5341 170 0
-5341 44 0
-5342 123 0
-5342 109 0
-5342 44 0
-5343 188 0
-5343 109 0
-5343 131 0
-5343 44 0
-5344 170 0
-5344 109 0
-5344 44 0
-5344 149 0
-5345 170 0
-5345 238 0
-5345 53 0
-5345 65 0
-5346 179 0
-5346 53 0
-5346 220 0
-5346 65 0
-5347 203 0
-5347 53 0
-5347 196 0
-5347 65 0
-5348 238 0
-5348 75 0
-5348 53 0
-5348 131 0
-5349 140 0
-5349 75 0
-5349 53 0
-5349 220 0
-5350 75 0
-5350 53 0
-5350 203 0
-5351 83 0
-5351 238 0
-5351 123 0
-5351 53 0
-5352 83 0
-5352 53 0
-5352 140 0
-5352 196 0
-5353 83 0
-5353 179 0
-5353 53 0
-5354 123 0
-5354 53 0
-5354 220 0
-5355 53 0
-5355 131 0
-5355 196 0
-5356 170 0
-5356 53 0
-5357 123 0
-5357 53 0
-5357 109 0
-5357 203 0
-5358 179 0
-5358 53 0
-5358 109 0
-5358 131 0
-5359 140 0
-5359 170 0
-5359 53 0
-5359 109 0
-5360 170 0
-5360 65 0
-5360 230 0
-5360 61 0
-5361 179 0
-5361 65 0
-5361 61 0
-5362 203 0
-5362 65 0
-5362 188 0
-5362 61 0
-5363 230 0
-5363 75 0
-5363 131 0
-5363 61 0
-5364 140 0
-5364 75 0
-5364 61 0
-5365 75 0
-5365 61 0
-5365 149 0
-5365 203 0
-5366 83 0
-5366 123 0
-5366 230 0
-5366 61 0
-5367 83 0
-5367 140 0
-5367 188 0
-5367 61 0
-5368 83 0
-5368 179 0
-5368 149 0
-5368 61 0
-5369 123 0
-5369 61 0
-5370 131 0
-5370 188 0
-5370 61 0
-5371 170 0
-5371 149 0
-5371 61 0
-5372 101 0
-5372 123 0
-5372 61 0
-5372 203 0
-5373 101 0
-5373 179 0
-5373 131 0
-5373 61 0
-5374 101 0
-5374 170 0
-5374 140 0
-5374 61 0
-27 -92 -157 -212 5271 5272 5273 5274 5275 5276 5277 5278 5279 5280 5281 5282 5283 5284 5285 5286 5287 5288 5289 5290 5291 5292 5293 5294 5295 5296 5297 5298 5299 5300 5301 5302 5303 5304 5305 5306 5307 5308 5309 5310 5311 5312 5313 5314 5315 5316 5317 5318 5319 5320 5321 5322 5323 5324 5325 5326 5327 5328 5329 5330 5331 5332 5333 5334 5335 5336 5337 5338 5339 5340 5341 5342 5343 5344 5345 5346 5347 5348 5349 5350 5351 5352 5353 5354 5355 5356 5357 5358 5359 5360 5361 5362 5363 5364 5365 5366 5367 5368 5369 5370 5371 5372 5373 5374 0
-5375 203 0
-5375 126 0
-5375 7 0
-5375 249 0
-5376 240 0
-5376 126 0
-5376 7 0
-5377 222 0
-5377 126 0
-5377 230 0
-5377 7 0
-5378 134 0
-5378 179 0
-5378 7 0
-5378 249 0
-5379 134 0
-5379 240 0
-5379 188 0
-5379 7 0
-5380 230 0
-5380 134 0
-5380 7 0
-5380 198 0
-5381 170 0
-5381 143 0
-5381 7 0
-5381 249 0
-5382 222 0
-5382 143 0
-5382 188 0
-5382 7 0
-5383 143 0
-5383 7 0
-5383 198 0
-5384 170 0
-5384 152 0
-5384 240 0
-5384 7 0
-5385 222 0
-5385 152 0
-5385 179 0
-5385 7 0
-5386 203 0
-5386 152 0
-5386 7 0
-5386 198 0
-5387 170 0
-5387 230 0
-5387 7 0
-5388 179 0
-5388 7 0
-5389 203 0
-5389 188 0
-5389 7 0
-5390 18 0
-5390 75 0
-5390 203 0
-5390 249 0
-5391 18 0
-5391 240 0
-5391 75 0
-5392 222 0
-5392 18 0
-5392 75 0
-5392 230 0
-5393 83 0
-5393 18 0
-5393 179 0
-5393 249 0
-5394 83 0
-5394 18 0
-5394 240 0
-5394 188 0
-5395 83 0
-5395 18 0
-5395 230 0
-5395 198 0
-5396 170 0
-5396 18 0
-5396 249 0
-5397 222 0
-5397 18 0
-5397 188 0
-5398 18 0
-5398 198 0
-5399 101 0
-5399 18 0
-5399 240 0
-5399 170 0
-5400 101 0
-5400 18 0
-5400 222 0
-5400 179 0
-5401 101 0
-5401 18 0
-5401 198 0
-5401 203 0
-5402 170 0
-5402 18 0
-5402 230 0
-5402 111 0
-5403 18 0
-5403 179 0
-5403 111 0
-5404 18 0
-5404 203 0
-5404 188 0
-5404 111 0
-5405 203 0
-5405 66 0
-5405 249 0
-5406 240 0
-5406 66 0
-5407 222 0
-5407 230 0
-5407 66 0
-5408 83 0
-5408 143 0
-5408 249 0
-5409 83 0
-5409 152 0
-5409 240 0
-5410 83 0
-5410 230 0
-5411 134 0
-5411 249 0
-5412 222 0
-5412 152 0
-5413 101 0
-5413 134 0
-5413 240 0
-5414 101 0
-5414 143 0
-5414 222 0
-5415 101 0
-5415 203 0
-5416 230 0
-5416 134 0
-5416 111 0
-5417 143 0
-5417 111 0
-5418 111 0
-5418 152 0
-5418 203 0
-5419 35 0
-5419 179 0
-5419 66 0
-5419 249 0
-5420 240 0
-5420 188 0
-5420 66 0
-5420 35 0
-5421 230 0
-5421 66 0
-5421 35 0
-5421 198 0
-5422 35 0
-5422 143 0
-5422 75 0
-5422 249 0
-5423 75 0
-5423 240 0
-5423 152 0
-5423 35 0
-5424 230 0
-5424 75 0
-5424 35 0
-5425 35 0
-5425 126 0
-5425 249 0
-5426 35 0
-5426 152 0
-5426 198 0
-5427 188 0
-5427 35 0
-5428 101 0
-5428 240 0
-5428 126 0
-5428 35 0
-5429 101 0
-5429 143 0
-5429 35 0
-5429 198 0
-5430 101 0
-5430 179 0
-5430 35 0
-5431 230 0
-5431 126 0
-5431 35 0
-5431 111 0
-5432 35 0
-5432 143 0
-5432 188 0
-5432 111 0
-5433 35 0
-5433 152 0
-5433 179 0
-5433 111 0
-5434 170 0
-5434 44 0
-5434 66 0
-5434 249 0
-5435 222 0
-5435 66 0
-5435 188 0
-5435 44 0
-5436 44 0
-5436 66 0
-5436 198 0
-5437 134 0
-5437 75 0
-5437 44 0
-5437 249 0
-5438 222 0
-5438 75 0
-5438 152 0
-5438 44 0
-5439 75 0
-5439 44 0
-5440 83 0
-5440 126 0
-5440 44 0
-5440 249 0
-5441 83 0
-5441 152 0
-5441 44 0
-5441 198 0
-5442 83 0
-5442 44 0
-5442 188 0
-5443 101 0
-5443 126 0
-5443 222 0
-5443 44 0
-5444 101 0
-5444 134 0
-5444 44 0
-5444 198 0
-5445 101 0
-5445 170 0
-5445 44 0
-5446 126 0
-5446 44 0
-5446 111 0
-5447 134 0
-5447 188 0
-5447 44 0
-5447 111 0
-5448 170 0
-5448 152 0
-5448 44 0
-5448 111 0
-5449 170 0
-5449 240 0
-5449 53 0
-5449 66 0
-5450 222 0
-5450 179 0
-5450 53 0
-5450 66 0
-5451 203 0
-5451 53 0
-5451 66 0
-5451 198 0
-5452 134 0
-5452 75 0
-5452 53 0
-5452 240 0
-5453 222 0
-5453 143 0
-5453 53 0
-5453 75 0
-5454 75 0
-5454 53 0
-5454 203 0
-5455 83 0
-5455 53 0
-5455 126 0
-5455 240 0
-5456 83 0
-5456 143 0
-5456 53 0
-5456 198 0
-5457 83 0
-5457 179 0
-5457 53 0
-5458 222 0
-5458 53 0
-5458 126 0
-5459 134 0
-5459 53 0
-5459 198 0
-5460 170 0
-5460 53 0
-5461 203 0
-5461 53 0
-5461 126 0
-5461 111 0
-5462 134 0
-5462 179 0
-5462 53 0
-5462 111 0
-5463 170 0
-5463 143 0
-5463 53 0
-5463 111 0
-5464 170 0
-5464 63 0
-5464 230 0
-5464 66 0
-5465 63 0
-5465 66 0
-5465 179 0
-5466 63 0
-5466 188 0
-5466 66 0
-5466 203 0
-5467 230 0
-5467 134 0
-5467 63 0
-5467 75 0
-5468 143 0
-5468 63 0
-5468 75 0
-5469 63 0
-5469 75 0
-5469 152 0
-5469 203 0
-5470 83 0
-5470 63 0
-5470 126 0
-5470 230 0
-5471 83 0
-5471 143 0
-5471 63 0
-5471 188 0
-5472 83 0
-5472 63 0
-5472 152 0
-5472 179 0
-5473 63 0
-5473 126 0
-5474 134 0
-5474 63 0
-5474 188 0
-5475 170 0
-5475 63 0
-5475 152 0
-5476 101 0
-5476 63 0
-5476 126 0
-5476 203 0
-5477 101 0
-5477 134 0
-5477 63 0
-5477 179 0
-5478 101 0
-5478 143 0
-5478 63 0
-5478 170 0
-27 -92 -162 -212 5375 5376 5377 5378 5379 5380 5381 5382 5383 5384 5385 5386 5387 5388 5389 5390 5391 5392 5393 5394 5395 5396 5397 5398 5399 5400 5401 5402 5403 5404 5405 5406 5407 5408 5409 5410 5411 5412 5413 5414 5415 5416 5417 5418 5419 5420 5421 5422 5423 5424 5425 5426 5427 5428 5429 5430 5431 5432 5433 5434 5435 5436 5437 5438 5439 5440 5441 5442 5443 5444 5445 5446 5447 5448 5449 5450 5451 5452 5453 5454 5455 5456 5457 5458 5459 5460 5461 5462 5463 5464 5465 5466 5467 5468 5469 5470 5471 5472 5473 5474 5475 5476 5477 5478 0
-5479 250 0
-5479 9 0
-5479 123 0
-5479 207 0
-5480 9 0
-5480 123 0
-5480 241 0
-5480 216 0
-5481 9 0
-5481 123 0
-5481 223 0
-5482 250 0
-5482 9 0
-5482 180 0
-5482 132 0
-5483 9 0
-5483 241 0
-5483 189 0
-5483 132 0
-5484 9 0
-5484 196 0
-5484 132 0
-5485 250 0
-5485 9 0
-5485 141 0
-5485 171 0
-5486 9 0
-5486 141 0
-5486 189 0
-5486 223 0
-5487 9 0
-5487 141 0
-5487 216 0
-5487 196 0
-5488 9 0
-5488 171 0
-5488 241 0
-5488 150 0
-5489 223 0
-5489 9 0
-5489 180 0
-5489 150 0
-5490 9 0
-5490 150 0
-5490 196 0
-5490 207 0
-5491 9 0
-5491 171 0
-5492 9 0
-5492 180 0
-5492 216 0
-5493 9 0
-5493 189 0
-5493 207 0
-5494 17 0
-5494 81 0
-5494 250 0
-5494 207 0
-5495 17 0
-5495 81 0
-5495 241 0
-5495 216 0
-5496 17 0
-5496 81 0
-5496 223 0
-5497 250 0
-5497 17 0
-5497 180 0
-5498 17 0
-5498 241 0
-5498 189 0
-5499 17 0
-5499 196 0
-5500 250 0
-5500 17 0
-5500 171 0
-5500 99 0
-5501 99 0
-5501 17 0
-5501 189 0
-5501 223 0
-5502 17 0
-5502 216 0
-5502 99 0
-5502 196 0
-5503 108 0
-5503 17 0
-5503 171 0
-5503 241 0
-5504 108 0
-5504 17 0
-5504 180 0
-5504 223 0
-5505 108 0
-5505 17 0
-5505 196 0
-5505 207 0
-5506 17 0
-5506 171 0
-5506 115 0
-5507 17 0
-5507 180 0
-5507 216 0
-5507 115 0
-5508 17 0
-5508 115 0
-5508 189 0
-5508 207 0
-5509 250 0
-5509 71 0
-5509 207 0
-5510 71 0
-5510 241 0
-5510 216 0
-5511 223 0
-5511 71 0
-5512 250 0
-5512 141 0
-5513 241 0
-5513 150 0
-5514 250 0
-5514 99 0
-5514 132 0
-5515 223 0
-5515 99 0
-5515 150 0
-5516 99 0
-5516 216 0
-5517 108 0
-5517 241 0
-5517 132 0
-5518 108 0
-5518 223 0
-5518 141 0
-5519 108 0
-5519 207 0
-5520 115 0
-5520 132 0
-5521 141 0
-5521 115 0
-5521 216 0
-5522 150 0
-5522 115 0
-5522 207 0
-5523 36 0
-5523 71 0
-5523 180 0
-5523 250 0
-5524 36 0
-5524 71 0
-5524 241 0
-5524 189 0
-5525 36 0
-5525 71 0
-5525 196 0
-5526 36 0
-5526 81 0
-5526 141 0
-5526 250 0
-5527 36 0
-5527 81 0
-5527 241 0
-5527 150 0
-5528 36 0
-5528 81 0
-5529 36 0
-5529 99 0
-5529 123 0
-5529 250 0
-5530 36 0
-5530 99 0
-5530 196 0
-5530 150 0
-5531 36 0
-5531 99 0
-5531 189 0
-5532 36 0
-5532 123 0
-5532 241 0
-5532 108 0
-5533 36 0
-5533 141 0
-5533 196 0
-5533 108 0
-5534 36 0
-5534 180 0
-5534 108 0
-5535 36 0
-5535 123 0
-5535 115 0
-5536 36 0
-5536 141 0
-5536 115 0
-5536 189 0
-5537 36 0
-5537 180 0
-5537 115 0
-5537 150 0
-5538 250 0
-5538 71 0
-5538 171 0
-5538 45 0
-5539 45 0
-5539 223 0
-5539 71 0
-5539 189 0
-5540 71 0
-5540 216 0
-5540 45 0
-5540 196 0
-5541 250 0
-5541 81 0
-5541 45 0
-5541 132 0
-5542 81 0
-5542 223 0
-5542 45 0
-5542 150 0
-5543 81 0
-5543 216 0
-5543 45 0
-5544 250 0
-5544 123 0
-5544 45 0
-5545 196 0
-5545 45 0
-5545 150 0
-5546 45 0
-5546 189 0
-5547 108 0
-5547 223 0
-5547 123 0
-5547 45 0
-5548 108 0
-5548 196 0
-5548 45 0
-5548 132 0
-5549 108 0
-5549 171 0
-5549 45 0
-5550 123 0
-5550 115 0
-5550 216 0
-5550 45 0
-5551 45 0
-5551 115 0
-5551 189 0
-5551 132 0
-5552 171 0
-5552 115 0
-5552 45 0
-5552 150 0
-5553 71 0
-5553 171 0
-5553 54 0
-5553 241 0
-5554 223 0
-5554 71 0
-5554 180 0
-5554 54 0
-5555 71 0
-5555 54 0
-5555 196 0
-5555 207 0
-5556 81 0
-5556 241 0
-5556 54 0
-5556 132 0
-5557 81 0
-5557 141 0
-5557 54 0
-5557 223 0
-5558 81 0
-5558 54 0
-5558 207 0
-5559 123 0
-5559 54 0
-5559 241 0
-5560 141 0
-5560 54 0
-5560 196 0
-5561 180 0
-5561 54 0
-5562 99 0
-5562 123 0
-5562 54 0
-5562 223 0
-5563 99 0
-5563 54 0
-5563 196 0
-5563 132 0
-5564 99 0
-5564 171 0
-5564 54 0
-5565 123 0
-5565 115 0
-5565 54 0
-5565 207 0
-5566 180 0
-5566 54 0
-5566 115 0
-5566 132 0
-5567 171 0
-5567 115 0
-5567 141 0
-5567 54 0
-5568 71 0
-5568 171 0
-5568 61 0
-5569 71 0
-5569 180 0
-5569 216 0
-5569 61 0
-5570 71 0
-5570 61 0
-5570 189 0
-5570 207 0
-5571 81 0
-5571 61 0
-5571 132 0
-5572 81 0
-5572 141 0
-5572 216 0
-5572 61 0
-5573 81 0
-5573 61 0
-5573 150 0
-5573 207 0
-5574 123 0
-5574 61 0
-5575 141 0
-5575 189 0
-5575 61 0
-5576 61 0
-5576 180 0
-5576 150 0
-5577 99 0
-5577 123 0
-5577 216 0
-5577 61 0
-5578 99 0
-5578 61 0
-5578 189 0
-5578 132 0
-5579 99 0
-5579 171 0
-5579 61 0
-5579 150 0
-5580 108 0
-5580 123 0
-5580 61 0
-5580 207 0
-5581 108 0
-5581 61 0
-5581 180 0
-5581 132 0
-5582 108 0
-5582 141 0
-5582 171 0
-5582 61 0
-27 -90 -157 -234 5479 5480 5481 5482 5483 5484 5485 5486 5487 5488 5489 5490 5491 5492 5493 5494 5495 5496 5497 5498 5499 5500 5501 5502 5503 5504 5505 5506 5507 5508 5509 5510 5511 5512 5513 5514 5515 5516 5517 5518 5519 5520 5521 5522 5523 5524 5525 5526 5527 5528 5529 5530 5531 5532 5533 5534 5535 5536 5537 5538 5539 5540 5541 5542 5543 5544 5545 5546 5547 5548 5549 5550 5551 5552 5553 5554 5555 5556 5557 5558 5559 5560 5561 5562 5563 5564 5565 5566 5567 5568 5569 5570 5571 5572 5573 5574 5575 5576 5577 5578 5579 5580 5581 5582 0
-253 -308 -5583 0
253 308 -5583 0
253 -308 5583 0
-253 308 5583 0
-5583 -344 -5584 0
5583 344 -5584 0
5583 -344 5584 0
-5583 344 5584 0
-5584 -491 -5585 0
5584 491 -5585 0
5584 -491 5585 0
-5584 491 5585 0
-1 -56 -92 -118 -212 -239 5585 0
-266 -301 -5586 0
266 301 -5586 0
266 -301 5586 0
-266 301 5586 0
-5586 -409 -5587 0
5586 409 -5587 0
5586 -409 5587 0
-5586 409 5587 0
-5587 -496 -5588 0
5587 496 -5588 0
5587 -496 5588 0
-5587 496 5588 0
-14 -49 -77 -157 -199 -244 5588 0
-5589 2 0
-5589 125 0
-5589 249 0
-5590 237 0
-5590 125 0
-5590 2 0
-5590 209 0
-5591 2 0
-5591 125 0
-5591 219 0
-5591 227 0
-5592 133 0
-5592 175 0
-5592 2 0
-5592 249 0
-5593 133 0
-5593 2 0
-5593 237 0
-5593 185 0
-5594 133 0
-5594 2 0
-5594 195 0
-5594 227 0
-5595 142 0
-5595 2 0
-5595 166 0
-5595 249 0
-5596 142 0
-5596 2 0
-5596 219 0
-5596 185 0
-5597 142 0
-5597 2 0
-5597 195 0
-5597 209 0
-5598 237 0
-5598 2 0
-5598 166 0
-5598 152 0
-5599 2 0
-5599 152 0
-5599 219 0
-5599 175 0
-5600 2 0
-5600 152 0
-5600 195 0
-5601 2 0
-5601 166 0
-5601 227 0
-5602 2 0
-5602 209 0
-5602 175 0
-5603 2 0
-5603 185 0
-5604 12 0
-5604 249 0
-5605 237 0
-5605 209 0
-5605 12 0
-5606 227 0
-5606 219 0
-5606 12 0
-5607 175 0
-5607 85 0
-5607 12 0
-5607 249 0
-5608 237 0
-5608 85 0
-5608 12 0
-5608 185 0
-5609 85 0
-5609 195 0
-5609 227 0
-5609 12 0
-5610 12 0
-5610 166 0
-5610 94 0
-5610 249 0
-5611 185 0
-5611 94 0
-5611 219 0
-5611 12 0
-5612 94 0
-5612 209 0
-5612 12 0
-5612 195 0
-5613 237 0
-5613 104 0
-5613 166 0
-5613 12 0
-5614 104 0
-5614 219 0
-5614 12 0
-5614 175 0
-5615 104 0
-5615 195 0
-5615 12 0
-5616 114 0
-5616 166 0
-5616 227 0
-5616 12 0
-5617 114 0
-5617 209 0
-5617 12 0
-5617 175 0
-5618 185 0
-5618 114 0
-5618 12 0
-5619 69 0
-5619 20 0
-5619 249 0
-5620 69 0
-5620 237 0
-5620 209 0
-5620 20 0
-5621 69 0
-5621 219 0
-5621 227 0
-5621 20 0
-5622 142 0
-5622 85 0
-5622 20 0
-5622 249 0
-5623 237 0
-5623 85 0
-5623 152 0
-5623 20 0
-5624 85 0
-5624 227 0
-5624 20 0
-5625 133 0
-5625 94 0
-5625 20 0
-5625 249 0
-5626 152 0
-5626 94 0
-5626 219 0
-5626 20 0
-5627 94 0
-5627 209 0
-5627 20 0
-5628 133 0
-5628 104 0
-5628 237 0
-5628 20 0
-5629 142 0
-5629 104 0
-5629 219 0
-5629 20 0
-5630 104 0
-5630 20 0
-5631 133 0
-5631 114 0
-5631 227 0
-5631 20 0
-5632 142 0
-5632 114 0
-5632 209 0
-5632 20 0
-5633 152 0
-5633 114 0
-5633 20 0
-5634 69 0
-5634 175 0
-5634 28 0
-5634 249 0
-5635 69 0
-5635 185 0
-5635 237 0
-5635 28 0
-5636 69 0
-5636 195 0
-5636 227 0
-5636 28 0
-5637 142 0
-5637 28 0
-5637 249 0
-5638 237 0
-5638 152 0
-5638 28 0
-5639 227 0
-5639 28 0
-5640 125 0
-5640 94 0
-5640 28 0
-5640 249 0
-5641 152 0
-5641 94 0
-5641 28 0
-5641 195 0
-5642 185 0
-5642 94 0
-5642 28 0
-5643 237 0
-5643 125 0
-5643 104 0
-5643 28 0
-5644 142 0
-5644 104 0
-5644 195 0
-5644 28 0
-5645 104 0
-5645 28 0
-5645 175 0
-5646 125 0
-5646 114 0
-5646 227 0
-5646 28 0
-5647 142 0
-5647 185 0
-5647 114 0
-5647 28 0
-5648 152 0
-5648 114 0
-5648 28 0
-5648 175 0
-5649 69 0
-5649 37 0
-5649 166 0
-5649 249 0
-5650 69 0
-5650 185 0
-5650 37 0
-5650 219 0
-5651 69 0
-5651 37 0
-5651 209 0
-5651 195 0
-5652 133 0
-5652 37 0
-5652 249 0
-5653 152 0
-5653 37 0
-5653 219 0
-5654 37 0
-5654 209 0
-5655 125 0
-5655 37 0
-5655 85 0
-5655 249 0
-5656 85 0
-5656 37 0
-5656 152 0
-5656 195 0
-5657 85 0
-5657 37 0
-5657 185 0
-5658 125 0
-5658 104 0
-5658 37 0
-5658 219 0
-5659 133 0
-5659 104 0
-5659 37 0
-5659 195 0
-5660 37 0
-5660 104 0
-5660 166 0
-5661 125 0
-5661 114 0
-5661 37 0
-5661 209 0
-5662 133 0
-5662 185 0
-5662 114 0
-5662 37 0
-5663 152 0
-5663 114 0
-5663 166 0
-5663 37 0
-5664 69 0
-5664 166 0
-5664 237 0
-5665 69 0
-5665 219 0
-5665 175 0
-5666 69 0
-5666 195 0
-5667 133 0
-5667 237 0
-5668 142 0
-5668 219 0
-5669 237 0
-5669 125 0
-5669 85 0
-5670 142 0
-5670 85 0
-5670 195 0
-5671 85 0
-5671 175 0
-5672 125 0
-5672 94 0
-5672 219 0
-5673 133 0
-5673 94 0
-5673 195 0
-5674 166 0
-5674 94 0
-5675 125 0
-5675 114 0
-5676 133 0
-5676 114 0
-5676 175 0
-5677 142 0
-5677 114 0
-5677 166 0
-5678 69 0
-5678 57 0
-5678 166 0
-5678 227 0
-5679 69 0
-5679 57 0
-5679 209 0
-5679 175 0
-5680 69 0
-5680 185 0
-5680 57 0
-5681 133 0
-5681 57 0
-5681 227 0
-5682 142 0
-5682 57 0
-5682 209 0
-5683 152 0
-5683 57 0
-5684 227 0
-5684 125 0
-5684 57 0
-5684 85 0
-5685 142 0
-5685 85 0
-5685 57 0
-5685 185 0
-5686 85 0
-5686 57 0
-5686 152 0
-5686 175 0
-5687 125 0
-5687 57 0
-5687 209 0
-5687 94 0
-5688 133 0
-5688 185 0
-5688 57 0
-5688 94 0
-5689 57 0
-5689 152 0
-5689 166 0
-5689 94 0
-5690 125 0
-5690 104 0
-5690 57 0
-5691 133 0
-5691 104 0
-5691 57 0
-5691 175 0
-5692 142 0
-5692 104 0
-5692 57 0
-5692 166 0
-47 -77 -162 -199 5589 5590 5591 5592 5593 5594 5595 5596 5597 5598 5599 5600 5601 5602 5603 5604 5605 5606 5607 5608 5609 5610 5611 5612 5613 5614 5615 5616 5617 5618 5619 5620 5621 5622 5623 5624 5625 5626 5627 5628 5629 5630 5631 5632 5633 5634 5635 5636 5637 5638 5639 5640 5641 5642 5643 5644 5645 5646 5647 5648 5649 5650 5651 5652 5653 5654 5655 5656 5657 5658 5659 5660 5661 5662 5663 5664 5665 5666 5667 5668 5669 5670 5671 5672 5673 5674 5675 5676 5677 5678 5679 5680 5681 5682 5683 5684 5685 5686 5687 5688 5689 5690 5691 5692 0
-5693 3 0
-5693 248 0
-5693 206 0
-5694 3 0
-5694 215 0
-5695 230 0
-5695 224 0
-5695 3 0
-5696 129 0
-5696 173 0
-5696 3 0
-5696 248 0
-5697 3 0
-5697 129 0
-5697 182 0
-5698 230 0
-5698 191 0
-5698 3 0
-5698 129 0
-5699 137 0
-5699 3 0
-5699 248 0
-5699 165 0
-5700 224 0
-5700 3 0
-5700 137 0
-5700 182 0
-5701 191 0
-5701 3 0
-5701 215 0
-5701 137 0
-5702 146 0
-5702 165 0
-5702 3 0
-5703 224 0
-5703 146 0
-5703 173 0
-5703 3 0
-5704 191 0
-5704 146 0
-5704 206 0
-5704 3 0
-5705 230 0
-5705 155 0
-5705 3 0
-5705 165 0
-5706 155 0
-5706 3 0
-5706 215 0
-5706 173 0
-5707 155 0
-5707 3 0
-5707 182 0
-5707 206 0
-5708 10 0
-5708 248 0
-5708 206 0
-5708 79 0
-5709 10 0
-5709 215 0
-5709 79 0
-5710 230 0
-5710 224 0
-5710 10 0
-5710 79 0
-5711 173 0
-5711 10 0
-5711 248 0
-5712 10 0
-5712 182 0
-5713 230 0
-5713 191 0
-5713 10 0
-5714 98 0
-5714 10 0
-5714 248 0
-5714 165 0
-5715 98 0
-5715 224 0
-5715 10 0
-5715 182 0
-5716 98 0
-5716 191 0
-5716 10 0
-5716 215 0
-5717 10 0
-5717 107 0
-5717 165 0
-5718 224 0
-5718 10 0
-5718 173 0
-5718 107 0
-5719 191 0
-5719 10 0
-5719 206 0
-5719 107 0
-5720 230 0
-5720 10 0
-5720 116 0
-5720 165 0
-5721 116 0
-5721 10 0
-5721 215 0
-5721 173 0
-5722 10 0
-5722 116 0
-5722 182 0
-5722 206 0
-5723 70 0
-5723 19 0
-5723 248 0
-5723 206 0
-5724 70 0
-5724 215 0
-5724 19 0
-5725 230 0
-5725 70 0
-5725 224 0
-5725 19 0
-5726 137 0
-5726 19 0
-5726 248 0
-5727 146 0
-5727 19 0
-5728 230 0
-5728 155 0
-5728 19 0
-5729 98 0
-5729 129 0
-5729 19 0
-5729 248 0
-5730 98 0
-5730 224 0
-5730 146 0
-5730 19 0
-5731 98 0
-5731 155 0
-5731 215 0
-5731 19 0
-5732 19 0
-5732 129 0
-5732 107 0
-5733 224 0
-5733 19 0
-5733 137 0
-5733 107 0
-5734 155 0
-5734 19 0
-5734 206 0
-5734 107 0
-5735 230 0
-5735 116 0
-5735 129 0
-5735 19 0
-5736 116 0
-5736 215 0
-5736 137 0
-5736 19 0
-5737 146 0
-5737 116 0
-5737 19 0
-5737 206 0
-5738 30 0
-5738 70 0
-5738 173 0
-5738 248 0
-5739 30 0
-5739 70 0
-5739 182 0
-5740 230 0
-5740 30 0
-5740 70 0
-5740 191 0
-5741 30 0
-5741 137 0
-5741 248 0
-5741 79 0
-5742 30 0
-5742 146 0
-5742 79 0
-5743 230 0
-5743 30 0
-5743 155 0
-5743 79 0
-5744 98 0
-5744 30 0
-5744 248 0
-5745 98 0
-5745 30 0
-5745 191 0
-5745 146 0
-5746 98 0
-5746 30 0
-5746 155 0
-5746 182 0
-5747 30 0
-5747 107 0
-5748 30 0
-5748 191 0
-5748 137 0
-5748 107 0
-5749 30 0
-5749 155 0
-5749 173 0
-5749 107 0
-5750 230 0
-5750 30 0
-5750 116 0
-5751 30 0
-5751 116 0
-5751 137 0
-5751 182 0
-5752 30 0
-5752 146 0
-5752 116 0
-5752 173 0
-5753 70 0
-5753 165 0
-5753 248 0
-5753 38 0
-5754 70 0
-5754 224 0
-5754 38 0
-5754 182 0
-5755 70 0
-5755 191 0
-5755 215 0
-5755 38 0
-5756 129 0
-5756 248 0
-5756 38 0
-5756 79 0
-5757 224 0
-5757 146 0
-5757 38 0
-5757 79 0
-5758 155 0
-5758 215 0
-5758 38 0
-5758 79 0
-5759 248 0
-5759 38 0
-5760 191 0
-5760 146 0
-5760 38 0
-5761 155 0
-5761 38 0
-5761 182 0
-5762 224 0
-5762 38 0
-5762 107 0
-5763 191 0
-5763 129 0
-5763 38 0
-5763 107 0
-5764 155 0
-5764 165 0
-5764 38 0
-5764 107 0
-5765 116 0
-5765 215 0
-5765 38 0
-5766 38 0
-5766 116 0
-5766 129 0
-5766 182 0
-5767 146 0
-5767 116 0
-5767 38 0
-5767 165 0
-5768 70 0
-5768 165 0
-5769 70 0
-5769 224 0
-5769 173 0
-5770 70 0
-5770 191 0
-5770 206 0
-5771 129 0
-5771 79 0
-5772 224 0
-5772 137 0
-5772 79 0
-5773 155 0
-5773 206 0
-5773 79 0
-5774 191 0
-5774 137 0
-5775 155 0
-5775 173 0
-5776 98 0
-5776 224 0
-5777 98 0
-5777 191 0
-5777 129 0
-5778 98 0
-5778 155 0
-5778 165 0
-5779 116 0
-5779 206 0
-5780 129 0
-5780 116 0
-5780 173 0
-5781 165 0
-5781 116 0
-5781 137 0
-5782 230 0
-5782 70 0
-5782 56 0
-5782 165 0
-5783 70 0
-5783 56 0
-5783 215 0
-5783 173 0
-5784 70 0
-5784 56 0
-5784 182 0
-5784 206 0
-5785 230 0
-5785 56 0
-5785 129 0
-5785 79 0
-5786 56 0
-5786 215 0
-5786 137 0
-5786 79 0
-5787 56 0
-5787 146 0
-5787 206 0
-5787 79 0
-5788 230 0
-5788 56 0
-5789 56 0
-5789 137 0
-5789 182 0
-5790 56 0
-5790 146 0
-5790 173 0
-5791 98 0
-5791 56 0
-5791 215 0
-5792 98 0
-5792 56 0
-5792 129 0
-5792 182 0
-5793 98 0
-5793 146 0
-5793 165 0
-5793 56 0
-5794 56 0
-5794 206 0
-5794 107 0
-5795 129 0
-5795 56 0
-5795 173 0
-5795 107 0
-5796 56 0
-5796 137 0
-5796 107 0
-5796 165 0
-47 -90 -118 -239 5693 5694 5695 5696 5697 5698 5699 5700 5701 5702 5703 5704 5705 5706 5707 5708 5709 5710 5711 5712 5713 5714 5715 5716 5717 5718 5719 5720 5721 5722 5723 5724 5725 5726 5727 5728 5729 5730 5731 5732 5733 5734 5735 5736 5737 5738 5739 5740 5741 5742 5743 5744 5745 5746 5747 5748 5749 5750 5751 5752 5753 5754 5755 5756 5757 5758 5759 5760 5761 5762 5763 5764 5765 5766 5767 5768 5769 5770 5771 5772 5773 5774 5775 5776 5777 5778 5779 5780 5781 5782 5783 5784 5785 5786 5787 5788 5789 5790 5791 5792 5793 5794 5795 5796 0
-5797 201 0
-5797 125 0
-5797 252 0
-5797 5 0
-5798 125 0
-5798 5 0
-5798 210 0
-5798 243 0
-5799 5 0
-5799 125 0
-5799 219 0
-5800 133 0
-5800 177 0
-5800 252 0
-5800 5 0
-5801 133 0
-5801 186 0
-5801 5 0
-5801 243 0
-5802 133 0
-5802 195 0
-5802 5 0
-5803 144 0
-5803 252 0
-5803 166 0
-5803 5 0
-5804 5 0
-5804 186 0
-5804 144 0
-5804 219 0
-5805 144 0
-5805 5 0
-5805 210 0
-5805 195 0
-5806 153 0
-5806 166 0
-5806 5 0
-5806 243 0
-5807 5 0
-5807 177 0
-5807 153 0
-5807 219 0
-5808 201 0
-5808 153 0
-5808 195 0
-5808 5 0
-5809 166 0
-5809 5 0
-5810 177 0
-5810 5 0
-5810 210 0
-5811 201 0
-5811 186 0
-5811 5 0
-5812 201 0
-5812 252 0
-5812 15 0
-5813 15 0
-5813 210 0
-5813 243 0
-5814 219 0
-5814 15 0
-5815 177 0
-5815 252 0
-5815 85 0
-5815 15 0
-5816 15 0
-5816 85 0
-5816 186 0
-5816 243 0
-5817 85 0
-5817 195 0
-5817 15 0
-5818 252 0
-5818 166 0
-5818 96 0
-5818 15 0
-5819 186 0
-5819 219 0
-5819 96 0
-5819 15 0
-5820 195 0
-5820 96 0
-5820 210 0
-5820 15 0
-5821 15 0
-5821 105 0
-5821 166 0
-5821 243 0
-5822 177 0
-5822 105 0
-5822 219 0
-5822 15 0
-5823 201 0
-5823 105 0
-5823 195 0
-5823 15 0
-5824 114 0
-5824 166 0
-5824 15 0
-5825 177 0
-5825 114 0
-5825 210 0
-5825 15 0
-5826 201 0
-5826 186 0
-5826 114 0
-5826 15 0
-5827 69 0
-5827 23 0
-5827 252 0
-5827 201 0
-5828 69 0
-5828 23 0
-5828 210 0
-5828 243 0
-5829 69 0
-5829 23 0
-5829 219 0
-5830 23 0
-5830 85 0
-5830 144 0
-5830 252 0
-5831 23 0
-5831 85 0
-5831 153 0
-5831 243 0
-5832 23 0
-5832 85 0
-5833 133 0
-5833 23 0
-5833 252 0
-5833 96 0
-5834 23 0
-5834 153 0
-5834 219 0
-5834 96 0
-5835 23 0
-5835 96 0
-5835 210 0
-5836 133 0
-5836 23 0
-5836 105 0
-5836 243 0
-5837 23 0
-5837 105 0
-5837 144 0
-5837 219 0
-5838 23 0
-5838 105 0
-5838 201 0
-5839 133 0
-5839 23 0
-5839 114 0
-5840 23 0
-5840 114 0
-5840 144 0
-5840 210 0
-5841 23 0
-5841 114 0
-5841 153 0
-5841 201 0
-5842 69 0
-5842 177 0
-5842 252 0
-5843 69 0
-5843 186 0
-5843 243 0
-5844 69 0
-5844 195 0
-5845 252 0
-5845 144 0
-5846 153 0
-5846 243 0
-5847 125 0
-5847 252 0
-5847 96 0
-5848 153 0
-5848 195 0
-5848 96 0
-5849 186 0
-5849 96 0
-5850 125 0
-5850 105 0
-5850 243 0
-5851 105 0
-5851 144 0
-5851 195 0
-5852 177 0
-5852 105 0
-5853 125 0
-5853 114 0
-5854 114 0
-5854 144 0
-5854 186 0
-5855 177 0
-5855 114 0
-5855 153 0
-5856 69 0
-5856 252 0
-5856 42 0
-5856 166 0
-5857 69 0
-5857 42 0
-5857 219 0
-5857 186 0
-5858 69 0
-5858 42 0
-5858 195 0
-5858 210 0
-5859 133 0
-5859 252 0
-5859 42 0
-5860 42 0
-5860 153 0
-5860 219 0
-5861 42 0
-5861 210 0
-5862 125 0
-5862 42 0
-5862 252 0
-5862 85 0
-5863 85 0
-5863 42 0
-5863 153 0
-5863 195 0
-5864 85 0
-5864 42 0
-5864 186 0
-5865 125 0
-5865 42 0
-5865 105 0
-5865 219 0
-5866 133 0
-5866 42 0
-5866 105 0
-5866 195 0
-5867 105 0
-5867 42 0
-5867 166 0
-5868 125 0
-5868 42 0
-5868 114 0
-5868 210 0
-5869 133 0
-5869 42 0
-5869 114 0
-5869 186 0
-5870 42 0
-5870 166 0
-5870 114 0
-5870 153 0
-5871 69 0
-5871 51 0
-5871 166 0
-5871 243 0
-5872 69 0
-5872 51 0
-5872 177 0
-5872 219 0
-5873 69 0
-5873 51 0
-5873 195 0
-5873 201 0
-5874 133 0
-5874 51 0
-5874 243 0
-5875 51 0
-5875 144 0
-5875 219 0
-5876 51 0
-5876 201 0
-5877 51 0
-5877 85 0
-5877 125 0
-5877 243 0
-5878 51 0
-5878 85 0
-5878 144 0
-5878 195 0
-5879 177 0
-5879 51 0
-5879 85 0
-5880 51 0
-5880 125 0
-5880 219 0
-5880 96 0
-5881 133 0
-5881 51 0
-5881 195 0
-5881 96 0
-5882 51 0
-5882 166 0
-5882 96 0
-5883 51 0
-5883 125 0
-5883 114 0
-5883 201 0
-5884 133 0
-5884 51 0
-5884 177 0
-5884 114 0
-5885 51 0
-5885 114 0
-5885 144 0
-5885 166 0
-5886 69 0
-5886 166 0
-5886 60 0
-5887 69 0
-5887 177 0
-5887 210 0
-5887 60 0
-5888 69 0
-5888 201 0
-5888 186 0
-5888 60 0
-5889 133 0
-5889 60 0
-5890 144 0
-5890 210 0
-5890 60 0
-5891 201 0
-5891 153 0
-5891 60 0
-5892 125 0
-5892 85 0
-5892 60 0
-5893 85 0
-5893 186 0
-5893 144 0
-5893 60 0
-5894 177 0
-5894 153 0
-5894 85 0
-5894 60 0
-5895 125 0
-5895 96 0
-5895 210 0
-5895 60 0
-5896 133 0
-5896 186 0
-5896 96 0
-5896 60 0
-5897 153 0
-5897 166 0
-5897 96 0
-5897 60 0
-5898 201 0
-5898 125 0
-5898 105 0
-5898 60 0
-5899 133 0
-5899 177 0
-5899 105 0
-5899 60 0
-5900 166 0
-5900 105 0
-5900 144 0
-5900 60 0
-31 -77 -162 -234 5797 5798 5799 5800 5801 5802 5803 5804 5805 5806 5807 5808 5809 5810 5811 5812 5813 5814 5815 5816 5817 5818 5819 5820 5821 5822 5823 5824 5825 5826 5827 5828 5829 5830 5831 5832 5833 5834 5835 5836 5837 5838 5839 5840 5841 5842 5843 5844 5845 5846 5847 5848 5849 5850 5851 5852 5853 5854 5855 5856 5857 5858 5859 5860 5861 5862 5863 5864 5865 5866 5867 5868 5869 5870 5871 5872 5873 5874 5875 5876 5877 5878 5879 5880 5881 5882 5883 5884 5885 5886 5887 5888 5889 5890 5891 5892 5893 5894 5895 5896 5897 5898 5899 5900 0
-5901 202 0
-5901 123 0
-5901 7 0
-5902 123 0
-5902 235 0
-5902 7 0
-5902 211 0
-5903 123 0
-5903 226 0
-5903 220 0
-5903 7 0
-5904 178 0
-5904 131 0
-5904 7 0
-5905 131 0
-5905 187 0
-5905 235 0
-5905 7 0
-5906 131 0
-5906 226 0
-5906 196 0
-5906 7 0
-5907 170 0
-5907 7 0
-5908 187 0
-5908 220 0
-5908 7 0
-5909 7 0
-5909 196 0
-5909 211 0
-5910 170 0
-5910 148 0
-5910 235 0
-5910 7 0
-5911 178 0
-5911 148 0
-5911 220 0
-5911 7 0
-5912 202 0
-5912 148 0
-5912 196 0
-5912 7 0
-5913 170 0
-5913 157 0
-5913 226 0
-5913 7 0
-5914 178 0
-5914 157 0
-5914 7 0
-5914 211 0
-5915 202 0
-5915 157 0
-5915 187 0
-5915 7 0
-5916 17 0
-5916 202 0
-5916 75 0
-5917 17 0
-5917 75 0
-5917 235 0
-5917 211 0
-5918 17 0
-5918 75 0
-5918 226 0
-5918 220 0
-5919 178 0
-5919 17 0
-5920 17 0
-5920 187 0
-5920 235 0
-5921 17 0
-5921 226 0
-5921 196 0
-5922 91 0
-5922 17 0
-5922 170 0
-5923 91 0
-5923 17 0
-5923 187 0
-5923 220 0
-5924 91 0
-5924 17 0
-5924 196 0
-5924 211 0
-5925 170 0
-5925 17 0
-5925 235 0
-5925 100 0
-5926 178 0
-5926 17 0
-5926 220 0
-5926 100 0
-5927 17 0
-5927 202 0
-5927 196 0
-5927 100 0
-5928 170 0
-5928 17 0
-5928 226 0
-5928 109 0
-5929 178 0
-5929 17 0
-5929 109 0
-5929 211 0
-5930 17 0
-5930 202 0
-5930 187 0
-5930 109 0
-5931 202 0
-5931 65 0
-5932 65 0
-5932 235 0
-5932 211 0
-5933 65 0
-5933 226 0
-5933 220 0
-5934 148 0
-5934 235 0
-5935 157 0
-5935 226 0
-5936 91 0
-5936 131 0
-5937 91 0
-5937 148 0
-5937 220 0
-5938 91 0
-5938 157 0
-5938 211 0
-5939 131 0
-5939 235 0
-5939 100 0
-5940 220 0
-5940 100 0
-5941 202 0
-5941 157 0
-5941 100 0
-5942 109 0
-5942 226 0
-5942 131 0
-5943 109 0
-5943 211 0
-5944 202 0
-5944 109 0
-5944 148 0
-5945 178 0
-5945 65 0
-5945 35 0
-5946 65 0
-5946 187 0
-5946 235 0
-5946 35 0
-5947 65 0
-5947 226 0
-5947 196 0
-5947 35 0
-5948 75 0
-5948 35 0
-5949 75 0
-5949 148 0
-5949 235 0
-5949 35 0
-5950 75 0
-5950 157 0
-5950 226 0
-5950 35 0
-5951 91 0
-5951 123 0
-5951 35 0
-5952 91 0
-5952 148 0
-5952 196 0
-5952 35 0
-5953 91 0
-5953 157 0
-5953 187 0
-5953 35 0
-5954 123 0
-5954 235 0
-5954 100 0
-5954 35 0
-5955 196 0
-5955 100 0
-5955 35 0
-5956 178 0
-5956 157 0
-5956 100 0
-5956 35 0
-5957 109 0
-5957 123 0
-5957 226 0
-5957 35 0
-5958 109 0
-5958 187 0
-5958 35 0
-5959 178 0
-5959 109 0
-5959 148 0
-5959 35 0
-5960 170 0
-5960 43 0
-5960 65 0
-5961 43 0
-5961 187 0
-5961 220 0
-5961 65 0
-5962 43 0
-5962 196 0
-5962 65 0
-5962 211 0
-5963 75 0
-5963 43 0
-5963 131 0
-5964 75 0
-5964 43 0
-5964 148 0
-5964 220 0
-5965 157 0
-5965 75 0
-5965 43 0
-5965 211 0
-5966 123 0
-5966 43 0
-5967 43 0
-5967 148 0
-5967 196 0
-5968 157 0
-5968 43 0
-5968 187 0
-5969 123 0
-5969 43 0
-5969 220 0
-5969 100 0
-5970 43 0
-5970 131 0
-5970 100 0
-5970 196 0
-5971 170 0
-5971 157 0
-5971 43 0
-5971 100 0
-5972 123 0
-5972 43 0
-5972 109 0
-5972 211 0
-5973 109 0
-5973 43 0
-5973 187 0
-5973 131 0
-5974 170 0
-5974 43 0
-5974 109 0
-5974 148 0
-5975 170 0
-5975 52 0
-5975 65 0
-5975 235 0
-5976 178 0
-5976 52 0
-5976 65 0
-5976 220 0
-5977 202 0
-5977 65 0
-5977 52 0
-5977 196 0
-5978 131 0
-5978 52 0
-5978 75 0
-5978 235 0
-5979 52 0
-5979 75 0
-5979 220 0
-5980 202 0
-5980 75 0
-5980 157 0
-5980 52 0
-5981 52 0
-5981 123 0
-5981 235 0
-5982 52 0
-5982 196 0
-5983 178 0
-5983 52 0
-5983 157 0
-5984 91 0
-5984 52 0
-5984 123 0
-5984 220 0
-5985 91 0
-5985 52 0
-5985 131 0
-5985 196 0
-5986 91 0
-5986 52 0
-5986 157 0
-5986 170 0
-5987 109 0
-5987 202 0
-5987 123 0
-5987 52 0
-5988 178 0
-5988 52 0
-5988 109 0
-5988 131 0
-5989 170 0
-5989 52 0
-5989 109 0
-5990 170 0
-5990 65 0
-5990 226 0
-5990 61 0
-5991 178 0
-5991 61 0
-5991 65 0
-5991 211 0
-5992 202 0
-5992 65 0
-5992 187 0
-5992 61 0
-5993 75 0
-5993 226 0
-5993 131 0
-5993 61 0
-5994 75 0
-5994 61 0
-5994 211 0
-5995 202 0
-5995 75 0
-5995 148 0
-5995 61 0
-5996 123 0
-5996 226 0
-5996 61 0
-5997 187 0
-5997 61 0
-5998 178 0
-5998 148 0
-5998 61 0
-5999 91 0
-5999 123 0
-5999 61 0
-5999 211 0
-6000 91 0
-6000 187 0
-6000 131 0
-6000 61 0
-6001 91 0
-6001 170 0
-6001 148 0
-6001 61 0
-6002 202 0
-6002 123 0
-6002 100 0
-6002 61 0
-6003 178 0
-6003 131 0
-6003 100 0
-6003 61 0
-6004 170 0
-6004 100 0
-6004 61 0
-27 -83 -139 -244 5901 5902 5903 5904 5905 5906 5907 5908 5909 5910 5911 5912 5913 5914 5915 5916 5917 5918 5919 5920 5921 5922 5923 5924 5925 5926 5927 5928 5929 5930 5931 5932 5933 5934 5935 5936 5937 5938 5939 5940 5941 5942 5943 5944 5945 5946 5947 5948 5949 5950 5951 5952 5953 5954 5955 5956 5957 5958 5959 5960 5961 5962 5963 5964 5965 5966 5967 5968 5969 5970 5971 5972 5973 5974 5975 5976 5977 5978 5979 5980 5981 5982 5983 5984 5985 5986 5987 5988 5989 5990 5991 5992 5993 5994 5995 5996 5997 5998 5999 6000 6001 6002 6003 6004 0
-6005 126 0
-6005 252 0
-6005 204 0
-6005 7 0
-6006 213 0
-6006 126 0
-6006 7 0
-6006 243 0
-6007 222 0
-6007 126 0
-6007 7 0
-6008 134 0
-6008 252 0
-6008 180 0
-6008 7 0
-6009 134 0
-6009 7 0
-6009 189 0
-6009 243 0
-6010 134 0
-6010 7 0
-6010 198 0
-6011 170 0
-6011 252 0
-6011 144 0
-6011 7 0
-6012 222 0
-6012 144 0
-6012 189 0
-6012 7 0
-6013 213 0
-6013 144 0
-6013 7 0
-6013 198 0
-6014 170 0
-6014 7 0
-6014 153 0
-6014 243 0
-6015 222 0
-6015 180 0
-6015 153 0
-6015 7 0
-6016 7 0
-6016 153 0
-6016 204 0
-6016 198 0
-6017 170 0
-6017 7 0
-6018 213 0
-6018 180 0
-6018 7 0
-6019 204 0
-6019 189 0
-6019 7 0
-6020 18 0
-6020 252 0
-6020 204 0
-6020 75 0
-6021 18 0
-6021 75 0
-6021 213 0
-6021 243 0
-6022 222 0
-6022 18 0
-6022 75 0
-6023 18 0
-6023 180 0
-6023 252 0
-6024 18 0
-6024 189 0
-6024 243 0
-6025 18 0
-6025 198 0
-6026 170 0
-6026 18 0
-6026 93 0
-6026 252 0
-6027 222 0
-6027 18 0
-6027 93 0
-6027 189 0
-6028 18 0
-6028 93 0
-6028 198 0
-6028 213 0
-6029 170 0
-6029 102 0
-6029 18 0
-6029 243 0
-6030 222 0
-6030 102 0
-6030 18 0
-6030 180 0
-6031 102 0
-6031 18 0
-6031 204 0
-6031 198 0
-6032 170 0
-6032 18 0
-6032 111 0
-6033 111 0
-6033 18 0
-6033 180 0
-6033 213 0
-6034 18 0
-6034 204 0
-6034 189 0
-6034 111 0
-6035 252 0
-6035 204 0
-6035 66 0
-6036 213 0
-6036 66 0
-6036 243 0
-6037 222 0
-6037 66 0
-6038 252 0
-6038 144 0
-6039 153 0
-6039 243 0
-6040 134 0
-6040 252 0
-6040 93 0
-6041 222 0
-6041 93 0
-6041 153 0
-6042 213 0
-6042 93 0
-6043 134 0
-6043 102 0
-6043 243 0
-6044 222 0
-6044 102 0
-6044 144 0
-6045 102 0
-6045 204 0
-6046 134 0
-6046 111 0
-6047 213 0
-6047 144 0
-6047 111 0
-6048 153 0
-6048 204 0
-6048 111 0
-6049 252 0
-6049 180 0
-6049 66 0
-6049 35 0
-6050 35 0
-6050 66 0
-6050 189 0
-6050 243 0
-6051 35 0
-6051 66 0
-6051 198 0
-6052 144 0
-6052 252 0
-6052 75 0
-6052 35 0
-6053 35 0
-6053 75 0
-6053 153 0
-6053 243 0
-6054 75 0
-6054 35 0
-6055 252 0
-6055 93 0
-6055 126 0
-6055 35 0
-6056 35 0
-6056 93 0
-6056 153 0
-6056 198 0
-6057 93 0
-6057 189 0
-6057 35 0
-6058 35 0
-6058 102 0
-6058 126 0
-6058 243 0
-6059 35 0
-6059 102 0
-6059 144 0
-6059 198 0
-6060 102 0
-6060 180 0
-6060 35 0
-6061 35 0
-6061 126 0
-6061 111 0
-6062 35 0
-6062 144 0
-6062 189 0
-6062 111 0
-6063 35 0
-6063 180 0
-6063 153 0
-6063 111 0
-6064 170 0
-6064 252 0
-6064 66 0
-6064 45 0
-6065 222 0
-6065 45 0
-6065 66 0
-6065 189 0
-6066 213 0
-6066 66 0
-6066 45 0
-6066 198 0
-6067 134 0
-6067 75 0
-6067 252 0
-6067 45 0
-6068 222 0
-6068 75 0
-6068 153 0
-6068 45 0
-6069 75 0
-6069 45 0
-6069 213 0
-6070 252 0
-6070 126 0
-6070 45 0
-6071 153 0
-6071 45 0
-6071 198 0
-6072 45 0
-6072 189 0
-6073 222 0
-6073 102 0
-6073 126 0
-6073 45 0
-6074 134 0
-6074 102 0
-6074 45 0
-6074 198 0
-6075 170 0
-6075 102 0
-6075 45 0
-6076 213 0
-6076 126 0
-6076 45 0
-6076 111 0
-6077 45 0
-6077 134 0
-6077 189 0
-6077 111 0
-6078 170 0
-6078 153 0
-6078 45 0
-6078 111 0
-6079 170 0
-6079 54 0
-6079 66 0
-6079 243 0
-6080 222 0
-6080 180 0
-6080 54 0
-6080 66 0
-6081 204 0
-6081 54 0
-6081 66 0
-6081 198 0
-6082 134 0
-6082 75 0
-6082 54 0
-6082 243 0
-6083 222 0
-6083 75 0
-6083 144 0
-6083 54 0
-6084 75 0
-6084 204 0
-6084 54 0
-6085 126 0
-6085 54 0
-6085 243 0
-6086 144 0
-6086 54 0
-6086 198 0
-6087 180 0
-6087 54 0
-6088 222 0
-6088 93 0
-6088 126 0
-6088 54 0
-6089 134 0
-6089 93 0
-6089 54 0
-6089 198 0
-6090 170 0
-6090 93 0
-6090 54 0
-6091 126 0
-6091 204 0
-6091 54 0
-6091 111 0
-6092 134 0
-6092 180 0
-6092 54 0
-6092 111 0
-6093 170 0
-6093 144 0
-6093 54 0
-6093 111 0
-6094 170 0
-6094 63 0
-6094 66 0
-6095 63 0
-6095 180 0
-6095 66 0
-6095 213 0
-6096 63 0
-6096 204 0
-6096 66 0
-6096 189 0
-6097 134 0
-6097 63 0
-6097 75 0
-6098 63 0
-6098 144 0
-6098 213 0
-6098 75 0
-6099 63 0
-6099 153 0
-6099 204 0
-6099 75 0
-6100 63 0
-6100 126 0
-6101 63 0
-6101 144 0
-6101 189 0
-6102 63 0
-6102 153 0
-6102 180 0
-6103 63 0
-6103 93 0
-6103 126 0
-6103 213 0
-6104 134 0
-6104 63 0
-6104 93 0
-6104 189 0
-6105 170 0
-6105 63 0
-6105 93 0
-6105 153 0
-6106 126 0
-6106 102 0
-6106 63 0
-6106 204 0
-6107 134 0
-6107 102 0
-6107 180 0
-6107 63 0
-6108 170 0
-6108 102 0
-6108 63 0
-6108 144 0
-27 -83 -162 -234 6005 6006 6007 6008 6009 6010 6011 6012 6013 6014 6015 6016 6017 6018 6019 6020 6021 6022 6023 6024 6025 6026 6027 6028 6029 6030 6031 6032 6033 6034 6035 6036 6037 6038 6039 6040 6041 6042 6043 6044 6045 6046 6047 6048 6049 6050 6051 6052 6053 6054 6055 6056 6057 6058 6059 6060 6061 6062 6063 6064 6065 6066 6067 6068 6069 6070 6071 6072 6073 6074 6075 6076 6077 6078 6079 6080 6081 6082 6083 6084 6085 6086 6087 6088 6089 6090 6091 6092 6093 6094 6095 6096 6097 6098 6099 6100 6101 6102 6103 6104 6105 6106 6107 6108 0
-6109 9 0
-6109 123 0
-6109 205 0
-6110 9 0
-6110 214 0
-6110 235 0
-6110 123 0
-6111 9 0
-6111 123 0
-6111 226 0
-6111 223 0
-6112 178 0
-6112 9 0
-6112 132 0
-6113 9 0
-6113 187 0
-6113 235 0
-6113 132 0
-6114 9 0
-6114 226 0
-6114 196 0
-6114 132 0
-6115 9 0
-6115 171 0
-6116 223 0
-6116 9 0
-6116 187 0
-6117 9 0
-6117 214 0
-6117 196 0
-6118 9 0
-6118 171 0
-6118 148 0
-6118 235 0
-6119 178 0
-6119 9 0
-6119 148 0
-6119 223 0
-6120 9 0
-6120 148 0
-6120 205 0
-6120 196 0
-6121 9 0
-6121 157 0
-6121 171 0
-6121 226 0
-6122 178 0
-6122 9 0
-6122 157 0
-6122 214 0
-6123 9 0
-6123 157 0
-6123 187 0
-6123 205 0
-6124 17 0
-6124 81 0
-6124 205 0
-6125 17 0
-6125 81 0
-6125 214 0
-6125 235 0
-6126 17 0
-6126 81 0
-6126 226 0
-6126 223 0
-6127 178 0
-6127 17 0
-6128 17 0
-6128 187 0
-6128 235 0
-6129 17 0
-6129 226 0
-6129 196 0
-6130 17 0
-6130 171 0
-6130 97 0
-6131 17 0
-6131 223 0
-6131 187 0
-6131 97 0
-6132 17 0
-6132 214 0
-6132 196 0
-6132 97 0
-6133 17 0
-6133 171 0
-6133 235 0
-6133 106 0
-6134 178 0
-6134 17 0
-6134 106 0
-6134 223 0
-6135 17 0
-6135 196 0
-6135 205 0
-6135 106 0
-6136 17 0
-6136 171 0
-6136 115 0
-6136 226 0
-6137 178 0
-6137 17 0
-6137 214 0
-6137 115 0
-6138 17 0
-6138 115 0
-6138 187 0
-6138 205 0
-6139 71 0
-6139 205 0
-6140 214 0
-6140 71 0
-6140 235 0
-6141 223 0
-6141 71 0
-6141 226 0
-6142 148 0
-6142 235 0
-6143 157 0
-6143 226 0
-6144 97 0
-6144 132 0
-6145 223 0
-6145 148 0
-6145 97 0
-6146 214 0
-6146 157 0
-6146 97 0
-6147 235 0
-6147 132 0
-6147 106 0
-6148 223 0
-6148 106 0
-6149 157 0
-6149 106 0
-6149 205 0
-6150 115 0
-6150 226 0
-6150 132 0
-6151 214 0
-6151 115 0
-6152 148 0
-6152 115 0
-6152 205 0
-6153 36 0
-6153 71 0
-6153 178 0
-6154 36 0
-6154 71 0
-6154 187 0
-6154 235 0
-6155 36 0
-6155 71 0
-6155 226 0
-6155 196 0
-6156 36 0
-6156 81 0
-6157 36 0
-6157 81 0
-6157 148 0
-6157 235 0
-6158 36 0
-6158 81 0
-6158 157 0
-6158 226 0
-6159 36 0
-6159 123 0
-6159 97 0
-6160 36 0
-6160 148 0
-6160 196 0
-6160 97 0
-6161 36 0
-6161 157 0
-6161 187 0
-6161 97 0
-6162 36 0
-6162 123 0
-6162 235 0
-6162 106 0
-6163 36 0
-6163 196 0
-6163 106 0
-6164 36 0
-6164 157 0
-6164 178 0
-6164 106 0
-6165 36 0
-6165 123 0
-6165 115 0
-6165 226 0
-6166 36 0
-6166 115 0
-6166 187 0
-6167 36 0
-6167 178 0
-6167 115 0
-6167 148 0
-6168 171 0
-6168 43 0
-6168 71 0
-6169 223 0
-6169 71 0
-6169 43 0
-6169 187 0
-6170 214 0
-6170 43 0
-6170 71 0
-6170 196 0
-6171 81 0
-6171 43 0
-6171 132 0
-6172 81 0
-6172 43 0
-6172 148 0
-6172 223 0
-6173 81 0
-6173 214 0
-6173 157 0
-6173 43 0
-6174 123 0
-6174 43 0
-6175 43 0
-6175 148 0
-6175 196 0
-6176 157 0
-6176 43 0
-6176 187 0
-6177 223 0
-6177 123 0
-6177 43 0
-6177 106 0
-6178 43 0
-6178 196 0
-6178 132 0
-6178 106 0
-6179 171 0
-6179 157 0
-6179 43 0
-6179 106 0
-6180 214 0
-6180 43 0
-6180 123 0
-6180 115 0
-6181 43 0
-6181 187 0
-6181 115 0
-6181 132 0
-6182 171 0
-6182 43 0
-6182 148 0
-6182 115 0
-6183 52 0
-6183 71 0
-6183 171 0
-6183 235 0
-6184 178 0
-6184 52 0
-6184 71 0
-6184 223 0
-6185 52 0
-6185 71 0
-6185 196 0
-6185 205 0
-6186 81 0
-6186 52 0
-6186 235 0
-6186 132 0
-6187 81 0
-6187 52 0
-6187 223 0
-6188 81 0
-6188 157 0
-6188 52 0
-6188 205 0
-6189 52 0
-6189 123 0
-6189 235 0
-6190 52 0
-6190 196 0
-6191 178 0
-6191 52 0
-6191 157 0
-6192 223 0
-6192 123 0
-6192 52 0
-6192 97 0
-6193 52 0
-6193 97 0
-6193 196 0
-6193 132 0
-6194 52 0
-6194 157 0
-6194 171 0
-6194 97 0
-6195 52 0
-6195 123 0
-6195 115 0
-6195 205 0
-6196 178 0
-6196 52 0
-6196 115 0
-6196 132 0
-6197 52 0
-6197 171 0
-6197 115 0
-6198 71 0
-6198 171 0
-6198 226 0
-6198 61 0
-6199 178 0
-6199 214 0
-6199 71 0
-6199 61 0
-6200 71 0
-6200 187 0
-6200 205 0
-6200 61 0
-6201 81 0
-6201 61 0
-6201 226 0
-6201 132 0
-6202 81 0
-6202 214 0
-6202 61 0
-6203 81 0
-6203 148 0
-6203 205 0
-6203 61 0
-6204 123 0
-6204 226 0
-6204 61 0
-6205 187 0
-6205 61 0
-6206 178 0
-6206 148 0
-6206 61 0
-6207 214 0
-6207 61 0
-6207 123 0
-6207 97 0
-6208 61 0
-6208 187 0
-6208 132 0
-6208 97 0
-6209 171 0
-6209 61 0
-6209 148 0
-6209 97 0
-6210 123 0
-6210 61 0
-6210 205 0
-6210 106 0
-6211 178 0
-6211 61 0
-6211 106 0
-6211 132 0
-6212 171 0
-6212 106 0
-6212 61 0
-27 -90 -139 -244 6109 6110 6111 6112 6113 6114 6115 6116 6117 6118 6119 6120 6121 6122 6123 6124 6125 6126 6127 6128 6129 6130 6131 6132 6133 6134 6135 6136 6137 6138 6139 6140 6141 6142 6143 6144 6145 6146 6147 6148 6149 6150 6151 6152 6153 6154 6155 6156 6157 6158 6159 6160 6161 6162 6163 6164 6165 6166 6167 6168 6169 6170 6171 6172 6173 6174 6175 6176 6177 6178 6179 6180 6181 6182 6183 6184 6185 6186 6187 6188 6189 6190 6191 6192 6193 6194 6195 6196 6197 6198 6199 6200 6201 6202 6203 6204 6205 6206 6207 6208 6209 6210 6211 6212 0
-253 -299 -6213 0
253 299 -6213 0
253 -299 6213 0
-253 299 6213 0
-6213 -335 -6214 0
6213 335 -6214 0
6213 -335 6214 0
-6213 335 6214 0
-6214 -464 -6215 0
6214 464 -6215 0
6214 -464 6215 0
-6214 464 6215 0
-1 -47 -83 -118 -212 -239 6215 0
-266 -283 -6216 0
266 283 -6216 0
266 -283 6216 0
-266 283 6216 0
-6216 -391 -6217 0
6216 391 -6217 0
6216 -391 6217 0
-6216 391 6217 0
-6217 -451 -6218 0
6217 451 -6218 0
6217 -451 6218 0
-6217 451 6218 0
-14 -31 -77 -139 -199 -244 6218 0
-6219 122 0
-6219 2 0
-6219 245 0
-6219 203 0
-6220 122 0
-6220 2 0
-6220 211 0
-6221 122 0
-6221 2 0
-6221 221 0
-6221 229 0
-6222 176 0
-6222 2 0
-6222 131 0
-6222 245 0
-6223 184 0
-6223 2 0
-6223 131 0
-6224 2 0
-6224 194 0
-6224 131 0
-6224 229 0
-6225 140 0
-6225 2 0
-6225 167 0
-6225 245 0
-6226 140 0
-6226 184 0
-6226 2 0
-6226 221 0
-6227 140 0
-6227 2 0
-6227 194 0
-6227 211 0
-6228 2 0
-6228 167 0
-6229 176 0
-6229 2 0
-6229 221 0
-6230 2 0
-6230 194 0
-6230 203 0
-6231 2 0
-6231 158 0
-6231 167 0
-6231 229 0
-6232 176 0
-6232 2 0
-6232 158 0
-6232 211 0
-6233 184 0
-6233 2 0
-6233 158 0
-6233 203 0
-6234 245 0
-6234 11 0
-6234 203 0
-6235 11 0
-6235 211 0
-6236 11 0
-6236 221 0
-6236 229 0
-6237 176 0
-6237 245 0
-6237 86 0
-6237 11 0
-6238 184 0
-6238 86 0
-6238 11 0
-6239 86 0
-6239 11 0
-6239 194 0
-6239 229 0
-6240 167 0
-6240 245 0
-6240 11 0
-6240 95 0
-6241 184 0
-6241 11 0
-6241 95 0
-6241 221 0
-6242 194 0
-6242 11 0
-6242 95 0
-6242 211 0
-6243 103 0
-6243 11 0
-6243 167 0
-6244 176 0
-6244 103 0
-6244 11 0
-6244 221 0
-6245 103 0
-6245 203 0
-6245 194 0
-6245 11 0
-6246 113 0
-6246 11 0
-6246 167 0
-6246 229 0
-6247 176 0
-6247 113 0
-6247 11 0
-6247 211 0
-6248 184 0
-6248 113 0
-6248 11 0
-6248 203 0
-6249 68 0
-6249 245 0
-6249 20 0
-6249 203 0
-6250 68 0
-6250 20 0
-6250 211 0
-6251 68 0
-6251 20 0
-6251 221 0
-6251 229 0
-6252 140 0
-6252 245 0
-6252 86 0
-6252 20 0
-6253 86 0
-6253 20 0
-6254 158 0
-6254 86 0
-6254 20 0
-6254 229 0
-6255 95 0
-6255 245 0
-6255 131 0
-6255 20 0
-6256 20 0
-6256 95 0
-6256 221 0
-6257 158 0
-6257 95 0
-6257 20 0
-6257 211 0
-6258 103 0
-6258 131 0
-6258 20 0
-6259 140 0
-6259 103 0
-6259 20 0
-6259 221 0
-6260 103 0
-6260 203 0
-6260 158 0
-6260 20 0
-6261 113 0
-6261 131 0
-6261 20 0
-6261 229 0
-6262 140 0
-6262 113 0
-6262 20 0
-6262 211 0
-6263 113 0
-6263 203 0
-6263 20 0
-6264 176 0
-6264 245 0
-6264 68 0
-6265 184 0
-6265 68 0
-6266 194 0
-6266 68 0
-6266 229 0
-6267 140 0
-6267 245 0
-6268 158 0
-6268 229 0
-6269 122 0
-6269 245 0
-6269 95 0
-6270 194 0
-6270 95 0
-6271 184 0
-6271 158 0
-6271 95 0
-6272 122 0
-6272 103 0
-6273 140 0
-6273 103 0
-6273 194 0
-6274 176 0
-6274 103 0
-6274 158 0
-6275 122 0
-6275 113 0
-6275 229 0
-6276 140 0
-6276 113 0
-6276 184 0
-6277 176 0
-6277 113 0
-6278 245 0
-6278 167 0
-6278 38 0
-6278 68 0
-6279 184 0
-6279 38 0
-6279 221 0
-6279 68 0
-6280 68 0
-6280 194 0
-6280 38 0
-6280 211 0
-6281 245 0
-6281 131 0
-6281 38 0
-6282 38 0
-6282 221 0
-6283 158 0
-6283 38 0
-6283 211 0
-6284 122 0
-6284 245 0
-6284 86 0
-6284 38 0
-6285 194 0
-6285 86 0
-6285 38 0
-6286 184 0
-6286 158 0
-6286 86 0
-6286 38 0
-6287 122 0
-6287 103 0
-6287 38 0
-6287 221 0
-6288 103 0
-6288 194 0
-6288 131 0
-6288 38 0
-6289 103 0
-6289 158 0
-6289 167 0
-6289 38 0
-6290 122 0
-6290 113 0
-6290 38 0
-6290 211 0
-6291 184 0
-6291 113 0
-6291 131 0
-6291 38 0
-6292 113 0
-6292 167 0
-6292 38 0
-6293 46 0
-6293 167 0
-6293 68 0
-6294 176 0
-6294 46 0
-6294 221 0
-6294 68 0
-6295 203 0
-6295 46 0
-6295 194 0
-6295 68 0
-6296 46 0
-6296 131 0
-6297 140 0
-6297 46 0
-6297 221 0
-6298 46 0
-6298 203 0
-6298 158 0
-6299 122 0
-6299 46 0
-6299 86 0
-6300 140 0
-6300 46 0
-6300 86 0
-6300 194 0
-6301 176 0
-6301 46 0
-6301 158 0
-6301 86 0
-6302 122 0
-6302 46 0
-6302 95 0
-6302 221 0
-6303 95 0
-6303 46 0
-6303 131 0
-6303 194 0
-6304 95 0
-6304 46 0
-6304 158 0
-6304 167 0
-6305 122 0
-6305 113 0
-6305 203 0
-6305 46 0
-6306 176 0
-6306 113 0
-6306 46 0
-6306 131 0
-6307 140 0
-6307 113 0
-6307 46 0
-6307 167 0
-6308 56 0
-6308 167 0
-6308 68 0
-6308 229 0
-6309 176 0
-6309 56 0
-6309 68 0
-6309 211 0
-6310 184 0
-6310 203 0
-6310 56 0
-6310 68 0
-6311 56 0
-6311 131 0
-6311 229 0
-6312 140 0
-6312 56 0
-6312 211 0
-6313 203 0
-6313 56 0
-6314 122 0
-6314 56 0
-6314 86 0
-6314 229 0
-6315 140 0
-6315 184 0
-6315 56 0
-6315 86 0
-6316 176 0
-6316 56 0
-6316 86 0
-6317 122 0
-6317 56 0
-6317 95 0
-6317 211 0
-6318 95 0
-6318 184 0
-6318 56 0
-6318 131 0
-6319 95 0
-6319 56 0
-6319 167 0
-6320 122 0
-6320 103 0
-6320 203 0
-6320 56 0
-6321 176 0
-6321 103 0
-6321 56 0
-6321 131 0
-6322 140 0
-6322 103 0
-6322 56 0
-6322 167 0
-29 -77 -148 -239 6219 6220 6221 6222 6223 6224 6225 6226 6227 6228 6229 6230 6231 6232 6233 6234 6235 6236 6237 6238 6239 6240 6241 6242 6243 6244 6245 6246 6247 6248 6249 6250 6251 6252 6253 6254 6255 6256 6257 6258 6259 6260 6261 6262 6263 6264 6265 6266 6267 6268 6269 6270 6271 6272 6273 6274 6275 6276 6277 6278 6279 6280 6281 6282 6283 6284 6285 6286 6287 6288 6289 6290 6291 6292 6293 6294 6295 6296 6297 6298 6299 6300 6301 6302 6303 6304 6305 6306 6307 6308 6309 6310 6311 6312 6313 6314 6315 6316 6317 6318 6319 6320 6321 6322 0
-6323 2 0
-6323 252 0
-6323 125 0
-6323 204 0
-6324 2 0
-6324 125 0
-6324 213 0
-6324 243 0
-6325 222 0
-6325 125 0
-6325 2 0
-6326 2 0
-6326 134 0
-6326 177 0
-6326 252 0
-6327 134 0
-6327 2 0
-6327 186 0
-6327 243 0
-6328 134 0
-6328 2 0
-6328 195 0
-6329 2 0
-6329 252 0
-6329 144 0
-6329 167 0
-6330 222 0
-6330 2 0
-6330 186 0
-6330 144 0
-6331 2 0
-6331 144 0
-6331 195 0
-6331 213 0
-6332 2 0
-6332 153 0
-6332 167 0
-6332 243 0
-6333 2 0
-6333 177 0
-6333 153 0
-6333 222 0
-6334 2 0
-6334 153 0
-6334 204 0
-6334 195 0
-6335 2 0
-6335 167 0
-6336 177 0
-6336 2 0
-6336 213 0
-6337 2 0
-6337 186 0
-6337 204 0
-6338 252 0
-6338 204 0
-6338 12 0
-6339 213 0
-6339 12 0
-6339 243 0
-6340 222 0
-6340 12 0
-6341 177 0
-6341 86 0
-6341 252 0
-6341 12 0
-6342 186 0
-6342 86 0
-6342 12 0
-6342 243 0
-6343 86 0
-6343 195 0
-6343 12 0
-6344 252 0
-6344 12 0
-6344 167 0
-6344 96 0
-6345 222 0
-6345 186 0
-6345 12 0
-6345 96 0
-6346 12 0
-6346 213 0
-6346 195 0
-6346 96 0
-6347 105 0
-6347 167 0
-6347 12 0
-6347 243 0
-6348 222 0
-6348 177 0
-6348 105 0
-6348 12 0
-6349 105 0
-6349 204 0
-6349 12 0
-6349 195 0
-6350 114 0
-6350 167 0
-6350 12 0
-6351 177 0
-6351 114 0
-6351 12 0
-6351 213 0
-6352 114 0
-6352 204 0
-6352 12 0
-6352 186 0
-6353 69 0
-6353 252 0
-6353 204 0
-6353 20 0
-6354 69 0
-6354 213 0
-6354 20 0
-6354 243 0
-6355 69 0
-6355 222 0
-6355 20 0
-6356 252 0
-6356 86 0
-6356 144 0
-6356 20 0
-6357 86 0
-6357 153 0
-6357 20 0
-6357 243 0
-6358 86 0
-6358 20 0
-6359 134 0
-6359 252 0
-6359 20 0
-6359 96 0
-6360 222 0
-6360 153 0
-6360 20 0
-6360 96 0
-6361 213 0
-6361 20 0
-6361 96 0
-6362 134 0
-6362 105 0
-6362 20 0
-6362 243 0
-6363 222 0
-6363 105 0
-6363 144 0
-6363 20 0
-6364 105 0
-6364 204 0
-6364 20 0
-6365 134 0
-6365 114 0
-6365 20 0
-6366 213 0
-6366 114 0
-6366 144 0
-6366 20 0
-6367 20 0
-6367 114 0
-6367 204 0
-6367 153 0
-6368 69 0
-6368 177 0
-6368 252 0
-6369 69 0
-6369 186 0
-6369 243 0
-6370 69 0
-6370 195 0
-6371 252 0
-6371 144 0
-6372 153 0
-6372 243 0
-6373 125 0
-6373 252 0
-6373 96 0
-6374 153 0
-6374 195 0
-6374 96 0
-6375 186 0
-6375 96 0
-6376 125 0
-6376 105 0
-6376 243 0
-6377 105 0
-6377 144 0
-6377 195 0
-6378 177 0
-6378 105 0
-6379 125 0
-6379 114 0
-6380 114 0
-6380 144 0
-6380 186 0
-6381 177 0
-6381 114 0
-6381 153 0
-6382 69 0
-6382 252 0
-6382 167 0
-6382 39 0
-6383 69 0
-6383 186 0
-6383 222 0
-6383 39 0
-6384 69 0
-6384 213 0
-6384 195 0
-6384 39 0
-6385 134 0
-6385 252 0
-6385 39 0
-6386 222 0
-6386 153 0
-6386 39 0
-6387 213 0
-6387 39 0
-6388 125 0
-6388 86 0
-6388 252 0
-6388 39 0
-6389 86 0
-6389 153 0
-6389 195 0
-6389 39 0
-6390 39 0
-6390 86 0
-6390 186 0
-6391 222 0
-6391 125 0
-6391 105 0
-6391 39 0
-6392 134 0
-6392 105 0
-6392 195 0
-6392 39 0
-6393 105 0
-6393 167 0
-6393 39 0
-6394 125 0
-6394 114 0
-6394 39 0
-6394 213 0
-6395 134 0
-6395 186 0
-6395 114 0
-6395 39 0
-6396 114 0
-6396 153 0
-6396 167 0
-6396 39 0
-6397 69 0
-6397 48 0
-6397 167 0
-6397 243 0
-6398 69 0
-6398 48 0
-6398 177 0
-6398 222 0
-6399 69 0
-6399 204 0
-6399 48 0
-6399 195 0
-6400 134 0
-6400 48 0
-6400 243 0
-6401 222 0
-6401 144 0
-6401 48 0
-6402 204 0
-6402 48 0
-6403 125 0
-6403 86 0
-6403 48 0
-6403 243 0
-6404 86 0
-6404 144 0
-6404 48 0
-6404 195 0
-6405 177 0
-6405 86 0
-6405 48 0
-6406 222 0
-6406 125 0
-6406 48 0
-6406 96 0
-6407 134 0
-6407 195 0
-6407 48 0
-6407 96 0
-6408 48 0
-6408 167 0
-6408 96 0
-6409 125 0
-6409 114 0
-6409 204 0
-6409 48 0
-6410 134 0
-6410 177 0
-6410 114 0
-6410 48 0
-6411 48 0
-6411 114 0
-6411 144 0
-6411 167 0
-6412 69 0
-6412 57 0
-6412 167 0
-6413 69 0
-6413 177 0
-6413 57 0
-6413 213 0
-6414 69 0
-6414 57 0
-6414 186 0
-6414 204 0
-6415 134 0
-6415 57 0
-6416 57 0
-6416 213 0
-6416 144 0
-6417 57 0
-6417 153 0
-6417 204 0
-6418 125 0
-6418 86 0
-6418 57 0
-6419 57 0
-6419 86 0
-6419 144 0
-6419 186 0
-6420 177 0
-6420 86 0
-6420 57 0
-6420 153 0
-6421 125 0
-6421 57 0
-6421 96 0
-6421 213 0
-6422 134 0
-6422 186 0
-6422 57 0
-6422 96 0
-6423 153 0
-6423 57 0
-6423 167 0
-6423 96 0
-6424 57 0
-6424 125 0
-6424 105 0
-6424 204 0
-6425 57 0
-6425 134 0
-6425 177 0
-6425 105 0
-6426 57 0
-6426 105 0
-6426 144 0
-6426 167 0
-29 -77 -162 -234 6323 6324 6325 6326 6327 6328 6329 6330 6331 6332 6333 6334 6335 6336 6337 6338 6339 6340 6341 6342 6343 6344 6345 6346 6347 6348 6349 6350 6351 6352 6353 6354 6355 6356 6357 6358 6359 6360 6361 6362 6363 6364 6365 6366 6367 6368 6369 6370 6371 6372 6373 6374 6375 6376 6377 6378 6379 6380 6381 6382 6383 6384 6385 6386 6387 6388 6389 6390 6391 6392 6393 6394 6395 6396 6397 6398 6399 6400 6401 6402 6403 6404 6405 6406 6407 6408 6409 6410 6411 6412 6413 6414 6415 6416 6417 6418 6419 6420 6421 6422 6423 6424 6425 6426 0
-6427 4 0
-6427 247 0
-6428 4 0
-6428 235 0
-6428 209 0
-6429 217 0
-6429 4 0
-6429 227 0
-6430 127 0
-6430 172 0
-6430 4 0
-6430 247 0
-6431 127 0
-6431 4 0
-6431 235 0
-6431 182 0
-6432 190 0
-6432 127 0
-6432 4 0
-6432 227 0
-6433 163 0
-6433 4 0
-6433 136 0
-6433 247 0
-6434 4 0
-6434 217 0
-6434 136 0
-6434 182 0
-6435 190 0
-6435 4 0
-6435 136 0
-6435 209 0
-6436 163 0
-6436 146 0
-6436 4 0
-6436 235 0
-6437 217 0
-6437 146 0
-6437 4 0
-6437 172 0
-6438 190 0
-6438 146 0
-6438 4 0
-6439 154 0
-6439 4 0
-6439 227 0
-6439 163 0
-6440 154 0
-6440 172 0
-6440 4 0
-6440 209 0
-6441 154 0
-6441 4 0
-6441 182 0
-6442 73 0
-6442 247 0
-6442 13 0
-6443 73 0
-6443 209 0
-6443 235 0
-6443 13 0
-6444 73 0
-6444 217 0
-6444 227 0
-6444 13 0
-6445 172 0
-6445 247 0
-6445 13 0
-6445 82 0
-6446 82 0
-6446 235 0
-6446 182 0
-6446 13 0
-6447 190 0
-6447 227 0
-6447 82 0
-6447 13 0
-6448 91 0
-6448 247 0
-6448 13 0
-6448 163 0
-6449 91 0
-6449 217 0
-6449 13 0
-6449 182 0
-6450 91 0
-6450 190 0
-6450 209 0
-6450 13 0
-6451 163 0
-6451 235 0
-6451 13 0
-6452 217 0
-6452 172 0
-6452 13 0
-6453 190 0
-6453 13 0
-6454 163 0
-6454 109 0
-6454 227 0
-6454 13 0
-6455 172 0
-6455 109 0
-6455 13 0
-6455 209 0
-6456 109 0
-6456 13 0
-6456 182 0
-6457 22 0
-6457 64 0
-6457 247 0
-6458 22 0
-6458 64 0
-6458 209 0
-6458 235 0
-6459 22 0
-6459 64 0
-6459 217 0
-6459 227 0
-6460 22 0
-6460 136 0
-6460 247 0
-6460 82 0
-6461 22 0
-6461 146 0
-6461 235 0
-6461 82 0
-6462 22 0
-6462 227 0
-6462 82 0
-6462 154 0
-6463 22 0
-6463 127 0
-6463 91 0
-6463 247 0
-6464 22 0
-6464 91 0
-6464 217 0
-6464 146 0
-6465 22 0
-6465 91 0
-6465 209 0
-6465 154 0
-6466 22 0
-6466 127 0
-6466 235 0
-6467 22 0
-6467 217 0
-6467 136 0
-6468 22 0
-6468 154 0
-6469 22 0
-6469 127 0
-6469 109 0
-6469 227 0
-6470 22 0
-6470 109 0
-6470 136 0
-6470 209 0
-6471 22 0
-6471 146 0
-6471 109 0
-6472 31 0
-6472 64 0
-6472 172 0
-6472 247 0
-6473 31 0
-6473 64 0
-6473 235 0
-6473 182 0
-6474 190 0
-6474 31 0
-6474 64 0
-6474 227 0
-6475 73 0
-6475 31 0
-6475 136 0
-6475 247 0
-6476 73 0
-6476 31 0
-6476 146 0
-6476 235 0
-6477 73 0
-6477 31 0
-6477 227 0
-6477 154 0
-6478 91 0
-6478 31 0
-6478 247 0
-6479 91 0
-6479 31 0
-6479 190 0
-6479 146 0
-6480 91 0
-6480 31 0
-6480 182 0
-6480 154 0
-6481 31 0
-6481 235 0
-6482 190 0
-6482 31 0
-6482 136 0
-6483 154 0
-6483 31 0
-6483 172 0
-6484 31 0
-6484 109 0
-6484 227 0
-6485 109 0
-6485 31 0
-6485 136 0
-6485 182 0
-6486 31 0
-6486 146 0
-6486 109 0
-6486 172 0
-6487 40 0
-6487 64 0
-6487 247 0
-6487 163 0
-6488 40 0
-6488 64 0
-6488 217 0
-6488 182 0
-6489 40 0
-6489 190 0
-6489 209 0
-6489 64 0
-6490 40 0
-6490 127 0
-6490 73 0
-6490 247 0
-6491 40 0
-6491 217 0
-6491 146 0
-6491 73 0
-6492 40 0
-6492 73 0
-6492 209 0
-6492 154 0
-6493 40 0
-6493 247 0
-6493 82 0
-6494 40 0
-6494 190 0
-6494 146 0
-6494 82 0
-6495 40 0
-6495 82 0
-6495 182 0
-6495 154 0
-6496 40 0
-6496 217 0
-6497 40 0
-6497 190 0
-6497 127 0
-6498 40 0
-6498 154 0
-6498 163 0
-6499 40 0
-6499 109 0
-6499 209 0
-6500 40 0
-6500 127 0
-6500 109 0
-6500 182 0
-6501 40 0
-6501 146 0
-6501 109 0
-6501 163 0
-6502 163 0
-6502 64 0
-6502 235 0
-6502 50 0
-6503 217 0
-6503 172 0
-6503 64 0
-6503 50 0
-6504 190 0
-6504 64 0
-6504 50 0
-6505 73 0
-6505 127 0
-6505 235 0
-6505 50 0
-6506 73 0
-6506 217 0
-6506 136 0
-6506 50 0
-6507 73 0
-6507 50 0
-6507 154 0
-6508 235 0
-6508 82 0
-6508 50 0
-6509 190 0
-6509 136 0
-6509 82 0
-6509 50 0
-6510 154 0
-6510 172 0
-6510 82 0
-6510 50 0
-6511 91 0
-6511 217 0
-6511 50 0
-6512 91 0
-6512 190 0
-6512 127 0
-6512 50 0
-6513 91 0
-6513 50 0
-6513 163 0
-6513 154 0
-6514 109 0
-6514 50 0
-6515 127 0
-6515 172 0
-6515 109 0
-6515 50 0
-6516 163 0
-6516 109 0
-6516 136 0
-6516 50 0
-6517 163 0
-6517 64 0
-6517 227 0
-6518 64 0
-6518 172 0
-6518 209 0
-6519 64 0
-6519 182 0
-6520 73 0
-6520 127 0
-6520 227 0
-6521 73 0
-6521 136 0
-6521 209 0
-6522 73 0
-6522 146 0
-6523 227 0
-6523 82 0
-6524 82 0
-6524 136 0
-6524 182 0
-6525 146 0
-6525 172 0
-6525 82 0
-6526 91 0
-6526 209 0
-6527 91 0
-6527 127 0
-6527 182 0
-6528 91 0
-6528 146 0
-6528 163 0
-6529 127 0
-6529 172 0
-6530 163 0
-6530 136 0
-58 -101 -118 -199 6427 6428 6429 6430 6431 6432 6433 6434 6435 6436 6437 6438 6439 6440 6441 6442 6443 6444 6445 6446 6447 6448 6449 6450 6451 6452 6453 6454 6455 6456 6457 6458 6459 6460 6461 6462 6463 6464 6465 6466 6467 6468 6469 6470 6471 6472 6473 6474 6475 6476 6477 6478 6479 6480 6481 6482 6483 6484 6485 6486 6487 6488 6489 6490 6491 6492 6493 6494 6495 6496 6497 6498 6499 6500 6501 6502 6503 6504 6505 6506 6507 6508 6509 6510 6511 6512 6513 6514 6515 6516 6517 6518 6519 6520 6521 6522 6523 6524 6525 6526 6527 6528 6529 6530 0
-6531 250 0
-6531 6 0
-6531 207 0
-6532 241 0
-6532 216 0
-6532 6 0
-6533 223 0
-6533 6 0
-6534 250 0
-6534 129 0
-6534 174 0
-6534 6 0
-6535 183 0
-6535 241 0
-6535 129 0
-6535 6 0
-6536 190 0
-6536 129 0
-6536 6 0
-6537 250 0
-6537 165 0
-6537 6 0
-6537 138 0
-6538 183 0
-6538 223 0
-6538 6 0
-6538 138 0
-6539 190 0
-6539 216 0
-6539 6 0
-6539 138 0
-6540 165 0
-6540 147 0
-6540 6 0
-6540 241 0
-6541 6 0
-6541 223 0
-6541 147 0
-6541 174 0
-6542 190 0
-6542 147 0
-6542 6 0
-6542 207 0
-6543 154 0
-6543 165 0
-6543 6 0
-6544 154 0
-6544 216 0
-6544 174 0
-6544 6 0
-6545 154 0
-6545 183 0
-6545 6 0
-6545 207 0
-6546 250 0
-6546 13 0
-6546 79 0
-6546 207 0
-6547 241 0
-6547 216 0
-6547 79 0
-6547 13 0
-6548 223 0
-6548 13 0
-6548 79 0
-6549 250 0
-6549 13 0
-6549 174 0
-6550 183 0
-6550 241 0
-6550 13 0
-6551 190 0
-6551 13 0
-6552 250 0
-6552 99 0
-6552 165 0
-6552 13 0
-6553 183 0
-6553 99 0
-6553 13 0
-6553 223 0
-6554 190 0
-6554 99 0
-6554 216 0
-6554 13 0
-6555 108 0
-6555 165 0
-6555 241 0
-6555 13 0
-6556 108 0
-6556 223 0
-6556 13 0
-6556 174 0
-6557 108 0
-6557 190 0
-6557 13 0
-6557 207 0
-6558 115 0
-6558 13 0
-6558 165 0
-6559 115 0
-6559 216 0
-6559 174 0
-6559 13 0
-6560 183 0
-6560 115 0
-6560 13 0
-6560 207 0
-6561 22 0
-6561 70 0
-6561 250 0
-6561 207 0
-6562 22 0
-6562 70 0
-6562 241 0
-6562 216 0
-6563 22 0
-6563 70 0
-6563 223 0
-6564 22 0
-6564 250 0
-6564 138 0
-6565 22 0
-6565 241 0
-6565 147 0
-6566 22 0
-6566 154 0
-6567 22 0
-6567 99 0
-6567 250 0
-6567 129 0
-6568 22 0
-6568 99 0
-6568 147 0
-6568 223 0
-6569 22 0
-6569 99 0
-6569 216 0
-6569 154 0
-6570 22 0
-6570 241 0
-6570 129 0
-6570 108 0
-6571 22 0
-6571 223 0
-6571 108 0
-6571 138 0
-6572 22 0
-6572 154 0
-6572 108 0
-6572 207 0
-6573 22 0
-6573 115 0
-6573 129 0
-6574 22 0
-6574 115 0
-6574 216 0
-6574 138 0
-6575 22 0
-6575 115 0
-6575 147 0
-6575 207 0
-6576 250 0
-6576 70 0
-6576 33 0
-6576 174 0
-6577 183 0
-6577 70 0
-6577 33 0
-6577 241 0
-6578 190 0
-6578 70 0
-6578 33 0
-6579 250 0
-6579 33 0
-6579 79 0
-6579 138 0
-6580 147 0
-6580 33 0
-6580 79 0
-6580 241 0
-6581 154 0
-6581 33 0
-6581 79 0
-6582 250 0
-6582 99 0
-6582 33 0
-6583 190 0
-6583 99 0
-6583 147 0
-6583 33 0
-6584 154 0
-6584 99 0
-6584 33 0
-6584 183 0
-6585 108 0
-6585 241 0
-6585 33 0
-6586 108 0
-6586 190 0
-6586 33 0
-6586 138 0
-6587 108 0
-6587 33 0
-6587 174 0
-6587 154 0
-6588 115 0
-6588 33 0
-6589 183 0
-6589 115 0
-6589 33 0
-6589 138 0
-6590 115 0
-6590 147 0
-6590 33 0
-6590 174 0
-6591 250 0
-6591 70 0
-6591 42 0
-6591 165 0
-6592 183 0
-6592 70 0
-6592 42 0
-6592 223 0
-6593 190 0
-6593 70 0
-6593 42 0
-6593 216 0
-6594 250 0
-6594 42 0
-6594 129 0
-6594 79 0
-6595 223 0
-6595 42 0
-6595 147 0
-6595 79 0
-6596 154 0
-6596 42 0
-6596 216 0
-6596 79 0
-6597 250 0
-6597 42 0
-6598 190 0
-6598 42 0
-6598 147 0
-6599 183 0
-6599 42 0
-6599 154 0
-6600 108 0
-6600 223 0
-6600 42 0
-6601 108 0
-6601 190 0
-6601 42 0
-6601 129 0
-6602 108 0
-6602 42 0
-6602 154 0
-6602 165 0
-6603 42 0
-6603 216 0
-6603 115 0
-6604 183 0
-6604 42 0
-6604 129 0
-6604 115 0
-6605 42 0
-6605 147 0
-6605 115 0
-6605 165 0
-6606 51 0
-6606 70 0
-6606 165 0
-6606 241 0
-6607 51 0
-6607 70 0
-6607 174 0
-6607 223 0
-6608 190 0
-6608 51 0
-6608 70 0
-6608 207 0
-6609 51 0
-6609 241 0
-6609 129 0
-6609 79 0
-6610 223 0
-6610 51 0
-6610 79 0
-6610 138 0
-6611 154 0
-6611 51 0
-6611 79 0
-6611 207 0
-6612 51 0
-6612 241 0
-6613 190 0
-6613 51 0
-6613 138 0
-6614 154 0
-6614 51 0
-6614 174 0
-6615 51 0
-6615 99 0
-6615 223 0
-6616 190 0
-6616 51 0
-6616 129 0
-6616 99 0
-6617 154 0
-6617 51 0
-6617 165 0
-6617 99 0
-6618 51 0
-6618 115 0
-6618 207 0
-6619 51 0
-6619 115 0
-6619 129 0
-6619 174 0
-6620 138 0
-6620 51 0
-6620 115 0
-6620 165 0
-6621 70 0
-6621 165 0
-6622 70 0
-6622 216 0
-6622 174 0
-6623 183 0
-6623 70 0
-6623 207 0
-6624 129 0
-6624 79 0
-6625 216 0
-6625 79 0
-6625 138 0
-6626 147 0
-6626 79 0
-6626 207 0
-6627 183 0
-6627 138 0
-6628 147 0
-6628 174 0
-6629 99 0
-6629 216 0
-6630 183 0
-6630 99 0
-6630 129 0
-6631 99 0
-6631 165 0
-6631 147 0
-6632 108 0
-6632 207 0
-6633 108 0
-6633 129 0
-6633 174 0
-6634 108 0
-6634 165 0
-6634 138 0
-58 -90 -118 -234 6531 6532 6533 6534 6535 6536 6537 6538 6539 6540 6541 6542 6543 6544 6545 6546 6547 6548 6549 6550 6551 6552 6553 6554 6555 6556 6557 6558 6559 6560 6561 6562 6563 6564 6565 6566 6567 6568 6569 6570 6571 6572 6573 6574 6575 6576 6577 6578 6579 6580 6581 6582 6583 6584 6585 6586 6587 6588 6589 6590 6591 6592 6593 6594 6595 6596 6597 6598 6599 6600 6601 6602 6603 6604 6605 6606 6607 6608 6609 6610 6611 6612 6613 6614 6615 6616 6617 6618 6619 6620 6621 6622 6623 6624 6625 6626 6627 6628 6629 6630 6631 6632 6633 6634 0
-6635 7 0
-6635 126 0
-6635 249 0
-6636 237 0
-6636 126 0
-6636 209 0
-6636 7 0
-6637 219 0
-6637 126 0
-6637 227 0
-6637 7 0
-6638 133 0
-6638 178 0
-6638 7 0
-6638 249 0
-6639 133 0
-6639 237 0
-6639 188 0
-6639 7 0
-6640 133 0
-6640 7 0
-6640 227 0
-6640 198 0
-6641 142 0
-6641 249 0
-6641 7 0
-6641 169 0
-6642 188 0
-6642 142 0
-6642 219 0
-6642 7 0
-6643 142 0
-6643 7 0
-6643 209 0
-6643 198 0
-6644 237 0
-6644 152 0
-6644 7 0
-6644 169 0
-6645 178 0
-6645 152 0
-6645 219 0
-6645 7 0
-6646 152 0
-6646 7 0
-6646 198 0
-6647 7 0
-6647 227 0
-6647 169 0
-6648 178 0
-6648 209 0
-6648 7 0
-6649 188 0
-6649 7 0
-6650 18 0
-6650 75 0
-6650 249 0
-6651 237 0
-6651 18 0
-6651 75 0
-6651 209 0
-6652 18 0
-6652 219 0
-6652 75 0
-6652 227 0
-6653 178 0
-6653 18 0
-6653 82 0
-6653 249 0
-6654 237 0
-6654 18 0
-6654 188 0
-6654 82 0
-6655 18 0
-6655 227 0
-6655 82 0
-6655 198 0
-6656 91 0
-6656 18 0
-6656 169 0
-6656 249 0
-6657 91 0
-6657 18 0
-6657 219 0
-6657 188 0
-6658 91 0
-6658 18 0
-6658 209 0
-6658 198 0
-6659 237 0
-6659 18 0
-6659 169 0
-6660 178 0
-6660 18 0
-6660 219 0
-6661 18 0
-6661 198 0
-6662 111 0
-6662 18 0
-6662 227 0
-6662 169 0
-6663 178 0
-6663 18 0
-6663 209 0
-6663 111 0
-6664 18 0
-6664 188 0
-6664 111 0
-6665 66 0
-6665 249 0
-6666 237 0
-6666 209 0
-6666 66 0
-6667 227 0
-6667 219 0
-6667 66 0
-6668 142 0
-6668 82 0
-6668 249 0
-6669 237 0
-6669 152 0
-6669 82 0
-6670 227 0
-6670 82 0
-6671 91 0
-6671 133 0
-6671 249 0
-6672 91 0
-6672 152 0
-6672 219 0
-6673 91 0
-6673 209 0
-6674 237 0
-6674 133 0
-6675 142 0
-6675 219 0
-6676 133 0
-6676 227 0
-6676 111 0
-6677 142 0
-6677 209 0
-6677 111 0
-6678 152 0
-6678 111 0
-6679 178 0
-6679 34 0
-6679 66 0
-6679 249 0
-6680 237 0
-6680 66 0
-6680 188 0
-6680 34 0
-6681 34 0
-6681 227 0
-6681 66 0
-6681 198 0
-6682 142 0
-6682 75 0
-6682 34 0
-6682 249 0
-6683 237 0
-6683 75 0
-6683 152 0
-6683 34 0
-6684 34 0
-6684 75 0
-6684 227 0
-6685 91 0
-6685 126 0
-6685 34 0
-6685 249 0
-6686 91 0
-6686 152 0
-6686 34 0
-6686 198 0
-6687 91 0
-6687 34 0
-6687 188 0
-6688 237 0
-6688 126 0
-6688 34 0
-6689 142 0
-6689 34 0
-6689 198 0
-6690 178 0
-6690 34 0
-6691 34 0
-6691 126 0
-6691 227 0
-6691 111 0
-6692 34 0
-6692 142 0
-6692 188 0
-6692 111 0
-6693 178 0
-6693 152 0
-6693 34 0
-6693 111 0
-6694 169 0
-6694 43 0
-6694 66 0
-6694 249 0
-6695 43 0
-6695 219 0
-6695 188 0
-6695 66 0
-6696 43 0
-6696 209 0
-6696 66 0
-6696 198 0
-6697 133 0
-6697 75 0
-6697 43 0
-6697 249 0
-6698 75 0
-6698 43 0
-6698 152 0
-6698 219 0
-6699 75 0
-6699 43 0
-6699 209 0
-6700 43 0
-6700 126 0
-6700 82 0
-6700 249 0
-6701 152 0
-6701 43 0
-6701 82 0
-6701 198 0
-6702 43 0
-6702 188 0
-6702 82 0
-6703 43 0
-6703 126 0
-6703 219 0
-6704 133 0
-6704 43 0
-6704 198 0
-6705 43 0
-6705 169 0
-6706 43 0
-6706 126 0
-6706 209 0
-6706 111 0
-6707 133 0
-6707 43 0
-6707 188 0
-6707 111 0
-6708 111 0
-6708 152 0
-6708 43 0
-6708 169 0
-6709 237 0
-6709 53 0
-6709 66 0
-6709 169 0
-6710 178 0
-6710 53 0
-6710 219 0
-6710 66 0
-6711 53 0
-6711 66 0
-6711 198 0
-6712 133 0
-6712 75 0
-6712 53 0
-6712 237 0
-6713 142 0
-6713 75 0
-6713 53 0
-6713 219 0
-6714 75 0
-6714 53 0
-6715 237 0
-6715 53 0
-6715 126 0
-6715 82 0
-6716 142 0
-6716 53 0
-6716 82 0
-6716 198 0
-6717 178 0
-6717 53 0
-6717 82 0
-6718 91 0
-6718 53 0
-6718 126 0
-6718 219 0
-6719 91 0
-6719 53 0
-6719 133 0
-6719 198 0
-6720 91 0
-6720 53 0
-6720 169 0
-6721 53 0
-6721 126 0
-6721 111 0
-6722 133 0
-6722 178 0
-6722 53 0
-6722 111 0
-6723 111 0
-6723 142 0
-6723 53 0
-6723 169 0
-6724 63 0
-6724 227 0
-6724 66 0
-6724 169 0
-6725 178 0
-6725 63 0
-6725 209 0
-6725 66 0
-6726 63 0
-6726 188 0
-6726 66 0
-6727 133 0
-6727 63 0
-6727 75 0
-6727 227 0
-6728 142 0
-6728 63 0
-6728 75 0
-6728 209 0
-6729 63 0
-6729 75 0
-6729 152 0
-6730 63 0
-6730 126 0
-6730 227 0
-6730 82 0
-6731 142 0
-6731 63 0
-6731 188 0
-6731 82 0
-6732 178 0
-6732 63 0
-6732 152 0
-6732 82 0
-6733 91 0
-6733 63 0
-6733 126 0
-6733 209 0
-6734 91 0
-6734 63 0
-6734 188 0
-6734 133 0
-6735 91 0
-6735 63 0
-6735 152 0
-6735 169 0
-6736 63 0
-6736 126 0
-6737 178 0
-6737 63 0
-6737 133 0
-6738 142 0
-6738 63 0
-6738 169 0
-27 -101 -162 -199 6635 6636 6637 6638 6639 6640 6641 6642 6643 6644 6645 6646 6647 6648 6649 6650 6651 6652 6653 6654 6655 6656 6657 6658 6659 6660 6661 6662 6663 6664 6665 6666 6667 6668 6669 6670 6671 6672 6673 6674 6675 6676 6677 6678 6679 6680 6681 6682 6683 6684 6685 6686 6687 6688 6689 6690 6691 6692 6693 6694 6695 6696 6697 6698 6699 6700 6701 6702 6703 6704 6705 6706 6707 6708 6709 6710 6711 6712 6713 6714 6715 6716 6717 6718 6719 6720 6721 6722 6723 6724 6725 6726 6727 6728 6729 6730 6731 6732 6733 6734 6735 6736 6737 6738 0
-6739 9 0
-6739 245 0
-6739 123 0
-6739 206 0
-6740 9 0
-6740 214 0
-6740 123 0
-6741 9 0
-6741 123 0
-6741 224 0
-6741 229 0
-6742 9 0
-6742 245 0
-6742 179 0
-6742 132 0
-6743 9 0
-6743 187 0
-6743 132 0
-6744 9 0
-6744 132 0
-6744 197 0
-6744 229 0
-6745 140 0
-6745 9 0
-6745 171 0
-6745 245 0
-6746 140 0
-6746 9 0
-6746 224 0
-6746 187 0
-6747 140 0
-6747 9 0
-6747 214 0
-6747 197 0
-6748 9 0
-6748 171 0
-6749 9 0
-6749 179 0
-6749 224 0
-6750 9 0
-6750 206 0
-6750 197 0
-6751 9 0
-6751 171 0
-6751 158 0
-6751 229 0
-6752 9 0
-6752 214 0
-6752 158 0
-6752 179 0
-6753 9 0
-6753 158 0
-6753 187 0
-6753 206 0
-6754 17 0
-6754 81 0
-6754 245 0
-6754 206 0
-6755 17 0
-6755 81 0
-6755 214 0
-6756 17 0
-6756 81 0
-6756 224 0
-6756 229 0
-6757 245 0
-6757 17 0
-6757 179 0
-6758 17 0
-6758 187 0
-6759 17 0
-6759 197 0
-6759 229 0
-6760 98 0
-6760 17 0
-6760 171 0
-6760 245 0
-6761 98 0
-6761 17 0
-6761 224 0
-6761 187 0
-6762 98 0
-6762 17 0
-6762 214 0
-6762 197 0
-6763 17 0
-6763 171 0
-6763 106 0
-6764 17 0
-6764 179 0
-6764 106 0
-6764 224 0
-6765 17 0
-6765 106 0
-6765 206 0
-6765 197 0
-6766 17 0
-6766 171 0
-6766 116 0
-6766 229 0
-6767 17 0
-6767 214 0
-6767 116 0
-6767 179 0
-6768 17 0
-6768 116 0
-6768 187 0
-6768 206 0
-6769 245 0
-6769 71 0
-6769 206 0
-6770 214 0
-6770 71 0
-6771 71 0
-6771 224 0
-6771 229 0
-6772 140 0
-6772 245 0
-6773 158 0
-6773 229 0
-6774 98 0
-6774 245 0
-6774 132 0
-6775 98 0
-6775 224 0
-6776 98 0
-6776 214 0
-6776 158 0
-6777 106 0
-6777 132 0
-6778 140 0
-6778 224 0
-6778 106 0
-6779 158 0
-6779 106 0
-6779 206 0
-6780 116 0
-6780 132 0
-6780 229 0
-6781 140 0
-6781 214 0
-6781 116 0
-6782 116 0
-6782 206 0
-6783 36 0
-6783 71 0
-6783 245 0
-6783 179 0
-6784 36 0
-6784 71 0
-6784 187 0
-6785 36 0
-6785 71 0
-6785 197 0
-6785 229 0
-6786 36 0
-6786 81 0
-6786 245 0
-6786 140 0
-6787 36 0
-6787 81 0
-6788 36 0
-6788 81 0
-6788 158 0
-6788 229 0
-6789 36 0
-6789 123 0
-6789 245 0
-6789 98 0
-6790 36 0
-6790 197 0
-6790 98 0
-6791 36 0
-6791 158 0
-6791 187 0
-6791 98 0
-6792 36 0
-6792 123 0
-6792 106 0
-6793 36 0
-6793 140 0
-6793 106 0
-6793 197 0
-6794 36 0
-6794 179 0
-6794 158 0
-6794 106 0
-6795 36 0
-6795 123 0
-6795 116 0
-6795 229 0
-6796 36 0
-6796 116 0
-6796 187 0
-6796 140 0
-6797 36 0
-6797 179 0
-6797 116 0
-6798 245 0
-6798 171 0
-6798 71 0
-6798 44 0
-6799 71 0
-6799 187 0
-6799 44 0
-6799 224 0
-6800 214 0
-6800 71 0
-6800 44 0
-6800 197 0
-6801 81 0
-6801 245 0
-6801 44 0
-6801 132 0
-6802 81 0
-6802 224 0
-6802 44 0
-6803 81 0
-6803 214 0
-6803 158 0
-6803 44 0
-6804 245 0
-6804 123 0
-6804 44 0
-6805 44 0
-6805 197 0
-6806 158 0
-6806 187 0
-6806 44 0
-6807 123 0
-6807 44 0
-6807 106 0
-6807 224 0
-6808 106 0
-6808 44 0
-6808 197 0
-6808 132 0
-6809 171 0
-6809 158 0
-6809 44 0
-6809 106 0
-6810 214 0
-6810 116 0
-6810 123 0
-6810 44 0
-6811 116 0
-6811 187 0
-6811 44 0
-6811 132 0
-6812 171 0
-6812 116 0
-6812 44 0
-6813 52 0
-6813 71 0
-6813 171 0
-6814 52 0
-6814 71 0
-6814 179 0
-6814 224 0
-6815 52 0
-6815 71 0
-6815 206 0
-6815 197 0
-6816 81 0
-6816 52 0
-6816 132 0
-6817 140 0
-6817 81 0
-6817 224 0
-6817 52 0
-6818 81 0
-6818 158 0
-6818 52 0
-6818 206 0
-6819 52 0
-6819 123 0
-6820 140 0
-6820 52 0
-6820 197 0
-6821 52 0
-6821 179 0
-6821 158 0
-6822 98 0
-6822 52 0
-6822 123 0
-6822 224 0
-6823 98 0
-6823 52 0
-6823 197 0
-6823 132 0
-6824 98 0
-6824 52 0
-6824 171 0
-6824 158 0
-6825 52 0
-6825 123 0
-6825 116 0
-6825 206 0
-6826 52 0
-6826 179 0
-6826 116 0
-6826 132 0
-6827 140 0
-6827 52 0
-6827 171 0
-6827 116 0
-6828 62 0
-6828 71 0
-6828 171 0
-6828 229 0
-6829 62 0
-6829 214 0
-6829 71 0
-6829 179 0
-6830 62 0
-6830 71 0
-6830 187 0
-6830 206 0
-6831 81 0
-6831 62 0
-6831 132 0
-6831 229 0
-6832 140 0
-6832 81 0
-6832 214 0
-6832 62 0
-6833 81 0
-6833 62 0
-6833 206 0
-6834 62 0
-6834 123 0
-6834 229 0
-6835 140 0
-6835 62 0
-6835 187 0
-6836 62 0
-6836 179 0
-6837 98 0
-6837 62 0
-6837 123 0
-6837 214 0
-6838 98 0
-6838 62 0
-6838 187 0
-6838 132 0
-6839 98 0
-6839 62 0
-6839 171 0
-6840 62 0
-6840 123 0
-6840 106 0
-6840 206 0
-6841 62 0
-6841 179 0
-6841 106 0
-6841 132 0
-6842 140 0
-6842 62 0
-6842 171 0
-6842 106 0
-27 -90 -148 -239 6739 6740 6741 6742 6743 6744 6745 6746 6747 6748 6749 6750 6751 6752 6753 6754 6755 6756 6757 6758 6759 6760 6761 6762 6763 6764 6765 6766 6767 6768 6769 6770 6771 6772 6773 6774 6775 6776 6777 6778 6779 6780 6781 6782 6783 6784 6785 6786 6787 6788 6789 6790 6791 6792 6793 6794 6795 6796 6797 6798 6799 6800 6801 6802 6803 6804 6805 6806 6807 6808 6809 6810 6811 6812 6813 6814 6815 6816 6817 6818 6819 6820 6821 6822 6823 6824 6825 6826 6827 6828 6829 6830 6831 6832 6833 6834 6835 6836 6837 6838 6839 6840 6841 6842 0
-253 -281 -6843 0
253 281 -6843 0
253 -281 6843 0
-253 281 6843 0
-6843 -353 -6844 0
6843 353 -6844 0
6843 -353 6844 0
-6843 353 6844 0
-6844 -464 -6845 0
6844 464 -6845 0
6844 -464 6845 0
-6844 464 6845 0
-1 -29 -101 -118 -212 -239 6845 0
-266 -310 -6846 0
266 310 -6846 0
266 -310 6846 0
-266 310 6846 0
-6846 -400 -6847 0
6846 400 -6847 0
6846 -400 6847 0
-6846 400 6847 0
-6847 -496 -6848 0
6847 496 -6848 0
6847 -496 6848 0
-6847 496 6848 0
-14 -58 -77 -148 -199 -244 6848 0
