p cnf 6030 26256
253 254 255 256 257 258 259 260 0
-253 -254 0
-253 -255 0
-253 -256 0
-253 -257 0
-253 -258 0
-253 -259 0
-253 -260 0
-254 -255 0
-254 -256 0
-254 -257 0
-254 -258 0
-254 -259 0
-254 -260 0
-255 -256 0
-255 -257 0
-255 -258 0
-255 -259 0
-255 -260 0
-256 -257 0
-256 -258 0
-256 -259 0
-256 -260 0
-257 -258 0
-257 -259 0
-257 -260 0
-258 -259 0
-258 -260 0
-259 -260 0
-253 -2 0
-253 -12 0
-253 -20 0
-253 -29 0
-253 -39 0
-253 -47 0
-253 -55 0
-253 69 0
-253 77 0
-253 86 0
-253 96 0
-253 104 0
-253 112 0
-253 125 0
-253 134 0
-253 144 0
-253 152 0
-253 160 0
-253 167 0
-253 177 0
-253 185 0
-253 193 0
-253 204 0
-253 212 0
-253 220 0
-253 233 0
-253 241 0
-253 247 0
-254 -2 0
-254 12 0
-254 20 0
-254 29 0
-254 39 0
-254 47 0
-254 55 0
-254 -69 0
-254 -77 0
-254 -86 0
-254 -96 0
-254 -104 0
-254 -112 0
-254 125 0
-254 134 0
-254 144 0
-254 152 0
-254 160 0
-254 167 0
-254 177 0
-254 185 0
-254 193 0
-254 204 0
-254 212 0
-254 220 0
-254 233 0
-254 241 0
-254 247 0
-255 2 0
-255 -12 0
-255 20 0
-255 29 0
-255 39 0
-255 47 0
-255 55 0
-255 -69 0
-255 77 0
-255 86 0
-255 96 0
-255 104 0
-255 112 0
-255 -125 0
-255 -134 0
-255 -144 0
-255 -152 0
-255 -160 0
-255 167 0
-255 177 0
-255 185 0
-255 193 0
-255 204 0
-255 212 0
-255 220 0
-255 233 0
-255 241 0
-255 247 0
-256 2 0
-256 12 0
-256 -20 0
-256 29 0
-256 39 0
-256 47 0
-256 55 0
-256 69 0
-256 -77 0
-256 86 0
-256 96 0
-256 104 0
-256 112 0
-256 -125 0
-256 134 0
-256 144 0
-256 152 0
-256 160 0
-256 -167 0
-256 -177 0
-256 -185 0
-256 -193 0
-256 204 0
-256 212 0
-256 220 0
-256 233 0
-256 241 0
-256 247 0
-257 2 0
-257 12 0
-257 20 0
-257 -29 0
-257 39 0
-257 47 0
-257 55 0
-257 69 0
-257 77 0
-257 -86 0
-257 96 0
-257 104 0
-257 112 0
-257 125 0
-257 -134 0
-257 144 0
-257 152 0
-257 160 0
-257 -167 0
-257 177 0
-257 185 0
-257 193 0
-257 -204 0
-257 -212 0
-257 -220 0
-257 233 0
-257 241 0
-257 247 0
-258 2 0
-258 12 0
-258 20 0
-258 29 0
-258 -39 0
-258 47 0
-258 55 0
-258 69 0
-258 77 0
-258 86 0
-258 -96 0
-258 104 0
-258 112 0
-258 125 0
-258 134 0
-258 -144 0
-258 152 0
-258 160 0
-258 167 0
-258 -177 0
-258 185 0
-258 193 0
-258 -204 0
-258 212 0
-258 220 0
-258 -233 0
-258 -241 0
-258 247 0
-259 2 0
-259 12 0
-259 20 0
-259 29 0
-259 39 0
-259 -47 0
-259 55 0
-259 69 0
-259 77 0
-259 86 0
-259 96 0
-259 -104 0
-259 112 0
-259 125 0
-259 134 0
-259 144 0
-259 -152 0
-259 160 0
-259 167 0
-259 177 0
-259 -185 0
-259 193 0
-259 204 0
-259 -212 0
-259 220 0
-259 -233 0
-259 241 0
-259 -247 0
-260 2 0
-260 12 0
-260 20 0
-260 29 0
-260 39 0
-260 47 0
-260 -55 0
-260 69 0
-260 77 0
-260 86 0
-260 96 0
-260 104 0
-260 -112 0
-260 125 0
-260 134 0
-260 144 0
-260 152 0
-260 -160 0
-260 167 0
-260 177 0
-260 185 0
-260 -193 0
-260 204 0
-260 212 0
-260 -220 0
-260 233 0
-260 -241 0
-260 -247 0
261 262 263 264 265 266 267 268 0
-261 -262 0
-261 -263 0
-261 -264 0
-261 -265 0
-261 -266 0
-261 -267 0
-261 -268 0
-262 -263 0
-262 -264 0
-262 -265 0
-262 -266 0
-262 -267 0
-262 -268 0
-263 -264 0
-263 -265 0
-263 -266 0
-263 -267 0
-263 -268 0
-264 -265 0
-264 -266 0
-264 -267 0
-264 -268 0
-265 -266 0
-265 -267 0
-265 -268 0
-266 -267 0
-266 -268 0
-267 -268 0
-261 -8 0
-261 -16 0
-261 -27 0
-261 -36 0
-261 -43 0
-261 -53 0
-261 -63 0
-261 67 0
-261 78 0
-261 87 0
-261 94 0
-261 104 0
-261 114 0
-261 120 0
-261 129 0
-261 136 0
-261 146 0
-261 156 0
-261 171 0
-261 178 0
-261 188 0
-261 198 0
-261 205 0
-261 215 0
-261 225 0
-261 227 0
-261 237 0
-261 249 0
-262 -8 0
-262 16 0
-262 27 0
-262 36 0
-262 43 0
-262 53 0
-262 63 0
-262 -67 0
-262 -78 0
-262 -87 0
-262 -94 0
-262 -104 0
-262 -114 0
-262 120 0
-262 129 0
-262 136 0
-262 146 0
-262 156 0
-262 171 0
-262 178 0
-262 188 0
-262 198 0
-262 205 0
-262 215 0
-262 225 0
-262 227 0
-262 237 0
-262 249 0
-263 8 0
-263 -16 0
-263 27 0
-263 36 0
-263 43 0
-263 53 0
-263 63 0
-263 -67 0
-263 78 0
-263 87 0
-263 94 0
-263 104 0
-263 114 0
-263 -120 0
-263 -129 0
-263 -136 0
-263 -146 0
-263 -156 0
-263 171 0
-263 178 0
-263 188 0
-263 198 0
-263 205 0
-263 215 0
-263 225 0
-263 227 0
-263 237 0
-263 249 0
-264 8 0
-264 16 0
-264 -27 0
-264 36 0
-264 43 0
-264 53 0
-264 63 0
-264 67 0
-264 -78 0
-264 87 0
-264 94 0
-264 104 0
-264 114 0
-264 -120 0
-264 129 0
-264 136 0
-264 146 0
-264 156 0
-264 -171 0
-264 -178 0
-264 -188 0
-264 -198 0
-264 205 0
-264 215 0
-264 225 0
-264 227 0
-264 237 0
-264 249 0
-265 8 0
-265 16 0
-265 27 0
-265 -36 0
-265 43 0
-265 53 0
-265 63 0
-265 67 0
-265 78 0
-265 -87 0
-265 94 0
-265 104 0
-265 114 0
-265 120 0
-265 -129 0
-265 136 0
-265 146 0
-265 156 0
-265 -171 0
-265 178 0
-265 188 0
-265 198 0
-265 -205 0
-265 -215 0
-265 -225 0
-265 227 0
-265 237 0
-265 249 0
-266 8 0
-266 16 0
-266 27 0
-266 36 0
-266 -43 0
-266 53 0
-266 63 0
-266 67 0
-266 78 0
-266 87 0
-266 -94 0
-266 104 0
-266 114 0
-266 120 0
-266 129 0
-266 -136 0
-266 146 0
-266 156 0
-266 171 0
-266 -178 0
-266 188 0
-266 198 0
-266 -205 0
-266 215 0
-266 225 0
-266 -227 0
-266 -237 0
-266 249 0
-267 8 0
-267 16 0
-267 27 0
-267 36 0
-267 43 0
-267 -53 0
-267 63 0
-267 67 0
-267 78 0
-267 87 0
-267 94 0
-267 -104 0
-267 114 0
-267 120 0
-267 129 0
-267 136 0
-267 -146 0
-267 156 0
-267 171 0
-267 178 0
-267 -188 0
-267 198 0
-267 205 0
-267 -215 0
-267 225 0
-267 -227 0
-267 237 0
-267 -249 0
-268 8 0
-268 16 0
-268 27 0
-268 36 0
-268 43 0
-268 53 0
-268 -63 0
-268 67 0
-268 78 0
-268 87 0
-268 94 0
-268 104 0
-268 -114 0
-268 120 0
-268 129 0
-268 136 0
-268 146 0
-268 -156 0
-268 171 0
-268 178 0
-268 188 0
-268 -198 0
-268 205 0
-268 215 0
-268 -225 0
-268 227 0
-268 -237 0
-268 -249 0
269 270 271 272 273 274 275 276 0
-269 -270 0
-269 -271 0
-269 -272 0
-269 -273 0
-269 -274 0
-269 -275 0
-269 -276 0
-270 -271 0
-270 -272 0
-270 -273 0
-270 -274 0
-270 -275 0
-270 -276 0
-271 -272 0
-271 -273 0
-271 -274 0
-271 -275 0
-271 -276 0
-272 -273 0
-272 -274 0
-272 -275 0
-272 -276 0
-273 -274 0
-273 -275 0
-273 -276 0
-274 -275 0
-274 -276 0
-275 -276 0
-269 -7 0
-269 -17 0
-269 -27 0
-269 -36 0
-269 -44 0
-269 -52 0
-269 -63 0
-269 65 0
-269 75 0
-269 84 0
-269 92 0
-269 100 0
-269 111 0
-269 123 0
-269 132 0
-269 140 0
-269 148 0
-269 159 0
-269 171 0
-269 179 0
-269 187 0
-269 198 0
-269 206 0
-269 214 0
-269 225 0
-269 229 0
-269 240 0
-269 246 0
-270 -7 0
-270 17 0
-270 27 0
-270 36 0
-270 44 0
-270 52 0
-270 63 0
-270 -65 0
-270 -75 0
-270 -84 0
-270 -92 0
-270 -100 0
-270 -111 0
-270 123 0
-270 132 0
-270 140 0
-270 148 0
-270 159 0
-270 171 0
-270 179 0
-270 187 0
-270 198 0
-270 206 0
-270 214 0
-270 225 0
-270 229 0
-270 240 0
-270 246 0
-271 7 0
-271 -17 0
-271 27 0
-271 36 0
-271 44 0
-271 52 0
-271 63 0
-271 -65 0
-271 75 0
-271 84 0
-271 92 0
-271 100 0
-271 111 0
-271 -123 0
-271 -132 0
-271 -140 0
-271 -148 0
-271 -159 0
-271 171 0
-271 179 0
-271 187 0
-271 198 0
-271 206 0
-271 214 0
-271 225 0
-271 229 0
-271 240 0
-271 246 0
-272 7 0
-272 17 0
-272 -27 0
-272 36 0
-272 44 0
-272 52 0
-272 63 0
-272 65 0
-272 -75 0
-272 84 0
-272 92 0
-272 100 0
-272 111 0
-272 -123 0
-272 132 0
-272 140 0
-272 148 0
-272 159 0
-272 -171 0
-272 -179 0
-272 -187 0
-272 -198 0
-272 206 0
-272 214 0
-272 225 0
-272 229 0
-272 240 0
-272 246 0
-273 7 0
-273 17 0
-273 27 0
-273 -36 0
-273 44 0
-273 52 0
-273 63 0
-273 65 0
-273 75 0
-273 -84 0
-273 92 0
-273 100 0
-273 111 0
-273 123 0
-273 -132 0
-273 140 0
-273 148 0
-273 159 0
-273 -171 0
-273 179 0
-273 187 0
-273 198 0
-273 -206 0
-273 -214 0
-273 -225 0
-273 229 0
-273 240 0
-273 246 0
-274 7 0
-274 17 0
-274 27 0
-274 36 0
-274 -44 0
-274 52 0
-274 63 0
-274 65 0
-274 75 0
-274 84 0
-274 -92 0
-274 100 0
-274 111 0
-274 123 0
-274 132 0
-274 -140 0
-274 148 0
-274 159 0
-274 171 0
-274 -179 0
-274 187 0
-274 198 0
-274 -206 0
-274 214 0
-274 225 0
-274 -229 0
-274 -240 0
-274 246 0
-275 7 0
-275 17 0
-275 27 0
-275 36 0
-275 44 0
-275 -52 0
-275 63 0
-275 65 0
-275 75 0
-275 84 0
-275 92 0
-275 -100 0
-275 111 0
-275 123 0
-275 132 0
-275 140 0
-275 -148 0
-275 159 0
-275 171 0
-275 179 0
-275 -187 0
-275 198 0
-275 206 0
-275 -214 0
-275 225 0
-275 -229 0
-275 240 0
-275 -246 0
-276 7 0
-276 17 0
-276 27 0
-276 36 0
-276 44 0
-276 52 0
-276 -63 0
-276 65 0
-276 75 0
-276 84 0
-276 92 0
-276 100 0
-276 -111 0
-276 123 0
-276 132 0
-276 140 0
-276 148 0
-276 -159 0
-276 171 0
-276 179 0
-276 187 0
-276 -198 0
-276 206 0
-276 214 0
-276 -225 0
-276 229 0
-276 -240 0
-276 -246 0
277 278 279 280 281 282 283 284 0
-277 -278 0
-277 -279 0
-277 -280 0
-277 -281 0
-277 -282 0
-277 -283 0
-277 -284 0
-278 -279 0
-278 -280 0
-278 -281 0
-278 -282 0
-278 -283 0
-278 -284 0
-279 -280 0
-279 -281 0
-279 -282 0
-279 -283 0
-279 -284 0
-280 -281 0
-280 -282 0
-280 -283 0
-280 -284 0
-281 -282 0
-281 -283 0
-281 -284 0
-282 -283 0
-282 -284 0
-283 -284 0
-277 -3 0
-277 -12 0
-277 -20 0
-277 -29 0
-277 -39 0
-277 -48 0
-277 -55 0
-277 72 0
-277 80 0
-277 89 0
-277 99 0
-277 108 0
-277 115 0
-277 125 0
-277 134 0
-277 144 0
-277 153 0
-277 160 0
-277 167 0
-277 177 0
-277 186 0
-277 193 0
-277 204 0
-277 213 0
-277 220 0
-277 234 0
-277 241 0
-277 250 0
-278 -3 0
-278 12 0
-278 20 0
-278 29 0
-278 39 0
-278 48 0
-278 55 0
-278 -72 0
-278 -80 0
-278 -89 0
-278 -99 0
-278 -108 0
-278 -115 0
-278 125 0
-278 134 0
-278 144 0
-278 153 0
-278 160 0
-278 167 0
-278 177 0
-278 186 0
-278 193 0
-278 204 0
-278 213 0
-278 220 0
-278 234 0
-278 241 0
-278 250 0
-279 3 0
-279 -12 0
-279 20 0
-279 29 0
-279 39 0
-279 48 0
-279 55 0
-279 -72 0
-279 80 0
-279 89 0
-279 99 0
-279 108 0
-279 115 0
-279 -125 0
-279 -134 0
-279 -144 0
-279 -153 0
-279 -160 0
-279 167 0
-279 177 0
-279 186 0
-279 193 0
-279 204 0
-279 213 0
-279 220 0
-279 234 0
-279 241 0
-279 250 0
-280 3 0
-280 12 0
-280 -20 0
-280 29 0
-280 39 0
-280 48 0
-280 55 0
-280 72 0
-280 -80 0
-280 89 0
-280 99 0
-280 108 0
-280 115 0
-280 -125 0
-280 134 0
-280 144 0
-280 153 0
-280 160 0
-280 -167 0
-280 -177 0
-280 -186 0
-280 -193 0
-280 204 0
-280 213 0
-280 220 0
-280 234 0
-280 241 0
-280 250 0
-281 3 0
-281 12 0
-281 20 0
-281 -29 0
-281 39 0
-281 48 0
-281 55 0
-281 72 0
-281 80 0
-281 -89 0
-281 99 0
-281 108 0
-281 115 0
-281 125 0
-281 -134 0
-281 144 0
-281 153 0
-281 160 0
-281 -167 0
-281 177 0
-281 186 0
-281 193 0
-281 -204 0
-281 -213 0
-281 -220 0
-281 234 0
-281 241 0
-281 250 0
-282 3 0
-282 12 0
-282 20 0
-282 29 0
-282 -39 0
-282 48 0
-282 55 0
-282 72 0
-282 80 0
-282 89 0
-282 -99 0
-282 108 0
-282 115 0
-282 125 0
-282 134 0
-282 -144 0
-282 153 0
-282 160 0
-282 167 0
-282 -177 0
-282 186 0
-282 193 0
-282 -204 0
-282 213 0
-282 220 0
-282 -234 0
-282 -241 0
-282 250 0
-283 3 0
-283 12 0
-283 20 0
-283 29 0
-283 39 0
-283 -48 0
-283 55 0
-283 72 0
-283 80 0
-283 89 0
-283 99 0
-283 -108 0
-283 115 0
-283 125 0
-283 134 0
-283 144 0
-283 -153 0
-283 160 0
-283 167 0
-283 177 0
-283 -186 0
-283 193 0
-283 204 0
-283 -213 0
-283 220 0
-283 -234 0
-283 241 0
-283 -250 0
-284 3 0
-284 12 0
-284 20 0
-284 29 0
-284 39 0
-284 48 0
-284 -55 0
-284 72 0
-284 80 0
-284 89 0
-284 99 0
-284 108 0
-284 -115 0
-284 125 0
-284 134 0
-284 144 0
-284 153 0
-284 -160 0
-284 167 0
-284 177 0
-284 186 0
-284 -193 0
-284 204 0
-284 213 0
-284 -220 0
-284 234 0
-284 -241 0
-284 -250 0
285 286 287 288 289 290 291 292 0
-285 -286 0
-285 -287 0
-285 -288 0
-285 -289 0
-285 -290 0
-285 -291 0
-285 -292 0
-286 -287 0
-286 -288 0
-286 -289 0
-286 -290 0
-286 -291 0
-286 -292 0
-287 -288 0
-287 -289 0
-287 -290 0
-287 -291 0
-287 -292 0
-288 -289 0
-288 -290 0
-288 -291 0
-288 -292 0
-289 -290 0
-289 -291 0
-289 -292 0
-290 -291 0
-290 -292 0
-291 -292 0
-285 -1 0
-285 -11 0
-285 -21 0
-285 -30 0
-285 -38 0
-285 -46 0
-285 -55 0
-285 65 0
-285 75 0
-285 84 0
-285 92 0
-285 100 0
-285 109 0
-285 123 0
-285 132 0
-285 140 0
-285 148 0
-285 157 0
-285 171 0
-285 179 0
-285 187 0
-285 196 0
-285 206 0
-285 214 0
-285 223 0
-285 229 0
-285 238 0
-285 244 0
-286 -1 0
-286 11 0
-286 21 0
-286 30 0
-286 38 0
-286 46 0
-286 55 0
-286 -65 0
-286 -75 0
-286 -84 0
-286 -92 0
-286 -100 0
-286 -109 0
-286 123 0
-286 132 0
-286 140 0
-286 148 0
-286 157 0
-286 171 0
-286 179 0
-286 187 0
-286 196 0
-286 206 0
-286 214 0
-286 223 0
-286 229 0
-286 238 0
-286 244 0
-287 1 0
-287 -11 0
-287 21 0
-287 30 0
-287 38 0
-287 46 0
-287 55 0
-287 -65 0
-287 75 0
-287 84 0
-287 92 0
-287 100 0
-287 109 0
-287 -123 0
-287 -132 0
-287 -140 0
-287 -148 0
-287 -157 0
-287 171 0
-287 179 0
-287 187 0
-287 196 0
-287 206 0
-287 214 0
-287 223 0
-287 229 0
-287 238 0
-287 244 0
-288 1 0
-288 11 0
-288 -21 0
-288 30 0
-288 38 0
-288 46 0
-288 55 0
-288 65 0
-288 -75 0
-288 84 0
-288 92 0
-288 100 0
-288 109 0
-288 -123 0
-288 132 0
-288 140 0
-288 148 0
-288 157 0
-288 -171 0
-288 -179 0
-288 -187 0
-288 -196 0
-288 206 0
-288 214 0
-288 223 0
-288 229 0
-288 238 0
-288 244 0
-289 1 0
-289 11 0
-289 21 0
-289 -30 0
-289 38 0
-289 46 0
-289 55 0
-289 65 0
-289 75 0
-289 -84 0
-289 92 0
-289 100 0
-289 109 0
-289 123 0
-289 -132 0
-289 140 0
-289 148 0
-289 157 0
-289 -171 0
-289 179 0
-289 187 0
-289 196 0
-289 -206 0
-289 -214 0
-289 -223 0
-289 229 0
-289 238 0
-289 244 0
-290 1 0
-290 11 0
-290 21 0
-290 30 0
-290 -38 0
-290 46 0
-290 55 0
-290 65 0
-290 75 0
-290 84 0
-290 -92 0
-290 100 0
-290 109 0
-290 123 0
-290 132 0
-290 -140 0
-290 148 0
-290 157 0
-290 171 0
-290 -179 0
-290 187 0
-290 196 0
-290 -206 0
-290 214 0
-290 223 0
-290 -229 0
-290 -238 0
-290 244 0
-291 1 0
-291 11 0
-291 21 0
-291 30 0
-291 38 0
-291 -46 0
-291 55 0
-291 65 0
-291 75 0
-291 84 0
-291 92 0
-291 -100 0
-291 109 0
-291 123 0
-291 132 0
-291 140 0
-291 -148 0
-291 157 0
-291 171 0
-291 179 0
-291 -187 0
-291 196 0
-291 206 0
-291 -214 0
-291 223 0
-291 -229 0
-291 238 0
-291 -244 0
-292 1 0
-292 11 0
-292 21 0
-292 30 0
-292 38 0
-292 46 0
-292 -55 0
-292 65 0
-292 75 0
-292 84 0
-292 92 0
-292 100 0
-292 -109 0
-292 123 0
-292 132 0
-292 140 0
-292 148 0
-292 -157 0
-292 171 0
-292 179 0
-292 187 0
-292 -196 0
-292 206 0
-292 214 0
-292 -223 0
-292 229 0
-292 -238 0
-292 -244 0
293 294 295 296 297 298 299 300 0
-293 -294 0
-293 -295 0
-293 -296 0
-293 -297 0
-293 -298 0
-293 -299 0
-293 -300 0
-294 -295 0
-294 -296 0
-294 -297 0
-294 -298 0
-294 -299 0
-294 -300 0
-295 -296 0
-295 -297 0
-295 -298 0
-295 -299 0
-295 -300 0
-296 -297 0
-296 -298 0
-296 -299 0
-296 -300 0
-297 -298 0
-297 -299 0
-297 -300 0
-298 -299 0
-298 -300 0
-299 -300 0
-293 -6 0
-293 -14 0
-293 -22 0
-293 -31 0
-293 -41 0
-293 -51 0
-293 -59 0
-293 71 0
-293 79 0
-293 88 0
-293 98 0
-293 108 0
-293 116 0
-293 121 0
-293 130 0
-293 140 0
-293 150 0
-293 158 0
-293 163 0
-293 173 0
-293 183 0
-293 191 0
-293 200 0
-293 210 0
-293 218 0
-293 231 0
-293 239 0
-293 251 0
-294 -6 0
-294 14 0
-294 22 0
-294 31 0
-294 41 0
-294 51 0
-294 59 0
-294 -71 0
-294 -79 0
-294 -88 0
-294 -98 0
-294 -108 0
-294 -116 0
-294 121 0
-294 130 0
-294 140 0
-294 150 0
-294 158 0
-294 163 0
-294 173 0
-294 183 0
-294 191 0
-294 200 0
-294 210 0
-294 218 0
-294 231 0
-294 239 0
-294 251 0
-295 6 0
-295 -14 0
-295 22 0
-295 31 0
-295 41 0
-295 51 0
-295 59 0
-295 -71 0
-295 79 0
-295 88 0
-295 98 0
-295 108 0
-295 116 0
-295 -121 0
-295 -130 0
-295 -140 0
-295 -150 0
-295 -158 0
-295 163 0
-295 173 0
-295 183 0
-295 191 0
-295 200 0
-295 210 0
-295 218 0
-295 231 0
-295 239 0
-295 251 0
-296 6 0
-296 14 0
-296 -22 0
-296 31 0
-296 41 0
-296 51 0
-296 59 0
-296 71 0
-296 -79 0
-296 88 0
-296 98 0
-296 108 0
-296 116 0
-296 -121 0
-296 130 0
-296 140 0
-296 150 0
-296 158 0
-296 -163 0
-296 -173 0
-296 -183 0
-296 -191 0
-296 200 0
-296 210 0
-296 218 0
-296 231 0
-296 239 0
-296 251 0
-297 6 0
-297 14 0
-297 22 0
-297 -31 0
-297 41 0
-297 51 0
-297 59 0
-297 71 0
-297 79 0
-297 -88 0
-297 98 0
-297 108 0
-297 116 0
-297 121 0
-297 -130 0
-297 140 0
-297 150 0
-297 158 0
-297 -163 0
-297 173 0
-297 183 0
-297 191 0
-297 -200 0
-297 -210 0
-297 -218 0
-297 231 0
-297 239 0
-297 251 0
-298 6 0
-298 14 0
-298 22 0
-298 31 0
-298 -41 0
-298 51 0
-298 59 0
-298 71 0
-298 79 0
-298 88 0
-298 -98 0
-298 108 0
-298 116 0
-298 121 0
-298 130 0
-298 -140 0
-298 150 0
-298 158 0
-298 163 0
-298 -173 0
-298 183 0
-298 191 0
-298 -200 0
-298 210 0
-298 218 0
-298 -231 0
-298 -239 0
-298 251 0
-299 6 0
-299 14 0
-299 22 0
-299 31 0
-299 41 0
-299 -51 0
-299 59 0
-299 71 0
-299 79 0
-299 88 0
-299 98 0
-299 -108 0
-299 116 0
-299 121 0
-299 130 0
-299 140 0
-299 -150 0
-299 158 0
-299 163 0
-299 173 0
-299 -183 0
-299 191 0
-299 200 0
-299 -210 0
-299 218 0
-299 -231 0
-299 239 0
-299 -251 0
-300 6 0
-300 14 0
-300 22 0
-300 31 0
-300 41 0
-300 51 0
-300 -59 0
-300 71 0
-300 79 0
-300 88 0
-300 98 0
-300 108 0
-300 -116 0
-300 121 0
-300 130 0
-300 140 0
-300 150 0
-300 -158 0
-300 163 0
-300 173 0
-300 183 0
-300 -191 0
-300 200 0
-300 210 0
-300 -218 0
-300 231 0
-300 -239 0
-300 -251 0
301 302 303 304 305 306 307 308 0
-301 -302 0
-301 -303 0
-301 -304 0
-301 -305 0
-301 -306 0
-301 -307 0
-301 -308 0
-302 -303 0
-302 -304 0
-302 -305 0
-302 -306 0
-302 -307 0
-302 -308 0
-303 -304 0
-303 -305 0
-303 -306 0
-303 -307 0
-303 -308 0
-304 -305 0
-304 -306 0
-304 -307 0
-304 -308 0
-305 -306 0
-305 -307 0
-305 -308 0
-306 -307 0
-306 -308 0
-307 -308 0
-301 -8 0
-301 -16 0
-301 -26 0
-301 -35 0
-301 -43 0
-301 -53 0
-301 -63 0
-301 67 0
-301 77 0
-301 86 0
-301 94 0
-301 104 0
-301 114 0
-301 119 0
-301 128 0
-301 136 0
-301 146 0
-301 156 0
-301 167 0
-301 175 0
-301 185 0
-301 195 0
-301 202 0
-301 212 0
-301 222 0
-301 227 0
-301 237 0
-301 249 0
-302 -8 0
-302 16 0
-302 26 0
-302 35 0
-302 43 0
-302 53 0
-302 63 0
-302 -67 0
-302 -77 0
-302 -86 0
-302 -94 0
-302 -104 0
-302 -114 0
-302 119 0
-302 128 0
-302 136 0
-302 146 0
-302 156 0
-302 167 0
-302 175 0
-302 185 0
-302 195 0
-302 202 0
-302 212 0
-302 222 0
-302 227 0
-302 237 0
-302 249 0
-303 8 0
-303 -16 0
-303 26 0
-303 35 0
-303 43 0
-303 53 0
-303 63 0
-303 -67 0
-303 77 0
-303 86 0
-303 94 0
-303 104 0
-303 114 0
-303 -119 0
-303 -128 0
-303 -136 0
-303 -146 0
-303 -156 0
-303 167 0
-303 175 0
-303 185 0
-303 195 0
-303 202 0
-303 212 0
-303 222 0
-303 227 0
-303 237 0
-303 249 0
-304 8 0
-304 16 0
-304 -26 0
-304 35 0
-304 43 0
-304 53 0
-304 63 0
-304 67 0
-304 -77 0
-304 86 0
-304 94 0
-304 104 0
-304 114 0
-304 -119 0
-304 128 0
-304 136 0
-304 146 0
-304 156 0
-304 -167 0
-304 -175 0
-304 -185 0
-304 -195 0
-304 202 0
-304 212 0
-304 222 0
-304 227 0
-304 237 0
-304 249 0
-305 8 0
-305 16 0
-305 26 0
-305 -35 0
-305 43 0
-305 53 0
-305 63 0
-305 67 0
-305 77 0
-305 -86 0
-305 94 0
-305 104 0
-305 114 0
-305 119 0
-305 -128 0
-305 136 0
-305 146 0
-305 156 0
-305 -167 0
-305 175 0
-305 185 0
-305 195 0
-305 -202 0
-305 -212 0
-305 -222 0
-305 227 0
-305 237 0
-305 249 0
-306 8 0
-306 16 0
-306 26 0
-306 35 0
-306 -43 0
-306 53 0
-306 63 0
-306 67 0
-306 77 0
-306 86 0
-306 -94 0
-306 104 0
-306 114 0
-306 119 0
-306 128 0
-306 -136 0
-306 146 0
-306 156 0
-306 167 0
-306 -175 0
-306 185 0
-306 195 0
-306 -202 0
-306 212 0
-306 222 0
-306 -227 0
-306 -237 0
-306 249 0
-307 8 0
-307 16 0
-307 26 0
-307 35 0
-307 43 0
-307 -53 0
-307 63 0
-307 67 0
-307 77 0
-307 86 0
-307 94 0
-307 -104 0
-307 114 0
-307 119 0
-307 128 0
-307 136 0
-307 -146 0
-307 156 0
-307 167 0
-307 175 0
-307 -185 0
-307 195 0
-307 202 0
-307 -212 0
-307 222 0
-307 -227 0
-307 237 0
-307 -249 0
-308 8 0
-308 16 0
-308 26 0
-308 35 0
-308 43 0
-308 53 0
-308 -63 0
-308 67 0
-308 77 0
-308 86 0
-308 94 0
-308 104 0
-308 -114 0
-308 119 0
-308 128 0
-308 136 0
-308 146 0
-308 -156 0
-308 167 0
-308 175 0
-308 185 0
-308 -195 0
-308 202 0
-308 212 0
-308 -222 0
-308 227 0
-308 -237 0
-308 -249 0
309 310 311 312 313 314 315 316 0
-309 -310 0
-309 -311 0
-309 -312 0
-309 -313 0
-309 -314 0
-309 -315 0
-309 -316 0
-310 -311 0
-310 -312 0
-310 -313 0
-310 -314 0
-310 -315 0
-310 -316 0
-311 -312 0
-311 -313 0
-311 -314 0
-311 -315 0
-311 -316 0
-312 -313 0
-312 -314 0
-312 -315 0
-312 -316 0
-313 -314 0
-313 -315 0
-313 -316 0
-314 -315 0
-314 -316 0
-315 -316 0
-309 -6 0
-309 -15 0
-309 -22 0
-309 -31 0
-309 -42 0
-309 -51 0
-309 -59 0
-309 72 0
-309 79 0
-309 88 0
-309 99 0
-309 108 0
-309 116 0
-309 124 0
-309 133 0
-309 144 0
-309 153 0
-309 161 0
-309 163 0
-309 174 0
-309 183 0
-309 191 0
-309 201 0
-309 210 0
-309 218 0
-309 234 0
-309 242 0
-309 251 0
-310 -6 0
-310 15 0
-310 22 0
-310 31 0
-310 42 0
-310 51 0
-310 59 0
-310 -72 0
-310 -79 0
-310 -88 0
-310 -99 0
-310 -108 0
-310 -116 0
-310 124 0
-310 133 0
-310 144 0
-310 153 0
-310 161 0
-310 163 0
-310 174 0
-310 183 0
-310 191 0
-310 201 0
-310 210 0
-310 218 0
-310 234 0
-310 242 0
-310 251 0
-311 6 0
-311 -15 0
-311 22 0
-311 31 0
-311 42 0
-311 51 0
-311 59 0
-311 -72 0
-311 79 0
-311 88 0
-311 99 0
-311 108 0
-311 116 0
-311 -124 0
-311 -133 0
-311 -144 0
-311 -153 0
-311 -161 0
-311 163 0
-311 174 0
-311 183 0
-311 191 0
-311 201 0
-311 210 0
-311 218 0
-311 234 0
-311 242 0
-311 251 0
-312 6 0
-312 15 0
-312 -22 0
-312 31 0
-312 42 0
-312 51 0
-312 59 0
-312 72 0
-312 -79 0
-312 88 0
-312 99 0
-312 108 0
-312 116 0
-312 -124 0
-312 133 0
-312 144 0
-312 153 0
-312 161 0
-312 -163 0
-312 -174 0
-312 -183 0
-312 -191 0
-312 201 0
-312 210 0
-312 218 0
-312 234 0
-312 242 0
-312 251 0
-313 6 0
-313 15 0
-313 22 0
-313 -31 0
-313 42 0
-313 51 0
-313 59 0
-313 72 0
-313 79 0
-313 -88 0
-313 99 0
-313 108 0
-313 116 0
-313 124 0
-313 -133 0
-313 144 0
-313 153 0
-313 161 0
-313 -163 0
-313 174 0
-313 183 0
-313 191 0
-313 -201 0
-313 -210 0
-313 -218 0
-313 234 0
-313 242 0
-313 251 0
-314 6 0
-314 15 0
-314 22 0
-314 31 0
-314 -42 0
-314 51 0
-314 59 0
-314 72 0
-314 79 0
-314 88 0
-314 -99 0
-314 108 0
-314 116 0
-314 124 0
-314 133 0
-314 -144 0
-314 153 0
-314 161 0
-314 163 0
-314 -174 0
-314 183 0
-314 191 0
-314 -201 0
-314 210 0
-314 218 0
-314 -234 0
-314 -242 0
-314 251 0
-315 6 0
-315 15 0
-315 22 0
-315 31 0
-315 42 0
-315 -51 0
-315 59 0
-315 72 0
-315 79 0
-315 88 0
-315 99 0
-315 -108 0
-315 116 0
-315 124 0
-315 133 0
-315 144 0
-315 -153 0
-315 161 0
-315 163 0
-315 174 0
-315 -183 0
-315 191 0
-315 201 0
-315 -210 0
-315 218 0
-315 -234 0
-315 242 0
-315 -251 0
-316 6 0
-316 15 0
-316 22 0
-316 31 0
-316 42 0
-316 51 0
-316 -59 0
-316 72 0
-316 79 0
-316 88 0
-316 99 0
-316 108 0
-316 -116 0
-316 124 0
-316 133 0
-316 144 0
-316 153 0
-316 -161 0
-316 163 0
-316 174 0
-316 183 0
-316 -191 0
-316 201 0
-316 210 0
-316 -218 0
-316 234 0
-316 -242 0
-316 -251 0
317 318 319 320 321 322 323 324 0
-317 -318 0
-317 -319 0
-317 -320 0
-317 -321 0
-317 -322 0
-317 -323 0
-317 -324 0
-318 -319 0
-318 -320 0
-318 -321 0
-318 -322 0
-318 -323 0
-318 -324 0
-319 -320 0
-319 -321 0
-319 -322 0
-319 -323 0
-319 -324 0
-320 -321 0
-320 -322 0
-320 -323 0
-320 -324 0
-321 -322 0
-321 -323 0
-321 -324 0
-322 -323 0
-322 -324 0
-323 -324 0
-317 -6 0
-317 -13 0
-317 -22 0
-317 -31 0
-317 -40 0
-317 -51 0
-317 -59 0
-317 70 0
-317 79 0
-317 88 0
-317 97 0
-317 108 0
-317 116 0
-317 118 0
-317 127 0
-317 136 0
-317 147 0
-317 155 0
-317 163 0
-317 172 0
-317 183 0
-317 191 0
-317 199 0
-317 210 0
-317 218 0
-317 228 0
-317 236 0
-317 251 0
-318 -6 0
-318 13 0
-318 22 0
-318 31 0
-318 40 0
-318 51 0
-318 59 0
-318 -70 0
-318 -79 0
-318 -88 0
-318 -97 0
-318 -108 0
-318 -116 0
-318 118 0
-318 127 0
-318 136 0
-318 147 0
-318 155 0
-318 163 0
-318 172 0
-318 183 0
-318 191 0
-318 199 0
-318 210 0
-318 218 0
-318 228 0
-318 236 0
-318 251 0
-319 6 0
-319 -13 0
-319 22 0
-319 31 0
-319 40 0
-319 51 0
-319 59 0
-319 -70 0
-319 79 0
-319 88 0
-319 97 0
-319 108 0
-319 116 0
-319 -118 0
-319 -127 0
-319 -136 0
-319 -147 0
-319 -155 0
-319 163 0
-319 172 0
-319 183 0
-319 191 0
-319 199 0
-319 210 0
-319 218 0
-319 228 0
-319 236 0
-319 251 0
-320 6 0
-320 13 0
-320 -22 0
-320 31 0
-320 40 0
-320 51 0
-320 59 0
-320 70 0
-320 -79 0
-320 88 0
-320 97 0
-320 108 0
-320 116 0
-320 -118 0
-320 127 0
-320 136 0
-320 147 0
-320 155 0
-320 -163 0
-320 -172 0
-320 -183 0
-320 -191 0
-320 199 0
-320 210 0
-320 218 0
-320 228 0
-320 236 0
-320 251 0
-321 6 0
-321 13 0
-321 22 0
-321 -31 0
-321 40 0
-321 51 0
-321 59 0
-321 70 0
-321 79 0
-321 -88 0
-321 97 0
-321 108 0
-321 116 0
-321 118 0
-321 -127 0
-321 136 0
-321 147 0
-321 155 0
-321 -163 0
-321 172 0
-321 183 0
-321 191 0
-321 -199 0
-321 -210 0
-321 -218 0
-321 228 0
-321 236 0
-321 251 0
-322 6 0
-322 13 0
-322 22 0
-322 31 0
-322 -40 0
-322 51 0
-322 59 0
-322 70 0
-322 79 0
-322 88 0
-322 -97 0
-322 108 0
-322 116 0
-322 118 0
-322 127 0
-322 -136 0
-322 147 0
-322 155 0
-322 163 0
-322 -172 0
-322 183 0
-322 191 0
-322 -199 0
-322 210 0
-322 218 0
-322 -228 0
-322 -236 0
-322 251 0
-323 6 0
-323 13 0
-323 22 0
-323 31 0
-323 40 0
-323 -51 0
-323 59 0
-323 70 0
-323 79 0
-323 88 0
-323 97 0
-323 -108 0
-323 116 0
-323 118 0
-323 127 0
-323 136 0
-323 -147 0
-323 155 0
-323 163 0
-323 172 0
-323 -183 0
-323 191 0
-323 199 0
-323 -210 0
-323 218 0
-323 -228 0
-323 236 0
-323 -251 0
-324 6 0
-324 13 0
-324 22 0
-324 31 0
-324 40 0
-324 51 0
-324 -59 0
-324 70 0
-324 79 0
-324 88 0
-324 97 0
-324 108 0
-324 -116 0
-324 118 0
-324 127 0
-324 136 0
-324 147 0
-324 -155 0
-324 163 0
-324 172 0
-324 183 0
-324 -191 0
-324 199 0
-324 210 0
-324 -218 0
-324 228 0
-324 -236 0
-324 -251 0
325 326 327 328 329 330 331 332 0
-325 -326 0
-325 -327 0
-325 -328 0
-325 -329 0
-325 -330 0
-325 -331 0
-325 -332 0
-326 -327 0
-326 -328 0
-326 -329 0
-326 -330 0
-326 -331 0
-326 -332 0
-327 -328 0
-327 -329 0
-327 -330 0
-327 -331 0
-327 -332 0
-328 -329 0
-328 -330 0
-328 -331 0
-328 -332 0
-329 -330 0
-329 -331 0
-329 -332 0
-330 -331 0
-330 -332 0
-331 -332 0
-325 -1 0
-325 -12 0
-325 -20 0
-325 -29 0
-325 -39 0
-325 -46 0
-325 -55 0
-325 66 0
-325 74 0
-325 83 0
-325 93 0
-325 100 0
-325 109 0
-325 125 0
-325 134 0
-325 144 0
-325 151 0
-325 160 0
-325 167 0
-325 177 0
-325 184 0
-325 193 0
-325 204 0
-325 211 0
-325 220 0
-325 232 0
-325 241 0
-325 244 0
-326 -1 0
-326 12 0
-326 20 0
-326 29 0
-326 39 0
-326 46 0
-326 55 0
-326 -66 0
-326 -74 0
-326 -83 0
-326 -93 0
-326 -100 0
-326 -109 0
-326 125 0
-326 134 0
-326 144 0
-326 151 0
-326 160 0
-326 167 0
-326 177 0
-326 184 0
-326 193 0
-326 204 0
-326 211 0
-326 220 0
-326 232 0
-326 241 0
-326 244 0
-327 1 0
-327 -12 0
-327 20 0
-327 29 0
-327 39 0
-327 46 0
-327 55 0
-327 -66 0
-327 74 0
-327 83 0
-327 93 0
-327 100 0
-327 109 0
-327 -125 0
-327 -134 0
-327 -144 0
-327 -151 0
-327 -160 0
-327 167 0
-327 177 0
-327 184 0
-327 193 0
-327 204 0
-327 211 0
-327 220 0
-327 232 0
-327 241 0
-327 244 0
-328 1 0
-328 12 0
-328 -20 0
-328 29 0
-328 39 0
-328 46 0
-328 55 0
-328 66 0
-328 -74 0
-328 83 0
-328 93 0
-328 100 0
-328 109 0
-328 -125 0
-328 134 0
-328 144 0
-328 151 0
-328 160 0
-328 -167 0
-328 -177 0
-328 -184 0
-328 -193 0
-328 204 0
-328 211 0
-328 220 0
-328 232 0
-328 241 0
-328 244 0
-329 1 0
-329 12 0
-329 20 0
-329 -29 0
-329 39 0
-329 46 0
-329 55 0
-329 66 0
-329 74 0
-329 -83 0
-329 93 0
-329 100 0
-329 109 0
-329 125 0
-329 -134 0
-329 144 0
-329 151 0
-329 160 0
-329 -167 0
-329 177 0
-329 184 0
-329 193 0
-329 -204 0
-329 -211 0
-329 -220 0
-329 232 0
-329 241 0
-329 244 0
-330 1 0
-330 12 0
-330 20 0
-330 29 0
-330 -39 0
-330 46 0
-330 55 0
-330 66 0
-330 74 0
-330 83 0
-330 -93 0
-330 100 0
-330 109 0
-330 125 0
-330 134 0
-330 -144 0
-330 151 0
-330 160 0
-330 167 0
-330 -177 0
-330 184 0
-330 193 0
-330 -204 0
-330 211 0
-330 220 0
-330 -232 0
-330 -241 0
-330 244 0
-331 1 0
-331 12 0
-331 20 0
-331 29 0
-331 39 0
-331 -46 0
-331 55 0
-331 66 0
-331 74 0
-331 83 0
-331 93 0
-331 -100 0
-331 109 0
-331 125 0
-331 134 0
-331 144 0
-331 -151 0
-331 160 0
-331 167 0
-331 177 0
-331 -184 0
-331 193 0
-331 204 0
-331 -211 0
-331 220 0
-331 -232 0
-331 241 0
-331 -244 0
-332 1 0
-332 12 0
-332 20 0
-332 29 0
-332 39 0
-332 46 0
-332 -55 0
-332 66 0
-332 74 0
-332 83 0
-332 93 0
-332 100 0
-332 -109 0
-332 125 0
-332 134 0
-332 144 0
-332 151 0
-332 -160 0
-332 167 0
-332 177 0
-332 184 0
-332 -193 0
-332 204 0
-332 211 0
-332 -220 0
-332 232 0
-332 -241 0
-332 -244 0
333 334 335 336 337 338 339 340 0
-333 -334 0
-333 -335 0
-333 -336 0
-333 -337 0
-333 -338 0
-333 -339 0
-333 -340 0
-334 -335 0
-334 -336 0
-334 -337 0
-334 -338 0
-334 -339 0
-334 -340 0
-335 -336 0
-335 -337 0
-335 -338 0
-335 -339 0
-335 -340 0
-336 -337 0
-336 -338 0
-336 -339 0
-336 -340 0
-337 -338 0
-337 -339 0
-337 -340 0
-338 -339 0
-338 -340 0
-339 -340 0
-333 -4 0
-333 -14 0
-333 -24 0
-333 -33 0
-333 -41 0
-333 -49 0
-333 -59 0
-333 65 0
-333 75 0
-333 84 0
-333 92 0
-333 100 0
-333 110 0
-333 123 0
-333 132 0
-333 140 0
-333 148 0
-333 158 0
-333 171 0
-333 179 0
-333 187 0
-333 197 0
-333 206 0
-333 214 0
-333 224 0
-333 229 0
-333 239 0
-333 245 0
-334 -4 0
-334 14 0
-334 24 0
-334 33 0
-334 41 0
-334 49 0
-334 59 0
-334 -65 0
-334 -75 0
-334 -84 0
-334 -92 0
-334 -100 0
-334 -110 0
-334 123 0
-334 132 0
-334 140 0
-334 148 0
-334 158 0
-334 171 0
-334 179 0
-334 187 0
-334 197 0
-334 206 0
-334 214 0
-334 224 0
-334 229 0
-334 239 0
-334 245 0
-335 4 0
-335 -14 0
-335 24 0
-335 33 0
-335 41 0
-335 49 0
-335 59 0
-335 -65 0
-335 75 0
-335 84 0
-335 92 0
-335 100 0
-335 110 0
-335 -123 0
-335 -132 0
-335 -140 0
-335 -148 0
-335 -158 0
-335 171 0
-335 179 0
-335 187 0
-335 197 0
-335 206 0
-335 214 0
-335 224 0
-335 229 0
-335 239 0
-335 245 0
-336 4 0
-336 14 0
-336 -24 0
-336 33 0
-336 41 0
-336 49 0
-336 59 0
-336 65 0
-336 -75 0
-336 84 0
-336 92 0
-336 100 0
-336 110 0
-336 -123 0
-336 132 0
-336 140 0
-336 148 0
-336 158 0
-336 -171 0
-336 -179 0
-336 -187 0
-336 -197 0
-336 206 0
-336 214 0
-336 224 0
-336 229 0
-336 239 0
-336 245 0
-337 4 0
-337 14 0
-337 24 0
-337 -33 0
-337 41 0
-337 49 0
-337 59 0
-337 65 0
-337 75 0
-337 -84 0
-337 92 0
-337 100 0
-337 110 0
-337 123 0
-337 -132 0
-337 140 0
-337 148 0
-337 158 0
-337 -171 0
-337 179 0
-337 187 0
-337 197 0
-337 -206 0
-337 -214 0
-337 -224 0
-337 229 0
-337 239 0
-337 245 0
-338 4 0
-338 14 0
-338 24 0
-338 33 0
-338 -41 0
-338 49 0
-338 59 0
-338 65 0
-338 75 0
-338 84 0
-338 -92 0
-338 100 0
-338 110 0
-338 123 0
-338 132 0
-338 -140 0
-338 148 0
-338 158 0
-338 171 0
-338 -179 0
-338 187 0
-338 197 0
-338 -206 0
-338 214 0
-338 224 0
-338 -229 0
-338 -239 0
-338 245 0
-339 4 0
-339 14 0
-339 24 0
-339 33 0
-339 41 0
-339 -49 0
-339 59 0
-339 65 0
-339 75 0
-339 84 0
-339 92 0
-339 -100 0
-339 110 0
-339 123 0
-339 132 0
-339 140 0
-339 -148 0
-339 158 0
-339 171 0
-339 179 0
-339 -187 0
-339 197 0
-339 206 0
-339 -214 0
-339 224 0
-339 -229 0
-339 239 0
-339 -245 0
-340 4 0
-340 14 0
-340 24 0
-340 33 0
-340 41 0
-340 49 0
-340 -59 0
-340 65 0
-340 75 0
-340 84 0
-340 92 0
-340 100 0
-340 -110 0
-340 123 0
-340 132 0
-340 140 0
-340 148 0
-340 -158 0
-340 171 0
-340 179 0
-340 187 0
-340 -197 0
-340 206 0
-340 214 0
-340 -224 0
-340 229 0
-340 -239 0
-340 -245 0
341 342 343 344 345 346 347 348 0
-341 -342 0
-341 -343 0
-341 -344 0
-341 -345 0
-341 -346 0
-341 -347 0
-341 -348 0
-342 -343 0
-342 -344 0
-342 -345 0
-342 -346 0
-342 -347 0
-342 -348 0
-343 -344 0
-343 -345 0
-343 -346 0
-343 -347 0
-343 -348 0
-344 -345 0
-344 -346 0
-344 -347 0
-344 -348 0
-345 -346 0
-345 -347 0
-345 -348 0
-346 -347 0
-346 -348 0
-347 -348 0
-341 -8 0
-341 -16 0
-341 -25 0
-341 -34 0
-341 -43 0
-341 -53 0
-341 -63 0
-341 67 0
-341 76 0
-341 85 0
-341 94 0
-341 104 0
-341 114 0
-341 118 0
-341 127 0
-341 136 0
-341 146 0
-341 156 0
-341 163 0
-341 172 0
-341 182 0
-341 192 0
-341 199 0
-341 209 0
-341 219 0
-341 227 0
-341 237 0
-341 249 0
-342 -8 0
-342 16 0
-342 25 0
-342 34 0
-342 43 0
-342 53 0
-342 63 0
-342 -67 0
-342 -76 0
-342 -85 0
-342 -94 0
-342 -104 0
-342 -114 0
-342 118 0
-342 127 0
-342 136 0
-342 146 0
-342 156 0
-342 163 0
-342 172 0
-342 182 0
-342 192 0
-342 199 0
-342 209 0
-342 219 0
-342 227 0
-342 237 0
-342 249 0
-343 8 0
-343 -16 0
-343 25 0
-343 34 0
-343 43 0
-343 53 0
-343 63 0
-343 -67 0
-343 76 0
-343 85 0
-343 94 0
-343 104 0
-343 114 0
-343 -118 0
-343 -127 0
-343 -136 0
-343 -146 0
-343 -156 0
-343 163 0
-343 172 0
-343 182 0
-343 192 0
-343 199 0
-343 209 0
-343 219 0
-343 227 0
-343 237 0
-343 249 0
-344 8 0
-344 16 0
-344 -25 0
-344 34 0
-344 43 0
-344 53 0
-344 63 0
-344 67 0
-344 -76 0
-344 85 0
-344 94 0
-344 104 0
-344 114 0
-344 -118 0
-344 127 0
-344 136 0
-344 146 0
-344 156 0
-344 -163 0
-344 -172 0
-344 -182 0
-344 -192 0
-344 199 0
-344 209 0
-344 219 0
-344 227 0
-344 237 0
-344 249 0
-345 8 0
-345 16 0
-345 25 0
-345 -34 0
-345 43 0
-345 53 0
-345 63 0
-345 67 0
-345 76 0
-345 -85 0
-345 94 0
-345 104 0
-345 114 0
-345 118 0
-345 -127 0
-345 136 0
-345 146 0
-345 156 0
-345 -163 0
-345 172 0
-345 182 0
-345 192 0
-345 -199 0
-345 -209 0
-345 -219 0
-345 227 0
-345 237 0
-345 249 0
-346 8 0
-346 16 0
-346 25 0
-346 34 0
-346 -43 0
-346 53 0
-346 63 0
-346 67 0
-346 76 0
-346 85 0
-346 -94 0
-346 104 0
-346 114 0
-346 118 0
-346 127 0
-346 -136 0
-346 146 0
-346 156 0
-346 163 0
-346 -172 0
-346 182 0
-346 192 0
-346 -199 0
-346 209 0
-346 219 0
-346 -227 0
-346 -237 0
-346 249 0
-347 8 0
-347 16 0
-347 25 0
-347 34 0
-347 43 0
-347 -53 0
-347 63 0
-347 67 0
-347 76 0
-347 85 0
-347 94 0
-347 -104 0
-347 114 0
-347 118 0
-347 127 0
-347 136 0
-347 -146 0
-347 156 0
-347 163 0
-347 172 0
-347 -182 0
-347 192 0
-347 199 0
-347 -209 0
-347 219 0
-347 -227 0
-347 237 0
-347 -249 0
-348 8 0
-348 16 0
-348 25 0
-348 34 0
-348 43 0
-348 53 0
-348 -63 0
-348 67 0
-348 76 0
-348 85 0
-348 94 0
-348 104 0
-348 -114 0
-348 118 0
-348 127 0
-348 136 0
-348 146 0
-348 -156 0
-348 163 0
-348 172 0
-348 182 0
-348 -192 0
-348 199 0
-348 209 0
-348 -219 0
-348 227 0
-348 -237 0
-348 -249 0
349 350 351 352 353 354 355 356 0
-349 -350 0
-349 -351 0
-349 -352 0
-349 -353 0
-349 -354 0
-349 -355 0
-349 -356 0
-350 -351 0
-350 -352 0
-350 -353 0
-350 -354 0
-350 -355 0
-350 -356 0
-351 -352 0
-351 -353 0
-351 -354 0
-351 -355 0
-351 -356 0
-352 -353 0
-352 -354 0
-352 -355 0
-352 -356 0
-353 -354 0
-353 -355 0
-353 -356 0
-354 -355 0
-354 -356 0
-355 -356 0
-349 -3 0
-349 -10 0
-349 -20 0
-349 -28 0
-349 -38 0
-349 -46 0
-349 -57 0
-349 70 0
-349 80 0
-349 88 0
-349 98 0
-349 106 0
-349 117 0
-349 119 0
-349 127 0
-349 137 0
-349 145 0
-349 156 0
-349 166 0
-349 176 0
-349 184 0
-349 195 0
-349 200 0
-349 208 0
-349 219 0
-349 229 0
-349 240 0
-349 246 0
-350 -3 0
-350 10 0
-350 20 0
-350 28 0
-350 38 0
-350 46 0
-350 57 0
-350 -70 0
-350 -80 0
-350 -88 0
-350 -98 0
-350 -106 0
-350 -117 0
-350 119 0
-350 127 0
-350 137 0
-350 145 0
-350 156 0
-350 166 0
-350 176 0
-350 184 0
-350 195 0
-350 200 0
-350 208 0
-350 219 0
-350 229 0
-350 240 0
-350 246 0
-351 3 0
-351 -10 0
-351 20 0
-351 28 0
-351 38 0
-351 46 0
-351 57 0
-351 -70 0
-351 80 0
-351 88 0
-351 98 0
-351 106 0
-351 117 0
-351 -119 0
-351 -127 0
-351 -137 0
-351 -145 0
-351 -156 0
-351 166 0
-351 176 0
-351 184 0
-351 195 0
-351 200 0
-351 208 0
-351 219 0
-351 229 0
-351 240 0
-351 246 0
-352 3 0
-352 10 0
-352 -20 0
-352 28 0
-352 38 0
-352 46 0
-352 57 0
-352 70 0
-352 -80 0
-352 88 0
-352 98 0
-352 106 0
-352 117 0
-352 -119 0
-352 127 0
-352 137 0
-352 145 0
-352 156 0
-352 -166 0
-352 -176 0
-352 -184 0
-352 -195 0
-352 200 0
-352 208 0
-352 219 0
-352 229 0
-352 240 0
-352 246 0
-353 3 0
-353 10 0
-353 20 0
-353 -28 0
-353 38 0
-353 46 0
-353 57 0
-353 70 0
-353 80 0
-353 -88 0
-353 98 0
-353 106 0
-353 117 0
-353 119 0
-353 -127 0
-353 137 0
-353 145 0
-353 156 0
-353 -166 0
-353 176 0
-353 184 0
-353 195 0
-353 -200 0
-353 -208 0
-353 -219 0
-353 229 0
-353 240 0
-353 246 0
-354 3 0
-354 10 0
-354 20 0
-354 28 0
-354 -38 0
-354 46 0
-354 57 0
-354 70 0
-354 80 0
-354 88 0
-354 -98 0
-354 106 0
-354 117 0
-354 119 0
-354 127 0
-354 -137 0
-354 145 0
-354 156 0
-354 166 0
-354 -176 0
-354 184 0
-354 195 0
-354 -200 0
-354 208 0
-354 219 0
-354 -229 0
-354 -240 0
-354 246 0
-355 3 0
-355 10 0
-355 20 0
-355 28 0
-355 38 0
-355 -46 0
-355 57 0
-355 70 0
-355 80 0
-355 88 0
-355 98 0
-355 -106 0
-355 117 0
-355 119 0
-355 127 0
-355 137 0
-355 -145 0
-355 156 0
-355 166 0
-355 176 0
-355 -184 0
-355 195 0
-355 200 0
-355 -208 0
-355 219 0
-355 -229 0
-355 240 0
-355 -246 0
-356 3 0
-356 10 0
-356 20 0
-356 28 0
-356 38 0
-356 46 0
-356 -57 0
-356 70 0
-356 80 0
-356 88 0
-356 98 0
-356 106 0
-356 -117 0
-356 119 0
-356 127 0
-356 137 0
-356 145 0
-356 -156 0
-356 166 0
-356 176 0
-356 184 0
-356 -195 0
-356 200 0
-356 208 0
-356 -219 0
-356 229 0
-356 -240 0
-356 -246 0
357 358 359 360 361 362 363 364 0
-357 -358 0
-357 -359 0
-357 -360 0
-357 -361 0
-357 -362 0
-357 -363 0
-357 -364 0
-358 -359 0
-358 -360 0
-358 -361 0
-358 -362 0
-358 -363 0
-358 -364 0
-359 -360 0
-359 -361 0
-359 -362 0
-359 -363 0
-359 -364 0
-360 -361 0
-360 -362 0
-360 -363 0
-360 -364 0
-361 -362 0
-361 -363 0
-361 -364 0
-362 -363 0
-362 -364 0
-363 -364 0
-357 -7 0
-357 -17 0
-357 -26 0
-357 -34 0
-357 -45 0
-357 -53 0
-357 -62 0
-357 65 0
-357 74 0
-357 82 0
-357 93 0
-357 101 0
-357 110 0
-357 122 0
-357 130 0
-357 141 0
-357 149 0
-357 158 0
-357 166 0
-357 177 0
-357 185 0
-357 194 0
-357 201 0
-357 209 0
-357 218 0
-357 233 0
-357 242 0
-357 248 0
-358 -7 0
-358 17 0
-358 26 0
-358 34 0
-358 45 0
-358 53 0
-358 62 0
-358 -65 0
-358 -74 0
-358 -82 0
-358 -93 0
-358 -101 0
-358 -110 0
-358 122 0
-358 130 0
-358 141 0
-358 149 0
-358 158 0
-358 166 0
-358 177 0
-358 185 0
-358 194 0
-358 201 0
-358 209 0
-358 218 0
-358 233 0
-358 242 0
-358 248 0
-359 7 0
-359 -17 0
-359 26 0
-359 34 0
-359 45 0
-359 53 0
-359 62 0
-359 -65 0
-359 74 0
-359 82 0
-359 93 0
-359 101 0
-359 110 0
-359 -122 0
-359 -130 0
-359 -141 0
-359 -149 0
-359 -158 0
-359 166 0
-359 177 0
-359 185 0
-359 194 0
-359 201 0
-359 209 0
-359 218 0
-359 233 0
-359 242 0
-359 248 0
-360 7 0
-360 17 0
-360 -26 0
-360 34 0
-360 45 0
-360 53 0
-360 62 0
-360 65 0
-360 -74 0
-360 82 0
-360 93 0
-360 101 0
-360 110 0
-360 -122 0
-360 130 0
-360 141 0
-360 149 0
-360 158 0
-360 -166 0
-360 -177 0
-360 -185 0
-360 -194 0
-360 201 0
-360 209 0
-360 218 0
-360 233 0
-360 242 0
-360 248 0
-361 7 0
-361 17 0
-361 26 0
-361 -34 0
-361 45 0
-361 53 0
-361 62 0
-361 65 0
-361 74 0
-361 -82 0
-361 93 0
-361 101 0
-361 110 0
-361 122 0
-361 -130 0
-361 141 0
-361 149 0
-361 158 0
-361 -166 0
-361 177 0
-361 185 0
-361 194 0
-361 -201 0
-361 -209 0
-361 -218 0
-361 233 0
-361 242 0
-361 248 0
-362 7 0
-362 17 0
-362 26 0
-362 34 0
-362 -45 0
-362 53 0
-362 62 0
-362 65 0
-362 74 0
-362 82 0
-362 -93 0
-362 101 0
-362 110 0
-362 122 0
-362 130 0
-362 -141 0
-362 149 0
-362 158 0
-362 166 0
-362 -177 0
-362 185 0
-362 194 0
-362 -201 0
-362 209 0
-362 218 0
-362 -233 0
-362 -242 0
-362 248 0
-363 7 0
-363 17 0
-363 26 0
-363 34 0
-363 45 0
-363 -53 0
-363 62 0
-363 65 0
-363 74 0
-363 82 0
-363 93 0
-363 -101 0
-363 110 0
-363 122 0
-363 130 0
-363 141 0
-363 -149 0
-363 158 0
-363 166 0
-363 177 0
-363 -185 0
-363 194 0
-363 201 0
-363 -209 0
-363 218 0
-363 -233 0
-363 242 0
-363 -248 0
-364 7 0
-364 17 0
-364 26 0
-364 34 0
-364 45 0
-364 53 0
-364 -62 0
-364 65 0
-364 74 0
-364 82 0
-364 93 0
-364 101 0
-364 -110 0
-364 122 0
-364 130 0
-364 141 0
-364 149 0
-364 -158 0
-364 166 0
-364 177 0
-364 185 0
-364 -194 0
-364 201 0
-364 209 0
-364 -218 0
-364 233 0
-364 -242 0
-364 -248 0
365 366 367 368 369 370 371 372 0
-365 -366 0
-365 -367 0
-365 -368 0
-365 -369 0
-365 -370 0
-365 -371 0
-365 -372 0
-366 -367 0
-366 -368 0
-366 -369 0
-366 -370 0
-366 -371 0
-366 -372 0
-367 -368 0
-367 -369 0
-367 -370 0
-367 -371 0
-367 -372 0
-368 -369 0
-368 -370 0
-368 -371 0
-368 -372 0
-369 -370 0
-369 -371 0
-369 -372 0
-370 -371 0
-370 -372 0
-371 -372 0
-365 -2 0
-365 -11 0
-365 -19 0
-365 -30 0
-365 -39 0
-365 -48 0
-365 -57 0
-365 68 0
-365 76 0
-365 87 0
-365 96 0
-365 105 0
-365 114 0
-365 121 0
-365 132 0
-365 141 0
-365 150 0
-365 159 0
-365 165 0
-365 174 0
-365 183 0
-365 192 0
-365 207 0
-365 216 0
-365 225 0
-365 234 0
-365 243 0
-365 252 0
-366 -2 0
-366 11 0
-366 19 0
-366 30 0
-366 39 0
-366 48 0
-366 57 0
-366 -68 0
-366 -76 0
-366 -87 0
-366 -96 0
-366 -105 0
-366 -114 0
-366 121 0
-366 132 0
-366 141 0
-366 150 0
-366 159 0
-366 165 0
-366 174 0
-366 183 0
-366 192 0
-366 207 0
-366 216 0
-366 225 0
-366 234 0
-366 243 0
-366 252 0
-367 2 0
-367 -11 0
-367 19 0
-367 30 0
-367 39 0
-367 48 0
-367 57 0
-367 -68 0
-367 76 0
-367 87 0
-367 96 0
-367 105 0
-367 114 0
-367 -121 0
-367 -132 0
-367 -141 0
-367 -150 0
-367 -159 0
-367 165 0
-367 174 0
-367 183 0
-367 192 0
-367 207 0
-367 216 0
-367 225 0
-367 234 0
-367 243 0
-367 252 0
-368 2 0
-368 11 0
-368 -19 0
-368 30 0
-368 39 0
-368 48 0
-368 57 0
-368 68 0
-368 -76 0
-368 87 0
-368 96 0
-368 105 0
-368 114 0
-368 -121 0
-368 132 0
-368 141 0
-368 150 0
-368 159 0
-368 -165 0
-368 -174 0
-368 -183 0
-368 -192 0
-368 207 0
-368 216 0
-368 225 0
-368 234 0
-368 243 0
-368 252 0
-369 2 0
-369 11 0
-369 19 0
-369 -30 0
-369 39 0
-369 48 0
-369 57 0
-369 68 0
-369 76 0
-369 -87 0
-369 96 0
-369 105 0
-369 114 0
-369 121 0
-369 -132 0
-369 141 0
-369 150 0
-369 159 0
-369 -165 0
-369 174 0
-369 183 0
-369 192 0
-369 -207 0
-369 -216 0
-369 -225 0
-369 234 0
-369 243 0
-369 252 0
-370 2 0
-370 11 0
-370 19 0
-370 30 0
-370 -39 0
-370 48 0
-370 57 0
-370 68 0
-370 76 0
-370 87 0
-370 -96 0
-370 105 0
-370 114 0
-370 121 0
-370 132 0
-370 -141 0
-370 150 0
-370 159 0
-370 165 0
-370 -174 0
-370 183 0
-370 192 0
-370 -207 0
-370 216 0
-370 225 0
-370 -234 0
-370 -243 0
-370 252 0
-371 2 0
-371 11 0
-371 19 0
-371 30 0
-371 39 0
-371 -48 0
-371 57 0
-371 68 0
-371 76 0
-371 87 0
-371 96 0
-371 -105 0
-371 114 0
-371 121 0
-371 132 0
-371 141 0
-371 -150 0
-371 159 0
-371 165 0
-371 174 0
-371 -183 0
-371 192 0
-371 207 0
-371 -216 0
-371 225 0
-371 -234 0
-371 243 0
-371 -252 0
-372 2 0
-372 11 0
-372 19 0
-372 30 0
-372 39 0
-372 48 0
-372 -57 0
-372 68 0
-372 76 0
-372 87 0
-372 96 0
-372 105 0
-372 -114 0
-372 121 0
-372 132 0
-372 141 0
-372 150 0
-372 -159 0
-372 165 0
-372 174 0
-372 183 0
-372 -192 0
-372 207 0
-372 216 0
-372 -225 0
-372 234 0
-372 -243 0
-372 -252 0
373 374 375 376 377 378 379 380 0
-373 -374 0
-373 -375 0
-373 -376 0
-373 -377 0
-373 -378 0
-373 -379 0
-373 -380 0
-374 -375 0
-374 -376 0
-374 -377 0
-374 -378 0
-374 -379 0
-374 -380 0
-375 -376 0
-375 -377 0
-375 -378 0
-375 -379 0
-375 -380 0
-376 -377 0
-376 -378 0
-376 -379 0
-376 -380 0
-377 -378 0
-377 -379 0
-377 -380 0
-378 -379 0
-378 -380 0
-379 -380 0
-373 -4 0
-373 -13 0
-373 -23 0
-373 -33 0
-373 -42 0
-373 -51 0
-373 -60 0
-373 64 0
-373 74 0
-373 84 0
-373 93 0
-373 102 0
-373 111 0
-373 119 0
-373 129 0
-373 138 0
-373 147 0
-373 156 0
-373 168 0
-373 177 0
-373 186 0
-373 195 0
-373 207 0
-373 216 0
-373 225 0
-373 234 0
-373 243 0
-373 252 0
-374 -4 0
-374 13 0
-374 23 0
-374 33 0
-374 42 0
-374 51 0
-374 60 0
-374 -64 0
-374 -74 0
-374 -84 0
-374 -93 0
-374 -102 0
-374 -111 0
-374 119 0
-374 129 0
-374 138 0
-374 147 0
-374 156 0
-374 168 0
-374 177 0
-374 186 0
-374 195 0
-374 207 0
-374 216 0
-374 225 0
-374 234 0
-374 243 0
-374 252 0
-375 4 0
-375 -13 0
-375 23 0
-375 33 0
-375 42 0
-375 51 0
-375 60 0
-375 -64 0
-375 74 0
-375 84 0
-375 93 0
-375 102 0
-375 111 0
-375 -119 0
-375 -129 0
-375 -138 0
-375 -147 0
-375 -156 0
-375 168 0
-375 177 0
-375 186 0
-375 195 0
-375 207 0
-375 216 0
-375 225 0
-375 234 0
-375 243 0
-375 252 0
-376 4 0
-376 13 0
-376 -23 0
-376 33 0
-376 42 0
-376 51 0
-376 60 0
-376 64 0
-376 -74 0
-376 84 0
-376 93 0
-376 102 0
-376 111 0
-376 -119 0
-376 129 0
-376 138 0
-376 147 0
-376 156 0
-376 -168 0
-376 -177 0
-376 -186 0
-376 -195 0
-376 207 0
-376 216 0
-376 225 0
-376 234 0
-376 243 0
-376 252 0
-377 4 0
-377 13 0
-377 23 0
-377 -33 0
-377 42 0
-377 51 0
-377 60 0
-377 64 0
-377 74 0
-377 -84 0
-377 93 0
-377 102 0
-377 111 0
-377 119 0
-377 -129 0
-377 138 0
-377 147 0
-377 156 0
-377 -168 0
-377 177 0
-377 186 0
-377 195 0
-377 -207 0
-377 -216 0
-377 -225 0
-377 234 0
-377 243 0
-377 252 0
-378 4 0
-378 13 0
-378 23 0
-378 33 0
-378 -42 0
-378 51 0
-378 60 0
-378 64 0
-378 74 0
-378 84 0
-378 -93 0
-378 102 0
-378 111 0
-378 119 0
-378 129 0
-378 -138 0
-378 147 0
-378 156 0
-378 168 0
-378 -177 0
-378 186 0
-378 195 0
-378 -207 0
-378 216 0
-378 225 0
-378 -234 0
-378 -243 0
-378 252 0
-379 4 0
-379 13 0
-379 23 0
-379 33 0
-379 42 0
-379 -51 0
-379 60 0
-379 64 0
-379 74 0
-379 84 0
-379 93 0
-379 -102 0
-379 111 0
-379 119 0
-379 129 0
-379 138 0
-379 -147 0
-379 156 0
-379 168 0
-379 177 0
-379 -186 0
-379 195 0
-379 207 0
-379 -216 0
-379 225 0
-379 -234 0
-379 243 0
-379 -252 0
-380 4 0
-380 13 0
-380 23 0
-380 33 0
-380 42 0
-380 51 0
-380 -60 0
-380 64 0
-380 74 0
-380 84 0
-380 93 0
-380 102 0
-380 -111 0
-380 119 0
-380 129 0
-380 138 0
-380 147 0
-380 -156 0
-380 168 0
-380 177 0
-380 186 0
-380 -195 0
-380 207 0
-380 216 0
-380 -225 0
-380 234 0
-380 -243 0
-380 -252 0
381 382 383 384 385 386 387 388 0
-381 -382 0
-381 -383 0
-381 -384 0
-381 -385 0
-381 -386 0
-381 -387 0
-381 -388 0
-382 -383 0
-382 -384 0
-382 -385 0
-382 -386 0
-382 -387 0
-382 -388 0
-383 -384 0
-383 -385 0
-383 -386 0
-383 -387 0
-383 -388 0
-384 -385 0
-384 -386 0
-384 -387 0
-384 -388 0
-385 -386 0
-385 -387 0
-385 -388 0
-386 -387 0
-386 -388 0
-387 -388 0
-381 -7 0
-381 -17 0
-381 -25 0
-381 -35 0
-381 -43 0
-381 -54 0
-381 -61 0
-381 65 0
-381 73 0
-381 83 0
-381 91 0
-381 102 0
-381 109 0
-381 121 0
-381 131 0
-381 139 0
-381 150 0
-381 157 0
-381 164 0
-381 172 0
-381 183 0
-381 190 0
-381 202 0
-381 213 0
-381 220 0
-381 228 0
-381 235 0
-381 250 0
-382 -7 0
-382 17 0
-382 25 0
-382 35 0
-382 43 0
-382 54 0
-382 61 0
-382 -65 0
-382 -73 0
-382 -83 0
-382 -91 0
-382 -102 0
-382 -109 0
-382 121 0
-382 131 0
-382 139 0
-382 150 0
-382 157 0
-382 164 0
-382 172 0
-382 183 0
-382 190 0
-382 202 0
-382 213 0
-382 220 0
-382 228 0
-382 235 0
-382 250 0
-383 7 0
-383 -17 0
-383 25 0
-383 35 0
-383 43 0
-383 54 0
-383 61 0
-383 -65 0
-383 73 0
-383 83 0
-383 91 0
-383 102 0
-383 109 0
-383 -121 0
-383 -131 0
-383 -139 0
-383 -150 0
-383 -157 0
-383 164 0
-383 172 0
-383 183 0
-383 190 0
-383 202 0
-383 213 0
-383 220 0
-383 228 0
-383 235 0
-383 250 0
-384 7 0
-384 17 0
-384 -25 0
-384 35 0
-384 43 0
-384 54 0
-384 61 0
-384 65 0
-384 -73 0
-384 83 0
-384 91 0
-384 102 0
-384 109 0
-384 -121 0
-384 131 0
-384 139 0
-384 150 0
-384 157 0
-384 -164 0
-384 -172 0
-384 -183 0
-384 -190 0
-384 202 0
-384 213 0
-384 220 0
-384 228 0
-384 235 0
-384 250 0
-385 7 0
-385 17 0
-385 25 0
-385 -35 0
-385 43 0
-385 54 0
-385 61 0
-385 65 0
-385 73 0
-385 -83 0
-385 91 0
-385 102 0
-385 109 0
-385 121 0
-385 -131 0
-385 139 0
-385 150 0
-385 157 0
-385 -164 0
-385 172 0
-385 183 0
-385 190 0
-385 -202 0
-385 -213 0
-385 -220 0
-385 228 0
-385 235 0
-385 250 0
-386 7 0
-386 17 0
-386 25 0
-386 35 0
-386 -43 0
-386 54 0
-386 61 0
-386 65 0
-386 73 0
-386 83 0
-386 -91 0
-386 102 0
-386 109 0
-386 121 0
-386 131 0
-386 -139 0
-386 150 0
-386 157 0
-386 164 0
-386 -172 0
-386 183 0
-386 190 0
-386 -202 0
-386 213 0
-386 220 0
-386 -228 0
-386 -235 0
-386 250 0
-387 7 0
-387 17 0
-387 25 0
-387 35 0
-387 43 0
-387 -54 0
-387 61 0
-387 65 0
-387 73 0
-387 83 0
-387 91 0
-387 -102 0
-387 109 0
-387 121 0
-387 131 0
-387 139 0
-387 -150 0
-387 157 0
-387 164 0
-387 172 0
-387 -183 0
-387 190 0
-387 202 0
-387 -213 0
-387 220 0
-387 -228 0
-387 235 0
-387 -250 0
-388 7 0
-388 17 0
-388 25 0
-388 35 0
-388 43 0
-388 54 0
-388 -61 0
-388 65 0
-388 73 0
-388 83 0
-388 91 0
-388 102 0
-388 -109 0
-388 121 0
-388 131 0
-388 139 0
-388 150 0
-388 -157 0
-388 164 0
-388 172 0
-388 183 0
-388 -190 0
-388 202 0
-388 213 0
-388 -220 0
-388 228 0
-388 -235 0
-388 -250 0
389 390 391 392 393 394 395 396 0
-389 -390 0
-389 -391 0
-389 -392 0
-389 -393 0
-389 -394 0
-389 -395 0
-389 -396 0
-390 -391 0
-390 -392 0
-390 -393 0
-390 -394 0
-390 -395 0
-390 -396 0
-391 -392 0
-391 -393 0
-391 -394 0
-391 -395 0
-391 -396 0
-392 -393 0
-392 -394 0
-392 -395 0
-392 -396 0
-393 -394 0
-393 -395 0
-393 -396 0
-394 -395 0
-394 -396 0
-395 -396 0
-389 -5 0
-389 -15 0
-389 -22 0
-389 -32 0
-389 -41 0
-389 -49 0
-389 -60 0
-389 69 0
-389 76 0
-389 86 0
-389 95 0
-389 103 0
-389 114 0
-389 124 0
-389 134 0
-389 143 0
-389 151 0
-389 162 0
-389 164 0
-389 173 0
-389 181 0
-389 192 0
-389 203 0
-389 211 0
-389 222 0
-389 229 0
-389 240 0
-389 246 0
-390 -5 0
-390 15 0
-390 22 0
-390 32 0
-390 41 0
-390 49 0
-390 60 0
-390 -69 0
-390 -76 0
-390 -86 0
-390 -95 0
-390 -103 0
-390 -114 0
-390 124 0
-390 134 0
-390 143 0
-390 151 0
-390 162 0
-390 164 0
-390 173 0
-390 181 0
-390 192 0
-390 203 0
-390 211 0
-390 222 0
-390 229 0
-390 240 0
-390 246 0
-391 5 0
-391 -15 0
-391 22 0
-391 32 0
-391 41 0
-391 49 0
-391 60 0
-391 -69 0
-391 76 0
-391 86 0
-391 95 0
-391 103 0
-391 114 0
-391 -124 0
-391 -134 0
-391 -143 0
-391 -151 0
-391 -162 0
-391 164 0
-391 173 0
-391 181 0
-391 192 0
-391 203 0
-391 211 0
-391 222 0
-391 229 0
-391 240 0
-391 246 0
-392 5 0
-392 15 0
-392 -22 0
-392 32 0
-392 41 0
-392 49 0
-392 60 0
-392 69 0
-392 -76 0
-392 86 0
-392 95 0
-392 103 0
-392 114 0
-392 -124 0
-392 134 0
-392 143 0
-392 151 0
-392 162 0
-392 -164 0
-392 -173 0
-392 -181 0
-392 -192 0
-392 203 0
-392 211 0
-392 222 0
-392 229 0
-392 240 0
-392 246 0
-393 5 0
-393 15 0
-393 22 0
-393 -32 0
-393 41 0
-393 49 0
-393 60 0
-393 69 0
-393 76 0
-393 -86 0
-393 95 0
-393 103 0
-393 114 0
-393 124 0
-393 -134 0
-393 143 0
-393 151 0
-393 162 0
-393 -164 0
-393 173 0
-393 181 0
-393 192 0
-393 -203 0
-393 -211 0
-393 -222 0
-393 229 0
-393 240 0
-393 246 0
-394 5 0
-394 15 0
-394 22 0
-394 32 0
-394 -41 0
-394 49 0
-394 60 0
-394 69 0
-394 76 0
-394 86 0
-394 -95 0
-394 103 0
-394 114 0
-394 124 0
-394 134 0
-394 -143 0
-394 151 0
-394 162 0
-394 164 0
-394 -173 0
-394 181 0
-394 192 0
-394 -203 0
-394 211 0
-394 222 0
-394 -229 0
-394 -240 0
-394 246 0
-395 5 0
-395 15 0
-395 22 0
-395 32 0
-395 41 0
-395 -49 0
-395 60 0
-395 69 0
-395 76 0
-395 86 0
-395 95 0
-395 -103 0
-395 114 0
-395 124 0
-395 134 0
-395 143 0
-395 -151 0
-395 162 0
-395 164 0
-395 173 0
-395 -181 0
-395 192 0
-395 203 0
-395 -211 0
-395 222 0
-395 -229 0
-395 240 0
-395 -246 0
-396 5 0
-396 15 0
-396 22 0
-396 32 0
-396 41 0
-396 49 0
-396 -60 0
-396 69 0
-396 76 0
-396 86 0
-396 95 0
-396 103 0
-396 -114 0
-396 124 0
-396 134 0
-396 143 0
-396 151 0
-396 -162 0
-396 164 0
-396 173 0
-396 181 0
-396 -192 0
-396 203 0
-396 211 0
-396 -222 0
-396 229 0
-396 -240 0
-396 -246 0
397 398 399 400 401 402 403 404 0
-397 -398 0
-397 -399 0
-397 -400 0
-397 -401 0
-397 -402 0
-397 -403 0
-397 -404 0
-398 -399 0
-398 -400 0
-398 -401 0
-398 -402 0
-398 -403 0
-398 -404 0
-399 -400 0
-399 -401 0
-399 -402 0
-399 -403 0
-399 -404 0
-400 -401 0
-400 -402 0
-400 -403 0
-400 -404 0
-401 -402 0
-401 -403 0
-401 -404 0
-402 -403 0
-402 -404 0
-403 -404 0
-397 -5 0
-397 -13 0
-397 -24 0
-397 -32 0
-397 -41 0
-397 -51 0
-397 -58 0
-397 67 0
-397 78 0
-397 86 0
-397 95 0
-397 105 0
-397 112 0
-397 120 0
-397 128 0
-397 137 0
-397 147 0
-397 154 0
-397 170 0
-397 179 0
-397 189 0
-397 196 0
-397 203 0
-397 213 0
-397 220 0
-397 231 0
-397 238 0
-397 250 0
-398 -5 0
-398 13 0
-398 24 0
-398 32 0
-398 41 0
-398 51 0
-398 58 0
-398 -67 0
-398 -78 0
-398 -86 0
-398 -95 0
-398 -105 0
-398 -112 0
-398 120 0
-398 128 0
-398 137 0
-398 147 0
-398 154 0
-398 170 0
-398 179 0
-398 189 0
-398 196 0
-398 203 0
-398 213 0
-398 220 0
-398 231 0
-398 238 0
-398 250 0
-399 5 0
-399 -13 0
-399 24 0
-399 32 0
-399 41 0
-399 51 0
-399 58 0
-399 -67 0
-399 78 0
-399 86 0
-399 95 0
-399 105 0
-399 112 0
-399 -120 0
-399 -128 0
-399 -137 0
-399 -147 0
-399 -154 0
-399 170 0
-399 179 0
-399 189 0
-399 196 0
-399 203 0
-399 213 0
-399 220 0
-399 231 0
-399 238 0
-399 250 0
-400 5 0
-400 13 0
-400 -24 0
-400 32 0
-400 41 0
-400 51 0
-400 58 0
-400 67 0
-400 -78 0
-400 86 0
-400 95 0
-400 105 0
-400 112 0
-400 -120 0
-400 128 0
-400 137 0
-400 147 0
-400 154 0
-400 -170 0
-400 -179 0
-400 -189 0
-400 -196 0
-400 203 0
-400 213 0
-400 220 0
-400 231 0
-400 238 0
-400 250 0
-401 5 0
-401 13 0
-401 24 0
-401 -32 0
-401 41 0
-401 51 0
-401 58 0
-401 67 0
-401 78 0
-401 -86 0
-401 95 0
-401 105 0
-401 112 0
-401 120 0
-401 -128 0
-401 137 0
-401 147 0
-401 154 0
-401 -170 0
-401 179 0
-401 189 0
-401 196 0
-401 -203 0
-401 -213 0
-401 -220 0
-401 231 0
-401 238 0
-401 250 0
-402 5 0
-402 13 0
-402 24 0
-402 32 0
-402 -41 0
-402 51 0
-402 58 0
-402 67 0
-402 78 0
-402 86 0
-402 -95 0
-402 105 0
-402 112 0
-402 120 0
-402 128 0
-402 -137 0
-402 147 0
-402 154 0
-402 170 0
-402 -179 0
-402 189 0
-402 196 0
-402 -203 0
-402 213 0
-402 220 0
-402 -231 0
-402 -238 0
-402 250 0
-403 5 0
-403 13 0
-403 24 0
-403 32 0
-403 41 0
-403 -51 0
-403 58 0
-403 67 0
-403 78 0
-403 86 0
-403 95 0
-403 -105 0
-403 112 0
-403 120 0
-403 128 0
-403 137 0
-403 -147 0
-403 154 0
-403 170 0
-403 179 0
-403 -189 0
-403 196 0
-403 203 0
-403 -213 0
-403 220 0
-403 -231 0
-403 238 0
-403 -250 0
-404 5 0
-404 13 0
-404 24 0
-404 32 0
-404 41 0
-404 51 0
-404 -58 0
-404 67 0
-404 78 0
-404 86 0
-404 95 0
-404 105 0
-404 -112 0
-404 120 0
-404 128 0
-404 137 0
-404 147 0
-404 -154 0
-404 170 0
-404 179 0
-404 189 0
-404 -196 0
-404 203 0
-404 213 0
-404 -220 0
-404 231 0
-404 -238 0
-404 -250 0
405 406 407 408 409 410 411 412 0
-405 -406 0
-405 -407 0
-405 -408 0
-405 -409 0
-405 -410 0
-405 -411 0
-405 -412 0
-406 -407 0
-406 -408 0
-406 -409 0
-406 -410 0
-406 -411 0
-406 -412 0
-407 -408 0
-407 -409 0
-407 -410 0
-407 -411 0
-407 -412 0
-408 -409 0
-408 -410 0
-408 -411 0
-408 -412 0
-409 -410 0
-409 -411 0
-409 -412 0
-410 -411 0
-410 -412 0
-411 -412 0
-405 -9 0
-405 -18 0
-405 -27 0
-405 -34 0
-405 -44 0
-405 -53 0
-405 -61 0
-405 72 0
-405 81 0
-405 88 0
-405 98 0
-405 107 0
-405 115 0
-405 126 0
-405 133 0
-405 143 0
-405 152 0
-405 160 0
-405 169 0
-405 179 0
-405 188 0
-405 196 0
-405 200 0
-405 209 0
-405 217 0
-405 230 0
-405 238 0
-405 247 0
-406 -9 0
-406 18 0
-406 27 0
-406 34 0
-406 44 0
-406 53 0
-406 61 0
-406 -72 0
-406 -81 0
-406 -88 0
-406 -98 0
-406 -107 0
-406 -115 0
-406 126 0
-406 133 0
-406 143 0
-406 152 0
-406 160 0
-406 169 0
-406 179 0
-406 188 0
-406 196 0
-406 200 0
-406 209 0
-406 217 0
-406 230 0
-406 238 0
-406 247 0
-407 9 0
-407 -18 0
-407 27 0
-407 34 0
-407 44 0
-407 53 0
-407 61 0
-407 -72 0
-407 81 0
-407 88 0
-407 98 0
-407 107 0
-407 115 0
-407 -126 0
-407 -133 0
-407 -143 0
-407 -152 0
-407 -160 0
-407 169 0
-407 179 0
-407 188 0
-407 196 0
-407 200 0
-407 209 0
-407 217 0
-407 230 0
-407 238 0
-407 247 0
-408 9 0
-408 18 0
-408 -27 0
-408 34 0
-408 44 0
-408 53 0
-408 61 0
-408 72 0
-408 -81 0
-408 88 0
-408 98 0
-408 107 0
-408 115 0
-408 -126 0
-408 133 0
-408 143 0
-408 152 0
-408 160 0
-408 -169 0
-408 -179 0
-408 -188 0
-408 -196 0
-408 200 0
-408 209 0
-408 217 0
-408 230 0
-408 238 0
-408 247 0
-409 9 0
-409 18 0
-409 27 0
-409 -34 0
-409 44 0
-409 53 0
-409 61 0
-409 72 0
-409 81 0
-409 -88 0
-409 98 0
-409 107 0
-409 115 0
-409 126 0
-409 -133 0
-409 143 0
-409 152 0
-409 160 0
-409 -169 0
-409 179 0
-409 188 0
-409 196 0
-409 -200 0
-409 -209 0
-409 -217 0
-409 230 0
-409 238 0
-409 247 0
-410 9 0
-410 18 0
-410 27 0
-410 34 0
-410 -44 0
-410 53 0
-410 61 0
-410 72 0
-410 81 0
-410 88 0
-410 -98 0
-410 107 0
-410 115 0
-410 126 0
-410 133 0
-410 -143 0
-410 152 0
-410 160 0
-410 169 0
-410 -179 0
-410 188 0
-410 196 0
-410 -200 0
-410 209 0
-410 217 0
-410 -230 0
-410 -238 0
-410 247 0
-411 9 0
-411 18 0
-411 27 0
-411 34 0
-411 44 0
-411 -53 0
-411 61 0
-411 72 0
-411 81 0
-411 88 0
-411 98 0
-411 -107 0
-411 115 0
-411 126 0
-411 133 0
-411 143 0
-411 -152 0
-411 160 0
-411 169 0
-411 179 0
-411 -188 0
-411 196 0
-411 200 0
-411 -209 0
-411 217 0
-411 -230 0
-411 238 0
-411 -247 0
-412 9 0
-412 18 0
-412 27 0
-412 34 0
-412 44 0
-412 53 0
-412 -61 0
-412 72 0
-412 81 0
-412 88 0
-412 98 0
-412 107 0
-412 -115 0
-412 126 0
-412 133 0
-412 143 0
-412 152 0
-412 -160 0
-412 169 0
-412 179 0
-412 188 0
-412 -196 0
-412 200 0
-412 209 0
-412 -217 0
-412 230 0
-412 -238 0
-412 -247 0
413 414 415 416 417 418 419 420 0
-413 -414 0
-413 -415 0
-413 -416 0
-413 -417 0
-413 -418 0
-413 -419 0
-413 -420 0
-414 -415 0
-414 -416 0
-414 -417 0
-414 -418 0
-414 -419 0
-414 -420 0
-415 -416 0
-415 -417 0
-415 -418 0
-415 -419 0
-415 -420 0
-416 -417 0
-416 -418 0
-416 -419 0
-416 -420 0
-417 -418 0
-417 -419 0
-417 -420 0
-418 -419 0
-418 -420 0
-419 -420 0
-413 -4 0
-413 -15 0
-413 -22 0
-413 -33 0
-413 -40 0
-413 -50 0
-413 -58 0
-413 66 0
-413 73 0
-413 84 0
-413 91 0
-413 101 0
-413 109 0
-413 124 0
-413 135 0
-413 142 0
-413 152 0
-413 160 0
-413 165 0
-413 172 0
-413 182 0
-413 190 0
-413 205 0
-413 215 0
-413 223 0
-413 227 0
-413 235 0
-413 247 0
-414 -4 0
-414 15 0
-414 22 0
-414 33 0
-414 40 0
-414 50 0
-414 58 0
-414 -66 0
-414 -73 0
-414 -84 0
-414 -91 0
-414 -101 0
-414 -109 0
-414 124 0
-414 135 0
-414 142 0
-414 152 0
-414 160 0
-414 165 0
-414 172 0
-414 182 0
-414 190 0
-414 205 0
-414 215 0
-414 223 0
-414 227 0
-414 235 0
-414 247 0
-415 4 0
-415 -15 0
-415 22 0
-415 33 0
-415 40 0
-415 50 0
-415 58 0
-415 -66 0
-415 73 0
-415 84 0
-415 91 0
-415 101 0
-415 109 0
-415 -124 0
-415 -135 0
-415 -142 0
-415 -152 0
-415 -160 0
-415 165 0
-415 172 0
-415 182 0
-415 190 0
-415 205 0
-415 215 0
-415 223 0
-415 227 0
-415 235 0
-415 247 0
-416 4 0
-416 15 0
-416 -22 0
-416 33 0
-416 40 0
-416 50 0
-416 58 0
-416 66 0
-416 -73 0
-416 84 0
-416 91 0
-416 101 0
-416 109 0
-416 -124 0
-416 135 0
-416 142 0
-416 152 0
-416 160 0
-416 -165 0
-416 -172 0
-416 -182 0
-416 -190 0
-416 205 0
-416 215 0
-416 223 0
-416 227 0
-416 235 0
-416 247 0
-417 4 0
-417 15 0
-417 22 0
-417 -33 0
-417 40 0
-417 50 0
-417 58 0
-417 66 0
-417 73 0
-417 -84 0
-417 91 0
-417 101 0
-417 109 0
-417 124 0
-417 -135 0
-417 142 0
-417 152 0
-417 160 0
-417 -165 0
-417 172 0
-417 182 0
-417 190 0
-417 -205 0
-417 -215 0
-417 -223 0
-417 227 0
-417 235 0
-417 247 0
-418 4 0
-418 15 0
-418 22 0
-418 33 0
-418 -40 0
-418 50 0
-418 58 0
-418 66 0
-418 73 0
-418 84 0
-418 -91 0
-418 101 0
-418 109 0
-418 124 0
-418 135 0
-418 -142 0
-418 152 0
-418 160 0
-418 165 0
-418 -172 0
-418 182 0
-418 190 0
-418 -205 0
-418 215 0
-418 223 0
-418 -227 0
-418 -235 0
-418 247 0
-419 4 0
-419 15 0
-419 22 0
-419 33 0
-419 40 0
-419 -50 0
-419 58 0
-419 66 0
-419 73 0
-419 84 0
-419 91 0
-419 -101 0
-419 109 0
-419 124 0
-419 135 0
-419 142 0
-419 -152 0
-419 160 0
-419 165 0
-419 172 0
-419 -182 0
-419 190 0
-419 205 0
-419 -215 0
-419 223 0
-419 -227 0
-419 235 0
-419 -247 0
-420 4 0
-420 15 0
-420 22 0
-420 33 0
-420 40 0
-420 50 0
-420 -58 0
-420 66 0
-420 73 0
-420 84 0
-420 91 0
-420 101 0
-420 -109 0
-420 124 0
-420 135 0
-420 142 0
-420 152 0
-420 -160 0
-420 165 0
-420 172 0
-420 182 0
-420 -190 0
-420 205 0
-420 215 0
-420 -223 0
-420 227 0
-420 -235 0
-420 -247 0
421 422 423 424 425 426 427 428 0
-421 -422 0
-421 -423 0
-421 -424 0
-421 -425 0
-421 -426 0
-421 -427 0
-421 -428 0
-422 -423 0
-422 -424 0
-422 -425 0
-422 -426 0
-422 -427 0
-422 -428 0
-423 -424 0
-423 -425 0
-423 -426 0
-423 -427 0
-423 -428 0
-424 -425 0
-424 -426 0
-424 -427 0
-424 -428 0
-425 -426 0
-425 -427 0
-425 -428 0
-426 -427 0
-426 -428 0
-427 -428 0
-421 -3 0
-421 -11 0
-421 -20 0
-421 -30 0
-421 -37 0
-421 -47 0
-421 -56 0
-421 71 0
-421 80 0
-421 90 0
-421 97 0
-421 107 0
-421 116 0
-421 122 0
-421 132 0
-421 139 0
-421 149 0
-421 158 0
-421 168 0
-421 175 0
-421 185 0
-421 194 0
-421 205 0
-421 215 0
-421 224 0
-421 227 0
-421 236 0
-421 248 0
-422 -3 0
-422 11 0
-422 20 0
-422 30 0
-422 37 0
-422 47 0
-422 56 0
-422 -71 0
-422 -80 0
-422 -90 0
-422 -97 0
-422 -107 0
-422 -116 0
-422 122 0
-422 132 0
-422 139 0
-422 149 0
-422 158 0
-422 168 0
-422 175 0
-422 185 0
-422 194 0
-422 205 0
-422 215 0
-422 224 0
-422 227 0
-422 236 0
-422 248 0
-423 3 0
-423 -11 0
-423 20 0
-423 30 0
-423 37 0
-423 47 0
-423 56 0
-423 -71 0
-423 80 0
-423 90 0
-423 97 0
-423 107 0
-423 116 0
-423 -122 0
-423 -132 0
-423 -139 0
-423 -149 0
-423 -158 0
-423 168 0
-423 175 0
-423 185 0
-423 194 0
-423 205 0
-423 215 0
-423 224 0
-423 227 0
-423 236 0
-423 248 0
-424 3 0
-424 11 0
-424 -20 0
-424 30 0
-424 37 0
-424 47 0
-424 56 0
-424 71 0
-424 -80 0
-424 90 0
-424 97 0
-424 107 0
-424 116 0
-424 -122 0
-424 132 0
-424 139 0
-424 149 0
-424 158 0
-424 -168 0
-424 -175 0
-424 -185 0
-424 -194 0
-424 205 0
-424 215 0
-424 224 0
-424 227 0
-424 236 0
-424 248 0
-425 3 0
-425 11 0
-425 20 0
-425 -30 0
-425 37 0
-425 47 0
-425 56 0
-425 71 0
-425 80 0
-425 -90 0
-425 97 0
-425 107 0
-425 116 0
-425 122 0
-425 -132 0
-425 139 0
-425 149 0
-425 158 0
-425 -168 0
-425 175 0
-425 185 0
-425 194 0
-425 -205 0
-425 -215 0
-425 -224 0
-425 227 0
-425 236 0
-425 248 0
-426 3 0
-426 11 0
-426 20 0
-426 30 0
-426 -37 0
-426 47 0
-426 56 0
-426 71 0
-426 80 0
-426 90 0
-426 -97 0
-426 107 0
-426 116 0
-426 122 0
-426 132 0
-426 -139 0
-426 149 0
-426 158 0
-426 168 0
-426 -175 0
-426 185 0
-426 194 0
-426 -205 0
-426 215 0
-426 224 0
-426 -227 0
-426 -236 0
-426 248 0
-427 3 0
-427 11 0
-427 20 0
-427 30 0
-427 37 0
-427 -47 0
-427 56 0
-427 71 0
-427 80 0
-427 90 0
-427 97 0
-427 -107 0
-427 116 0
-427 122 0
-427 132 0
-427 139 0
-427 -149 0
-427 158 0
-427 168 0
-427 175 0
-427 -185 0
-427 194 0
-427 205 0
-427 -215 0
-427 224 0
-427 -227 0
-427 236 0
-427 -248 0
-428 3 0
-428 11 0
-428 20 0
-428 30 0
-428 37 0
-428 47 0
-428 -56 0
-428 71 0
-428 80 0
-428 90 0
-428 97 0
-428 107 0
-428 -116 0
-428 122 0
-428 132 0
-428 139 0
-428 149 0
-428 -158 0
-428 168 0
-428 175 0
-428 185 0
-428 -194 0
-428 205 0
-428 215 0
-428 -224 0
-428 227 0
-428 -236 0
-428 -248 0
429 430 431 432 433 434 435 436 0
-429 -430 0
-429 -431 0
-429 -432 0
-429 -433 0
-429 -434 0
-429 -435 0
-429 -436 0
-430 -431 0
-430 -432 0
-430 -433 0
-430 -434 0
-430 -435 0
-430 -436 0
-431 -432 0
-431 -433 0
-431 -434 0
-431 -435 0
-431 -436 0
-432 -433 0
-432 -434 0
-432 -435 0
-432 -436 0
-433 -434 0
-433 -435 0
-433 -436 0
-434 -435 0
-434 -436 0
-435 -436 0
-429 -2 0
-429 -10 0
-429 -21 0
-429 -28 0
-429 -39 0
-429 -46 0
-429 -56 0
-429 67 0
-429 78 0
-429 85 0
-429 96 0
-429 103 0
-429 113 0
-429 120 0
-429 127 0
-429 138 0
-429 145 0
-429 155 0
-429 169 0
-429 180 0
-429 187 0
-429 197 0
-429 201 0
-429 208 0
-429 218 0
-429 232 0
-429 242 0
-429 245 0
-430 -2 0
-430 10 0
-430 21 0
-430 28 0
-430 39 0
-430 46 0
-430 56 0
-430 -67 0
-430 -78 0
-430 -85 0
-430 -96 0
-430 -103 0
-430 -113 0
-430 120 0
-430 127 0
-430 138 0
-430 145 0
-430 155 0
-430 169 0
-430 180 0
-430 187 0
-430 197 0
-430 201 0
-430 208 0
-430 218 0
-430 232 0
-430 242 0
-430 245 0
-431 2 0
-431 -10 0
-431 21 0
-431 28 0
-431 39 0
-431 46 0
-431 56 0
-431 -67 0
-431 78 0
-431 85 0
-431 96 0
-431 103 0
-431 113 0
-431 -120 0
-431 -127 0
-431 -138 0
-431 -145 0
-431 -155 0
-431 169 0
-431 180 0
-431 187 0
-431 197 0
-431 201 0
-431 208 0
-431 218 0
-431 232 0
-431 242 0
-431 245 0
-432 2 0
-432 10 0
-432 -21 0
-432 28 0
-432 39 0
-432 46 0
-432 56 0
-432 67 0
-432 -78 0
-432 85 0
-432 96 0
-432 103 0
-432 113 0
-432 -120 0
-432 127 0
-432 138 0
-432 145 0
-432 155 0
-432 -169 0
-432 -180 0
-432 -187 0
-432 -197 0
-432 201 0
-432 208 0
-432 218 0
-432 232 0
-432 242 0
-432 245 0
-433 2 0
-433 10 0
-433 21 0
-433 -28 0
-433 39 0
-433 46 0
-433 56 0
-433 67 0
-433 78 0
-433 -85 0
-433 96 0
-433 103 0
-433 113 0
-433 120 0
-433 -127 0
-433 138 0
-433 145 0
-433 155 0
-433 -169 0
-433 180 0
-433 187 0
-433 197 0
-433 -201 0
-433 -208 0
-433 -218 0
-433 232 0
-433 242 0
-433 245 0
-434 2 0
-434 10 0
-434 21 0
-434 28 0
-434 -39 0
-434 46 0
-434 56 0
-434 67 0
-434 78 0
-434 85 0
-434 -96 0
-434 103 0
-434 113 0
-434 120 0
-434 127 0
-434 -138 0
-434 145 0
-434 155 0
-434 169 0
-434 -180 0
-434 187 0
-434 197 0
-434 -201 0
-434 208 0
-434 218 0
-434 -232 0
-434 -242 0
-434 245 0
-435 2 0
-435 10 0
-435 21 0
-435 28 0
-435 39 0
-435 -46 0
-435 56 0
-435 67 0
-435 78 0
-435 85 0
-435 96 0
-435 -103 0
-435 113 0
-435 120 0
-435 127 0
-435 138 0
-435 -145 0
-435 155 0
-435 169 0
-435 180 0
-435 -187 0
-435 197 0
-435 201 0
-435 -208 0
-435 218 0
-435 -232 0
-435 242 0
-435 -245 0
-436 2 0
-436 10 0
-436 21 0
-436 28 0
-436 39 0
-436 46 0
-436 -56 0
-436 67 0
-436 78 0
-436 85 0
-436 96 0
-436 103 0
-436 -113 0
-436 120 0
-436 127 0
-436 138 0
-436 145 0
-436 -155 0
-436 169 0
-436 180 0
-436 187 0
-436 -197 0
-436 201 0
-436 208 0
-436 -218 0
-436 232 0
-436 -242 0
-436 -245 0
437 438 439 440 441 442 443 444 0
-437 -438 0
-437 -439 0
-437 -440 0
-437 -441 0
-437 -442 0
-437 -443 0
-437 -444 0
-438 -439 0
-438 -440 0
-438 -441 0
-438 -442 0
-438 -443 0
-438 -444 0
-439 -440 0
-439 -441 0
-439 -442 0
-439 -443 0
-439 -444 0
-440 -441 0
-440 -442 0
-440 -443 0
-440 -444 0
-441 -442 0
-441 -443 0
-441 -444 0
-442 -443 0
-442 -444 0
-443 -444 0
-437 -9 0
-437 -18 0
-437 -27 0
-437 -35 0
-437 -43 0
-437 -52 0
-437 -62 0
-437 72 0
-437 81 0
-437 89 0
-437 97 0
-437 106 0
-437 116 0
-437 126 0
-437 134 0
-437 142 0
-437 151 0
-437 161 0
-437 170 0
-437 178 0
-437 187 0
-437 197 0
-437 202 0
-437 211 0
-437 221 0
-437 226 0
-437 236 0
-437 245 0
-438 -9 0
-438 18 0
-438 27 0
-438 35 0
-438 43 0
-438 52 0
-438 62 0
-438 -72 0
-438 -81 0
-438 -89 0
-438 -97 0
-438 -106 0
-438 -116 0
-438 126 0
-438 134 0
-438 142 0
-438 151 0
-438 161 0
-438 170 0
-438 178 0
-438 187 0
-438 197 0
-438 202 0
-438 211 0
-438 221 0
-438 226 0
-438 236 0
-438 245 0
-439 9 0
-439 -18 0
-439 27 0
-439 35 0
-439 43 0
-439 52 0
-439 62 0
-439 -72 0
-439 81 0
-439 89 0
-439 97 0
-439 106 0
-439 116 0
-439 -126 0
-439 -134 0
-439 -142 0
-439 -151 0
-439 -161 0
-439 170 0
-439 178 0
-439 187 0
-439 197 0
-439 202 0
-439 211 0
-439 221 0
-439 226 0
-439 236 0
-439 245 0
-440 9 0
-440 18 0
-440 -27 0
-440 35 0
-440 43 0
-440 52 0
-440 62 0
-440 72 0
-440 -81 0
-440 89 0
-440 97 0
-440 106 0
-440 116 0
-440 -126 0
-440 134 0
-440 142 0
-440 151 0
-440 161 0
-440 -170 0
-440 -178 0
-440 -187 0
-440 -197 0
-440 202 0
-440 211 0
-440 221 0
-440 226 0
-440 236 0
-440 245 0
-441 9 0
-441 18 0
-441 27 0
-441 -35 0
-441 43 0
-441 52 0
-441 62 0
-441 72 0
-441 81 0
-441 -89 0
-441 97 0
-441 106 0
-441 116 0
-441 126 0
-441 -134 0
-441 142 0
-441 151 0
-441 161 0
-441 -170 0
-441 178 0
-441 187 0
-441 197 0
-441 -202 0
-441 -211 0
-441 -221 0
-441 226 0
-441 236 0
-441 245 0
-442 9 0
-442 18 0
-442 27 0
-442 35 0
-442 -43 0
-442 52 0
-442 62 0
-442 72 0
-442 81 0
-442 89 0
-442 -97 0
-442 106 0
-442 116 0
-442 126 0
-442 134 0
-442 -142 0
-442 151 0
-442 161 0
-442 170 0
-442 -178 0
-442 187 0
-442 197 0
-442 -202 0
-442 211 0
-442 221 0
-442 -226 0
-442 -236 0
-442 245 0
-443 9 0
-443 18 0
-443 27 0
-443 35 0
-443 43 0
-443 -52 0
-443 62 0
-443 72 0
-443 81 0
-443 89 0
-443 97 0
-443 -106 0
-443 116 0
-443 126 0
-443 134 0
-443 142 0
-443 -151 0
-443 161 0
-443 170 0
-443 178 0
-443 -187 0
-443 197 0
-443 202 0
-443 -211 0
-443 221 0
-443 -226 0
-443 236 0
-443 -245 0
-444 9 0
-444 18 0
-444 27 0
-444 35 0
-444 43 0
-444 52 0
-444 -62 0
-444 72 0
-444 81 0
-444 89 0
-444 97 0
-444 106 0
-444 -116 0
-444 126 0
-444 134 0
-444 142 0
-444 151 0
-444 -161 0
-444 170 0
-444 178 0
-444 187 0
-444 -197 0
-444 202 0
-444 211 0
-444 -221 0
-444 226 0
-444 -236 0
-444 -245 0
445 446 447 448 449 450 451 452 0
-445 -446 0
-445 -447 0
-445 -448 0
-445 -449 0
-445 -450 0
-445 -451 0
-445 -452 0
-446 -447 0
-446 -448 0
-446 -449 0
-446 -450 0
-446 -451 0
-446 -452 0
-447 -448 0
-447 -449 0
-447 -450 0
-447 -451 0
-447 -452 0
-448 -449 0
-448 -450 0
-448 -451 0
-448 -452 0
-449 -450 0
-449 -451 0
-449 -452 0
-450 -451 0
-450 -452 0
-451 -452 0
-445 -3 0
-445 -10 0
-445 -20 0
-445 -29 0
-445 -37 0
-445 -48 0
-445 -55 0
-445 70 0
-445 80 0
-445 89 0
-445 97 0
-445 108 0
-445 115 0
-445 119 0
-445 128 0
-445 136 0
-445 147 0
-445 154 0
-445 167 0
-445 175 0
-445 186 0
-445 193 0
-445 202 0
-445 213 0
-445 220 0
-445 228 0
-445 235 0
-445 250 0
-446 -3 0
-446 10 0
-446 20 0
-446 29 0
-446 37 0
-446 48 0
-446 55 0
-446 -70 0
-446 -80 0
-446 -89 0
-446 -97 0
-446 -108 0
-446 -115 0
-446 119 0
-446 128 0
-446 136 0
-446 147 0
-446 154 0
-446 167 0
-446 175 0
-446 186 0
-446 193 0
-446 202 0
-446 213 0
-446 220 0
-446 228 0
-446 235 0
-446 250 0
-447 3 0
-447 -10 0
-447 20 0
-447 29 0
-447 37 0
-447 48 0
-447 55 0
-447 -70 0
-447 80 0
-447 89 0
-447 97 0
-447 108 0
-447 115 0
-447 -119 0
-447 -128 0
-447 -136 0
-447 -147 0
-447 -154 0
-447 167 0
-447 175 0
-447 186 0
-447 193 0
-447 202 0
-447 213 0
-447 220 0
-447 228 0
-447 235 0
-447 250 0
-448 3 0
-448 10 0
-448 -20 0
-448 29 0
-448 37 0
-448 48 0
-448 55 0
-448 70 0
-448 -80 0
-448 89 0
-448 97 0
-448 108 0
-448 115 0
-448 -119 0
-448 128 0
-448 136 0
-448 147 0
-448 154 0
-448 -167 0
-448 -175 0
-448 -186 0
-448 -193 0
-448 202 0
-448 213 0
-448 220 0
-448 228 0
-448 235 0
-448 250 0
-449 3 0
-449 10 0
-449 20 0
-449 -29 0
-449 37 0
-449 48 0
-449 55 0
-449 70 0
-449 80 0
-449 -89 0
-449 97 0
-449 108 0
-449 115 0
-449 119 0
-449 -128 0
-449 136 0
-449 147 0
-449 154 0
-449 -167 0
-449 175 0
-449 186 0
-449 193 0
-449 -202 0
-449 -213 0
-449 -220 0
-449 228 0
-449 235 0
-449 250 0
-450 3 0
-450 10 0
-450 20 0
-450 29 0
-450 -37 0
-450 48 0
-450 55 0
-450 70 0
-450 80 0
-450 89 0
-450 -97 0
-450 108 0
-450 115 0
-450 119 0
-450 128 0
-450 -136 0
-450 147 0
-450 154 0
-450 167 0
-450 -175 0
-450 186 0
-450 193 0
-450 -202 0
-450 213 0
-450 220 0
-450 -228 0
-450 -235 0
-450 250 0
-451 3 0
-451 10 0
-451 20 0
-451 29 0
-451 37 0
-451 -48 0
-451 55 0
-451 70 0
-451 80 0
-451 89 0
-451 97 0
-451 -108 0
-451 115 0
-451 119 0
-451 128 0
-451 136 0
-451 -147 0
-451 154 0
-451 167 0
-451 175 0
-451 -186 0
-451 193 0
-451 202 0
-451 -213 0
-451 220 0
-451 -228 0
-451 235 0
-451 -250 0
-452 3 0
-452 10 0
-452 20 0
-452 29 0
-452 37 0
-452 48 0
-452 -55 0
-452 70 0
-452 80 0
-452 89 0
-452 97 0
-452 108 0
-452 -115 0
-452 119 0
-452 128 0
-452 136 0
-452 147 0
-452 -154 0
-452 167 0
-452 175 0
-452 186 0
-452 -193 0
-452 202 0
-452 213 0
-452 -220 0
-452 228 0
-452 -235 0
-452 -250 0
453 454 455 456 457 458 459 460 0
-453 -454 0
-453 -455 0
-453 -456 0
-453 -457 0
-453 -458 0
-453 -459 0
-453 -460 0
-454 -455 0
-454 -456 0
-454 -457 0
-454 -458 0
-454 -459 0
-454 -460 0
-455 -456 0
-455 -457 0
-455 -458 0
-455 -459 0
-455 -460 0
-456 -457 0
-456 -458 0
-456 -459 0
-456 -460 0
-457 -458 0
-457 -459 0
-457 -460 0
-458 -459 0
-458 -460 0
-459 -460 0
-453 -7 0
-453 -17 0
-453 -25 0
-453 -34 0
-453 -44 0
-453 -52 0
-453 -63 0
-453 65 0
-453 73 0
-453 82 0
-453 92 0
-453 100 0
-453 111 0
-453 121 0
-453 130 0
-453 140 0
-453 148 0
-453 159 0
-453 163 0
-453 173 0
-453 181 0
-453 192 0
-453 200 0
-453 208 0
-453 219 0
-453 229 0
-453 240 0
-453 246 0
-454 -7 0
-454 17 0
-454 25 0
-454 34 0
-454 44 0
-454 52 0
-454 63 0
-454 -65 0
-454 -73 0
-454 -82 0
-454 -92 0
-454 -100 0
-454 -111 0
-454 121 0
-454 130 0
-454 140 0
-454 148 0
-454 159 0
-454 163 0
-454 173 0
-454 181 0
-454 192 0
-454 200 0
-454 208 0
-454 219 0
-454 229 0
-454 240 0
-454 246 0
-455 7 0
-455 -17 0
-455 25 0
-455 34 0
-455 44 0
-455 52 0
-455 63 0
-455 -65 0
-455 73 0
-455 82 0
-455 92 0
-455 100 0
-455 111 0
-455 -121 0
-455 -130 0
-455 -140 0
-455 -148 0
-455 -159 0
-455 163 0
-455 173 0
-455 181 0
-455 192 0
-455 200 0
-455 208 0
-455 219 0
-455 229 0
-455 240 0
-455 246 0
-456 7 0
-456 17 0
-456 -25 0
-456 34 0
-456 44 0
-456 52 0
-456 63 0
-456 65 0
-456 -73 0
-456 82 0
-456 92 0
-456 100 0
-456 111 0
-456 -121 0
-456 130 0
-456 140 0
-456 148 0
-456 159 0
-456 -163 0
-456 -173 0
-456 -181 0
-456 -192 0
-456 200 0
-456 208 0
-456 219 0
-456 229 0
-456 240 0
-456 246 0
-457 7 0
-457 17 0
-457 25 0
-457 -34 0
-457 44 0
-457 52 0
-457 63 0
-457 65 0
-457 73 0
-457 -82 0
-457 92 0
-457 100 0
-457 111 0
-457 121 0
-457 -130 0
-457 140 0
-457 148 0
-457 159 0
-457 -163 0
-457 173 0
-457 181 0
-457 192 0
-457 -200 0
-457 -208 0
-457 -219 0
-457 229 0
-457 240 0
-457 246 0
-458 7 0
-458 17 0
-458 25 0
-458 34 0
-458 -44 0
-458 52 0
-458 63 0
-458 65 0
-458 73 0
-458 82 0
-458 -92 0
-458 100 0
-458 111 0
-458 121 0
-458 130 0
-458 -140 0
-458 148 0
-458 159 0
-458 163 0
-458 -173 0
-458 181 0
-458 192 0
-458 -200 0
-458 208 0
-458 219 0
-458 -229 0
-458 -240 0
-458 246 0
-459 7 0
-459 17 0
-459 25 0
-459 34 0
-459 44 0
-459 -52 0
-459 63 0
-459 65 0
-459 73 0
-459 82 0
-459 92 0
-459 -100 0
-459 111 0
-459 121 0
-459 130 0
-459 140 0
-459 -148 0
-459 159 0
-459 163 0
-459 173 0
-459 -181 0
-459 192 0
-459 200 0
-459 -208 0
-459 219 0
-459 -229 0
-459 240 0
-459 -246 0
-460 7 0
-460 17 0
-460 25 0
-460 34 0
-460 44 0
-460 52 0
-460 -63 0
-460 65 0
-460 73 0
-460 82 0
-460 92 0
-460 100 0
-460 -111 0
-460 121 0
-460 130 0
-460 140 0
-460 148 0
-460 -159 0
-460 163 0
-460 173 0
-460 181 0
-460 -192 0
-460 200 0
-460 208 0
-460 -219 0
-460 229 0
-460 -240 0
-460 -246 0
461 462 463 464 465 466 467 468 0
-461 -462 0
-461 -463 0
-461 -464 0
-461 -465 0
-461 -466 0
-461 -467 0
-461 -468 0
-462 -463 0
-462 -464 0
-462 -465 0
-462 -466 0
-462 -467 0
-462 -468 0
-463 -464 0
-463 -465 0
-463 -466 0
-463 -467 0
-463 -468 0
-464 -465 0
-464 -466 0
-464 -467 0
-464 -468 0
-465 -466 0
-465 -467 0
-465 -468 0
-466 -467 0
-466 -468 0
-467 -468 0
-461 -8 0
-461 -17 0
-461 -25 0
-461 -34 0
-461 -44 0
-461 -53 0
-461 -63 0
-461 68 0
-461 76 0
-461 85 0
-461 95 0
-461 104 0
-461 114 0
-461 121 0
-461 130 0
-461 140 0
-461 149 0
-461 159 0
-461 163 0
-461 173 0
-461 182 0
-461 192 0
-461 200 0
-461 209 0
-461 219 0
-461 230 0
-461 240 0
-461 249 0
-462 -8 0
-462 17 0
-462 25 0
-462 34 0
-462 44 0
-462 53 0
-462 63 0
-462 -68 0
-462 -76 0
-462 -85 0
-462 -95 0
-462 -104 0
-462 -114 0
-462 121 0
-462 130 0
-462 140 0
-462 149 0
-462 159 0
-462 163 0
-462 173 0
-462 182 0
-462 192 0
-462 200 0
-462 209 0
-462 219 0
-462 230 0
-462 240 0
-462 249 0
-463 8 0
-463 -17 0
-463 25 0
-463 34 0
-463 44 0
-463 53 0
-463 63 0
-463 -68 0
-463 76 0
-463 85 0
-463 95 0
-463 104 0
-463 114 0
-463 -121 0
-463 -130 0
-463 -140 0
-463 -149 0
-463 -159 0
-463 163 0
-463 173 0
-463 182 0
-463 192 0
-463 200 0
-463 209 0
-463 219 0
-463 230 0
-463 240 0
-463 249 0
-464 8 0
-464 17 0
-464 -25 0
-464 34 0
-464 44 0
-464 53 0
-464 63 0
-464 68 0
-464 -76 0
-464 85 0
-464 95 0
-464 104 0
-464 114 0
-464 -121 0
-464 130 0
-464 140 0
-464 149 0
-464 159 0
-464 -163 0
-464 -173 0
-464 -182 0
-464 -192 0
-464 200 0
-464 209 0
-464 219 0
-464 230 0
-464 240 0
-464 249 0
-465 8 0
-465 17 0
-465 25 0
-465 -34 0
-465 44 0
-465 53 0
-465 63 0
-465 68 0
-465 76 0
-465 -85 0
-465 95 0
-465 104 0
-465 114 0
-465 121 0
-465 -130 0
-465 140 0
-465 149 0
-465 159 0
-465 -163 0
-465 173 0
-465 182 0
-465 192 0
-465 -200 0
-465 -209 0
-465 -219 0
-465 230 0
-465 240 0
-465 249 0
-466 8 0
-466 17 0
-466 25 0
-466 34 0
-466 -44 0
-466 53 0
-466 63 0
-466 68 0
-466 76 0
-466 85 0
-466 -95 0
-466 104 0
-466 114 0
-466 121 0
-466 130 0
-466 -140 0
-466 149 0
-466 159 0
-466 163 0
-466 -173 0
-466 182 0
-466 192 0
-466 -200 0
-466 209 0
-466 219 0
-466 -230 0
-466 -240 0
-466 249 0
-467 8 0
-467 17 0
-467 25 0
-467 34 0
-467 44 0
-467 -53 0
-467 63 0
-467 68 0
-467 76 0
-467 85 0
-467 95 0
-467 -104 0
-467 114 0
-467 121 0
-467 130 0
-467 140 0
-467 -149 0
-467 159 0
-467 163 0
-467 173 0
-467 -182 0
-467 192 0
-467 200 0
-467 -209 0
-467 219 0
-467 -230 0
-467 240 0
-467 -249 0
-468 8 0
-468 17 0
-468 25 0
-468 34 0
-468 44 0
-468 53 0
-468 -63 0
-468 68 0
-468 76 0
-468 85 0
-468 95 0
-468 104 0
-468 -114 0
-468 121 0
-468 130 0
-468 140 0
-468 149 0
-468 -159 0
-468 163 0
-468 173 0
-468 182 0
-468 -192 0
-468 200 0
-468 209 0
-468 -219 0
-468 230 0
-468 -240 0
-468 -249 0
469 470 471 472 473 474 475 476 0
-469 -470 0
-469 -471 0
-469 -472 0
-469 -473 0
-469 -474 0
-469 -475 0
-469 -476 0
-470 -471 0
-470 -472 0
-470 -473 0
-470 -474 0
-470 -475 0
-470 -476 0
-471 -472 0
-471 -473 0
-471 -474 0
-471 -475 0
-471 -476 0
-472 -473 0
-472 -474 0
-472 -475 0
-472 -476 0
-473 -474 0
-473 -475 0
-473 -476 0
-474 -475 0
-474 -476 0
-475 -476 0
-469 -4 0
-469 -15 0
-469 -22 0
-469 -31 0
-469 -42 0
-469 -49 0
-469 -59 0
-469 66 0
-469 73 0
-469 82 0
-469 93 0
-469 100 0
-469 110 0
-469 124 0
-469 133 0
-469 144 0
-469 151 0
-469 161 0
-469 163 0
-469 174 0
-469 181 0
-469 191 0
-469 201 0
-469 208 0
-469 218 0
-469 232 0
-469 242 0
-469 245 0
-470 -4 0
-470 15 0
-470 22 0
-470 31 0
-470 42 0
-470 49 0
-470 59 0
-470 -66 0
-470 -73 0
-470 -82 0
-470 -93 0
-470 -100 0
-470 -110 0
-470 124 0
-470 133 0
-470 144 0
-470 151 0
-470 161 0
-470 163 0
-470 174 0
-470 181 0
-470 191 0
-470 201 0
-470 208 0
-470 218 0
-470 232 0
-470 242 0
-470 245 0
-471 4 0
-471 -15 0
-471 22 0
-471 31 0
-471 42 0
-471 49 0
-471 59 0
-471 -66 0
-471 73 0
-471 82 0
-471 93 0
-471 100 0
-471 110 0
-471 -124 0
-471 -133 0
-471 -144 0
-471 -151 0
-471 -161 0
-471 163 0
-471 174 0
-471 181 0
-471 191 0
-471 201 0
-471 208 0
-471 218 0
-471 232 0
-471 242 0
-471 245 0
-472 4 0
-472 15 0
-472 -22 0
-472 31 0
-472 42 0
-472 49 0
-472 59 0
-472 66 0
-472 -73 0
-472 82 0
-472 93 0
-472 100 0
-472 110 0
-472 -124 0
-472 133 0
-472 144 0
-472 151 0
-472 161 0
-472 -163 0
-472 -174 0
-472 -181 0
-472 -191 0
-472 201 0
-472 208 0
-472 218 0
-472 232 0
-472 242 0
-472 245 0
-473 4 0
-473 15 0
-473 22 0
-473 -31 0
-473 42 0
-473 49 0
-473 59 0
-473 66 0
-473 73 0
-473 -82 0
-473 93 0
-473 100 0
-473 110 0
-473 124 0
-473 -133 0
-473 144 0
-473 151 0
-473 161 0
-473 -163 0
-473 174 0
-473 181 0
-473 191 0
-473 -201 0
-473 -208 0
-473 -218 0
-473 232 0
-473 242 0
-473 245 0
-474 4 0
-474 15 0
-474 22 0
-474 31 0
-474 -42 0
-474 49 0
-474 59 0
-474 66 0
-474 73 0
-474 82 0
-474 -93 0
-474 100 0
-474 110 0
-474 124 0
-474 133 0
-474 -144 0
-474 151 0
-474 161 0
-474 163 0
-474 -174 0
-474 181 0
-474 191 0
-474 -201 0
-474 208 0
-474 218 0
-474 -232 0
-474 -242 0
-474 245 0
-475 4 0
-475 15 0
-475 22 0
-475 31 0
-475 42 0
-475 -49 0
-475 59 0
-475 66 0
-475 73 0
-475 82 0
-475 93 0
-475 -100 0
-475 110 0
-475 124 0
-475 133 0
-475 144 0
-475 -151 0
-475 161 0
-475 163 0
-475 174 0
-475 -181 0
-475 191 0
-475 201 0
-475 -208 0
-475 218 0
-475 -232 0
-475 242 0
-475 -245 0
-476 4 0
-476 15 0
-476 22 0
-476 31 0
-476 42 0
-476 49 0
-476 -59 0
-476 66 0
-476 73 0
-476 82 0
-476 93 0
-476 100 0
-476 -110 0
-476 124 0
-476 133 0
-476 144 0
-476 151 0
-476 -161 0
-476 163 0
-476 174 0
-476 181 0
-476 -191 0
-476 201 0
-476 208 0
-476 -218 0
-476 232 0
-476 -242 0
-476 -245 0
477 478 479 480 481 482 483 484 0
-477 -478 0
-477 -479 0
-477 -480 0
-477 -481 0
-477 -482 0
-477 -483 0
-477 -484 0
-478 -479 0
-478 -480 0
-478 -481 0
-478 -482 0
-478 -483 0
-478 -484 0
-479 -480 0
-479 -481 0
-479 -482 0
-479 -483 0
-479 -484 0
-480 -481 0
-480 -482 0
-480 -483 0
-480 -484 0
-481 -482 0
-481 -483 0
-481 -484 0
-482 -483 0
-482 -484 0
-483 -484 0
-477 -7 0
-477 -18 0
-477 -26 0
-477 -35 0
-477 -45 0
-477 -52 0
-477 -63 0
-477 66 0
-477 74 0
-477 83 0
-477 93 0
-477 100 0
-477 111 0
-477 125 0
-477 134 0
-477 144 0
-477 151 0
-477 162 0
-477 167 0
-477 177 0
-477 184 0
-477 195 0
-477 204 0
-477 211 0
-477 222 0
-477 232 0
-477 243 0
-477 246 0
-478 -7 0
-478 18 0
-478 26 0
-478 35 0
-478 45 0
-478 52 0
-478 63 0
-478 -66 0
-478 -74 0
-478 -83 0
-478 -93 0
-478 -100 0
-478 -111 0
-478 125 0
-478 134 0
-478 144 0
-478 151 0
-478 162 0
-478 167 0
-478 177 0
-478 184 0
-478 195 0
-478 204 0
-478 211 0
-478 222 0
-478 232 0
-478 243 0
-478 246 0
-479 7 0
-479 -18 0
-479 26 0
-479 35 0
-479 45 0
-479 52 0
-479 63 0
-479 -66 0
-479 74 0
-479 83 0
-479 93 0
-479 100 0
-479 111 0
-479 -125 0
-479 -134 0
-479 -144 0
-479 -151 0
-479 -162 0
-479 167 0
-479 177 0
-479 184 0
-479 195 0
-479 204 0
-479 211 0
-479 222 0
-479 232 0
-479 243 0
-479 246 0
-480 7 0
-480 18 0
-480 -26 0
-480 35 0
-480 45 0
-480 52 0
-480 63 0
-480 66 0
-480 -74 0
-480 83 0
-480 93 0
-480 100 0
-480 111 0
-480 -125 0
-480 134 0
-480 144 0
-480 151 0
-480 162 0
-480 -167 0
-480 -177 0
-480 -184 0
-480 -195 0
-480 204 0
-480 211 0
-480 222 0
-480 232 0
-480 243 0
-480 246 0
-481 7 0
-481 18 0
-481 26 0
-481 -35 0
-481 45 0
-481 52 0
-481 63 0
-481 66 0
-481 74 0
-481 -83 0
-481 93 0
-481 100 0
-481 111 0
-481 125 0
-481 -134 0
-481 144 0
-481 151 0
-481 162 0
-481 -167 0
-481 177 0
-481 184 0
-481 195 0
-481 -204 0
-481 -211 0
-481 -222 0
-481 232 0
-481 243 0
-481 246 0
-482 7 0
-482 18 0
-482 26 0
-482 35 0
-482 -45 0
-482 52 0
-482 63 0
-482 66 0
-482 74 0
-482 83 0
-482 -93 0
-482 100 0
-482 111 0
-482 125 0
-482 134 0
-482 -144 0
-482 151 0
-482 162 0
-482 167 0
-482 -177 0
-482 184 0
-482 195 0
-482 -204 0
-482 211 0
-482 222 0
-482 -232 0
-482 -243 0
-482 246 0
-483 7 0
-483 18 0
-483 26 0
-483 35 0
-483 45 0
-483 -52 0
-483 63 0
-483 66 0
-483 74 0
-483 83 0
-483 93 0
-483 -100 0
-483 111 0
-483 125 0
-483 134 0
-483 144 0
-483 -151 0
-483 162 0
-483 167 0
-483 177 0
-483 -184 0
-483 195 0
-483 204 0
-483 -211 0
-483 222 0
-483 -232 0
-483 243 0
-483 -246 0
-484 7 0
-484 18 0
-484 26 0
-484 35 0
-484 45 0
-484 52 0
-484 -63 0
-484 66 0
-484 74 0
-484 83 0
-484 93 0
-484 100 0
-484 -111 0
-484 125 0
-484 134 0
-484 144 0
-484 151 0
-484 -162 0
-484 167 0
-484 177 0
-484 184 0
-484 -195 0
-484 204 0
-484 211 0
-484 -222 0
-484 232 0
-484 -243 0
-484 -246 0
485 486 487 488 489 490 491 492 0
-485 -486 0
-485 -487 0
-485 -488 0
-485 -489 0
-485 -490 0
-485 -491 0
-485 -492 0
-486 -487 0
-486 -488 0
-486 -489 0
-486 -490 0
-486 -491 0
-486 -492 0
-487 -488 0
-487 -489 0
-487 -490 0
-487 -491 0
-487 -492 0
-488 -489 0
-488 -490 0
-488 -491 0
-488 -492 0
-489 -490 0
-489 -491 0
-489 -492 0
-490 -491 0
-490 -492 0
-491 -492 0
-485 -2 0
-485 -10 0
-485 -21 0
-485 -30 0
-485 -37 0
-485 -47 0
-485 -55 0
-485 67 0
-485 78 0
-485 87 0
-485 94 0
-485 104 0
-485 112 0
-485 120 0
-485 129 0
-485 136 0
-485 146 0
-485 154 0
-485 171 0
-485 178 0
-485 188 0
-485 196 0
-485 205 0
-485 215 0
-485 223 0
-485 227 0
-485 235 0
-485 247 0
-486 -2 0
-486 10 0
-486 21 0
-486 30 0
-486 37 0
-486 47 0
-486 55 0
-486 -67 0
-486 -78 0
-486 -87 0
-486 -94 0
-486 -104 0
-486 -112 0
-486 120 0
-486 129 0
-486 136 0
-486 146 0
-486 154 0
-486 171 0
-486 178 0
-486 188 0
-486 196 0
-486 205 0
-486 215 0
-486 223 0
-486 227 0
-486 235 0
-486 247 0
-487 2 0
-487 -10 0
-487 21 0
-487 30 0
-487 37 0
-487 47 0
-487 55 0
-487 -67 0
-487 78 0
-487 87 0
-487 94 0
-487 104 0
-487 112 0
-487 -120 0
-487 -129 0
-487 -136 0
-487 -146 0
-487 -154 0
-487 171 0
-487 178 0
-487 188 0
-487 196 0
-487 205 0
-487 215 0
-487 223 0
-487 227 0
-487 235 0
-487 247 0
-488 2 0
-488 10 0
-488 -21 0
-488 30 0
-488 37 0
-488 47 0
-488 55 0
-488 67 0
-488 -78 0
-488 87 0
-488 94 0
-488 104 0
-488 112 0
-488 -120 0
-488 129 0
-488 136 0
-488 146 0
-488 154 0
-488 -171 0
-488 -178 0
-488 -188 0
-488 -196 0
-488 205 0
-488 215 0
-488 223 0
-488 227 0
-488 235 0
-488 247 0
-489 2 0
-489 10 0
-489 21 0
-489 -30 0
-489 37 0
-489 47 0
-489 55 0
-489 67 0
-489 78 0
-489 -87 0
-489 94 0
-489 104 0
-489 112 0
-489 120 0
-489 -129 0
-489 136 0
-489 146 0
-489 154 0
-489 -171 0
-489 178 0
-489 188 0
-489 196 0
-489 -205 0
-489 -215 0
-489 -223 0
-489 227 0
-489 235 0
-489 247 0
-490 2 0
-490 10 0
-490 21 0
-490 30 0
-490 -37 0
-490 47 0
-490 55 0
-490 67 0
-490 78 0
-490 87 0
-490 -94 0
-490 104 0
-490 112 0
-490 120 0
-490 129 0
-490 -136 0
-490 146 0
-490 154 0
-490 171 0
-490 -178 0
-490 188 0
-490 196 0
-490 -205 0
-490 215 0
-490 223 0
-490 -227 0
-490 -235 0
-490 247 0
-491 2 0
-491 10 0
-491 21 0
-491 30 0
-491 37 0
-491 -47 0
-491 55 0
-491 67 0
-491 78 0
-491 87 0
-491 94 0
-491 -104 0
-491 112 0
-491 120 0
-491 129 0
-491 136 0
-491 -146 0
-491 154 0
-491 171 0
-491 178 0
-491 -188 0
-491 196 0
-491 205 0
-491 -215 0
-491 223 0
-491 -227 0
-491 235 0
-491 -247 0
-492 2 0
-492 10 0
-492 21 0
-492 30 0
-492 37 0
-492 47 0
-492 -55 0
-492 67 0
-492 78 0
-492 87 0
-492 94 0
-492 104 0
-492 -112 0
-492 120 0
-492 129 0
-492 136 0
-492 146 0
-492 -154 0
-492 171 0
-492 178 0
-492 188 0
-492 -196 0
-492 205 0
-492 215 0
-492 -223 0
-492 227 0
-492 -235 0
-492 -247 0
493 494 495 496 497 498 499 500 0
-493 -494 0
-493 -495 0
-493 -496 0
-493 -497 0
-493 -498 0
-493 -499 0
-493 -500 0
-494 -495 0
-494 -496 0
-494 -497 0
-494 -498 0
-494 -499 0
-494 -500 0
-495 -496 0
-495 -497 0
-495 -498 0
-495 -499 0
-495 -500 0
-496 -497 0
-496 -498 0
-496 -499 0
-496 -500 0
-497 -498 0
-497 -499 0
-497 -500 0
-498 -499 0
-498 -500 0
-499 -500 0
-493 -9 0
-493 -17 0
-493 -25 0
-493 -34 0
-493 -44 0
-493 -54 0
-493 -63 0
-493 71 0
-493 79 0
-493 88 0
-493 98 0
-493 108 0
-493 117 0
-493 121 0
-493 130 0
-493 140 0
-493 150 0
-493 159 0
-493 163 0
-493 173 0
-493 183 0
-493 192 0
-493 200 0
-493 210 0
-493 219 0
-493 231 0
-493 240 0
-493 252 0
-494 -9 0
-494 17 0
-494 25 0
-494 34 0
-494 44 0
-494 54 0
-494 63 0
-494 -71 0
-494 -79 0
-494 -88 0
-494 -98 0
-494 -108 0
-494 -117 0
-494 121 0
-494 130 0
-494 140 0
-494 150 0
-494 159 0
-494 163 0
-494 173 0
-494 183 0
-494 192 0
-494 200 0
-494 210 0
-494 219 0
-494 231 0
-494 240 0
-494 252 0
-495 9 0
-495 -17 0
-495 25 0
-495 34 0
-495 44 0
-495 54 0
-495 63 0
-495 -71 0
-495 79 0
-495 88 0
-495 98 0
-495 108 0
-495 117 0
-495 -121 0
-495 -130 0
-495 -140 0
-495 -150 0
-495 -159 0
-495 163 0
-495 173 0
-495 183 0
-495 192 0
-495 200 0
-495 210 0
-495 219 0
-495 231 0
-495 240 0
-495 252 0
-496 9 0
-496 17 0
-496 -25 0
-496 34 0
-496 44 0
-496 54 0
-496 63 0
-496 71 0
-496 -79 0
-496 88 0
-496 98 0
-496 108 0
-496 117 0
-496 -121 0
-496 130 0
-496 140 0
-496 150 0
-496 159 0
-496 -163 0
-496 -173 0
-496 -183 0
-496 -192 0
-496 200 0
-496 210 0
-496 219 0
-496 231 0
-496 240 0
-496 252 0
-497 9 0
-497 17 0
-497 25 0
-497 -34 0
-497 44 0
-497 54 0
-497 63 0
-497 71 0
-497 79 0
-497 -88 0
-497 98 0
-497 108 0
-497 117 0
-497 121 0
-497 -130 0
-497 140 0
-497 150 0
-497 159 0
-497 -163 0
-497 173 0
-497 183 0
-497 192 0
-497 -200 0
-497 -210 0
-497 -219 0
-497 231 0
-497 240 0
-497 252 0
-498 9 0
-498 17 0
-498 25 0
-498 34 0
-498 -44 0
-498 54 0
-498 63 0
-498 71 0
-498 79 0
-498 88 0
-498 -98 0
-498 108 0
-498 117 0
-498 121 0
-498 130 0
-498 -140 0
-498 150 0
-498 159 0
-498 163 0
-498 -173 0
-498 183 0
-498 192 0
-498 -200 0
-498 210 0
-498 219 0
-498 -231 0
-498 -240 0
-498 252 0
-499 9 0
-499 17 0
-499 25 0
-499 34 0
-499 44 0
-499 -54 0
-499 63 0
-499 71 0
-499 79 0
-499 88 0
-499 98 0
-499 -108 0
-499 117 0
-499 121 0
-499 130 0
-499 140 0
-499 -150 0
-499 159 0
-499 163 0
-499 173 0
-499 -183 0
-499 192 0
-499 200 0
-499 -210 0
-499 219 0
-499 -231 0
-499 240 0
-499 -252 0
-500 9 0
-500 17 0
-500 25 0
-500 34 0
-500 44 0
-500 54 0
-500 -63 0
-500 71 0
-500 79 0
-500 88 0
-500 98 0
-500 108 0
-500 -117 0
-500 121 0
-500 130 0
-500 140 0
-500 150 0
-500 -159 0
-500 163 0
-500 173 0
-500 183 0
-500 -192 0
-500 200 0
-500 210 0
-500 -219 0
-500 231 0
-500 -240 0
-500 -252 0
501 502 503 504 505 506 507 508 0
-501 -502 0
-501 -503 0
-501 -504 0
-501 -505 0
-501 -506 0
-501 -507 0
-501 -508 0
-502 -503 0
-502 -504 0
-502 -505 0
-502 -506 0
-502 -507 0
-502 -508 0
-503 -504 0
-503 -505 0
-503 -506 0
-503 -507 0
-503 -508 0
-504 -505 0
-504 -506 0
-504 -507 0
-504 -508 0
-505 -506 0
-505 -507 0
-505 -508 0
-506 -507 0
-506 -508 0
-507 -508 0
-501 -2 0
-501 -12 0
-501 -19 0
-501 -28 0
-501 -39 0
-501 -47 0
-501 -55 0
-501 69 0
-501 76 0
-501 85 0
-501 96 0
-501 104 0
-501 112 0
-501 124 0
-501 133 0
-501 144 0
-501 152 0
-501 160 0
-501 163 0
-501 174 0
-501 182 0
-501 190 0
-501 201 0
-501 209 0
-501 217 0
-501 233 0
-501 241 0
-501 247 0
-502 -2 0
-502 12 0
-502 19 0
-502 28 0
-502 39 0
-502 47 0
-502 55 0
-502 -69 0
-502 -76 0
-502 -85 0
-502 -96 0
-502 -104 0
-502 -112 0
-502 124 0
-502 133 0
-502 144 0
-502 152 0
-502 160 0
-502 163 0
-502 174 0
-502 182 0
-502 190 0
-502 201 0
-502 209 0
-502 217 0
-502 233 0
-502 241 0
-502 247 0
-503 2 0
-503 -12 0
-503 19 0
-503 28 0
-503 39 0
-503 47 0
-503 55 0
-503 -69 0
-503 76 0
-503 85 0
-503 96 0
-503 104 0
-503 112 0
-503 -124 0
-503 -133 0
-503 -144 0
-503 -152 0
-503 -160 0
-503 163 0
-503 174 0
-503 182 0
-503 190 0
-503 201 0
-503 209 0
-503 217 0
-503 233 0
-503 241 0
-503 247 0
-504 2 0
-504 12 0
-504 -19 0
-504 28 0
-504 39 0
-504 47 0
-504 55 0
-504 69 0
-504 -76 0
-504 85 0
-504 96 0
-504 104 0
-504 112 0
-504 -124 0
-504 133 0
-504 144 0
-504 152 0
-504 160 0
-504 -163 0
-504 -174 0
-504 -182 0
-504 -190 0
-504 201 0
-504 209 0
-504 217 0
-504 233 0
-504 241 0
-504 247 0
-505 2 0
-505 12 0
-505 19 0
-505 -28 0
-505 39 0
-505 47 0
-505 55 0
-505 69 0
-505 76 0
-505 -85 0
-505 96 0
-505 104 0
-505 112 0
-505 124 0
-505 -133 0
-505 144 0
-505 152 0
-505 160 0
-505 -163 0
-505 174 0
-505 182 0
-505 190 0
-505 -201 0
-505 -209 0
-505 -217 0
-505 233 0
-505 241 0
-505 247 0
-506 2 0
-506 12 0
-506 19 0
-506 28 0
-506 -39 0
-506 47 0
-506 55 0
-506 69 0
-506 76 0
-506 85 0
-506 -96 0
-506 104 0
-506 112 0
-506 124 0
-506 133 0
-506 -144 0
-506 152 0
-506 160 0
-506 163 0
-506 -174 0
-506 182 0
-506 190 0
-506 -201 0
-506 209 0
-506 217 0
-506 -233 0
-506 -241 0
-506 247 0
-507 2 0
-507 12 0
-507 19 0
-507 28 0
-507 39 0
-507 -47 0
-507 55 0
-507 69 0
-507 76 0
-507 85 0
-507 96 0
-507 -104 0
-507 112 0
-507 124 0
-507 133 0
-507 144 0
-507 -152 0
-507 160 0
-507 163 0
-507 174 0
-507 -182 0
-507 190 0
-507 201 0
-507 -209 0
-507 217 0
-507 -233 0
-507 241 0
-507 -247 0
-508 2 0
-508 12 0
-508 19 0
-508 28 0
-508 39 0
-508 47 0
-508 -55 0
-508 69 0
-508 76 0
-508 85 0
-508 96 0
-508 104 0
-508 -112 0
-508 124 0
-508 133 0
-508 144 0
-508 152 0
-508 -160 0
-508 163 0
-508 174 0
-508 182 0
-508 -190 0
-508 201 0
-508 209 0
-508 -217 0
-508 233 0
-508 -241 0
-508 -247 0
509 510 511 512 513 514 515 516 0
-509 -510 0
-509 -511 0
-509 -512 0
-509 -513 0
-509 -514 0
-509 -515 0
-509 -516 0
-510 -511 0
-510 -512 0
-510 -513 0
-510 -514 0
-510 -515 0
-510 -516 0
-511 -512 0
-511 -513 0
-511 -514 0
-511 -515 0
-511 -516 0
-512 -513 0
-512 -514 0
-512 -515 0
-512 -516 0
-513 -514 0
-513 -515 0
-513 -516 0
-514 -515 0
-514 -516 0
-515 -516 0
-509 -5 0
-509 -13 0
-509 -24 0
-509 -33 0
-509 -40 0
-509 -50 0
-509 -59 0
-509 67 0
-509 78 0
-509 87 0
-509 94 0
-509 104 0
-509 113 0
-509 120 0
-509 129 0
-509 136 0
-509 146 0
-509 155 0
-509 171 0
-509 178 0
-509 188 0
-509 197 0
-509 205 0
-509 215 0
-509 224 0
-509 227 0
-509 236 0
-509 248 0
-510 -5 0
-510 13 0
-510 24 0
-510 33 0
-510 40 0
-510 50 0
-510 59 0
-510 -67 0
-510 -78 0
-510 -87 0
-510 -94 0
-510 -104 0
-510 -113 0
-510 120 0
-510 129 0
-510 136 0
-510 146 0
-510 155 0
-510 171 0
-510 178 0
-510 188 0
-510 197 0
-510 205 0
-510 215 0
-510 224 0
-510 227 0
-510 236 0
-510 248 0
-511 5 0
-511 -13 0
-511 24 0
-511 33 0
-511 40 0
-511 50 0
-511 59 0
-511 -67 0
-511 78 0
-511 87 0
-511 94 0
-511 104 0
-511 113 0
-511 -120 0
-511 -129 0
-511 -136 0
-511 -146 0
-511 -155 0
-511 171 0
-511 178 0
-511 188 0
-511 197 0
-511 205 0
-511 215 0
-511 224 0
-511 227 0
-511 236 0
-511 248 0
-512 5 0
-512 13 0
-512 -24 0
-512 33 0
-512 40 0
-512 50 0
-512 59 0
-512 67 0
-512 -78 0
-512 87 0
-512 94 0
-512 104 0
-512 113 0
-512 -120 0
-512 129 0
-512 136 0
-512 146 0
-512 155 0
-512 -171 0
-512 -178 0
-512 -188 0
-512 -197 0
-512 205 0
-512 215 0
-512 224 0
-512 227 0
-512 236 0
-512 248 0
-513 5 0
-513 13 0
-513 24 0
-513 -33 0
-513 40 0
-513 50 0
-513 59 0
-513 67 0
-513 78 0
-513 -87 0
-513 94 0
-513 104 0
-513 113 0
-513 120 0
-513 -129 0
-513 136 0
-513 146 0
-513 155 0
-513 -171 0
-513 178 0
-513 188 0
-513 197 0
-513 -205 0
-513 -215 0
-513 -224 0
-513 227 0
-513 236 0
-513 248 0
-514 5 0
-514 13 0
-514 24 0
-514 33 0
-514 -40 0
-514 50 0
-514 59 0
-514 67 0
-514 78 0
-514 87 0
-514 -94 0
-514 104 0
-514 113 0
-514 120 0
-514 129 0
-514 -136 0
-514 146 0
-514 155 0
-514 171 0
-514 -178 0
-514 188 0
-514 197 0
-514 -205 0
-514 215 0
-514 224 0
-514 -227 0
-514 -236 0
-514 248 0
-515 5 0
-515 13 0
-515 24 0
-515 33 0
-515 40 0
-515 -50 0
-515 59 0
-515 67 0
-515 78 0
-515 87 0
-515 94 0
-515 -104 0
-515 113 0
-515 120 0
-515 129 0
-515 136 0
-515 -146 0
-515 155 0
-515 171 0
-515 178 0
-515 -188 0
-515 197 0
-515 205 0
-515 -215 0
-515 224 0
-515 -227 0
-515 236 0
-515 -248 0
-516 5 0
-516 13 0
-516 24 0
-516 33 0
-516 40 0
-516 50 0
-516 -59 0
-516 67 0
-516 78 0
-516 87 0
-516 94 0
-516 104 0
-516 -113 0
-516 120 0
-516 129 0
-516 136 0
-516 146 0
-516 -155 0
-516 171 0
-516 178 0
-516 188 0
-516 -197 0
-516 205 0
-516 215 0
-516 -224 0
-516 227 0
-516 -236 0
-516 -248 0
517 518 519 520 521 522 523 524 0
-517 -518 0
-517 -519 0
-517 -520 0
-517 -521 0
-517 -522 0
-517 -523 0
-517 -524 0
-518 -519 0
-518 -520 0
-518 -521 0
-518 -522 0
-518 -523 0
-518 -524 0
-519 -520 0
-519 -521 0
-519 -522 0
-519 -523 0
-519 -524 0
-520 -521 0
-520 -522 0
-520 -523 0
-520 -524 0
-521 -522 0
-521 -523 0
-521 -524 0
-522 -523 0
-522 -524 0
-523 -524 0
-517 -2 0
-517 -11 0
-517 -21 0
-517 -30 0
-517 -38 0
-517 -47 0
-517 -55 0
-517 68 0
-517 78 0
-517 87 0
-517 95 0
-517 104 0
-517 112 0
-517 123 0
-517 132 0
-517 140 0
-517 149 0
-517 157 0
-517 171 0
-517 179 0
-517 188 0
-517 196 0
-517 206 0
-517 215 0
-517 223 0
-517 230 0
-517 238 0
-517 247 0
-518 -2 0
-518 11 0
-518 21 0
-518 30 0
-518 38 0
-518 47 0
-518 55 0
-518 -68 0
-518 -78 0
-518 -87 0
-518 -95 0
-518 -104 0
-518 -112 0
-518 123 0
-518 132 0
-518 140 0
-518 149 0
-518 157 0
-518 171 0
-518 179 0
-518 188 0
-518 196 0
-518 206 0
-518 215 0
-518 223 0
-518 230 0
-518 238 0
-518 247 0
-519 2 0
-519 -11 0
-519 21 0
-519 30 0
-519 38 0
-519 47 0
-519 55 0
-519 -68 0
-519 78 0
-519 87 0
-519 95 0
-519 104 0
-519 112 0
-519 -123 0
-519 -132 0
-519 -140 0
-519 -149 0
-519 -157 0
-519 171 0
-519 179 0
-519 188 0
-519 196 0
-519 206 0
-519 215 0
-519 223 0
-519 230 0
-519 238 0
-519 247 0
-520 2 0
-520 11 0
-520 -21 0
-520 30 0
-520 38 0
-520 47 0
-520 55 0
-520 68 0
-520 -78 0
-520 87 0
-520 95 0
-520 104 0
-520 112 0
-520 -123 0
-520 132 0
-520 140 0
-520 149 0
-520 157 0
-520 -171 0
-520 -179 0
-520 -188 0
-520 -196 0
-520 206 0
-520 215 0
-520 223 0
-520 230 0
-520 238 0
-520 247 0
-521 2 0
-521 11 0
-521 21 0
-521 -30 0
-521 38 0
-521 47 0
-521 55 0
-521 68 0
-521 78 0
-521 -87 0
-521 95 0
-521 104 0
-521 112 0
-521 123 0
-521 -132 0
-521 140 0
-521 149 0
-521 157 0
-521 -171 0
-521 179 0
-521 188 0
-521 196 0
-521 -206 0
-521 -215 0
-521 -223 0
-521 230 0
-521 238 0
-521 247 0
-522 2 0
-522 11 0
-522 21 0
-522 30 0
-522 -38 0
-522 47 0
-522 55 0
-522 68 0
-522 78 0
-522 87 0
-522 -95 0
-522 104 0
-522 112 0
-522 123 0
-522 132 0
-522 -140 0
-522 149 0
-522 157 0
-522 171 0
-522 -179 0
-522 188 0
-522 196 0
-522 -206 0
-522 215 0
-522 223 0
-522 -230 0
-522 -238 0
-522 247 0
-523 2 0
-523 11 0
-523 21 0
-523 30 0
-523 38 0
-523 -47 0
-523 55 0
-523 68 0
-523 78 0
-523 87 0
-523 95 0
-523 -104 0
-523 112 0
-523 123 0
-523 132 0
-523 140 0
-523 -149 0
-523 157 0
-523 171 0
-523 179 0
-523 -188 0
-523 196 0
-523 206 0
-523 -215 0
-523 223 0
-523 -230 0
-523 238 0
-523 -247 0
-524 2 0
-524 11 0
-524 21 0
-524 30 0
-524 38 0
-524 47 0
-524 -55 0
-524 68 0
-524 78 0
-524 87 0
-524 95 0
-524 104 0
-524 -112 0
-524 123 0
-524 132 0
-524 140 0
-524 149 0
-524 -157 0
-524 171 0
-524 179 0
-524 188 0
-524 -196 0
-524 206 0
-524 215 0
-524 -223 0
-524 230 0
-524 -238 0
-524 -247 0
525 526 527 528 529 530 531 532 0
-525 -526 0
-525 -527 0
-525 -528 0
-525 -529 0
-525 -530 0
-525 -531 0
-525 -532 0
-526 -527 0
-526 -528 0
-526 -529 0
-526 -530 0
-526 -531 0
-526 -532 0
-527 -528 0
-527 -529 0
-527 -530 0
-527 -531 0
-527 -532 0
-528 -529 0
-528 -530 0
-528 -531 0
-528 -532 0
-529 -530 0
-529 -531 0
-529 -532 0
-530 -531 0
-530 -532 0
-531 -532 0
-525 -3 0
-525 -11 0
-525 -20 0
-525 -29 0
-525 -38 0
-525 -48 0
-525 -55 0
-525 71 0
-525 80 0
-525 89 0
-525 98 0
-525 108 0
-525 115 0
-525 122 0
-525 131 0
-525 140 0
-525 150 0
-525 157 0
-525 167 0
-525 176 0
-525 186 0
-525 193 0
-525 203 0
-525 213 0
-525 220 0
-525 231 0
-525 238 0
-525 250 0
-526 -3 0
-526 11 0
-526 20 0
-526 29 0
-526 38 0
-526 48 0
-526 55 0
-526 -71 0
-526 -80 0
-526 -89 0
-526 -98 0
-526 -108 0
-526 -115 0
-526 122 0
-526 131 0
-526 140 0
-526 150 0
-526 157 0
-526 167 0
-526 176 0
-526 186 0
-526 193 0
-526 203 0
-526 213 0
-526 220 0
-526 231 0
-526 238 0
-526 250 0
-527 3 0
-527 -11 0
-527 20 0
-527 29 0
-527 38 0
-527 48 0
-527 55 0
-527 -71 0
-527 80 0
-527 89 0
-527 98 0
-527 108 0
-527 115 0
-527 -122 0
-527 -131 0
-527 -140 0
-527 -150 0
-527 -157 0
-527 167 0
-527 176 0
-527 186 0
-527 193 0
-527 203 0
-527 213 0
-527 220 0
-527 231 0
-527 238 0
-527 250 0
-528 3 0
-528 11 0
-528 -20 0
-528 29 0
-528 38 0
-528 48 0
-528 55 0
-528 71 0
-528 -80 0
-528 89 0
-528 98 0
-528 108 0
-528 115 0
-528 -122 0
-528 131 0
-528 140 0
-528 150 0
-528 157 0
-528 -167 0
-528 -176 0
-528 -186 0
-528 -193 0
-528 203 0
-528 213 0
-528 220 0
-528 231 0
-528 238 0
-528 250 0
-529 3 0
-529 11 0
-529 20 0
-529 -29 0
-529 38 0
-529 48 0
-529 55 0
-529 71 0
-529 80 0
-529 -89 0
-529 98 0
-529 108 0
-529 115 0
-529 122 0
-529 -131 0
-529 140 0
-529 150 0
-529 157 0
-529 -167 0
-529 176 0
-529 186 0
-529 193 0
-529 -203 0
-529 -213 0
-529 -220 0
-529 231 0
-529 238 0
-529 250 0
-530 3 0
-530 11 0
-530 20 0
-530 29 0
-530 -38 0
-530 48 0
-530 55 0
-530 71 0
-530 80 0
-530 89 0
-530 -98 0
-530 108 0
-530 115 0
-530 122 0
-530 131 0
-530 -140 0
-530 150 0
-530 157 0
-530 167 0
-530 -176 0
-530 186 0
-530 193 0
-530 -203 0
-530 213 0
-530 220 0
-530 -231 0
-530 -238 0
-530 250 0
-531 3 0
-531 11 0
-531 20 0
-531 29 0
-531 38 0
-531 -48 0
-531 55 0
-531 71 0
-531 80 0
-531 89 0
-531 98 0
-531 -108 0
-531 115 0
-531 122 0
-531 131 0
-531 140 0
-531 -150 0
-531 157 0
-531 167 0
-531 176 0
-531 -186 0
-531 193 0
-531 203 0
-531 -213 0
-531 220 0
-531 -231 0
-531 238 0
-531 -250 0
-532 3 0
-532 11 0
-532 20 0
-532 29 0
-532 38 0
-532 48 0
-532 -55 0
-532 71 0
-532 80 0
-532 89 0
-532 98 0
-532 108 0
-532 -115 0
-532 122 0
-532 131 0
-532 140 0
-532 150 0
-532 -157 0
-532 167 0
-532 176 0
-532 186 0
-532 -193 0
-532 203 0
-532 213 0
-532 -220 0
-532 231 0
-532 -238 0
-532 -250 0
533 534 535 536 537 538 539 540 0
-533 -534 0
-533 -535 0
-533 -536 0
-533 -537 0
-533 -538 0
-533 -539 0
-533 -540 0
-534 -535 0
-534 -536 0
-534 -537 0
-534 -538 0
-534 -539 0
-534 -540 0
-535 -536 0
-535 -537 0
-535 -538 0
-535 -539 0
-535 -540 0
-536 -537 0
-536 -538 0
-536 -539 0
-536 -540 0
-537 -538 0
-537 -539 0
-537 -540 0
-538 -539 0
-538 -540 0
-539 -540 0
-533 -4 0
-533 -13 0
-533 -24 0
-533 -33 0
-533 -40 0
-533 -49 0
-533 -59 0
-533 64 0
-533 75 0
-533 84 0
-533 91 0
-533 100 0
-533 110 0
-533 120 0
-533 129 0
-533 136 0
-533 145 0
-533 155 0
-533 171 0
-533 178 0
-533 187 0
-533 197 0
-533 205 0
-533 214 0
-533 224 0
-533 226 0
-533 236 0
-533 245 0
-534 -4 0
-534 13 0
-534 24 0
-534 33 0
-534 40 0
-534 49 0
-534 59 0
-534 -64 0
-534 -75 0
-534 -84 0
-534 -91 0
-534 -100 0
-534 -110 0
-534 120 0
-534 129 0
-534 136 0
-534 145 0
-534 155 0
-534 171 0
-534 178 0
-534 187 0
-534 197 0
-534 205 0
-534 214 0
-534 224 0
-534 226 0
-534 236 0
-534 245 0
-535 4 0
-535 -13 0
-535 24 0
-535 33 0
-535 40 0
-535 49 0
-535 59 0
-535 -64 0
-535 75 0
-535 84 0
-535 91 0
-535 100 0
-535 110 0
-535 -120 0
-535 -129 0
-535 -136 0
-535 -145 0
-535 -155 0
-535 171 0
-535 178 0
-535 187 0
-535 197 0
-535 205 0
-535 214 0
-535 224 0
-535 226 0
-535 236 0
-535 245 0
-536 4 0
-536 13 0
-536 -24 0
-536 33 0
-536 40 0
-536 49 0
-536 59 0
-536 64 0
-536 -75 0
-536 84 0
-536 91 0
-536 100 0
-536 110 0
-536 -120 0
-536 129 0
-536 136 0
-536 145 0
-536 155 0
-536 -171 0
-536 -178 0
-536 -187 0
-536 -197 0
-536 205 0
-536 214 0
-536 224 0
-536 226 0
-536 236 0
-536 245 0
-537 4 0
-537 13 0
-537 24 0
-537 -33 0
-537 40 0
-537 49 0
-537 59 0
-537 64 0
-537 75 0
-537 -84 0
-537 91 0
-537 100 0
-537 110 0
-537 120 0
-537 -129 0
-537 136 0
-537 145 0
-537 155 0
-537 -171 0
-537 178 0
-537 187 0
-537 197 0
-537 -205 0
-537 -214 0
-537 -224 0
-537 226 0
-537 236 0
-537 245 0
-538 4 0
-538 13 0
-538 24 0
-538 33 0
-538 -40 0
-538 49 0
-538 59 0
-538 64 0
-538 75 0
-538 84 0
-538 -91 0
-538 100 0
-538 110 0
-538 120 0
-538 129 0
-538 -136 0
-538 145 0
-538 155 0
-538 171 0
-538 -178 0
-538 187 0
-538 197 0
-538 -205 0
-538 214 0
-538 224 0
-538 -226 0
-538 -236 0
-538 245 0
-539 4 0
-539 13 0
-539 24 0
-539 33 0
-539 40 0
-539 -49 0
-539 59 0
-539 64 0
-539 75 0
-539 84 0
-539 91 0
-539 -100 0
-539 110 0
-539 120 0
-539 129 0
-539 136 0
-539 -145 0
-539 155 0
-539 171 0
-539 178 0
-539 -187 0
-539 197 0
-539 205 0
-539 -214 0
-539 224 0
-539 -226 0
-539 236 0
-539 -245 0
-540 4 0
-540 13 0
-540 24 0
-540 33 0
-540 40 0
-540 49 0
-540 -59 0
-540 64 0
-540 75 0
-540 84 0
-540 91 0
-540 100 0
-540 -110 0
-540 120 0
-540 129 0
-540 136 0
-540 145 0
-540 -155 0
-540 171 0
-540 178 0
-540 187 0
-540 -197 0
-540 205 0
-540 214 0
-540 -224 0
-540 226 0
-540 -236 0
-540 -245 0
541 542 543 544 545 546 547 548 0
-541 -542 0
-541 -543 0
-541 -544 0
-541 -545 0
-541 -546 0
-541 -547 0
-541 -548 0
-542 -543 0
-542 -544 0
-542 -545 0
-542 -546 0
-542 -547 0
-542 -548 0
-543 -544 0
-543 -545 0
-543 -546 0
-543 -547 0
-543 -548 0
-544 -545 0
-544 -546 0
-544 -547 0
-544 -548 0
-545 -546 0
-545 -547 0
-545 -548 0
-546 -547 0
-546 -548 0
-547 -548 0
-541 -5 0
-541 -15 0
-541 -22 0
-541 -31 0
-541 -42 0
-541 -50 0
-541 -59 0
-541 69 0
-541 76 0
-541 85 0
-541 96 0
-541 104 0
-541 113 0
-541 124 0
-541 133 0
-541 144 0
-541 152 0
-541 161 0
-541 163 0
-541 174 0
-541 182 0
-541 191 0
-541 201 0
-541 209 0
-541 218 0
-541 233 0
-541 242 0
-541 248 0
-542 -5 0
-542 15 0
-542 22 0
-542 31 0
-542 42 0
-542 50 0
-542 59 0
-542 -69 0
-542 -76 0
-542 -85 0
-542 -96 0
-542 -104 0
-542 -113 0
-542 124 0
-542 133 0
-542 144 0
-542 152 0
-542 161 0
-542 163 0
-542 174 0
-542 182 0
-542 191 0
-542 201 0
-542 209 0
-542 218 0
-542 233 0
-542 242 0
-542 248 0
-543 5 0
-543 -15 0
-543 22 0
-543 31 0
-543 42 0
-543 50 0
-543 59 0
-543 -69 0
-543 76 0
-543 85 0
-543 96 0
-543 104 0
-543 113 0
-543 -124 0
-543 -133 0
-543 -144 0
-543 -152 0
-543 -161 0
-543 163 0
-543 174 0
-543 182 0
-543 191 0
-543 201 0
-543 209 0
-543 218 0
-543 233 0
-543 242 0
-543 248 0
-544 5 0
-544 15 0
-544 -22 0
-544 31 0
-544 42 0
-544 50 0
-544 59 0
-544 69 0
-544 -76 0
-544 85 0
-544 96 0
-544 104 0
-544 113 0
-544 -124 0
-544 133 0
-544 144 0
-544 152 0
-544 161 0
-544 -163 0
-544 -174 0
-544 -182 0
-544 -191 0
-544 201 0
-544 209 0
-544 218 0
-544 233 0
-544 242 0
-544 248 0
-545 5 0
-545 15 0
-545 22 0
-545 -31 0
-545 42 0
-545 50 0
-545 59 0
-545 69 0
-545 76 0
-545 -85 0
-545 96 0
-545 104 0
-545 113 0
-545 124 0
-545 -133 0
-545 144 0
-545 152 0
-545 161 0
-545 -163 0
-545 174 0
-545 182 0
-545 191 0
-545 -201 0
-545 -209 0
-545 -218 0
-545 233 0
-545 242 0
-545 248 0
-546 5 0
-546 15 0
-546 22 0
-546 31 0
-546 -42 0
-546 50 0
-546 59 0
-546 69 0
-546 76 0
-546 85 0
-546 -96 0
-546 104 0
-546 113 0
-546 124 0
-546 133 0
-546 -144 0
-546 152 0
-546 161 0
-546 163 0
-546 -174 0
-546 182 0
-546 191 0
-546 -201 0
-546 209 0
-546 218 0
-546 -233 0
-546 -242 0
-546 248 0
-547 5 0
-547 15 0
-547 22 0
-547 31 0
-547 42 0
-547 -50 0
-547 59 0
-547 69 0
-547 76 0
-547 85 0
-547 96 0
-547 -104 0
-547 113 0
-547 124 0
-547 133 0
-547 144 0
-547 -152 0
-547 161 0
-547 163 0
-547 174 0
-547 -182 0
-547 191 0
-547 201 0
-547 -209 0
-547 218 0
-547 -233 0
-547 242 0
-547 -248 0
-548 5 0
-548 15 0
-548 22 0
-548 31 0
-548 42 0
-548 50 0
-548 -59 0
-548 69 0
-548 76 0
-548 85 0
-548 96 0
-548 104 0
-548 -113 0
-548 124 0
-548 133 0
-548 144 0
-548 152 0
-548 -161 0
-548 163 0
-548 174 0
-548 182 0
-548 -191 0
-548 201 0
-548 209 0
-548 -218 0
-548 233 0
-548 -242 0
-548 -248 0
549 550 551 552 553 554 555 556 0
-549 -550 0
-549 -551 0
-549 -552 0
-549 -553 0
-549 -554 0
-549 -555 0
-549 -556 0
-550 -551 0
-550 -552 0
-550 -553 0
-550 -554 0
-550 -555 0
-550 -556 0
-551 -552 0
-551 -553 0
-551 -554 0
-551 -555 0
-551 -556 0
-552 -553 0
-552 -554 0
-552 -555 0
-552 -556 0
-553 -554 0
-553 -555 0
-553 -556 0
-554 -555 0
-554 -556 0
-555 -556 0
-549 -8 0
-549 -18 0
-549 -25 0
-549 -34 0
-549 -45 0
-549 -53 0
-549 -63 0
-549 69 0
-549 76 0
-549 85 0
-549 96 0
-549 104 0
-549 114 0
-549 124 0
-549 133 0
-549 144 0
-549 152 0
-549 162 0
-549 163 0
-549 174 0
-549 182 0
-549 192 0
-549 201 0
-549 209 0
-549 219 0
-549 233 0
-549 243 0
-549 249 0
-550 -8 0
-550 18 0
-550 25 0
-550 34 0
-550 45 0
-550 53 0
-550 63 0
-550 -69 0
-550 -76 0
-550 -85 0
-550 -96 0
-550 -104 0
-550 -114 0
-550 124 0
-550 133 0
-550 144 0
-550 152 0
-550 162 0
-550 163 0
-550 174 0
-550 182 0
-550 192 0
-550 201 0
-550 209 0
-550 219 0
-550 233 0
-550 243 0
-550 249 0
-551 8 0
-551 -18 0
-551 25 0
-551 34 0
-551 45 0
-551 53 0
-551 63 0
-551 -69 0
-551 76 0
-551 85 0
-551 96 0
-551 104 0
-551 114 0
-551 -124 0
-551 -133 0
-551 -144 0
-551 -152 0
-551 -162 0
-551 163 0
-551 174 0
-551 182 0
-551 192 0
-551 201 0
-551 209 0
-551 219 0
-551 233 0
-551 243 0
-551 249 0
-552 8 0
-552 18 0
-552 -25 0
-552 34 0
-552 45 0
-552 53 0
-552 63 0
-552 69 0
-552 -76 0
-552 85 0
-552 96 0
-552 104 0
-552 114 0
-552 -124 0
-552 133 0
-552 144 0
-552 152 0
-552 162 0
-552 -163 0
-552 -174 0
-552 -182 0
-552 -192 0
-552 201 0
-552 209 0
-552 219 0
-552 233 0
-552 243 0
-552 249 0
-553 8 0
-553 18 0
-553 25 0
-553 -34 0
-553 45 0
-553 53 0
-553 63 0
-553 69 0
-553 76 0
-553 -85 0
-553 96 0
-553 104 0
-553 114 0
-553 124 0
-553 -133 0
-553 144 0
-553 152 0
-553 162 0
-553 -163 0
-553 174 0
-553 182 0
-553 192 0
-553 -201 0
-553 -209 0
-553 -219 0
-553 233 0
-553 243 0
-553 249 0
-554 8 0
-554 18 0
-554 25 0
-554 34 0
-554 -45 0
-554 53 0
-554 63 0
-554 69 0
-554 76 0
-554 85 0
-554 -96 0
-554 104 0
-554 114 0
-554 124 0
-554 133 0
-554 -144 0
-554 152 0
-554 162 0
-554 163 0
-554 -174 0
-554 182 0
-554 192 0
-554 -201 0
-554 209 0
-554 219 0
-554 -233 0
-554 -243 0
-554 249 0
-555 8 0
-555 18 0
-555 25 0
-555 34 0
-555 45 0
-555 -53 0
-555 63 0
-555 69 0
-555 76 0
-555 85 0
-555 96 0
-555 -104 0
-555 114 0
-555 124 0
-555 133 0
-555 144 0
-555 -152 0
-555 162 0
-555 163 0
-555 174 0
-555 -182 0
-555 192 0
-555 201 0
-555 -209 0
-555 219 0
-555 -233 0
-555 243 0
-555 -249 0
-556 8 0
-556 18 0
-556 25 0
-556 34 0
-556 45 0
-556 53 0
-556 -63 0
-556 69 0
-556 76 0
-556 85 0
-556 96 0
-556 104 0
-556 -114 0
-556 124 0
-556 133 0
-556 144 0
-556 152 0
-556 -162 0
-556 163 0
-556 174 0
-556 182 0
-556 -192 0
-556 201 0
-556 209 0
-556 -219 0
-556 233 0
-556 -243 0
-556 -249 0
557 558 559 560 561 562 563 564 0
-557 -558 0
-557 -559 0
-557 -560 0
-557 -561 0
-557 -562 0
-557 -563 0
-557 -564 0
-558 -559 0
-558 -560 0
-558 -561 0
-558 -562 0
-558 -563 0
-558 -564 0
-559 -560 0
-559 -561 0
-559 -562 0
-559 -563 0
-559 -564 0
-560 -561 0
-560 -562 0
-560 -563 0
-560 -564 0
-561 -562 0
-561 -563 0
-561 -564 0
-562 -563 0
-562 -564 0
-563 -564 0
-557 -2 0
-557 -12 0
-557 -21 0
-557 -30 0
-557 -39 0
-557 -47 0
-557 -55 0
-557 69 0
-557 78 0
-557 87 0
-557 96 0
-557 104 0
-557 112 0
-557 126 0
-557 135 0
-557 144 0
-557 152 0
-557 160 0
-557 171 0
-557 180 0
-557 188 0
-557 196 0
-557 207 0
-557 215 0
-557 223 0
-557 233 0
-557 241 0
-557 247 0
-558 -2 0
-558 12 0
-558 21 0
-558 30 0
-558 39 0
-558 47 0
-558 55 0
-558 -69 0
-558 -78 0
-558 -87 0
-558 -96 0
-558 -104 0
-558 -112 0
-558 126 0
-558 135 0
-558 144 0
-558 152 0
-558 160 0
-558 171 0
-558 180 0
-558 188 0
-558 196 0
-558 207 0
-558 215 0
-558 223 0
-558 233 0
-558 241 0
-558 247 0
-559 2 0
-559 -12 0
-559 21 0
-559 30 0
-559 39 0
-559 47 0
-559 55 0
-559 -69 0
-559 78 0
-559 87 0
-559 96 0
-559 104 0
-559 112 0
-559 -126 0
-559 -135 0
-559 -144 0
-559 -152 0
-559 -160 0
-559 171 0
-559 180 0
-559 188 0
-559 196 0
-559 207 0
-559 215 0
-559 223 0
-559 233 0
-559 241 0
-559 247 0
-560 2 0
-560 12 0
-560 -21 0
-560 30 0
-560 39 0
-560 47 0
-560 55 0
-560 69 0
-560 -78 0
-560 87 0
-560 96 0
-560 104 0
-560 112 0
-560 -126 0
-560 135 0
-560 144 0
-560 152 0
-560 160 0
-560 -171 0
-560 -180 0
-560 -188 0
-560 -196 0
-560 207 0
-560 215 0
-560 223 0
-560 233 0
-560 241 0
-560 247 0
-561 2 0
-561 12 0
-561 21 0
-561 -30 0
-561 39 0
-561 47 0
-561 55 0
-561 69 0
-561 78 0
-561 -87 0
-561 96 0
-561 104 0
-561 112 0
-561 126 0
-561 -135 0
-561 144 0
-561 152 0
-561 160 0
-561 -171 0
-561 180 0
-561 188 0
-561 196 0
-561 -207 0
-561 -215 0
-561 -223 0
-561 233 0
-561 241 0
-561 247 0
-562 2 0
-562 12 0
-562 21 0
-562 30 0
-562 -39 0
-562 47 0
-562 55 0
-562 69 0
-562 78 0
-562 87 0
-562 -96 0
-562 104 0
-562 112 0
-562 126 0
-562 135 0
-562 -144 0
-562 152 0
-562 160 0
-562 171 0
-562 -180 0
-562 188 0
-562 196 0
-562 -207 0
-562 215 0
-562 223 0
-562 -233 0
-562 -241 0
-562 247 0
-563 2 0
-563 12 0
-563 21 0
-563 30 0
-563 39 0
-563 -47 0
-563 55 0
-563 69 0
-563 78 0
-563 87 0
-563 96 0
-563 -104 0
-563 112 0
-563 126 0
-563 135 0
-563 144 0
-563 -152 0
-563 160 0
-563 171 0
-563 180 0
-563 -188 0
-563 196 0
-563 207 0
-563 -215 0
-563 223 0
-563 -233 0
-563 241 0
-563 -247 0
-564 2 0
-564 12 0
-564 21 0
-564 30 0
-564 39 0
-564 47 0
-564 -55 0
-564 69 0
-564 78 0
-564 87 0
-564 96 0
-564 104 0
-564 -112 0
-564 126 0
-564 135 0
-564 144 0
-564 152 0
-564 -160 0
-564 171 0
-564 180 0
-564 188 0
-564 -196 0
-564 207 0
-564 215 0
-564 -223 0
-564 233 0
-564 -241 0
-564 -247 0
565 566 567 568 569 570 571 572 0
-565 -566 0
-565 -567 0
-565 -568 0
-565 -569 0
-565 -570 0
-565 -571 0
-565 -572 0
-566 -567 0
-566 -568 0
-566 -569 0
-566 -570 0
-566 -571 0
-566 -572 0
-567 -568 0
-567 -569 0
-567 -570 0
-567 -571 0
-567 -572 0
-568 -569 0
-568 -570 0
-568 -571 0
-568 -572 0
-569 -570 0
-569 -571 0
-569 -572 0
-570 -571 0
-570 -572 0
-571 -572 0
-565 -3 0
-565 -11 0
-565 -19 0
-565 -28 0
-565 -38 0
-565 -48 0
-565 -55 0
-565 71 0
-565 79 0
-565 88 0
-565 98 0
-565 108 0
-565 115 0
-565 121 0
-565 130 0
-565 140 0
-565 150 0
-565 157 0
-565 163 0
-565 173 0
-565 183 0
-565 190 0
-565 200 0
-565 210 0
-565 217 0
-565 231 0
-565 238 0
-565 250 0
-566 -3 0
-566 11 0
-566 19 0
-566 28 0
-566 38 0
-566 48 0
-566 55 0
-566 -71 0
-566 -79 0
-566 -88 0
-566 -98 0
-566 -108 0
-566 -115 0
-566 121 0
-566 130 0
-566 140 0
-566 150 0
-566 157 0
-566 163 0
-566 173 0
-566 183 0
-566 190 0
-566 200 0
-566 210 0
-566 217 0
-566 231 0
-566 238 0
-566 250 0
-567 3 0
-567 -11 0
-567 19 0
-567 28 0
-567 38 0
-567 48 0
-567 55 0
-567 -71 0
-567 79 0
-567 88 0
-567 98 0
-567 108 0
-567 115 0
-567 -121 0
-567 -130 0
-567 -140 0
-567 -150 0
-567 -157 0
-567 163 0
-567 173 0
-567 183 0
-567 190 0
-567 200 0
-567 210 0
-567 217 0
-567 231 0
-567 238 0
-567 250 0
-568 3 0
-568 11 0
-568 -19 0
-568 28 0
-568 38 0
-568 48 0
-568 55 0
-568 71 0
-568 -79 0
-568 88 0
-568 98 0
-568 108 0
-568 115 0
-568 -121 0
-568 130 0
-568 140 0
-568 150 0
-568 157 0
-568 -163 0
-568 -173 0
-568 -183 0
-568 -190 0
-568 200 0
-568 210 0
-568 217 0
-568 231 0
-568 238 0
-568 250 0
-569 3 0
-569 11 0
-569 19 0
-569 -28 0
-569 38 0
-569 48 0
-569 55 0
-569 71 0
-569 79 0
-569 -88 0
-569 98 0
-569 108 0
-569 115 0
-569 121 0
-569 -130 0
-569 140 0
-569 150 0
-569 157 0
-569 -163 0
-569 173 0
-569 183 0
-569 190 0
-569 -200 0
-569 -210 0
-569 -217 0
-569 231 0
-569 238 0
-569 250 0
-570 3 0
-570 11 0
-570 19 0
-570 28 0
-570 -38 0
-570 48 0
-570 55 0
-570 71 0
-570 79 0
-570 88 0
-570 -98 0
-570 108 0
-570 115 0
-570 121 0
-570 130 0
-570 -140 0
-570 150 0
-570 157 0
-570 163 0
-570 -173 0
-570 183 0
-570 190 0
-570 -200 0
-570 210 0
-570 217 0
-570 -231 0
-570 -238 0
-570 250 0
-571 3 0
-571 11 0
-571 19 0
-571 28 0
-571 38 0
-571 -48 0
-571 55 0
-571 71 0
-571 79 0
-571 88 0
-571 98 0
-571 -108 0
-571 115 0
-571 121 0
-571 130 0
-571 140 0
-571 -150 0
-571 157 0
-571 163 0
-571 173 0
-571 -183 0
-571 190 0
-571 200 0
-571 -210 0
-571 217 0
-571 -231 0
-571 238 0
-571 -250 0
-572 3 0
-572 11 0
-572 19 0
-572 28 0
-572 38 0
-572 48 0
-572 -55 0
-572 71 0
-572 79 0
-572 88 0
-572 98 0
-572 108 0
-572 -115 0
-572 121 0
-572 130 0
-572 140 0
-572 150 0
-572 -157 0
-572 163 0
-572 173 0
-572 183 0
-572 -190 0
-572 200 0
-572 210 0
-572 -217 0
-572 231 0
-572 -238 0
-572 -250 0
573 574 575 576 577 578 579 580 0
-573 -574 0
-573 -575 0
-573 -576 0
-573 -577 0
-573 -578 0
-573 -579 0
-573 -580 0
-574 -575 0
-574 -576 0
-574 -577 0
-574 -578 0
-574 -579 0
-574 -580 0
-575 -576 0
-575 -577 0
-575 -578 0
-575 -579 0
-575 -580 0
-576 -577 0
-576 -578 0
-576 -579 0
-576 -580 0
-577 -578 0
-577 -579 0
-577 -580 0
-578 -579 0
-578 -580 0
-579 -580 0
-573 -3 0
-573 -11 0
-573 -21 0
-573 -30 0
-573 -38 0
-573 -48 0
-573 -55 0
-573 71 0
-573 81 0
-573 90 0
-573 98 0
-573 108 0
-573 115 0
-573 123 0
-573 132 0
-573 140 0
-573 150 0
-573 157 0
-573 171 0
-573 179 0
-573 189 0
-573 196 0
-573 206 0
-573 216 0
-573 223 0
-573 231 0
-573 238 0
-573 250 0
-574 -3 0
-574 11 0
-574 21 0
-574 30 0
-574 38 0
-574 48 0
-574 55 0
-574 -71 0
-574 -81 0
-574 -90 0
-574 -98 0
-574 -108 0
-574 -115 0
-574 123 0
-574 132 0
-574 140 0
-574 150 0
-574 157 0
-574 171 0
-574 179 0
-574 189 0
-574 196 0
-574 206 0
-574 216 0
-574 223 0
-574 231 0
-574 238 0
-574 250 0
-575 3 0
-575 -11 0
-575 21 0
-575 30 0
-575 38 0
-575 48 0
-575 55 0
-575 -71 0
-575 81 0
-575 90 0
-575 98 0
-575 108 0
-575 115 0
-575 -123 0
-575 -132 0
-575 -140 0
-575 -150 0
-575 -157 0
-575 171 0
-575 179 0
-575 189 0
-575 196 0
-575 206 0
-575 216 0
-575 223 0
-575 231 0
-575 238 0
-575 250 0
-576 3 0
-576 11 0
-576 -21 0
-576 30 0
-576 38 0
-576 48 0
-576 55 0
-576 71 0
-576 -81 0
-576 90 0
-576 98 0
-576 108 0
-576 115 0
-576 -123 0
-576 132 0
-576 140 0
-576 150 0
-576 157 0
-576 -171 0
-576 -179 0
-576 -189 0
-576 -196 0
-576 206 0
-576 216 0
-576 223 0
-576 231 0
-576 238 0
-576 250 0
-577 3 0
-577 11 0
-577 21 0
-577 -30 0
-577 38 0
-577 48 0
-577 55 0
-577 71 0
-577 81 0
-577 -90 0
-577 98 0
-577 108 0
-577 115 0
-577 123 0
-577 -132 0
-577 140 0
-577 150 0
-577 157 0
-577 -171 0
-577 179 0
-577 189 0
-577 196 0
-577 -206 0
-577 -216 0
-577 -223 0
-577 231 0
-577 238 0
-577 250 0
-578 3 0
-578 11 0
-578 21 0
-578 30 0
-578 -38 0
-578 48 0
-578 55 0
-578 71 0
-578 81 0
-578 90 0
-578 -98 0
-578 108 0
-578 115 0
-578 123 0
-578 132 0
-578 -140 0
-578 150 0
-578 157 0
-578 171 0
-578 -179 0
-578 189 0
-578 196 0
-578 -206 0
-578 216 0
-578 223 0
-578 -231 0
-578 -238 0
-578 250 0
-579 3 0
-579 11 0
-579 21 0
-579 30 0
-579 38 0
-579 -48 0
-579 55 0
-579 71 0
-579 81 0
-579 90 0
-579 98 0
-579 -108 0
-579 115 0
-579 123 0
-579 132 0
-579 140 0
-579 -150 0
-579 157 0
-579 171 0
-579 179 0
-579 -189 0
-579 196 0
-579 206 0
-579 -216 0
-579 223 0
-579 -231 0
-579 238 0
-579 -250 0
-580 3 0
-580 11 0
-580 21 0
-580 30 0
-580 38 0
-580 48 0
-580 -55 0
-580 71 0
-580 81 0
-580 90 0
-580 98 0
-580 108 0
-580 -115 0
-580 123 0
-580 132 0
-580 140 0
-580 150 0
-580 -157 0
-580 171 0
-580 179 0
-580 189 0
-580 -196 0
-580 206 0
-580 216 0
-580 -223 0
-580 231 0
-580 -238 0
-580 -250 0
581 582 583 584 585 586 587 588 0
-581 -582 0
-581 -583 0
-581 -584 0
-581 -585 0
-581 -586 0
-581 -587 0
-581 -588 0
-582 -583 0
-582 -584 0
-582 -585 0
-582 -586 0
-582 -587 0
-582 -588 0
-583 -584 0
-583 -585 0
-583 -586 0
-583 -587 0
-583 -588 0
-584 -585 0
-584 -586 0
-584 -587 0
-584 -588 0
-585 -586 0
-585 -587 0
-585 -588 0
-586 -587 0
-586 -588 0
-587 -588 0
-581 -4 0
-581 -15 0
-581 -24 0
-581 -33 0
-581 -42 0
-581 -49 0
-581 -59 0
-581 66 0
-581 75 0
-581 84 0
-581 93 0
-581 100 0
-581 110 0
-581 126 0
-581 135 0
-581 144 0
-581 151 0
-581 161 0
-581 171 0
-581 180 0
-581 187 0
-581 197 0
-581 207 0
-581 214 0
-581 224 0
-581 232 0
-581 242 0
-581 245 0
-582 -4 0
-582 15 0
-582 24 0
-582 33 0
-582 42 0
-582 49 0
-582 59 0
-582 -66 0
-582 -75 0
-582 -84 0
-582 -93 0
-582 -100 0
-582 -110 0
-582 126 0
-582 135 0
-582 144 0
-582 151 0
-582 161 0
-582 171 0
-582 180 0
-582 187 0
-582 197 0
-582 207 0
-582 214 0
-582 224 0
-582 232 0
-582 242 0
-582 245 0
-583 4 0
-583 -15 0
-583 24 0
-583 33 0
-583 42 0
-583 49 0
-583 59 0
-583 -66 0
-583 75 0
-583 84 0
-583 93 0
-583 100 0
-583 110 0
-583 -126 0
-583 -135 0
-583 -144 0
-583 -151 0
-583 -161 0
-583 171 0
-583 180 0
-583 187 0
-583 197 0
-583 207 0
-583 214 0
-583 224 0
-583 232 0
-583 242 0
-583 245 0
-584 4 0
-584 15 0
-584 -24 0
-584 33 0
-584 42 0
-584 49 0
-584 59 0
-584 66 0
-584 -75 0
-584 84 0
-584 93 0
-584 100 0
-584 110 0
-584 -126 0
-584 135 0
-584 144 0
-584 151 0
-584 161 0
-584 -171 0
-584 -180 0
-584 -187 0
-584 -197 0
-584 207 0
-584 214 0
-584 224 0
-584 232 0
-584 242 0
-584 245 0
-585 4 0
-585 15 0
-585 24 0
-585 -33 0
-585 42 0
-585 49 0
-585 59 0
-585 66 0
-585 75 0
-585 -84 0
-585 93 0
-585 100 0
-585 110 0
-585 126 0
-585 -135 0
-585 144 0
-585 151 0
-585 161 0
-585 -171 0
-585 180 0
-585 187 0
-585 197 0
-585 -207 0
-585 -214 0
-585 -224 0
-585 232 0
-585 242 0
-585 245 0
-586 4 0
-586 15 0
-586 24 0
-586 33 0
-586 -42 0
-586 49 0
-586 59 0
-586 66 0
-586 75 0
-586 84 0
-586 -93 0
-586 100 0
-586 110 0
-586 126 0
-586 135 0
-586 -144 0
-586 151 0
-586 161 0
-586 171 0
-586 -180 0
-586 187 0
-586 197 0
-586 -207 0
-586 214 0
-586 224 0
-586 -232 0
-586 -242 0
-586 245 0
-587 4 0
-587 15 0
-587 24 0
-587 33 0
-587 42 0
-587 -49 0
-587 59 0
-587 66 0
-587 75 0
-587 84 0
-587 93 0
-587 -100 0
-587 110 0
-587 126 0
-587 135 0
-587 144 0
-587 -151 0
-587 161 0
-587 171 0
-587 180 0
-587 -187 0
-587 197 0
-587 207 0
-587 -214 0
-587 224 0
-587 -232 0
-587 242 0
-587 -245 0
-588 4 0
-588 15 0
-588 24 0
-588 33 0
-588 42 0
-588 49 0
-588 -59 0
-588 66 0
-588 75 0
-588 84 0
-588 93 0
-588 100 0
-588 -110 0
-588 126 0
-588 135 0
-588 144 0
-588 151 0
-588 -161 0
-588 171 0
-588 180 0
-588 187 0
-588 -197 0
-588 207 0
-588 214 0
-588 -224 0
-588 232 0
-588 -242 0
-588 -245 0
589 590 591 592 593 594 595 596 0
-589 -590 0
-589 -591 0
-589 -592 0
-589 -593 0
-589 -594 0
-589 -595 0
-589 -596 0
-590 -591 0
-590 -592 0
-590 -593 0
-590 -594 0
-590 -595 0
-590 -596 0
-591 -592 0
-591 -593 0
-591 -594 0
-591 -595 0
-591 -596 0
-592 -593 0
-592 -594 0
-592 -595 0
-592 -596 0
-593 -594 0
-593 -595 0
-593 -596 0
-594 -595 0
-594 -596 0
-595 -596 0
-589 -4 0
-589 -15 0
-589 -23 0
-589 -32 0
-589 -42 0
-589 -49 0
-589 -59 0
-589 66 0
-589 74 0
-589 83 0
-589 93 0
-589 100 0
-589 110 0
-589 125 0
-589 134 0
-589 144 0
-589 151 0
-589 161 0
-589 167 0
-589 177 0
-589 184 0
-589 194 0
-589 204 0
-589 211 0
-589 221 0
-589 232 0
-589 242 0
-589 245 0
-590 -4 0
-590 15 0
-590 23 0
-590 32 0
-590 42 0
-590 49 0
-590 59 0
-590 -66 0
-590 -74 0
-590 -83 0
-590 -93 0
-590 -100 0
-590 -110 0
-590 125 0
-590 134 0
-590 144 0
-590 151 0
-590 161 0
-590 167 0
-590 177 0
-590 184 0
-590 194 0
-590 204 0
-590 211 0
-590 221 0
-590 232 0
-590 242 0
-590 245 0
-591 4 0
-591 -15 0
-591 23 0
-591 32 0
-591 42 0
-591 49 0
-591 59 0
-591 -66 0
-591 74 0
-591 83 0
-591 93 0
-591 100 0
-591 110 0
-591 -125 0
-591 -134 0
-591 -144 0
-591 -151 0
-591 -161 0
-591 167 0
-591 177 0
-591 184 0
-591 194 0
-591 204 0
-591 211 0
-591 221 0
-591 232 0
-591 242 0
-591 245 0
-592 4 0
-592 15 0
-592 -23 0
-592 32 0
-592 42 0
-592 49 0
-592 59 0
-592 66 0
-592 -74 0
-592 83 0
-592 93 0
-592 100 0
-592 110 0
-592 -125 0
-592 134 0
-592 144 0
-592 151 0
-592 161 0
-592 -167 0
-592 -177 0
-592 -184 0
-592 -194 0
-592 204 0
-592 211 0
-592 221 0
-592 232 0
-592 242 0
-592 245 0
-593 4 0
-593 15 0
-593 23 0
-593 -32 0
-593 42 0
-593 49 0
-593 59 0
-593 66 0
-593 74 0
-593 -83 0
-593 93 0
-593 100 0
-593 110 0
-593 125 0
-593 -134 0
-593 144 0
-593 151 0
-593 161 0
-593 -167 0
-593 177 0
-593 184 0
-593 194 0
-593 -204 0
-593 -211 0
-593 -221 0
-593 232 0
-593 242 0
-593 245 0
-594 4 0
-594 15 0
-594 23 0
-594 32 0
-594 -42 0
-594 49 0
-594 59 0
-594 66 0
-594 74 0
-594 83 0
-594 -93 0
-594 100 0
-594 110 0
-594 125 0
-594 134 0
-594 -144 0
-594 151 0
-594 161 0
-594 167 0
-594 -177 0
-594 184 0
-594 194 0
-594 -204 0
-594 211 0
-594 221 0
-594 -232 0
-594 -242 0
-594 245 0
-595 4 0
-595 15 0
-595 23 0
-595 32 0
-595 42 0
-595 -49 0
-595 59 0
-595 66 0
-595 74 0
-595 83 0
-595 93 0
-595 -100 0
-595 110 0
-595 125 0
-595 134 0
-595 144 0
-595 -151 0
-595 161 0
-595 167 0
-595 177 0
-595 -184 0
-595 194 0
-595 204 0
-595 -211 0
-595 221 0
-595 -232 0
-595 242 0
-595 -245 0
-596 4 0
-596 15 0
-596 23 0
-596 32 0
-596 42 0
-596 49 0
-596 -59 0
-596 66 0
-596 74 0
-596 83 0
-596 93 0
-596 100 0
-596 -110 0
-596 125 0
-596 134 0
-596 144 0
-596 151 0
-596 -161 0
-596 167 0
-596 177 0
-596 184 0
-596 -194 0
-596 204 0
-596 211 0
-596 -221 0
-596 232 0
-596 -242 0
-596 -245 0
597 598 599 600 601 602 603 604 0
-597 -598 0
-597 -599 0
-597 -600 0
-597 -601 0
-597 -602 0
-597 -603 0
-597 -604 0
-598 -599 0
-598 -600 0
-598 -601 0
-598 -602 0
-598 -603 0
-598 -604 0
-599 -600 0
-599 -601 0
-599 -602 0
-599 -603 0
-599 -604 0
-600 -601 0
-600 -602 0
-600 -603 0
-600 -604 0
-601 -602 0
-601 -603 0
-601 -604 0
-602 -603 0
-602 -604 0
-603 -604 0
-597 -6 0
-597 -13 0
-597 -24 0
-597 -33 0
-597 -40 0
-597 -51 0
-597 -59 0
-597 70 0
-597 81 0
-597 90 0
-597 97 0
-597 108 0
-597 116 0
-597 120 0
-597 129 0
-597 136 0
-597 147 0
-597 155 0
-597 171 0
-597 178 0
-597 189 0
-597 197 0
-597 205 0
-597 216 0
-597 224 0
-597 228 0
-597 236 0
-597 251 0
-598 -6 0
-598 13 0
-598 24 0
-598 33 0
-598 40 0
-598 51 0
-598 59 0
-598 -70 0
-598 -81 0
-598 -90 0
-598 -97 0
-598 -108 0
-598 -116 0
-598 120 0
-598 129 0
-598 136 0
-598 147 0
-598 155 0
-598 171 0
-598 178 0
-598 189 0
-598 197 0
-598 205 0
-598 216 0
-598 224 0
-598 228 0
-598 236 0
-598 251 0
-599 6 0
-599 -13 0
-599 24 0
-599 33 0
-599 40 0
-599 51 0
-599 59 0
-599 -70 0
-599 81 0
-599 90 0
-599 97 0
-599 108 0
-599 116 0
-599 -120 0
-599 -129 0
-599 -136 0
-599 -147 0
-599 -155 0
-599 171 0
-599 178 0
-599 189 0
-599 197 0
-599 205 0
-599 216 0
-599 224 0
-599 228 0
-599 236 0
-599 251 0
-600 6 0
-600 13 0
-600 -24 0
-600 33 0
-600 40 0
-600 51 0
-600 59 0
-600 70 0
-600 -81 0
-600 90 0
-600 97 0
-600 108 0
-600 116 0
-600 -120 0
-600 129 0
-600 136 0
-600 147 0
-600 155 0
-600 -171 0
-600 -178 0
-600 -189 0
-600 -197 0
-600 205 0
-600 216 0
-600 224 0
-600 228 0
-600 236 0
-600 251 0
-601 6 0
-601 13 0
-601 24 0
-601 -33 0
-601 40 0
-601 51 0
-601 59 0
-601 70 0
-601 81 0
-601 -90 0
-601 97 0
-601 108 0
-601 116 0
-601 120 0
-601 -129 0
-601 136 0
-601 147 0
-601 155 0
-601 -171 0
-601 178 0
-601 189 0
-601 197 0
-601 -205 0
-601 -216 0
-601 -224 0
-601 228 0
-601 236 0
-601 251 0
-602 6 0
-602 13 0
-602 24 0
-602 33 0
-602 -40 0
-602 51 0
-602 59 0
-602 70 0
-602 81 0
-602 90 0
-602 -97 0
-602 108 0
-602 116 0
-602 120 0
-602 129 0
-602 -136 0
-602 147 0
-602 155 0
-602 171 0
-602 -178 0
-602 189 0
-602 197 0
-602 -205 0
-602 216 0
-602 224 0
-602 -228 0
-602 -236 0
-602 251 0
-603 6 0
-603 13 0
-603 24 0
-603 33 0
-603 40 0
-603 -51 0
-603 59 0
-603 70 0
-603 81 0
-603 90 0
-603 97 0
-603 -108 0
-603 116 0
-603 120 0
-603 129 0
-603 136 0
-603 -147 0
-603 155 0
-603 171 0
-603 178 0
-603 -189 0
-603 197 0
-603 205 0
-603 -216 0
-603 224 0
-603 -228 0
-603 236 0
-603 -251 0
-604 6 0
-604 13 0
-604 24 0
-604 33 0
-604 40 0
-604 51 0
-604 -59 0
-604 70 0
-604 81 0
-604 90 0
-604 97 0
-604 108 0
-604 -116 0
-604 120 0
-604 129 0
-604 136 0
-604 147 0
-604 -155 0
-604 171 0
-604 178 0
-604 189 0
-604 -197 0
-604 205 0
-604 216 0
-604 -224 0
-604 228 0
-604 -236 0
-604 -251 0
605 606 607 608 609 610 611 612 0
-605 -606 0
-605 -607 0
-605 -608 0
-605 -609 0
-605 -610 0
-605 -611 0
-605 -612 0
-606 -607 0
-606 -608 0
-606 -609 0
-606 -610 0
-606 -611 0
-606 -612 0
-607 -608 0
-607 -609 0
-607 -610 0
-607 -611 0
-607 -612 0
-608 -609 0
-608 -610 0
-608 -611 0
-608 -612 0
-609 -610 0
-609 -611 0
-609 -612 0
-610 -611 0
-610 -612 0
-611 -612 0
-605 -7 0
-605 -16 0
-605 -26 0
-605 -35 0
-605 -43 0
-605 -52 0
-605 -63 0
-605 64 0
-605 74 0
-605 83 0
-605 91 0
-605 100 0
-605 111 0
-605 119 0
-605 128 0
-605 136 0
-605 145 0
-605 156 0
-605 167 0
-605 175 0
-605 184 0
-605 195 0
-605 202 0
-605 211 0
-605 222 0
-605 226 0
-605 237 0
-605 246 0
-606 -7 0
-606 16 0
-606 26 0
-606 35 0
-606 43 0
-606 52 0
-606 63 0
-606 -64 0
-606 -74 0
-606 -83 0
-606 -91 0
-606 -100 0
-606 -111 0
-606 119 0
-606 128 0
-606 136 0
-606 145 0
-606 156 0
-606 167 0
-606 175 0
-606 184 0
-606 195 0
-606 202 0
-606 211 0
-606 222 0
-606 226 0
-606 237 0
-606 246 0
-607 7 0
-607 -16 0
-607 26 0
-607 35 0
-607 43 0
-607 52 0
-607 63 0
-607 -64 0
-607 74 0
-607 83 0
-607 91 0
-607 100 0
-607 111 0
-607 -119 0
-607 -128 0
-607 -136 0
-607 -145 0
-607 -156 0
-607 167 0
-607 175 0
-607 184 0
-607 195 0
-607 202 0
-607 211 0
-607 222 0
-607 226 0
-607 237 0
-607 246 0
-608 7 0
-608 16 0
-608 -26 0
-608 35 0
-608 43 0
-608 52 0
-608 63 0
-608 64 0
-608 -74 0
-608 83 0
-608 91 0
-608 100 0
-608 111 0
-608 -119 0
-608 128 0
-608 136 0
-608 145 0
-608 156 0
-608 -167 0
-608 -175 0
-608 -184 0
-608 -195 0
-608 202 0
-608 211 0
-608 222 0
-608 226 0
-608 237 0
-608 246 0
-609 7 0
-609 16 0
-609 26 0
-609 -35 0
-609 43 0
-609 52 0
-609 63 0
-609 64 0
-609 74 0
-609 -83 0
-609 91 0
-609 100 0
-609 111 0
-609 119 0
-609 -128 0
-609 136 0
-609 145 0
-609 156 0
-609 -167 0
-609 175 0
-609 184 0
-609 195 0
-609 -202 0
-609 -211 0
-609 -222 0
-609 226 0
-609 237 0
-609 246 0
-610 7 0
-610 16 0
-610 26 0
-610 35 0
-610 -43 0
-610 52 0
-610 63 0
-610 64 0
-610 74 0
-610 83 0
-610 -91 0
-610 100 0
-610 111 0
-610 119 0
-610 128 0
-610 -136 0
-610 145 0
-610 156 0
-610 167 0
-610 -175 0
-610 184 0
-610 195 0
-610 -202 0
-610 211 0
-610 222 0
-610 -226 0
-610 -237 0
-610 246 0
-611 7 0
-611 16 0
-611 26 0
-611 35 0
-611 43 0
-611 -52 0
-611 63 0
-611 64 0
-611 74 0
-611 83 0
-611 91 0
-611 -100 0
-611 111 0
-611 119 0
-611 128 0
-611 136 0
-611 -145 0
-611 156 0
-611 167 0
-611 175 0
-611 -184 0
-611 195 0
-611 202 0
-611 -211 0
-611 222 0
-611 -226 0
-611 237 0
-611 -246 0
-612 7 0
-612 16 0
-612 26 0
-612 35 0
-612 43 0
-612 52 0
-612 -63 0
-612 64 0
-612 74 0
-612 83 0
-612 91 0
-612 100 0
-612 -111 0
-612 119 0
-612 128 0
-612 136 0
-612 145 0
-612 -156 0
-612 167 0
-612 175 0
-612 184 0
-612 -195 0
-612 202 0
-612 211 0
-612 -222 0
-612 226 0
-612 -237 0
-612 -246 0
613 614 615 616 617 618 619 620 0
-613 -614 0
-613 -615 0
-613 -616 0
-613 -617 0
-613 -618 0
-613 -619 0
-613 -620 0
-614 -615 0
-614 -616 0
-614 -617 0
-614 -618 0
-614 -619 0
-614 -620 0
-615 -616 0
-615 -617 0
-615 -618 0
-615 -619 0
-615 -620 0
-616 -617 0
-616 -618 0
-616 -619 0
-616 -620 0
-617 -618 0
-617 -619 0
-617 -620 0
-618 -619 0
-618 -620 0
-619 -620 0
-613 -7 0
-613 -17 0
-613 -26 0
-613 -35 0
-613 -44 0
-613 -52 0
-613 -63 0
-613 65 0
-613 74 0
-613 83 0
-613 92 0
-613 100 0
-613 111 0
-613 122 0
-613 131 0
-613 140 0
-613 148 0
-613 159 0
-613 167 0
-613 176 0
-613 184 0
-613 195 0
-613 203 0
-613 211 0
-613 222 0
-613 229 0
-613 240 0
-613 246 0
-614 -7 0
-614 17 0
-614 26 0
-614 35 0
-614 44 0
-614 52 0
-614 63 0
-614 -65 0
-614 -74 0
-614 -83 0
-614 -92 0
-614 -100 0
-614 -111 0
-614 122 0
-614 131 0
-614 140 0
-614 148 0
-614 159 0
-614 167 0
-614 176 0
-614 184 0
-614 195 0
-614 203 0
-614 211 0
-614 222 0
-614 229 0
-614 240 0
-614 246 0
-615 7 0
-615 -17 0
-615 26 0
-615 35 0
-615 44 0
-615 52 0
-615 63 0
-615 -65 0
-615 74 0
-615 83 0
-615 92 0
-615 100 0
-615 111 0
-615 -122 0
-615 -131 0
-615 -140 0
-615 -148 0
-615 -159 0
-615 167 0
-615 176 0
-615 184 0
-615 195 0
-615 203 0
-615 211 0
-615 222 0
-615 229 0
-615 240 0
-615 246 0
-616 7 0
-616 17 0
-616 -26 0
-616 35 0
-616 44 0
-616 52 0
-616 63 0
-616 65 0
-616 -74 0
-616 83 0
-616 92 0
-616 100 0
-616 111 0
-616 -122 0
-616 131 0
-616 140 0
-616 148 0
-616 159 0
-616 -167 0
-616 -176 0
-616 -184 0
-616 -195 0
-616 203 0
-616 211 0
-616 222 0
-616 229 0
-616 240 0
-616 246 0
-617 7 0
-617 17 0
-617 26 0
-617 -35 0
-617 44 0
-617 52 0
-617 63 0
-617 65 0
-617 74 0
-617 -83 0
-617 92 0
-617 100 0
-617 111 0
-617 122 0
-617 -131 0
-617 140 0
-617 148 0
-617 159 0
-617 -167 0
-617 176 0
-617 184 0
-617 195 0
-617 -203 0
-617 -211 0
-617 -222 0
-617 229 0
-617 240 0
-617 246 0
-618 7 0
-618 17 0
-618 26 0
-618 35 0
-618 -44 0
-618 52 0
-618 63 0
-618 65 0
-618 74 0
-618 83 0
-618 -92 0
-618 100 0
-618 111 0
-618 122 0
-618 131 0
-618 -140 0
-618 148 0
-618 159 0
-618 167 0
-618 -176 0
-618 184 0
-618 195 0
-618 -203 0
-618 211 0
-618 222 0
-618 -229 0
-618 -240 0
-618 246 0
-619 7 0
-619 17 0
-619 26 0
-619 35 0
-619 44 0
-619 -52 0
-619 63 0
-619 65 0
-619 74 0
-619 83 0
-619 92 0
-619 -100 0
-619 111 0
-619 122 0
-619 131 0
-619 140 0
-619 -148 0
-619 159 0
-619 167 0
-619 176 0
-619 -184 0
-619 195 0
-619 203 0
-619 -211 0
-619 222 0
-619 -229 0
-619 240 0
-619 -246 0
-620 7 0
-620 17 0
-620 26 0
-620 35 0
-620 44 0
-620 52 0
-620 -63 0
-620 65 0
-620 74 0
-620 83 0
-620 92 0
-620 100 0
-620 -111 0
-620 122 0
-620 131 0
-620 140 0
-620 148 0
-620 -159 0
-620 167 0
-620 176 0
-620 184 0
-620 -195 0
-620 203 0
-620 211 0
-620 -222 0
-620 229 0
-620 -240 0
-620 -246 0
621 622 623 624 625 626 627 628 0
-621 -622 0
-621 -623 0
-621 -624 0
-621 -625 0
-621 -626 0
-621 -627 0
-621 -628 0
-622 -623 0
-622 -624 0
-622 -625 0
-622 -626 0
-622 -627 0
-622 -628 0
-623 -624 0
-623 -625 0
-623 -626 0
-623 -627 0
-623 -628 0
-624 -625 0
-624 -626 0
-624 -627 0
-624 -628 0
-625 -626 0
-625 -627 0
-625 -628 0
-626 -627 0
-626 -628 0
-627 -628 0
-621 -6 0
-621 -13 0
-621 -23 0
-621 -32 0
-621 -40 0
-621 -51 0
-621 -59 0
-621 70 0
-621 80 0
-621 89 0
-621 97 0
-621 108 0
-621 116 0
-621 119 0
-621 128 0
-621 136 0
-621 147 0
-621 155 0
-621 167 0
-621 175 0
-621 186 0
-621 194 0
-621 202 0
-621 213 0
-621 221 0
-621 228 0
-621 236 0
-621 251 0
-622 -6 0
-622 13 0
-622 23 0
-622 32 0
-622 40 0
-622 51 0
-622 59 0
-622 -70 0
-622 -80 0
-622 -89 0
-622 -97 0
-622 -108 0
-622 -116 0
-622 119 0
-622 128 0
-622 136 0
-622 147 0
-622 155 0
-622 167 0
-622 175 0
-622 186 0
-622 194 0
-622 202 0
-622 213 0
-622 221 0
-622 228 0
-622 236 0
-622 251 0
-623 6 0
-623 -13 0
-623 23 0
-623 32 0
-623 40 0
-623 51 0
-623 59 0
-623 -70 0
-623 80 0
-623 89 0
-623 97 0
-623 108 0
-623 116 0
-623 -119 0
-623 -128 0
-623 -136 0
-623 -147 0
-623 -155 0
-623 167 0
-623 175 0
-623 186 0
-623 194 0
-623 202 0
-623 213 0
-623 221 0
-623 228 0
-623 236 0
-623 251 0
-624 6 0
-624 13 0
-624 -23 0
-624 32 0
-624 40 0
-624 51 0
-624 59 0
-624 70 0
-624 -80 0
-624 89 0
-624 97 0
-624 108 0
-624 116 0
-624 -119 0
-624 128 0
-624 136 0
-624 147 0
-624 155 0
-624 -167 0
-624 -175 0
-624 -186 0
-624 -194 0
-624 202 0
-624 213 0
-624 221 0
-624 228 0
-624 236 0
-624 251 0
-625 6 0
-625 13 0
-625 23 0
-625 -32 0
-625 40 0
-625 51 0
-625 59 0
-625 70 0
-625 80 0
-625 -89 0
-625 97 0
-625 108 0
-625 116 0
-625 119 0
-625 -128 0
-625 136 0
-625 147 0
-625 155 0
-625 -167 0
-625 175 0
-625 186 0
-625 194 0
-625 -202 0
-625 -213 0
-625 -221 0
-625 228 0
-625 236 0
-625 251 0
-626 6 0
-626 13 0
-626 23 0
-626 32 0
-626 -40 0
-626 51 0
-626 59 0
-626 70 0
-626 80 0
-626 89 0
-626 -97 0
-626 108 0
-626 116 0
-626 119 0
-626 128 0
-626 -136 0
-626 147 0
-626 155 0
-626 167 0
-626 -175 0
-626 186 0
-626 194 0
-626 -202 0
-626 213 0
-626 221 0
-626 -228 0
-626 -236 0
-626 251 0
-627 6 0
-627 13 0
-627 23 0
-627 32 0
-627 40 0
-627 -51 0
-627 59 0
-627 70 0
-627 80 0
-627 89 0
-627 97 0
-627 -108 0
-627 116 0
-627 119 0
-627 128 0
-627 136 0
-627 -147 0
-627 155 0
-627 167 0
-627 175 0
-627 -186 0
-627 194 0
-627 202 0
-627 -213 0
-627 221 0
-627 -228 0
-627 236 0
-627 -251 0
-628 6 0
-628 13 0
-628 23 0
-628 32 0
-628 40 0
-628 51 0
-628 -59 0
-628 70 0
-628 80 0
-628 89 0
-628 97 0
-628 108 0
-628 -116 0
-628 119 0
-628 128 0
-628 136 0
-628 147 0
-628 -155 0
-628 167 0
-628 175 0
-628 186 0
-628 -194 0
-628 202 0
-628 213 0
-628 -221 0
-628 228 0
-628 -236 0
-628 -251 0
629 630 631 632 633 634 635 636 0
-629 -630 0
-629 -631 0
-629 -632 0
-629 -633 0
-629 -634 0
-629 -635 0
-629 -636 0
-630 -631 0
-630 -632 0
-630 -633 0
-630 -634 0
-630 -635 0
-630 -636 0
-631 -632 0
-631 -633 0
-631 -634 0
-631 -635 0
-631 -636 0
-632 -633 0
-632 -634 0
-632 -635 0
-632 -636 0
-633 -634 0
-633 -635 0
-633 -636 0
-634 -635 0
-634 -636 0
-635 -636 0
-629 -9 0
-629 -16 0
-629 -26 0
-629 -35 0
-629 -43 0
-629 -54 0
-629 -63 0
-629 70 0
-629 80 0
-629 89 0
-629 97 0
-629 108 0
-629 117 0
-629 119 0
-629 128 0
-629 136 0
-629 147 0
-629 156 0
-629 167 0
-629 175 0
-629 186 0
-629 195 0
-629 202 0
-629 213 0
-629 222 0
-629 228 0
-629 237 0
-629 252 0
-630 -9 0
-630 16 0
-630 26 0
-630 35 0
-630 43 0
-630 54 0
-630 63 0
-630 -70 0
-630 -80 0
-630 -89 0
-630 -97 0
-630 -108 0
-630 -117 0
-630 119 0
-630 128 0
-630 136 0
-630 147 0
-630 156 0
-630 167 0
-630 175 0
-630 186 0
-630 195 0
-630 202 0
-630 213 0
-630 222 0
-630 228 0
-630 237 0
-630 252 0
-631 9 0
-631 -16 0
-631 26 0
-631 35 0
-631 43 0
-631 54 0
-631 63 0
-631 -70 0
-631 80 0
-631 89 0
-631 97 0
-631 108 0
-631 117 0
-631 -119 0
-631 -128 0
-631 -136 0
-631 -147 0
-631 -156 0
-631 167 0
-631 175 0
-631 186 0
-631 195 0
-631 202 0
-631 213 0
-631 222 0
-631 228 0
-631 237 0
-631 252 0
-632 9 0
-632 16 0
-632 -26 0
-632 35 0
-632 43 0
-632 54 0
-632 63 0
-632 70 0
-632 -80 0
-632 89 0
-632 97 0
-632 108 0
-632 117 0
-632 -119 0
-632 128 0
-632 136 0
-632 147 0
-632 156 0
-632 -167 0
-632 -175 0
-632 -186 0
-632 -195 0
-632 202 0
-632 213 0
-632 222 0
-632 228 0
-632 237 0
-632 252 0
-633 9 0
-633 16 0
-633 26 0
-633 -35 0
-633 43 0
-633 54 0
-633 63 0
-633 70 0
-633 80 0
-633 -89 0
-633 97 0
-633 108 0
-633 117 0
-633 119 0
-633 -128 0
-633 136 0
-633 147 0
-633 156 0
-633 -167 0
-633 175 0
-633 186 0
-633 195 0
-633 -202 0
-633 -213 0
-633 -222 0
-633 228 0
-633 237 0
-633 252 0
-634 9 0
-634 16 0
-634 26 0
-634 35 0
-634 -43 0
-634 54 0
-634 63 0
-634 70 0
-634 80 0
-634 89 0
-634 -97 0
-634 108 0
-634 117 0
-634 119 0
-634 128 0
-634 -136 0
-634 147 0
-634 156 0
-634 167 0
-634 -175 0
-634 186 0
-634 195 0
-634 -202 0
-634 213 0
-634 222 0
-634 -228 0
-634 -237 0
-634 252 0
-635 9 0
-635 16 0
-635 26 0
-635 35 0
-635 43 0
-635 -54 0
-635 63 0
-635 70 0
-635 80 0
-635 89 0
-635 97 0
-635 -108 0
-635 117 0
-635 119 0
-635 128 0
-635 136 0
-635 -147 0
-635 156 0
-635 167 0
-635 175 0
-635 -186 0
-635 195 0
-635 202 0
-635 -213 0
-635 222 0
-635 -228 0
-635 237 0
-635 -252 0
-636 9 0
-636 16 0
-636 26 0
-636 35 0
-636 43 0
-636 54 0
-636 -63 0
-636 70 0
-636 80 0
-636 89 0
-636 97 0
-636 108 0
-636 -117 0
-636 119 0
-636 128 0
-636 136 0
-636 147 0
-636 -156 0
-636 167 0
-636 175 0
-636 186 0
-636 -195 0
-636 202 0
-636 213 0
-636 -222 0
-636 228 0
-636 -237 0
-636 -252 0
637 638 639 640 641 642 643 644 0
-637 -638 0
-637 -639 0
-637 -640 0
-637 -641 0
-637 -642 0
-637 -643 0
-637 -644 0
-638 -639 0
-638 -640 0
-638 -641 0
-638 -642 0
-638 -643 0
-638 -644 0
-639 -640 0
-639 -641 0
-639 -642 0
-639 -643 0
-639 -644 0
-640 -641 0
-640 -642 0
-640 -643 0
-640 -644 0
-641 -642 0
-641 -643 0
-641 -644 0
-642 -643 0
-642 -644 0
-643 -644 0
-637 -4 0
-637 -13 0
-637 -23 0
-637 -31 0
-637 -41 0
-637 -50 0
-637 -58 0
-637 64 0
-637 74 0
-637 82 0
-637 92 0
-637 101 0
-637 109 0
-637 119 0
-637 127 0
-637 137 0
-637 146 0
-637 154 0
-637 166 0
-637 176 0
-637 185 0
-637 193 0
-637 200 0
-637 209 0
-637 217 0
-637 230 0
-637 238 0
-637 247 0
-638 -4 0
-638 13 0
-638 23 0
-638 31 0
-638 41 0
-638 50 0
-638 58 0
-638 -64 0
-638 -74 0
-638 -82 0
-638 -92 0
-638 -101 0
-638 -109 0
-638 119 0
-638 127 0
-638 137 0
-638 146 0
-638 154 0
-638 166 0
-638 176 0
-638 185 0
-638 193 0
-638 200 0
-638 209 0
-638 217 0
-638 230 0
-638 238 0
-638 247 0
-639 4 0
-639 -13 0
-639 23 0
-639 31 0
-639 41 0
-639 50 0
-639 58 0
-639 -64 0
-639 74 0
-639 82 0
-639 92 0
-639 101 0
-639 109 0
-639 -119 0
-639 -127 0
-639 -137 0
-639 -146 0
-639 -154 0
-639 166 0
-639 176 0
-639 185 0
-639 193 0
-639 200 0
-639 209 0
-639 217 0
-639 230 0
-639 238 0
-639 247 0
-640 4 0
-640 13 0
-640 -23 0
-640 31 0
-640 41 0
-640 50 0
-640 58 0
-640 64 0
-640 -74 0
-640 82 0
-640 92 0
-640 101 0
-640 109 0
-640 -119 0
-640 127 0
-640 137 0
-640 146 0
-640 154 0
-640 -166 0
-640 -176 0
-640 -185 0
-640 -193 0
-640 200 0
-640 209 0
-640 217 0
-640 230 0
-640 238 0
-640 247 0
-641 4 0
-641 13 0
-641 23 0
-641 -31 0
-641 41 0
-641 50 0
-641 58 0
-641 64 0
-641 74 0
-641 -82 0
-641 92 0
-641 101 0
-641 109 0
-641 119 0
-641 -127 0
-641 137 0
-641 146 0
-641 154 0
-641 -166 0
-641 176 0
-641 185 0
-641 193 0
-641 -200 0
-641 -209 0
-641 -217 0
-641 230 0
-641 238 0
-641 247 0
-642 4 0
-642 13 0
-642 23 0
-642 31 0
-642 -41 0
-642 50 0
-642 58 0
-642 64 0
-642 74 0
-642 82 0
-642 -92 0
-642 101 0
-642 109 0
-642 119 0
-642 127 0
-642 -137 0
-642 146 0
-642 154 0
-642 166 0
-642 -176 0
-642 185 0
-642 193 0
-642 -200 0
-642 209 0
-642 217 0
-642 -230 0
-642 -238 0
-642 247 0
-643 4 0
-643 13 0
-643 23 0
-643 31 0
-643 41 0
-643 -50 0
-643 58 0
-643 64 0
-643 74 0
-643 82 0
-643 92 0
-643 -101 0
-643 109 0
-643 119 0
-643 127 0
-643 137 0
-643 -146 0
-643 154 0
-643 166 0
-643 176 0
-643 -185 0
-643 193 0
-643 200 0
-643 -209 0
-643 217 0
-643 -230 0
-643 238 0
-643 -247 0
-644 4 0
-644 13 0
-644 23 0
-644 31 0
-644 41 0
-644 50 0
-644 -58 0
-644 64 0
-644 74 0
-644 82 0
-644 92 0
-644 101 0
-644 -109 0
-644 119 0
-644 127 0
-644 137 0
-644 146 0
-644 -154 0
-644 166 0
-644 176 0
-644 185 0
-644 -193 0
-644 200 0
-644 209 0
-644 -217 0
-644 230 0
-644 -238 0
-644 -247 0
645 646 647 648 649 650 651 652 0
-645 -646 0
-645 -647 0
-645 -648 0
-645 -649 0
-645 -650 0
-645 -651 0
-645 -652 0
-646 -647 0
-646 -648 0
-646 -649 0
-646 -650 0
-646 -651 0
-646 -652 0
-647 -648 0
-647 -649 0
-647 -650 0
-647 -651 0
-647 -652 0
-648 -649 0
-648 -650 0
-648 -651 0
-648 -652 0
-649 -650 0
-649 -651 0
-649 -652 0
-650 -651 0
-650 -652 0
-651 -652 0
-645 -2 0
-645 -11 0
-645 -19 0
-645 -29 0
-645 -37 0
-645 -46 0
-645 -56 0
-645 68 0
-645 76 0
-645 86 0
-645 94 0
-645 103 0
-645 113 0
-645 121 0
-645 131 0
-645 139 0
-645 148 0
-645 158 0
-645 164 0
-645 172 0
-645 181 0
-645 191 0
-645 202 0
-645 211 0
-645 221 0
-645 226 0
-645 236 0
-645 245 0
-646 -2 0
-646 11 0
-646 19 0
-646 29 0
-646 37 0
-646 46 0
-646 56 0
-646 -68 0
-646 -76 0
-646 -86 0
-646 -94 0
-646 -103 0
-646 -113 0
-646 121 0
-646 131 0
-646 139 0
-646 148 0
-646 158 0
-646 164 0
-646 172 0
-646 181 0
-646 191 0
-646 202 0
-646 211 0
-646 221 0
-646 226 0
-646 236 0
-646 245 0
-647 2 0
-647 -11 0
-647 19 0
-647 29 0
-647 37 0
-647 46 0
-647 56 0
-647 -68 0
-647 76 0
-647 86 0
-647 94 0
-647 103 0
-647 113 0
-647 -121 0
-647 -131 0
-647 -139 0
-647 -148 0
-647 -158 0
-647 164 0
-647 172 0
-647 181 0
-647 191 0
-647 202 0
-647 211 0
-647 221 0
-647 226 0
-647 236 0
-647 245 0
-648 2 0
-648 11 0
-648 -19 0
-648 29 0
-648 37 0
-648 46 0
-648 56 0
-648 68 0
-648 -76 0
-648 86 0
-648 94 0
-648 103 0
-648 113 0
-648 -121 0
-648 131 0
-648 139 0
-648 148 0
-648 158 0
-648 -164 0
-648 -172 0
-648 -181 0
-648 -191 0
-648 202 0
-648 211 0
-648 221 0
-648 226 0
-648 236 0
-648 245 0
-649 2 0
-649 11 0
-649 19 0
-649 -29 0
-649 37 0
-649 46 0
-649 56 0
-649 68 0
-649 76 0
-649 -86 0
-649 94 0
-649 103 0
-649 113 0
-649 121 0
-649 -131 0
-649 139 0
-649 148 0
-649 158 0
-649 -164 0
-649 172 0
-649 181 0
-649 191 0
-649 -202 0
-649 -211 0
-649 -221 0
-649 226 0
-649 236 0
-649 245 0
-650 2 0
-650 11 0
-650 19 0
-650 29 0
-650 -37 0
-650 46 0
-650 56 0
-650 68 0
-650 76 0
-650 86 0
-650 -94 0
-650 103 0
-650 113 0
-650 121 0
-650 131 0
-650 -139 0
-650 148 0
-650 158 0
-650 164 0
-650 -172 0
-650 181 0
-650 191 0
-650 -202 0
-650 211 0
-650 221 0
-650 -226 0
-650 -236 0
-650 245 0
-651 2 0
-651 11 0
-651 19 0
-651 29 0
-651 37 0
-651 -46 0
-651 56 0
-651 68 0
-651 76 0
-651 86 0
-651 94 0
-651 -103 0
-651 113 0
-651 121 0
-651 131 0
-651 139 0
-651 -148 0
-651 158 0
-651 164 0
-651 172 0
-651 -181 0
-651 191 0
-651 202 0
-651 -211 0
-651 221 0
-651 -226 0
-651 236 0
-651 -245 0
-652 2 0
-652 11 0
-652 19 0
-652 29 0
-652 37 0
-652 46 0
-652 -56 0
-652 68 0
-652 76 0
-652 86 0
-652 94 0
-652 103 0
-652 -113 0
-652 121 0
-652 131 0
-652 139 0
-652 148 0
-652 -158 0
-652 164 0
-652 172 0
-652 181 0
-652 -191 0
-652 202 0
-652 211 0
-652 -221 0
-652 226 0
-652 -236 0
-652 -245 0
653 654 655 656 657 658 659 660 0
-653 -654 0
-653 -655 0
-653 -656 0
-653 -657 0
-653 -658 0
-653 -659 0
-653 -660 0
-654 -655 0
-654 -656 0
-654 -657 0
-654 -658 0
-654 -659 0
-654 -660 0
-655 -656 0
-655 -657 0
-655 -658 0
-655 -659 0
-655 -660 0
-656 -657 0
-656 -658 0
-656 -659 0
-656 -660 0
-657 -658 0
-657 -659 0
-657 -660 0
-658 -659 0
-658 -660 0
-659 -660 0
-653 -6 0
-653 -15 0
-653 -23 0
-653 -33 0
-653 -41 0
-653 -50 0
-653 -60 0
-653 72 0
-653 80 0
-653 90 0
-653 98 0
-653 107 0
-653 117 0
-653 125 0
-653 135 0
-653 143 0
-653 152 0
-653 162 0
-653 168 0
-653 176 0
-653 185 0
-653 195 0
-653 206 0
-653 215 0
-653 225 0
-653 230 0
-653 240 0
-653 249 0
-654 -6 0
-654 15 0
-654 23 0
-654 33 0
-654 41 0
-654 50 0
-654 60 0
-654 -72 0
-654 -80 0
-654 -90 0
-654 -98 0
-654 -107 0
-654 -117 0
-654 125 0
-654 135 0
-654 143 0
-654 152 0
-654 162 0
-654 168 0
-654 176 0
-654 185 0
-654 195 0
-654 206 0
-654 215 0
-654 225 0
-654 230 0
-654 240 0
-654 249 0
-655 6 0
-655 -15 0
-655 23 0
-655 33 0
-655 41 0
-655 50 0
-655 60 0
-655 -72 0
-655 80 0
-655 90 0
-655 98 0
-655 107 0
-655 117 0
-655 -125 0
-655 -135 0
-655 -143 0
-655 -152 0
-655 -162 0
-655 168 0
-655 176 0
-655 185 0
-655 195 0
-655 206 0
-655 215 0
-655 225 0
-655 230 0
-655 240 0
-655 249 0
-656 6 0
-656 15 0
-656 -23 0
-656 33 0
-656 41 0
-656 50 0
-656 60 0
-656 72 0
-656 -80 0
-656 90 0
-656 98 0
-656 107 0
-656 117 0
-656 -125 0
-656 135 0
-656 143 0
-656 152 0
-656 162 0
-656 -168 0
-656 -176 0
-656 -185 0
-656 -195 0
-656 206 0
-656 215 0
-656 225 0
-656 230 0
-656 240 0
-656 249 0
-657 6 0
-657 15 0
-657 23 0
-657 -33 0
-657 41 0
-657 50 0
-657 60 0
-657 72 0
-657 80 0
-657 -90 0
-657 98 0
-657 107 0
-657 117 0
-657 125 0
-657 -135 0
-657 143 0
-657 152 0
-657 162 0
-657 -168 0
-657 176 0
-657 185 0
-657 195 0
-657 -206 0
-657 -215 0
-657 -225 0
-657 230 0
-657 240 0
-657 249 0
-658 6 0
-658 15 0
-658 23 0
-658 33 0
-658 -41 0
-658 50 0
-658 60 0
-658 72 0
-658 80 0
-658 90 0
-658 -98 0
-658 107 0
-658 117 0
-658 125 0
-658 135 0
-658 -143 0
-658 152 0
-658 162 0
-658 168 0
-658 -176 0
-658 185 0
-658 195 0
-658 -206 0
-658 215 0
-658 225 0
-658 -230 0
-658 -240 0
-658 249 0
-659 6 0
-659 15 0
-659 23 0
-659 33 0
-659 41 0
-659 -50 0
-659 60 0
-659 72 0
-659 80 0
-659 90 0
-659 98 0
-659 -107 0
-659 117 0
-659 125 0
-659 135 0
-659 143 0
-659 -152 0
-659 162 0
-659 168 0
-659 176 0
-659 -185 0
-659 195 0
-659 206 0
-659 -215 0
-659 225 0
-659 -230 0
-659 240 0
-659 -249 0
-660 6 0
-660 15 0
-660 23 0
-660 33 0
-660 41 0
-660 50 0
-660 -60 0
-660 72 0
-660 80 0
-660 90 0
-660 98 0
-660 107 0
-660 -117 0
-660 125 0
-660 135 0
-660 143 0
-660 152 0
-660 -162 0
-660 168 0
-660 176 0
-660 185 0
-660 -195 0
-660 206 0
-660 215 0
-660 -225 0
-660 230 0
-660 -240 0
-660 -249 0
661 662 663 664 665 666 667 668 0
-661 -662 0
-661 -663 0
-661 -664 0
-661 -665 0
-661 -666 0
-661 -667 0
-661 -668 0
-662 -663 0
-662 -664 0
-662 -665 0
-662 -666 0
-662 -667 0
-662 -668 0
-663 -664 0
-663 -665 0
-663 -666 0
-663 -667 0
-663 -668 0
-664 -665 0
-664 -666 0
-664 -667 0
-664 -668 0
-665 -666 0
-665 -667 0
-665 -668 0
-666 -667 0
-666 -668 0
-667 -668 0
-661 -8 0
-661 -17 0
-661 -27 0
-661 -35 0
-661 -45 0
-661 -54 0
-661 -62 0
-661 68 0
-661 78 0
-661 86 0
-661 96 0
-661 105 0
-661 113 0
-661 123 0
-661 131 0
-661 141 0
-661 150 0
-661 158 0
-661 170 0
-661 180 0
-661 189 0
-661 197 0
-661 204 0
-661 213 0
-661 221 0
-661 234 0
-661 242 0
-661 251 0
-662 -8 0
-662 17 0
-662 27 0
-662 35 0
-662 45 0
-662 54 0
-662 62 0
-662 -68 0
-662 -78 0
-662 -86 0
-662 -96 0
-662 -105 0
-662 -113 0
-662 123 0
-662 131 0
-662 141 0
-662 150 0
-662 158 0
-662 170 0
-662 180 0
-662 189 0
-662 197 0
-662 204 0
-662 213 0
-662 221 0
-662 234 0
-662 242 0
-662 251 0
-663 8 0
-663 -17 0
-663 27 0
-663 35 0
-663 45 0
-663 54 0
-663 62 0
-663 -68 0
-663 78 0
-663 86 0
-663 96 0
-663 105 0
-663 113 0
-663 -123 0
-663 -131 0
-663 -141 0
-663 -150 0
-663 -158 0
-663 170 0
-663 180 0
-663 189 0
-663 197 0
-663 204 0
-663 213 0
-663 221 0
-663 234 0
-663 242 0
-663 251 0
-664 8 0
-664 17 0
-664 -27 0
-664 35 0
-664 45 0
-664 54 0
-664 62 0
-664 68 0
-664 -78 0
-664 86 0
-664 96 0
-664 105 0
-664 113 0
-664 -123 0
-664 131 0
-664 141 0
-664 150 0
-664 158 0
-664 -170 0
-664 -180 0
-664 -189 0
-664 -197 0
-664 204 0
-664 213 0
-664 221 0
-664 234 0
-664 242 0
-664 251 0
-665 8 0
-665 17 0
-665 27 0
-665 -35 0
-665 45 0
-665 54 0
-665 62 0
-665 68 0
-665 78 0
-665 -86 0
-665 96 0
-665 105 0
-665 113 0
-665 123 0
-665 -131 0
-665 141 0
-665 150 0
-665 158 0
-665 -170 0
-665 180 0
-665 189 0
-665 197 0
-665 -204 0
-665 -213 0
-665 -221 0
-665 234 0
-665 242 0
-665 251 0
-666 8 0
-666 17 0
-666 27 0
-666 35 0
-666 -45 0
-666 54 0
-666 62 0
-666 68 0
-666 78 0
-666 86 0
-666 -96 0
-666 105 0
-666 113 0
-666 123 0
-666 131 0
-666 -141 0
-666 150 0
-666 158 0
-666 170 0
-666 -180 0
-666 189 0
-666 197 0
-666 -204 0
-666 213 0
-666 221 0
-666 -234 0
-666 -242 0
-666 251 0
-667 8 0
-667 17 0
-667 27 0
-667 35 0
-667 45 0
-667 -54 0
-667 62 0
-667 68 0
-667 78 0
-667 86 0
-667 96 0
-667 -105 0
-667 113 0
-667 123 0
-667 131 0
-667 141 0
-667 -150 0
-667 158 0
-667 170 0
-667 180 0
-667 -189 0
-667 197 0
-667 204 0
-667 -213 0
-667 221 0
-667 -234 0
-667 242 0
-667 -251 0
-668 8 0
-668 17 0
-668 27 0
-668 35 0
-668 45 0
-668 54 0
-668 -62 0
-668 68 0
-668 78 0
-668 86 0
-668 96 0
-668 105 0
-668 -113 0
-668 123 0
-668 131 0
-668 141 0
-668 150 0
-668 -158 0
-668 170 0
-668 180 0
-668 189 0
-668 -197 0
-668 204 0
-668 213 0
-668 -221 0
-668 234 0
-668 -242 0
-668 -251 0
669 670 671 672 673 674 675 676 0
-669 -670 0
-669 -671 0
-669 -672 0
-669 -673 0
-669 -674 0
-669 -675 0
-669 -676 0
-670 -671 0
-670 -672 0
-670 -673 0
-670 -674 0
-670 -675 0
-670 -676 0
-671 -672 0
-671 -673 0
-671 -674 0
-671 -675 0
-671 -676 0
-672 -673 0
-672 -674 0
-672 -675 0
-672 -676 0
-673 -674 0
-673 -675 0
-673 -676 0
-674 -675 0
-674 -676 0
-675 -676 0
-669 -3 0
-669 -12 0
-669 -19 0
-669 -30 0
-669 -37 0
-669 -46 0
-669 -57 0
-669 72 0
-669 79 0
-669 90 0
-669 97 0
-669 106 0
-669 117 0
-669 124 0
-669 135 0
-669 142 0
-669 151 0
-669 162 0
-669 165 0
-669 172 0
-669 181 0
-669 192 0
-669 205 0
-669 214 0
-669 225 0
-669 226 0
-669 237 0
-669 246 0
-670 -3 0
-670 12 0
-670 19 0
-670 30 0
-670 37 0
-670 46 0
-670 57 0
-670 -72 0
-670 -79 0
-670 -90 0
-670 -97 0
-670 -106 0
-670 -117 0
-670 124 0
-670 135 0
-670 142 0
-670 151 0
-670 162 0
-670 165 0
-670 172 0
-670 181 0
-670 192 0
-670 205 0
-670 214 0
-670 225 0
-670 226 0
-670 237 0
-670 246 0
-671 3 0
-671 -12 0
-671 19 0
-671 30 0
-671 37 0
-671 46 0
-671 57 0
-671 -72 0
-671 79 0
-671 90 0
-671 97 0
-671 106 0
-671 117 0
-671 -124 0
-671 -135 0
-671 -142 0
-671 -151 0
-671 -162 0
-671 165 0
-671 172 0
-671 181 0
-671 192 0
-671 205 0
-671 214 0
-671 225 0
-671 226 0
-671 237 0
-671 246 0
-672 3 0
-672 12 0
-672 -19 0
-672 30 0
-672 37 0
-672 46 0
-672 57 0
-672 72 0
-672 -79 0
-672 90 0
-672 97 0
-672 106 0
-672 117 0
-672 -124 0
-672 135 0
-672 142 0
-672 151 0
-672 162 0
-672 -165 0
-672 -172 0
-672 -181 0
-672 -192 0
-672 205 0
-672 214 0
-672 225 0
-672 226 0
-672 237 0
-672 246 0
-673 3 0
-673 12 0
-673 19 0
-673 -30 0
-673 37 0
-673 46 0
-673 57 0
-673 72 0
-673 79 0
-673 -90 0
-673 97 0
-673 106 0
-673 117 0
-673 124 0
-673 -135 0
-673 142 0
-673 151 0
-673 162 0
-673 -165 0
-673 172 0
-673 181 0
-673 192 0
-673 -205 0
-673 -214 0
-673 -225 0
-673 226 0
-673 237 0
-673 246 0
-674 3 0
-674 12 0
-674 19 0
-674 30 0
-674 -37 0
-674 46 0
-674 57 0
-674 72 0
-674 79 0
-674 90 0
-674 -97 0
-674 106 0
-674 117 0
-674 124 0
-674 135 0
-674 -142 0
-674 151 0
-674 162 0
-674 165 0
-674 -172 0
-674 181 0
-674 192 0
-674 -205 0
-674 214 0
-674 225 0
-674 -226 0
-674 -237 0
-674 246 0
-675 3 0
-675 12 0
-675 19 0
-675 30 0
-675 37 0
-675 -46 0
-675 57 0
-675 72 0
-675 79 0
-675 90 0
-675 97 0
-675 -106 0
-675 117 0
-675 124 0
-675 135 0
-675 142 0
-675 -151 0
-675 162 0
-675 165 0
-675 172 0
-675 -181 0
-675 192 0
-675 205 0
-675 -214 0
-675 225 0
-675 -226 0
-675 237 0
-675 -246 0
-676 3 0
-676 12 0
-676 19 0
-676 30 0
-676 37 0
-676 46 0
-676 -57 0
-676 72 0
-676 79 0
-676 90 0
-676 97 0
-676 106 0
-676 -117 0
-676 124 0
-676 135 0
-676 142 0
-676 151 0
-676 -162 0
-676 165 0
-676 172 0
-676 181 0
-676 -192 0
-676 205 0
-676 214 0
-676 -225 0
-676 226 0
-676 -237 0
-676 -246 0
677 678 679 680 681 682 683 684 0
-677 -678 0
-677 -679 0
-677 -680 0
-677 -681 0
-677 -682 0
-677 -683 0
-677 -684 0
-678 -679 0
-678 -680 0
-678 -681 0
-678 -682 0
-678 -683 0
-678 -684 0
-679 -680 0
-679 -681 0
-679 -682 0
-679 -683 0
-679 -684 0
-680 -681 0
-680 -682 0
-680 -683 0
-680 -684 0
-681 -682 0
-681 -683 0
-681 -684 0
-682 -683 0
-682 -684 0
-683 -684 0
-677 -7 0
-677 -16 0
-677 -27 0
-677 -34 0
-677 -45 0
-677 -54 0
-677 -61 0
-677 64 0
-677 75 0
-677 82 0
-677 93 0
-677 102 0
-677 109 0
-677 120 0
-677 127 0
-677 138 0
-677 147 0
-677 154 0
-677 169 0
-677 180 0
-677 189 0
-677 196 0
-677 201 0
-677 210 0
-677 217 0
-677 234 0
-677 241 0
-677 250 0
-678 -7 0
-678 16 0
-678 27 0
-678 34 0
-678 45 0
-678 54 0
-678 61 0
-678 -64 0
-678 -75 0
-678 -82 0
-678 -93 0
-678 -102 0
-678 -109 0
-678 120 0
-678 127 0
-678 138 0
-678 147 0
-678 154 0
-678 169 0
-678 180 0
-678 189 0
-678 196 0
-678 201 0
-678 210 0
-678 217 0
-678 234 0
-678 241 0
-678 250 0
-679 7 0
-679 -16 0
-679 27 0
-679 34 0
-679 45 0
-679 54 0
-679 61 0
-679 -64 0
-679 75 0
-679 82 0
-679 93 0
-679 102 0
-679 109 0
-679 -120 0
-679 -127 0
-679 -138 0
-679 -147 0
-679 -154 0
-679 169 0
-679 180 0
-679 189 0
-679 196 0
-679 201 0
-679 210 0
-679 217 0
-679 234 0
-679 241 0
-679 250 0
-680 7 0
-680 16 0
-680 -27 0
-680 34 0
-680 45 0
-680 54 0
-680 61 0
-680 64 0
-680 -75 0
-680 82 0
-680 93 0
-680 102 0
-680 109 0
-680 -120 0
-680 127 0
-680 138 0
-680 147 0
-680 154 0
-680 -169 0
-680 -180 0
-680 -189 0
-680 -196 0
-680 201 0
-680 210 0
-680 217 0
-680 234 0
-680 241 0
-680 250 0
-681 7 0
-681 16 0
-681 27 0
-681 -34 0
-681 45 0
-681 54 0
-681 61 0
-681 64 0
-681 75 0
-681 -82 0
-681 93 0
-681 102 0
-681 109 0
-681 120 0
-681 -127 0
-681 138 0
-681 147 0
-681 154 0
-681 -169 0
-681 180 0
-681 189 0
-681 196 0
-681 -201 0
-681 -210 0
-681 -217 0
-681 234 0
-681 241 0
-681 250 0
-682 7 0
-682 16 0
-682 27 0
-682 34 0
-682 -45 0
-682 54 0
-682 61 0
-682 64 0
-682 75 0
-682 82 0
-682 -93 0
-682 102 0
-682 109 0
-682 120 0
-682 127 0
-682 -138 0
-682 147 0
-682 154 0
-682 169 0
-682 -180 0
-682 189 0
-682 196 0
-682 -201 0
-682 210 0
-682 217 0
-682 -234 0
-682 -241 0
-682 250 0
-683 7 0
-683 16 0
-683 27 0
-683 34 0
-683 45 0
-683 -54 0
-683 61 0
-683 64 0
-683 75 0
-683 82 0
-683 93 0
-683 -102 0
-683 109 0
-683 120 0
-683 127 0
-683 138 0
-683 -147 0
-683 154 0
-683 169 0
-683 180 0
-683 -189 0
-683 196 0
-683 201 0
-683 -210 0
-683 217 0
-683 -234 0
-683 241 0
-683 -250 0
-684 7 0
-684 16 0
-684 27 0
-684 34 0
-684 45 0
-684 54 0
-684 -61 0
-684 64 0
-684 75 0
-684 82 0
-684 93 0
-684 102 0
-684 -109 0
-684 120 0
-684 127 0
-684 138 0
-684 147 0
-684 -154 0
-684 169 0
-684 180 0
-684 189 0
-684 -196 0
-684 201 0
-684 210 0
-684 -217 0
-684 234 0
-684 -241 0
-684 -250 0
9 685 0
-685 686 0
16 -685 687 0
-687 688 0
25 -687 689 0
-689 690 0
36 -689 691 0
-691 692 0
45 -691 693 0
-693 694 0
52 -693 695 0
-695 696 0
61 -695 697 0
-697 698 0
70 -697 699 0
-699 700 0
79 -699 701 0
-701 702 0
90 -701 703 0
-703 704 0
99 -703 705 0
-705 706 0
106 -705 0
16 686 0
-686 707 0
25 -686 688 0
-688 708 0
36 -688 690 0
-690 709 0
45 -690 692 0
-692 710 0
52 -692 694 0
-694 711 0
61 -694 696 0
-696 712 0
70 -696 698 0
-698 713 0
79 -698 700 0
-700 714 0
90 -700 702 0
-702 715 0
99 -702 704 0
-704 716 0
106 -704 706 0
-706 717 0
115 -706 0
25 707 0
-707 718 0
36 -707 708 0
-708 719 0
45 -708 709 0
-709 720 0
52 -709 710 0
-710 721 0
61 -710 711 0
-711 722 0
70 -711 712 0
-712 723 0
79 -712 713 0
-713 724 0
90 -713 714 0
-714 725 0
99 -714 715 0
-715 726 0
106 -715 716 0
-716 727 0
115 -716 717 0
-717 728 0
118 -717 0
36 718 0
-718 729 0
45 -718 719 0
-719 730 0
52 -719 720 0
-720 731 0
61 -720 721 0
-721 732 0
70 -721 722 0
-722 733 0
79 -722 723 0
-723 734 0
90 -723 724 0
-724 735 0
99 -724 725 0
-725 736 0
106 -725 726 0
-726 737 0
115 -726 727 0
-727 738 0
118 -727 728 0
-728 739 0
129 -728 0
45 729 0
-729 740 0
52 -729 730 0
-730 741 0
61 -730 731 0
-731 742 0
70 -731 732 0
-732 743 0
79 -732 733 0
-733 744 0
90 -733 734 0
-734 745 0
99 -734 735 0
-735 746 0
106 -735 736 0
-736 747 0
115 -736 737 0
-737 748 0
118 -737 738 0
-738 749 0
129 -738 739 0
-739 750 0
138 -739 0
52 740 0
-740 751 0
61 -740 741 0
-741 752 0
70 -741 742 0
-742 753 0
79 -742 743 0
-743 754 0
90 -743 744 0
-744 755 0
99 -744 745 0
-745 756 0
106 -745 746 0
-746 757 0
115 -746 747 0
-747 758 0
118 -747 748 0
-748 759 0
129 -748 749 0
-749 760 0
138 -749 750 0
-750 761 0
145 -750 0
61 751 0
-751 762 0
70 -751 752 0
-752 763 0
79 -752 753 0
-753 764 0
90 -753 754 0
-754 765 0
99 -754 755 0
-755 766 0
106 -755 756 0
-756 767 0
115 -756 757 0
-757 768 0
118 -757 758 0
-758 769 0
129 -758 759 0
-759 770 0
138 -759 760 0
-760 771 0
145 -760 761 0
-761 772 0
154 -761 0
70 762 0
-762 773 0
79 -762 763 0
-763 774 0
90 -763 764 0
-764 775 0
99 -764 765 0
-765 776 0
106 -765 766 0
-766 777 0
115 -766 767 0
-767 778 0
118 -767 768 0
-768 779 0
129 -768 769 0
-769 780 0
138 -769 770 0
-770 781 0
145 -770 771 0
-771 782 0
154 -771 772 0
-772 783 0
165 -772 0
79 773 0
-773 784 0
90 -773 774 0
-774 785 0
99 -774 775 0
-775 786 0
106 -775 776 0
-776 787 0
115 -776 777 0
-777 788 0
118 -777 778 0
-778 789 0
129 -778 779 0
-779 790 0
138 -779 780 0
-780 791 0
145 -780 781 0
-781 792 0
154 -781 782 0
-782 793 0
165 -782 783 0
-783 794 0
174 -783 0
90 784 0
-784 795 0
99 -784 785 0
-785 796 0
106 -785 786 0
-786 797 0
115 -786 787 0
-787 798 0
118 -787 788 0
-788 799 0
129 -788 789 0
-789 800 0
138 -789 790 0
-790 801 0
145 -790 791 0
-791 802 0
154 -791 792 0
-792 803 0
165 -792 793 0
-793 804 0
174 -793 794 0
-794 805 0
181 -794 0
99 795 0
-795 806 0
106 -795 796 0
-796 807 0
115 -796 797 0
-797 808 0
118 -797 798 0
-798 809 0
129 -798 799 0
-799 810 0
138 -799 800 0
-800 811 0
145 -800 801 0
-801 812 0
154 -801 802 0
-802 813 0
165 -802 803 0
-803 814 0
174 -803 804 0
-804 815 0
181 -804 805 0
-805 816 0
190 -805 0
106 806 0
-806 817 0
115 -806 807 0
-807 818 0
118 -807 808 0
-808 819 0
129 -808 809 0
-809 820 0
138 -809 810 0
-810 821 0
145 -810 811 0
-811 822 0
154 -811 812 0
-812 823 0
165 -812 813 0
-813 824 0
174 -813 814 0
-814 825 0
181 -814 815 0
-815 826 0
190 -815 816 0
-816 827 0
207 -816 0
115 817 0
-817 828 0
118 -817 818 0
-818 829 0
129 -818 819 0
-819 830 0
138 -819 820 0
-820 831 0
145 -820 821 0
-821 832 0
154 -821 822 0
-822 833 0
165 -822 823 0
-823 834 0
174 -823 824 0
-824 835 0
181 -824 825 0
-825 836 0
190 -825 826 0
-826 837 0
207 -826 827 0
-827 838 0
214 -827 0
118 828 0
-828 839 0
129 -828 829 0
-829 840 0
138 -829 830 0
-830 841 0
145 -830 831 0
-831 842 0
154 -831 832 0
-832 843 0
165 -832 833 0
-833 844 0
174 -833 834 0
-834 845 0
181 -834 835 0
-835 846 0
190 -835 836 0
-836 847 0
207 -836 837 0
-837 848 0
214 -837 838 0
-838 849 0
223 -838 0
129 839 0
-839 850 0
138 -839 840 0
-840 851 0
145 -840 841 0
-841 852 0
154 -841 842 0
-842 853 0
165 -842 843 0
-843 854 0
174 -843 844 0
-844 855 0
181 -844 845 0
-845 856 0
190 -845 846 0
-846 857 0
207 -846 847 0
-847 858 0
214 -847 848 0
-848 859 0
223 -848 849 0
-849 860 0
232 -849 0
138 850 0
-850 861 0
145 -850 851 0
-851 862 0
154 -851 852 0
-852 863 0
165 -852 853 0
-853 864 0
174 -853 854 0
-854 865 0
181 -854 855 0
-855 866 0
190 -855 856 0
-856 867 0
207 -856 857 0
-857 868 0
214 -857 858 0
-858 869 0
223 -858 859 0
-859 870 0
232 -859 860 0
-860 871 0
241 -860 0
145 861 0
154 -861 862 0
165 -862 863 0
174 -863 864 0
181 -864 865 0
190 -865 866 0
207 -866 867 0
214 -867 868 0
223 -868 869 0
232 -869 870 0
241 -870 871 0
244 -871 0
-9 872 0
-872 873 0
-16 -872 874 0
-874 875 0
-25 -874 876 0
-876 877 0
-36 -876 878 0
-878 879 0
-45 -878 880 0
-880 881 0
-52 -880 882 0
-882 883 0
-61 -882 884 0
-884 885 0
-70 -884 886 0
-886 887 0
-79 -886 888 0
-888 889 0
-90 -888 890 0
-890 891 0
-99 -890 892 0
-892 893 0
-106 -892 894 0
-894 895 0
-115 -894 896 0
-896 897 0
-118 -896 898 0
-898 899 0
-129 -898 900 0
-900 901 0
-138 -900 902 0
-902 903 0
-145 -902 904 0
-904 905 0
-154 -904 0
-16 873 0
-873 906 0
-25 -873 875 0
-875 907 0
-36 -875 877 0
-877 908 0
-45 -877 879 0
-879 909 0
-52 -879 881 0
-881 910 0
-61 -881 883 0
-883 911 0
-70 -883 885 0
-885 912 0
-79 -885 887 0
-887 913 0
-90 -887 889 0
-889 914 0
-99 -889 891 0
-891 915 0
-106 -891 893 0
-893 916 0
-115 -893 895 0
-895 917 0
-118 -895 897 0
-897 918 0
-129 -897 899 0
-899 919 0
-138 -899 901 0
-901 920 0
-145 -901 903 0
-903 921 0
-154 -903 905 0
-905 922 0
-165 -905 0
-25 906 0
-906 923 0
-36 -906 907 0
-907 924 0
-45 -907 908 0
-908 925 0
-52 -908 909 0
-909 926 0
-61 -909 910 0
-910 927 0
-70 -910 911 0
-911 928 0
-79 -911 912 0
-912 929 0
-90 -912 913 0
-913 930 0
-99 -913 914 0
-914 931 0
-106 -914 915 0
-915 932 0
-115 -915 916 0
-916 933 0
-118 -916 917 0
-917 934 0
-129 -917 918 0
-918 935 0
-138 -918 919 0
-919 936 0
-145 -919 920 0
-920 937 0
-154 -920 921 0
-921 938 0
-165 -921 922 0
-922 939 0
-174 -922 0
-36 923 0
-923 940 0
-45 -923 924 0
-924 941 0
-52 -924 925 0
-925 942 0
-61 -925 926 0
-926 943 0
-70 -926 927 0
-927 944 0
-79 -927 928 0
-928 945 0
-90 -928 929 0
-929 946 0
-99 -929 930 0
-930 947 0
-106 -930 931 0
-931 948 0
-115 -931 932 0
-932 949 0
-118 -932 933 0
-933 950 0
-129 -933 934 0
-934 951 0
-138 -934 935 0
-935 952 0
-145 -935 936 0
-936 953 0
-154 -936 937 0
-937 954 0
-165 -937 938 0
-938 955 0
-174 -938 939 0
-939 956 0
-181 -939 0
-45 940 0
-940 957 0
-52 -940 941 0
-941 958 0
-61 -941 942 0
-942 959 0
-70 -942 943 0
-943 960 0
-79 -943 944 0
-944 961 0
-90 -944 945 0
-945 962 0
-99 -945 946 0
-946 963 0
-106 -946 947 0
-947 964 0
-115 -947 948 0
-948 965 0
-118 -948 949 0
-949 966 0
-129 -949 950 0
-950 967 0
-138 -950 951 0
-951 968 0
-145 -951 952 0
-952 969 0
-154 -952 953 0
-953 970 0
-165 -953 954 0
-954 971 0
-174 -954 955 0
-955 972 0
-181 -955 956 0
-956 973 0
-190 -956 0
-52 957 0
-957 974 0
-61 -957 958 0
-958 975 0
-70 -958 959 0
-959 976 0
-79 -959 960 0
-960 977 0
-90 -960 961 0
-961 978 0
-99 -961 962 0
-962 979 0
-106 -962 963 0
-963 980 0
-115 -963 964 0
-964 981 0
-118 -964 965 0
-965 982 0
-129 -965 966 0
-966 983 0
-138 -966 967 0
-967 984 0
-145 -967 968 0
-968 985 0
-154 -968 969 0
-969 986 0
-165 -969 970 0
-970 987 0
-174 -970 971 0
-971 988 0
-181 -971 972 0
-972 989 0
-190 -972 973 0
-973 990 0
-207 -973 0
-61 974 0
-974 991 0
-70 -974 975 0
-975 992 0
-79 -975 976 0
-976 993 0
-90 -976 977 0
-977 994 0
-99 -977 978 0
-978 995 0
-106 -978 979 0
-979 996 0
-115 -979 980 0
-980 997 0
-118 -980 981 0
-981 998 0
-129 -981 982 0
-982 999 0
-138 -982 983 0
-983 1000 0
-145 -983 984 0
-984 1001 0
-154 -984 985 0
-985 1002 0
-165 -985 986 0
-986 1003 0
-174 -986 987 0
-987 1004 0
-181 -987 988 0
-988 1005 0
-190 -988 989 0
-989 1006 0
-207 -989 990 0
-990 1007 0
-214 -990 0
-70 991 0
-991 1008 0
-79 -991 992 0
-992 1009 0
-90 -992 993 0
-993 1010 0
-99 -993 994 0
-994 1011 0
-106 -994 995 0
-995 1012 0
-115 -995 996 0
-996 1013 0
-118 -996 997 0
-997 1014 0
-129 -997 998 0
-998 1015 0
-138 -998 999 0
-999 1016 0
-145 -999 1000 0
-1000 1017 0
-154 -1000 1001 0
-1001 1018 0
-165 -1001 1002 0
-1002 1019 0
-174 -1002 1003 0
-1003 1020 0
-181 -1003 1004 0
-1004 1021 0
-190 -1004 1005 0
-1005 1022 0
-207 -1005 1006 0
-1006 1023 0
-214 -1006 1007 0
-1007 1024 0
-223 -1007 0
-79 1008 0
-1008 1025 0
-90 -1008 1009 0
-1009 1026 0
-99 -1009 1010 0
-1010 1027 0
-106 -1010 1011 0
-1011 1028 0
-115 -1011 1012 0
-1012 1029 0
-118 -1012 1013 0
-1013 1030 0
-129 -1013 1014 0
-1014 1031 0
-138 -1014 1015 0
-1015 1032 0
-145 -1015 1016 0
-1016 1033 0
-154 -1016 1017 0
-1017 1034 0
-165 -1017 1018 0
-1018 1035 0
-174 -1018 1019 0
-1019 1036 0
-181 -1019 1020 0
-1020 1037 0
-190 -1020 1021 0
-1021 1038 0
-207 -1021 1022 0
-1022 1039 0
-214 -1022 1023 0
-1023 1040 0
-223 -1023 1024 0
-1024 1041 0
-232 -1024 0
-90 1025 0
-1025 1042 0
-99 -1025 1026 0
-1026 1043 0
-106 -1026 1027 0
-1027 1044 0
-115 -1027 1028 0
-1028 1045 0
-118 -1028 1029 0
-1029 1046 0
-129 -1029 1030 0
-1030 1047 0
-138 -1030 1031 0
-1031 1048 0
-145 -1031 1032 0
-1032 1049 0
-154 -1032 1033 0
-1033 1050 0
-165 -1033 1034 0
-1034 1051 0
-174 -1034 1035 0
-1035 1052 0
-181 -1035 1036 0
-1036 1053 0
-190 -1036 1037 0
-1037 1054 0
-207 -1037 1038 0
-1038 1055 0
-214 -1038 1039 0
-1039 1056 0
-223 -1039 1040 0
-1040 1057 0
-232 -1040 1041 0
-1041 1058 0
-241 -1041 0
-99 1042 0
-106 -1042 1043 0
-115 -1043 1044 0
-118 -1044 1045 0
-129 -1045 1046 0
-138 -1046 1047 0
-145 -1047 1048 0
-154 -1048 1049 0
-165 -1049 1050 0
-174 -1050 1051 0
-181 -1051 1052 0
-190 -1052 1053 0
-207 -1053 1054 0
-214 -1054 1055 0
-223 -1055 1056 0
-232 -1056 1057 0
-241 -1057 1058 0
-244 -1058 0
-1059 9 0
-1059 118 0
-1059 207 0
-1059 244 0
-9 -118 -207 -244 1059 0
-1060 9 0
-1060 118 0
-1060 214 0
-1060 241 0
-9 -118 -214 -241 1060 0
-1061 9 0
-1061 118 0
-1061 223 0
-1061 232 0
-9 -118 -223 -232 1061 0
-1062 9 0
-1062 129 0
-1062 174 0
-1062 244 0
-9 -129 -174 -244 1062 0
-1063 9 0
-1063 129 0
-1063 181 0
-1063 241 0
-9 -129 -181 -241 1063 0
-1064 9 0
-1064 129 0
-1064 190 0
-1064 232 0
-9 -129 -190 -232 1064 0
-1065 9 0
-1065 138 0
-1065 165 0
-1065 244 0
-9 -138 -165 -244 1065 0
-1066 9 0
-1066 138 0
-1066 181 0
-1066 223 0
-9 -138 -181 -223 1066 0
-1067 9 0
-1067 138 0
-1067 190 0
-1067 214 0
-9 -138 -190 -214 1067 0
-1068 9 0
-1068 145 0
-1068 165 0
-1068 241 0
-9 -145 -165 -241 1068 0
-1069 9 0
-1069 145 0
-1069 174 0
-1069 223 0
-9 -145 -174 -223 1069 0
-1070 9 0
-1070 145 0
-1070 190 0
-1070 207 0
-9 -145 -190 -207 1070 0
-1071 9 0
-1071 154 0
-1071 165 0
-1071 232 0
-9 -154 -165 -232 1071 0
-1072 9 0
-1072 154 0
-1072 174 0
-1072 214 0
-9 -154 -174 -214 1072 0
-1073 9 0
-1073 154 0
-1073 181 0
-1073 207 0
-9 -154 -181 -207 1073 0
-1074 16 0
-1074 79 0
-1074 207 0
-1074 244 0
-16 -79 -207 -244 1074 0
-1075 16 0
-1075 79 0
-1075 214 0
-1075 241 0
-16 -79 -214 -241 1075 0
-1076 16 0
-1076 79 0
-1076 223 0
-1076 232 0
-16 -79 -223 -232 1076 0
-1077 16 0
-1077 90 0
-1077 174 0
-1077 244 0
-16 -90 -174 -244 1077 0
-1078 16 0
-1078 90 0
-1078 181 0
-1078 241 0
-16 -90 -181 -241 1078 0
-1079 16 0
-1079 90 0
-1079 190 0
-1079 232 0
-16 -90 -190 -232 1079 0
-1080 16 0
-1080 99 0
-1080 165 0
-1080 244 0
-16 -99 -165 -244 1080 0
-1081 16 0
-1081 99 0
-1081 181 0
-1081 223 0
-16 -99 -181 -223 1081 0
-1082 16 0
-1082 99 0
-1082 190 0
-1082 214 0
-16 -99 -190 -214 1082 0
-1083 16 0
-1083 106 0
-1083 165 0
-1083 241 0
-16 -106 -165 -241 1083 0
-1084 16 0
-1084 106 0
-1084 174 0
-1084 223 0
-16 -106 -174 -223 1084 0
-1085 16 0
-1085 106 0
-1085 190 0
-1085 207 0
-16 -106 -190 -207 1085 0
-1086 16 0
-1086 115 0
-1086 165 0
-1086 232 0
-16 -115 -165 -232 1086 0
-1087 16 0
-1087 115 0
-1087 174 0
-1087 214 0
-16 -115 -174 -214 1087 0
-1088 16 0
-1088 115 0
-1088 181 0
-1088 207 0
-16 -115 -181 -207 1088 0
-1089 25 0
-1089 70 0
-1089 207 0
-1089 244 0
-25 -70 -207 -244 1089 0
-1090 25 0
-1090 70 0
-1090 214 0
-1090 241 0
-25 -70 -214 -241 1090 0
-1091 25 0
-1091 70 0
-1091 223 0
-1091 232 0
-25 -70 -223 -232 1091 0
-1092 25 0
-1092 90 0
-1092 138 0
-1092 244 0
-25 -90 -138 -244 1092 0
-1093 25 0
-1093 90 0
-1093 145 0
-1093 241 0
-25 -90 -145 -241 1093 0
-1094 25 0
-1094 90 0
-1094 154 0
-1094 232 0
-25 -90 -154 -232 1094 0
-1095 25 0
-1095 99 0
-1095 129 0
-1095 244 0
-25 -99 -129 -244 1095 0
-1096 25 0
-1096 99 0
-1096 145 0
-1096 223 0
-25 -99 -145 -223 1096 0
-1097 25 0
-1097 99 0
-1097 154 0
-1097 214 0
-25 -99 -154 -214 1097 0
-1098 25 0
-1098 106 0
-1098 129 0
-1098 241 0
-25 -106 -129 -241 1098 0
-1099 25 0
-1099 106 0
-1099 138 0
-1099 223 0
-25 -106 -138 -223 1099 0
-1100 25 0
-1100 106 0
-1100 154 0
-1100 207 0
-25 -106 -154 -207 1100 0
-1101 25 0
-1101 115 0
-1101 129 0
-1101 232 0
-25 -115 -129 -232 1101 0
-1102 25 0
-1102 115 0
-1102 138 0
-1102 214 0
-25 -115 -138 -214 1102 0
-1103 25 0
-1103 115 0
-1103 145 0
-1103 207 0
-25 -115 -145 -207 1103 0
-1104 36 0
-1104 70 0
-1104 174 0
-1104 244 0
-36 -70 -174 -244 1104 0
-1105 36 0
-1105 70 0
-1105 181 0
-1105 241 0
-36 -70 -181 -241 1105 0
-1106 36 0
-1106 70 0
-1106 190 0
-1106 232 0
-36 -70 -190 -232 1106 0
-1107 36 0
-1107 79 0
-1107 138 0
-1107 244 0
-36 -79 -138 -244 1107 0
-1108 36 0
-1108 79 0
-1108 145 0
-1108 241 0
-36 -79 -145 -241 1108 0
-1109 36 0
-1109 79 0
-1109 154 0
-1109 232 0
-36 -79 -154 -232 1109 0
-1110 36 0
-1110 99 0
-1110 118 0
-1110 244 0
-36 -99 -118 -244 1110 0
-1111 36 0
-1111 99 0
-1111 145 0
-1111 190 0
-36 -99 -145 -190 1111 0
-1112 36 0
-1112 99 0
-1112 154 0
-1112 181 0
-36 -99 -154 -181 1112 0
-1113 36 0
-1113 106 0
-1113 118 0
-1113 241 0
-36 -106 -118 -241 1113 0
-1114 36 0
-1114 106 0
-1114 138 0
-1114 190 0
-36 -106 -138 -190 1114 0
-1115 36 0
-1115 106 0
-1115 154 0
-1115 174 0
-36 -106 -154 -174 1115 0
-1116 36 0
-1116 115 0
-1116 118 0
-1116 232 0
-36 -115 -118 -232 1116 0
-1117 36 0
-1117 115 0
-1117 138 0
-1117 181 0
-36 -115 -138 -181 1117 0
-1118 36 0
-1118 115 0
-1118 145 0
-1118 174 0
-36 -115 -145 -174 1118 0
-1119 45 0
-1119 70 0
-1119 165 0
-1119 244 0
-45 -70 -165 -244 1119 0
-1120 45 0
-1120 70 0
-1120 181 0
-1120 223 0
-45 -70 -181 -223 1120 0
-1121 45 0
-1121 70 0
-1121 190 0
-1121 214 0
-45 -70 -190 -214 1121 0
-1122 45 0
-1122 79 0
-1122 129 0
-1122 244 0
-45 -79 -129 -244 1122 0
-1123 45 0
-1123 79 0
-1123 145 0
-1123 223 0
-45 -79 -145 -223 1123 0
-1124 45 0
-1124 79 0
-1124 154 0
-1124 214 0
-45 -79 -154 -214 1124 0
-1125 45 0
-1125 90 0
-1125 118 0
-1125 244 0
-45 -90 -118 -244 1125 0
-1126 45 0
-1126 90 0
-1126 145 0
-1126 190 0
-45 -90 -145 -190 1126 0
-1127 45 0
-1127 90 0
-1127 154 0
-1127 181 0
-45 -90 -154 -181 1127 0
-1128 45 0
-1128 106 0
-1128 118 0
-1128 223 0
-45 -106 -118 -223 1128 0
-1129 45 0
-1129 106 0
-1129 129 0
-1129 190 0
-45 -106 -129 -190 1129 0
-1130 45 0
-1130 106 0
-1130 154 0
-1130 165 0
-45 -106 -154 -165 1130 0
-1131 45 0
-1131 115 0
-1131 118 0
-1131 214 0
-45 -115 -118 -214 1131 0
-1132 45 0
-1132 115 0
-1132 129 0
-1132 181 0
-45 -115 -129 -181 1132 0
-1133 45 0
-1133 115 0
-1133 145 0
-1133 165 0
-45 -115 -145 -165 1133 0
-1134 52 0
-1134 70 0
-1134 165 0
-1134 241 0
-52 -70 -165 -241 1134 0
-1135 52 0
-1135 70 0
-1135 174 0
-1135 223 0
-52 -70 -174 -223 1135 0
-1136 52 0
-1136 70 0
-1136 190 0
-1136 207 0
-52 -70 -190 -207 1136 0
-1137 52 0
-1137 79 0
-1137 129 0
-1137 241 0
-52 -79 -129 -241 1137 0
-1138 52 0
-1138 79 0
-1138 138 0
-1138 223 0
-52 -79 -138 -223 1138 0
-1139 52 0
-1139 79 0
-1139 154 0
-1139 207 0
-52 -79 -154 -207 1139 0
-1140 52 0
-1140 90 0
-1140 118 0
-1140 241 0
-52 -90 -118 -241 1140 0
-1141 52 0
-1141 90 0
-1141 138 0
-1141 190 0
-52 -90 -138 -190 1141 0
-1142 52 0
-1142 90 0
-1142 154 0
-1142 174 0
-52 -90 -154 -174 1142 0
-1143 52 0
-1143 99 0
-1143 118 0
-1143 223 0
-52 -99 -118 -223 1143 0
-1144 52 0
-1144 99 0
-1144 129 0
-1144 190 0
-52 -99 -129 -190 1144 0
-1145 52 0
-1145 99 0
-1145 154 0
-1145 165 0
-52 -99 -154 -165 1145 0
-1146 52 0
-1146 115 0
-1146 118 0
-1146 207 0
-52 -115 -118 -207 1146 0
-1147 52 0
-1147 115 0
-1147 129 0
-1147 174 0
-52 -115 -129 -174 1147 0
-1148 52 0
-1148 115 0
-1148 138 0
-1148 165 0
-52 -115 -138 -165 1148 0
-1149 61 0
-1149 70 0
-1149 165 0
-1149 232 0
-61 -70 -165 -232 1149 0
-1150 61 0
-1150 70 0
-1150 174 0
-1150 214 0
-61 -70 -174 -214 1150 0
-1151 61 0
-1151 70 0
-1151 181 0
-1151 207 0
-61 -70 -181 -207 1151 0
-1152 61 0
-1152 79 0
-1152 129 0
-1152 232 0
-61 -79 -129 -232 1152 0
-1153 61 0
-1153 79 0
-1153 138 0
-1153 214 0
-61 -79 -138 -214 1153 0
-1154 61 0
-1154 79 0
-1154 145 0
-1154 207 0
-61 -79 -145 -207 1154 0
-1155 61 0
-1155 90 0
-1155 118 0
-1155 232 0
-61 -90 -118 -232 1155 0
-1156 61 0
-1156 90 0
-1156 138 0
-1156 181 0
-61 -90 -138 -181 1156 0
-1157 61 0
-1157 90 0
-1157 145 0
-1157 174 0
-61 -90 -145 -174 1157 0
-1158 61 0
-1158 99 0
-1158 118 0
-1158 214 0
-61 -99 -118 -214 1158 0
-1159 61 0
-1159 99 0
-1159 129 0
-1159 181 0
-61 -99 -129 -181 1159 0
-1160 61 0
-1160 99 0
-1160 145 0
-1160 165 0
-61 -99 -145 -165 1160 0
-1161 61 0
-1161 106 0
-1161 118 0
-1161 207 0
-61 -106 -118 -207 1161 0
-1162 61 0
-1162 106 0
-1162 129 0
-1162 174 0
-61 -106 -129 -174 1162 0
-1163 61 0
-1163 106 0
-1163 138 0
-1163 165 0
-61 -106 -138 -165 1163 0
1059 1164 0
-1164 1165 0
1060 -1164 1166 0
-1166 1167 0
1061 -1166 1168 0
-1168 1169 0
1062 -1168 1170 0
-1170 1171 0
1063 -1170 1172 0
-1172 1173 0
1064 -1172 1174 0
-1174 1175 0
1065 -1174 1176 0
-1176 1177 0
1066 -1176 1178 0
-1178 1179 0
1067 -1178 1180 0
-1180 1181 0
1068 -1180 1182 0
-1182 1183 0
1069 -1182 1184 0
-1184 1185 0
1070 -1184 1186 0
-1186 1187 0
1071 -1186 1188 0
-1188 1189 0
1072 -1188 1190 0
-1190 1191 0
1073 -1190 1192 0
-1192 1193 0
1074 -1192 1194 0
-1194 1195 0
1075 -1194 1196 0
-1196 1197 0
1076 -1196 1198 0
-1198 1199 0
1077 -1198 1200 0
-1200 1201 0
1078 -1200 1202 0
-1202 1203 0
1079 -1202 1204 0
-1204 1205 0
1080 -1204 1206 0
-1206 1207 0
1081 -1206 1208 0
-1208 1209 0
1082 -1208 1210 0
-1210 1211 0
1083 -1210 1212 0
-1212 1213 0
1084 -1212 1214 0
-1214 1215 0
1085 -1214 1216 0
-1216 1217 0
1086 -1216 1218 0
-1218 1219 0
1087 -1218 1220 0
-1220 1221 0
1088 -1220 1222 0
-1222 1223 0
1089 -1222 1224 0
-1224 1225 0
1090 -1224 1226 0
-1226 1227 0
1091 -1226 1228 0
-1228 1229 0
1092 -1228 1230 0
-1230 1231 0
1093 -1230 1232 0
-1232 1233 0
1094 -1232 1234 0
-1234 1235 0
1095 -1234 1236 0
-1236 1237 0
1096 -1236 1238 0
-1238 1239 0
1097 -1238 1240 0
-1240 1241 0
1098 -1240 1242 0
-1242 1243 0
1099 -1242 1244 0
-1244 1245 0
1100 -1244 1246 0
-1246 1247 0
1101 -1246 1248 0
-1248 1249 0
1102 -1248 1250 0
-1250 1251 0
1103 -1250 1252 0
-1252 1253 0
1104 -1252 1254 0
-1254 1255 0
1105 -1254 1256 0
-1256 1257 0
1106 -1256 1258 0
-1258 1259 0
1107 -1258 1260 0
-1260 1261 0
1108 -1260 1262 0
-1262 1263 0
1109 -1262 1264 0
-1264 1265 0
1110 -1264 1266 0
-1266 1267 0
1111 -1266 1268 0
-1268 1269 0
1112 -1268 1270 0
-1270 1271 0
1113 -1270 1272 0
-1272 1273 0
1114 -1272 1274 0
-1274 1275 0
1115 -1274 1276 0
-1276 1277 0
1116 -1276 1278 0
-1278 1279 0
1117 -1278 1280 0
-1280 1281 0
1118 -1280 1282 0
-1282 1283 0
1119 -1282 1284 0
-1284 1285 0
1120 -1284 1286 0
-1286 1287 0
1121 -1286 1288 0
-1288 1289 0
1122 -1288 1290 0
-1290 1291 0
1123 -1290 1292 0
-1292 1293 0
1124 -1292 1294 0
-1294 1295 0
1125 -1294 1296 0
-1296 1297 0
1126 -1296 1298 0
-1298 1299 0
1127 -1298 1300 0
-1300 1301 0
1128 -1300 1302 0
-1302 1303 0
1129 -1302 1304 0
-1304 1305 0
1130 -1304 1306 0
-1306 1307 0
1131 -1306 1308 0
-1308 1309 0
1132 -1308 1310 0
-1310 1311 0
1133 -1310 1312 0
-1312 1313 0
1134 -1312 1314 0
-1314 1315 0
1135 -1314 1316 0
-1316 1317 0
1136 -1316 1318 0
-1318 1319 0
1137 -1318 1320 0
-1320 1321 0
1138 -1320 1322 0
-1322 1323 0
1139 -1322 1324 0
-1324 1325 0
1140 -1324 1326 0
-1326 1327 0
1141 -1326 1328 0
-1328 1329 0
1142 -1328 1330 0
-1330 1331 0
1143 -1330 1332 0
-1332 1333 0
1144 -1332 1334 0
-1334 1335 0
1145 -1334 1336 0
-1336 1337 0
1146 -1336 1338 0
-1338 1339 0
1147 -1338 1340 0
-1340 1341 0
1148 -1340 1342 0
-1342 1343 0
1149 -1342 1344 0
-1344 1345 0
1150 -1344 1346 0
-1346 1347 0
1151 -1346 1348 0
-1348 1349 0
1152 -1348 1350 0
-1350 1351 0
1153 -1350 1352 0
-1352 1353 0
1154 -1352 1354 0
-1354 1355 0
1155 -1354 1356 0
-1356 1357 0
1156 -1356 1358 0
-1358 1359 0
1157 -1358 1360 0
-1360 1361 0
1158 -1360 1362 0
-1362 1363 0
1159 -1362 1364 0
-1364 1365 0
1160 -1364 1366 0
-1366 1367 0
1161 -1366 1368 0
-1368 1369 0
1162 -1368 0
1060 1165 0
1061 -1165 1167 0
1062 -1167 1169 0
1063 -1169 1171 0
1064 -1171 1173 0
1065 -1173 1175 0
1066 -1175 1177 0
1067 -1177 1179 0
1068 -1179 1181 0
1069 -1181 1183 0
1070 -1183 1185 0
1071 -1185 1187 0
1072 -1187 1189 0
1073 -1189 1191 0
1074 -1191 1193 0
1075 -1193 1195 0
1076 -1195 1197 0
1077 -1197 1199 0
1078 -1199 1201 0
1079 -1201 1203 0
1080 -1203 1205 0
1081 -1205 1207 0
1082 -1207 1209 0
1083 -1209 1211 0
1084 -1211 1213 0
1085 -1213 1215 0
1086 -1215 1217 0
1087 -1217 1219 0
1088 -1219 1221 0
1089 -1221 1223 0
1090 -1223 1225 0
1091 -1225 1227 0
1092 -1227 1229 0
1093 -1229 1231 0
1094 -1231 1233 0
1095 -1233 1235 0
1096 -1235 1237 0
1097 -1237 1239 0
1098 -1239 1241 0
1099 -1241 1243 0
1100 -1243 1245 0
1101 -1245 1247 0
1102 -1247 1249 0
1103 -1249 1251 0
1104 -1251 1253 0
1105 -1253 1255 0
1106 -1255 1257 0
1107 -1257 1259 0
1108 -1259 1261 0
1109 -1261 1263 0
1110 -1263 1265 0
1111 -1265 1267 0
1112 -1267 1269 0
1113 -1269 1271 0
1114 -1271 1273 0
1115 -1273 1275 0
1116 -1275 1277 0
1117 -1277 1279 0
1118 -1279 1281 0
1119 -1281 1283 0
1120 -1283 1285 0
1121 -1285 1287 0
1122 -1287 1289 0
1123 -1289 1291 0
1124 -1291 1293 0
1125 -1293 1295 0
1126 -1295 1297 0
1127 -1297 1299 0
1128 -1299 1301 0
1129 -1301 1303 0
1130 -1303 1305 0
1131 -1305 1307 0
1132 -1307 1309 0
1133 -1309 1311 0
1134 -1311 1313 0
1135 -1313 1315 0
1136 -1315 1317 0
1137 -1317 1319 0
1138 -1319 1321 0
1139 -1321 1323 0
1140 -1323 1325 0
1141 -1325 1327 0
1142 -1327 1329 0
1143 -1329 1331 0
1144 -1331 1333 0
1145 -1333 1335 0
1146 -1335 1337 0
1147 -1337 1339 0
1148 -1339 1341 0
1149 -1341 1343 0
1150 -1343 1345 0
1151 -1345 1347 0
1152 -1347 1349 0
1153 -1349 1351 0
1154 -1351 1353 0
1155 -1353 1355 0
1156 -1355 1357 0
1157 -1357 1359 0
1158 -1359 1361 0
1159 -1361 1363 0
1160 -1363 1365 0
1161 -1365 1367 0
1162 -1367 1369 0
1163 -1369 0
-1059 1370 0
-1370 1371 0
-1060 -1370 1372 0
-1372 1373 0
-1061 -1372 0
-1060 1371 0
-1371 1374 0
-1061 -1371 1373 0
-1373 1375 0
-1062 -1373 0
-1061 1374 0
-1374 1376 0
-1062 -1374 1375 0
-1375 1377 0
-1063 -1375 0
-1062 1376 0
-1376 1378 0
-1063 -1376 1377 0
-1377 1379 0
-1064 -1377 0
-1063 1378 0
-1378 1380 0
-1064 -1378 1379 0
-1379 1381 0
-1065 -1379 0
-1064 1380 0
-1380 1382 0
-1065 -1380 1381 0
-1381 1383 0
-1066 -1381 0
-1065 1382 0
-1382 1384 0
-1066 -1382 1383 0
-1383 1385 0
-1067 -1383 0
-1066 1384 0
-1384 1386 0
-1067 -1384 1385 0
-1385 1387 0
-1068 -1385 0
-1067 1386 0
-1386 1388 0
-1068 -1386 1387 0
-1387 1389 0
-1069 -1387 0
-1068 1388 0
-1388 1390 0
-1069 -1388 1389 0
-1389 1391 0
-1070 -1389 0
-1069 1390 0
-1390 1392 0
-1070 -1390 1391 0
-1391 1393 0
-1071 -1391 0
-1070 1392 0
-1392 1394 0
-1071 -1392 1393 0
-1393 1395 0
-1072 -1393 0
-1071 1394 0
-1394 1396 0
-1072 -1394 1395 0
-1395 1397 0
-1073 -1395 0
-1072 1396 0
-1396 1398 0
-1073 -1396 1397 0
-1397 1399 0
-1074 -1397 0
-1073 1398 0
-1398 1400 0
-1074 -1398 1399 0
-1399 1401 0
-1075 -1399 0
-1074 1400 0
-1400 1402 0
-1075 -1400 1401 0
-1401 1403 0
-1076 -1401 0
-1075 1402 0
-1402 1404 0
-1076 -1402 1403 0
-1403 1405 0
-1077 -1403 0
-1076 1404 0
-1404 1406 0
-1077 -1404 1405 0
-1405 1407 0
-1078 -1405 0
-1077 1406 0
-1406 1408 0
-1078 -1406 1407 0
-1407 1409 0
-1079 -1407 0
-1078 1408 0
-1408 1410 0
-1079 -1408 1409 0
-1409 1411 0
-1080 -1409 0
-1079 1410 0
-1410 1412 0
-1080 -1410 1411 0
-1411 1413 0
-1081 -1411 0
-1080 1412 0
-1412 1414 0
-1081 -1412 1413 0
-1413 1415 0
-1082 -1413 0
-1081 1414 0
-1414 1416 0
-1082 -1414 1415 0
-1415 1417 0
-1083 -1415 0
-1082 1416 0
-1416 1418 0
-1083 -1416 1417 0
-1417 1419 0
-1084 -1417 0
-1083 1418 0
-1418 1420 0
-1084 -1418 1419 0
-1419 1421 0
-1085 -1419 0
-1084 1420 0
-1420 1422 0
-1085 -1420 1421 0
-1421 1423 0
-1086 -1421 0
-1085 1422 0
-1422 1424 0
-1086 -1422 1423 0
-1423 1425 0
-1087 -1423 0
-1086 1424 0
-1424 1426 0
-1087 -1424 1425 0
-1425 1427 0
-1088 -1425 0
-1087 1426 0
-1426 1428 0
-1088 -1426 1427 0
-1427 1429 0
-1089 -1427 0
-1088 1428 0
-1428 1430 0
-1089 -1428 1429 0
-1429 1431 0
-1090 -1429 0
-1089 1430 0
-1430 1432 0
-1090 -1430 1431 0
-1431 1433 0
-1091 -1431 0
-1090 1432 0
-1432 1434 0
-1091 -1432 1433 0
-1433 1435 0
-1092 -1433 0
-1091 1434 0
-1434 1436 0
-1092 -1434 1435 0
-1435 1437 0
-1093 -1435 0
-1092 1436 0
-1436 1438 0
-1093 -1436 1437 0
-1437 1439 0
-1094 -1437 0
-1093 1438 0
-1438 1440 0
-1094 -1438 1439 0
-1439 1441 0
-1095 -1439 0
-1094 1440 0
-1440 1442 0
-1095 -1440 1441 0
-1441 1443 0
-1096 -1441 0
-1095 1442 0
-1442 1444 0
-1096 -1442 1443 0
-1443 1445 0
-1097 -1443 0
-1096 1444 0
-1444 1446 0
-1097 -1444 1445 0
-1445 1447 0
-1098 -1445 0
-1097 1446 0
-1446 1448 0
-1098 -1446 1447 0
-1447 1449 0
-1099 -1447 0
-1098 1448 0
-1448 1450 0
-1099 -1448 1449 0
-1449 1451 0
-1100 -1449 0
-1099 1450 0
-1450 1452 0
-1100 -1450 1451 0
-1451 1453 0
-1101 -1451 0
-1100 1452 0
-1452 1454 0
-1101 -1452 1453 0
-1453 1455 0
-1102 -1453 0
-1101 1454 0
-1454 1456 0
-1102 -1454 1455 0
-1455 1457 0
-1103 -1455 0
-1102 1456 0
-1456 1458 0
-1103 -1456 1457 0
-1457 1459 0
-1104 -1457 0
-1103 1458 0
-1458 1460 0
-1104 -1458 1459 0
-1459 1461 0
-1105 -1459 0
-1104 1460 0
-1460 1462 0
-1105 -1460 1461 0
-1461 1463 0
-1106 -1461 0
-1105 1462 0
-1462 1464 0
-1106 -1462 1463 0
-1463 1465 0
-1107 -1463 0
-1106 1464 0
-1464 1466 0
-1107 -1464 1465 0
-1465 1467 0
-1108 -1465 0
-1107 1466 0
-1466 1468 0
-1108 -1466 1467 0
-1467 1469 0
-1109 -1467 0
-1108 1468 0
-1468 1470 0
-1109 -1468 1469 0
-1469 1471 0
-1110 -1469 0
-1109 1470 0
-1470 1472 0
-1110 -1470 1471 0
-1471 1473 0
-1111 -1471 0
-1110 1472 0
-1472 1474 0
-1111 -1472 1473 0
-1473 1475 0
-1112 -1473 0
-1111 1474 0
-1474 1476 0
-1112 -1474 1475 0
-1475 1477 0
-1113 -1475 0
-1112 1476 0
-1476 1478 0
-1113 -1476 1477 0
-1477 1479 0
-1114 -1477 0
-1113 1478 0
-1478 1480 0
-1114 -1478 1479 0
-1479 1481 0
-1115 -1479 0
-1114 1480 0
-1480 1482 0
-1115 -1480 1481 0
-1481 1483 0
-1116 -1481 0
-1115 1482 0
-1482 1484 0
-1116 -1482 1483 0
-1483 1485 0
-1117 -1483 0
-1116 1484 0
-1484 1486 0
-1117 -1484 1485 0
-1485 1487 0
-1118 -1485 0
-1117 1486 0
-1486 1488 0
-1118 -1486 1487 0
-1487 1489 0
-1119 -1487 0
-1118 1488 0
-1488 1490 0
-1119 -1488 1489 0
-1489 1491 0
-1120 -1489 0
-1119 1490 0
-1490 1492 0
-1120 -1490 1491 0
-1491 1493 0
-1121 -1491 0
-1120 1492 0
-1492 1494 0
-1121 -1492 1493 0
-1493 1495 0
-1122 -1493 0
-1121 1494 0
-1494 1496 0
-1122 -1494 1495 0
-1495 1497 0
-1123 -1495 0
-1122 1496 0
-1496 1498 0
-1123 -1496 1497 0
-1497 1499 0
-1124 -1497 0
-1123 1498 0
-1498 1500 0
-1124 -1498 1499 0
-1499 1501 0
-1125 -1499 0
-1124 1500 0
-1500 1502 0
-1125 -1500 1501 0
-1501 1503 0
-1126 -1501 0
-1125 1502 0
-1502 1504 0
-1126 -1502 1503 0
-1503 1505 0
-1127 -1503 0
-1126 1504 0
-1504 1506 0
-1127 -1504 1505 0
-1505 1507 0
-1128 -1505 0
-1127 1506 0
-1506 1508 0
-1128 -1506 1507 0
-1507 1509 0
-1129 -1507 0
-1128 1508 0
-1508 1510 0
-1129 -1508 1509 0
-1509 1511 0
-1130 -1509 0
-1129 1510 0
-1510 1512 0
-1130 -1510 1511 0
-1511 1513 0
-1131 -1511 0
-1130 1512 0
-1512 1514 0
-1131 -1512 1513 0
-1513 1515 0
-1132 -1513 0
-1131 1514 0
-1514 1516 0
-1132 -1514 1515 0
-1515 1517 0
-1133 -1515 0
-1132 1516 0
-1516 1518 0
-1133 -1516 1517 0
-1517 1519 0
-1134 -1517 0
-1133 1518 0
-1518 1520 0
-1134 -1518 1519 0
-1519 1521 0
-1135 -1519 0
-1134 1520 0
-1520 1522 0
-1135 -1520 1521 0
-1521 1523 0
-1136 -1521 0
-1135 1522 0
-1522 1524 0
-1136 -1522 1523 0
-1523 1525 0
-1137 -1523 0
-1136 1524 0
-1524 1526 0
-1137 -1524 1525 0
-1525 1527 0
-1138 -1525 0
-1137 1526 0
-1526 1528 0
-1138 -1526 1527 0
-1527 1529 0
-1139 -1527 0
-1138 1528 0
-1528 1530 0
-1139 -1528 1529 0
-1529 1531 0
-1140 -1529 0
-1139 1530 0
-1530 1532 0
-1140 -1530 1531 0
-1531 1533 0
-1141 -1531 0
-1140 1532 0
-1532 1534 0
-1141 -1532 1533 0
-1533 1535 0
-1142 -1533 0
-1141 1534 0
-1534 1536 0
-1142 -1534 1535 0
-1535 1537 0
-1143 -1535 0
-1142 1536 0
-1536 1538 0
-1143 -1536 1537 0
-1537 1539 0
-1144 -1537 0
-1143 1538 0
-1538 1540 0
-1144 -1538 1539 0
-1539 1541 0
-1145 -1539 0
-1144 1540 0
-1540 1542 0
-1145 -1540 1541 0
-1541 1543 0
-1146 -1541 0
-1145 1542 0
-1542 1544 0
-1146 -1542 1543 0
-1543 1545 0
-1147 -1543 0
-1146 1544 0
-1544 1546 0
-1147 -1544 1545 0
-1545 1547 0
-1148 -1545 0
-1147 1546 0
-1546 1548 0
-1148 -1546 1547 0
-1547 1549 0
-1149 -1547 0
-1148 1548 0
-1548 1550 0
-1149 -1548 1549 0
-1549 1551 0
-1150 -1549 0
-1149 1550 0
-1550 1552 0
-1150 -1550 1551 0
-1551 1553 0
-1151 -1551 0
-1150 1552 0
-1552 1554 0
-1151 -1552 1553 0
-1553 1555 0
-1152 -1553 0
-1151 1554 0
-1554 1556 0
-1152 -1554 1555 0
-1555 1557 0
-1153 -1555 0
-1152 1556 0
-1556 1558 0
-1153 -1556 1557 0
-1557 1559 0
-1154 -1557 0
-1153 1558 0
-1558 1560 0
-1154 -1558 1559 0
-1559 1561 0
-1155 -1559 0
-1154 1560 0
-1560 1562 0
-1155 -1560 1561 0
-1561 1563 0
-1156 -1561 0
-1155 1562 0
-1562 1564 0
-1156 -1562 1563 0
-1563 1565 0
-1157 -1563 0
-1156 1564 0
-1564 1566 0
-1157 -1564 1565 0
-1565 1567 0
-1158 -1565 0
-1157 1566 0
-1566 1568 0
-1158 -1566 1567 0
-1567 1569 0
-1159 -1567 0
-1158 1568 0
-1568 1570 0
-1159 -1568 1569 0
-1569 1571 0
-1160 -1569 0
-1159 1570 0
-1570 1572 0
-1160 -1570 1571 0
-1571 1573 0
-1161 -1571 0
-1160 1572 0
-1572 1574 0
-1161 -1572 1573 0
-1573 1575 0
-1162 -1573 0
-1161 1574 0
-1162 -1574 1575 0
-1163 -1575 0
5 1576 0
-1576 1577 0
14 -1576 1578 0
-1578 1579 0
23 -1578 1580 0
-1580 1581 0
31 -1580 1582 0
-1582 1583 0
40 -1582 1584 0
-1584 1585 0
49 -1584 1586 0
-1586 1587 0
58 -1586 1588 0
-1588 1589 0
68 -1588 1590 0
-1590 1591 0
77 -1590 1592 0
-1592 1593 0
85 -1592 1594 0
-1594 1595 0
94 -1594 1596 0
-1596 1597 0
103 -1596 0
14 1577 0
-1577 1598 0
23 -1577 1579 0
-1579 1599 0
31 -1579 1581 0
-1581 1600 0
40 -1581 1583 0
-1583 1601 0
49 -1583 1585 0
-1585 1602 0
58 -1585 1587 0
-1587 1603 0
68 -1587 1589 0
-1589 1604 0
77 -1589 1591 0
-1591 1605 0
85 -1591 1593 0
-1593 1606 0
94 -1593 1595 0
-1595 1607 0
103 -1595 1597 0
-1597 1608 0
112 -1597 0
23 1598 0
-1598 1609 0
31 -1598 1599 0
-1599 1610 0
40 -1599 1600 0
-1600 1611 0
49 -1600 1601 0
-1601 1612 0
58 -1601 1602 0
-1602 1613 0
68 -1602 1603 0
-1603 1614 0
77 -1603 1604 0
-1604 1615 0
85 -1604 1605 0
-1605 1616 0
94 -1605 1606 0
-1606 1617 0
103 -1606 1607 0
-1607 1618 0
112 -1607 1608 0
-1608 1619 0
122 -1608 0
31 1609 0
-1609 1620 0
40 -1609 1610 0
-1610 1621 0
49 -1610 1611 0
-1611 1622 0
58 -1611 1612 0
-1612 1623 0
68 -1612 1613 0
-1613 1624 0
77 -1613 1614 0
-1614 1625 0
85 -1614 1615 0
-1615 1626 0
94 -1615 1616 0
-1616 1627 0
103 -1616 1617 0
-1617 1628 0
112 -1617 1618 0
-1618 1629 0
122 -1618 1619 0
-1619 1630 0
130 -1619 0
40 1620 0
-1620 1631 0
49 -1620 1621 0
-1621 1632 0
58 -1621 1622 0
-1622 1633 0
68 -1622 1623 0
-1623 1634 0
77 -1623 1624 0
-1624 1635 0
85 -1624 1625 0
-1625 1636 0
94 -1625 1626 0
-1626 1637 0
103 -1626 1627 0
-1627 1638 0
112 -1627 1628 0
-1628 1639 0
122 -1628 1629 0
-1629 1640 0
130 -1629 1630 0
-1630 1641 0
139 -1630 0
49 1631 0
-1631 1642 0
58 -1631 1632 0
-1632 1643 0
68 -1632 1633 0
-1633 1644 0
77 -1633 1634 0
-1634 1645 0
85 -1634 1635 0
-1635 1646 0
94 -1635 1636 0
-1636 1647 0
103 -1636 1637 0
-1637 1648 0
112 -1637 1638 0
-1638 1649 0
122 -1638 1639 0
-1639 1650 0
130 -1639 1640 0
-1640 1651 0
139 -1640 1641 0
-1641 1652 0
148 -1641 0
58 1642 0
-1642 1653 0
68 -1642 1643 0
-1643 1654 0
77 -1643 1644 0
-1644 1655 0
85 -1644 1645 0
-1645 1656 0
94 -1645 1646 0
-1646 1657 0
103 -1646 1647 0
-1647 1658 0
112 -1647 1648 0
-1648 1659 0
122 -1648 1649 0
-1649 1660 0
130 -1649 1650 0
-1650 1661 0
139 -1650 1651 0
-1651 1662 0
148 -1651 1652 0
-1652 1663 0
157 -1652 0
68 1653 0
-1653 1664 0
77 -1653 1654 0
-1654 1665 0
85 -1654 1655 0
-1655 1666 0
94 -1655 1656 0
-1656 1667 0
103 -1656 1657 0
-1657 1668 0
112 -1657 1658 0
-1658 1669 0
122 -1658 1659 0
-1659 1670 0
130 -1659 1660 0
-1660 1671 0
139 -1660 1661 0
-1661 1672 0
148 -1661 1662 0
-1662 1673 0
157 -1662 1663 0
-1663 1674 0
166 -1663 0
77 1664 0
-1664 1675 0
85 -1664 1665 0
-1665 1676 0
94 -1665 1666 0
-1666 1677 0
103 -1666 1667 0
-1667 1678 0
112 -1667 1668 0
-1668 1679 0
122 -1668 1669 0
-1669 1680 0
130 -1669 1670 0
-1670 1681 0
139 -1670 1671 0
-1671 1682 0
148 -1671 1672 0
-1672 1683 0
157 -1672 1673 0
-1673 1684 0
166 -1673 1674 0
-1674 1685 0
175 -1674 0
85 1675 0
-1675 1686 0
94 -1675 1676 0
-1676 1687 0
103 -1676 1677 0
-1677 1688 0
112 -1677 1678 0
-1678 1689 0
122 -1678 1679 0
-1679 1690 0
130 -1679 1680 0
-1680 1691 0
139 -1680 1681 0
-1681 1692 0
148 -1681 1682 0
-1682 1693 0
157 -1682 1683 0
-1683 1694 0
166 -1683 1684 0
-1684 1695 0
175 -1684 1685 0
-1685 1696 0
184 -1685 0
94 1686 0
-1686 1697 0
103 -1686 1687 0
-1687 1698 0
112 -1687 1688 0
-1688 1699 0
122 -1688 1689 0
-1689 1700 0
130 -1689 1690 0
-1690 1701 0
139 -1690 1691 0
-1691 1702 0
148 -1691 1692 0
-1692 1703 0
157 -1692 1693 0
-1693 1704 0
166 -1693 1694 0
-1694 1705 0
175 -1694 1695 0
-1695 1706 0
184 -1695 1696 0
-1696 1707 0
193 -1696 0
103 1697 0
-1697 1708 0
112 -1697 1698 0
-1698 1709 0
122 -1698 1699 0
-1699 1710 0
130 -1699 1700 0
-1700 1711 0
139 -1700 1701 0
-1701 1712 0
148 -1701 1702 0
-1702 1713 0
157 -1702 1703 0
-1703 1714 0
166 -1703 1704 0
-1704 1715 0
175 -1704 1705 0
-1705 1716 0
184 -1705 1706 0
-1706 1717 0
193 -1706 1707 0
-1707 1718 0
199 -1707 0
112 1708 0
-1708 1719 0
122 -1708 1709 0
-1709 1720 0
130 -1709 1710 0
-1710 1721 0
139 -1710 1711 0
-1711 1722 0
148 -1711 1712 0
-1712 1723 0
157 -1712 1713 0
-1713 1724 0
166 -1713 1714 0
-1714 1725 0
175 -1714 1715 0
-1715 1726 0
184 -1715 1716 0
-1716 1727 0
193 -1716 1717 0
-1717 1728 0
199 -1717 1718 0
-1718 1729 0
208 -1718 0
122 1719 0
-1719 1730 0
130 -1719 1720 0
-1720 1731 0
139 -1720 1721 0
-1721 1732 0
148 -1721 1722 0
-1722 1733 0
157 -1722 1723 0
-1723 1734 0
166 -1723 1724 0
-1724 1735 0
175 -1724 1725 0
-1725 1736 0
184 -1725 1726 0
-1726 1737 0
193 -1726 1727 0
-1727 1738 0
199 -1727 1728 0
-1728 1739 0
208 -1728 1729 0
-1729 1740 0
217 -1729 0
130 1730 0
-1730 1741 0
139 -1730 1731 0
-1731 1742 0
148 -1731 1732 0
-1732 1743 0
157 -1732 1733 0
-1733 1744 0
166 -1733 1734 0
-1734 1745 0
175 -1734 1735 0
-1735 1746 0
184 -1735 1736 0
-1736 1747 0
193 -1736 1737 0
-1737 1748 0
199 -1737 1738 0
-1738 1749 0
208 -1738 1739 0
-1739 1750 0
217 -1739 1740 0
-1740 1751 0
226 -1740 0
139 1741 0
-1741 1752 0
148 -1741 1742 0
-1742 1753 0
157 -1742 1743 0
-1743 1754 0
166 -1743 1744 0
-1744 1755 0
175 -1744 1745 0
-1745 1756 0
184 -1745 1746 0
-1746 1757 0
193 -1746 1747 0
-1747 1758 0
199 -1747 1748 0
-1748 1759 0
208 -1748 1749 0
-1749 1760 0
217 -1749 1750 0
-1750 1761 0
226 -1750 1751 0
-1751 1762 0
235 -1751 0
148 1752 0
157 -1752 1753 0
166 -1753 1754 0
175 -1754 1755 0
184 -1755 1756 0
193 -1756 1757 0
199 -1757 1758 0
208 -1758 1759 0
217 -1759 1760 0
226 -1760 1761 0
235 -1761 1762 0
244 -1762 0
-5 1763 0
-1763 1764 0
-14 -1763 1765 0
-1765 1766 0
-23 -1765 1767 0
-1767 1768 0
-31 -1767 1769 0
-1769 1770 0
-40 -1769 1771 0
-1771 1772 0
-49 -1771 1773 0
-1773 1774 0
-58 -1773 1775 0
-1775 1776 0
-68 -1775 1777 0
-1777 1778 0
-77 -1777 1779 0
-1779 1780 0
-85 -1779 1781 0
-1781 1782 0
-94 -1781 1783 0
-1783 1784 0
-103 -1783 1785 0
-1785 1786 0
-112 -1785 1787 0
-1787 1788 0
-122 -1787 1789 0
-1789 1790 0
-130 -1789 1791 0
-1791 1792 0
-139 -1791 1793 0
-1793 1794 0
-148 -1793 1795 0
-1795 1796 0
-157 -1795 0
-14 1764 0
-1764 1797 0
-23 -1764 1766 0
-1766 1798 0
-31 -1766 1768 0
-1768 1799 0
-40 -1768 1770 0
-1770 1800 0
-49 -1770 1772 0
-1772 1801 0
-58 -1772 1774 0
-1774 1802 0
-68 -1774 1776 0
-1776 1803 0
-77 -1776 1778 0
-1778 1804 0
-85 -1778 1780 0
-1780 1805 0
-94 -1780 1782 0
-1782 1806 0
-103 -1782 1784 0
-1784 1807 0
-112 -1784 1786 0
-1786 1808 0
-122 -1786 1788 0
-1788 1809 0
-130 -1788 1790 0
-1790 1810 0
-139 -1790 1792 0
-1792 1811 0
-148 -1792 1794 0
-1794 1812 0
-157 -1794 1796 0
-1796 1813 0
-166 -1796 0
-23 1797 0
-1797 1814 0
-31 -1797 1798 0
-1798 1815 0
-40 -1798 1799 0
-1799 1816 0
-49 -1799 1800 0
-1800 1817 0
-58 -1800 1801 0
-1801 1818 0
-68 -1801 1802 0
-1802 1819 0
-77 -1802 1803 0
-1803 1820 0
-85 -1803 1804 0
-1804 1821 0
-94 -1804 1805 0
-1805 1822 0
-103 -1805 1806 0
-1806 1823 0
-112 -1806 1807 0
-1807 1824 0
-122 -1807 1808 0
-1808 1825 0
-130 -1808 1809 0
-1809 1826 0
-139 -1809 1810 0
-1810 1827 0
-148 -1810 1811 0
-1811 1828 0
-157 -1811 1812 0
-1812 1829 0
-166 -1812 1813 0
-1813 1830 0
-175 -1813 0
-31 1814 0
-1814 1831 0
-40 -1814 1815 0
-1815 1832 0
-49 -1815 1816 0
-1816 1833 0
-58 -1816 1817 0
-1817 1834 0
-68 -1817 1818 0
-1818 1835 0
-77 -1818 1819 0
-1819 1836 0
-85 -1819 1820 0
-1820 1837 0
-94 -1820 1821 0
-1821 1838 0
-103 -1821 1822 0
-1822 1839 0
-112 -1822 1823 0
-1823 1840 0
-122 -1823 1824 0
-1824 1841 0
-130 -1824 1825 0
-1825 1842 0
-139 -1825 1826 0
-1826 1843 0
-148 -1826 1827 0
-1827 1844 0
-157 -1827 1828 0
-1828 1845 0
-166 -1828 1829 0
-1829 1846 0
-175 -1829 1830 0
-1830 1847 0
-184 -1830 0
-40 1831 0
-1831 1848 0
-49 -1831 1832 0
-1832 1849 0
-58 -1832 1833 0
-1833 1850 0
-68 -1833 1834 0
-1834 1851 0
-77 -1834 1835 0
-1835 1852 0
-85 -1835 1836 0
-1836 1853 0
-94 -1836 1837 0
-1837 1854 0
-103 -1837 1838 0
-1838 1855 0
-112 -1838 1839 0
-1839 1856 0
-122 -1839 1840 0
-1840 1857 0
-130 -1840 1841 0
-1841 1858 0
-139 -1841 1842 0
-1842 1859 0
-148 -1842 1843 0
-1843 1860 0
-157 -1843 1844 0
-1844 1861 0
-166 -1844 1845 0
-1845 1862 0
-175 -1845 1846 0
-1846 1863 0
-184 -1846 1847 0
-1847 1864 0
-193 -1847 0
-49 1848 0
-1848 1865 0
-58 -1848 1849 0
-1849 1866 0
-68 -1849 1850 0
-1850 1867 0
-77 -1850 1851 0
-1851 1868 0
-85 -1851 1852 0
-1852 1869 0
-94 -1852 1853 0
-1853 1870 0
-103 -1853 1854 0
-1854 1871 0
-112 -1854 1855 0
-1855 1872 0
-122 -1855 1856 0
-1856 1873 0
-130 -1856 1857 0
-1857 1874 0
-139 -1857 1858 0
-1858 1875 0
-148 -1858 1859 0
-1859 1876 0
-157 -1859 1860 0
-1860 1877 0
-166 -1860 1861 0
-1861 1878 0
-175 -1861 1862 0
-1862 1879 0
-184 -1862 1863 0
-1863 1880 0
-193 -1863 1864 0
-1864 1881 0
-199 -1864 0
-58 1865 0
-1865 1882 0
-68 -1865 1866 0
-1866 1883 0
-77 -1866 1867 0
-1867 1884 0
-85 -1867 1868 0
-1868 1885 0
-94 -1868 1869 0
-1869 1886 0
-103 -1869 1870 0
-1870 1887 0
-112 -1870 1871 0
-1871 1888 0
-122 -1871 1872 0
-1872 1889 0
-130 -1872 1873 0
-1873 1890 0
-139 -1873 1874 0
-1874 1891 0
-148 -1874 1875 0
-1875 1892 0
-157 -1875 1876 0
-1876 1893 0
-166 -1876 1877 0
-1877 1894 0
-175 -1877 1878 0
-1878 1895 0
-184 -1878 1879 0
-1879 1896 0
-193 -1879 1880 0
-1880 1897 0
-199 -1880 1881 0
-1881 1898 0
-208 -1881 0
-68 1882 0
-1882 1899 0
-77 -1882 1883 0
-1883 1900 0
-85 -1883 1884 0
-1884 1901 0
-94 -1884 1885 0
-1885 1902 0
-103 -1885 1886 0
-1886 1903 0
-112 -1886 1887 0
-1887 1904 0
-122 -1887 1888 0
-1888 1905 0
-130 -1888 1889 0
-1889 1906 0
-139 -1889 1890 0
-1890 1907 0
-148 -1890 1891 0
-1891 1908 0
-157 -1891 1892 0
-1892 1909 0
-166 -1892 1893 0
-1893 1910 0
-175 -1893 1894 0
-1894 1911 0
-184 -1894 1895 0
-1895 1912 0
-193 -1895 1896 0
-1896 1913 0
-199 -1896 1897 0
-1897 1914 0
-208 -1897 1898 0
-1898 1915 0
-217 -1898 0
-77 1899 0
-1899 1916 0
-85 -1899 1900 0
-1900 1917 0
-94 -1900 1901 0
-1901 1918 0
-103 -1901 1902 0
-1902 1919 0
-112 -1902 1903 0
-1903 1920 0
-122 -1903 1904 0
-1904 1921 0
-130 -1904 1905 0
-1905 1922 0
-139 -1905 1906 0
-1906 1923 0
-148 -1906 1907 0
-1907 1924 0
-157 -1907 1908 0
-1908 1925 0
-166 -1908 1909 0
-1909 1926 0
-175 -1909 1910 0
-1910 1927 0
-184 -1910 1911 0
-1911 1928 0
-193 -1911 1912 0
-1912 1929 0
-199 -1912 1913 0
-1913 1930 0
-208 -1913 1914 0
-1914 1931 0
-217 -1914 1915 0
-1915 1932 0
-226 -1915 0
-85 1916 0
-1916 1933 0
-94 -1916 1917 0
-1917 1934 0
-103 -1917 1918 0
-1918 1935 0
-112 -1918 1919 0
-1919 1936 0
-122 -1919 1920 0
-1920 1937 0
-130 -1920 1921 0
-1921 1938 0
-139 -1921 1922 0
-1922 1939 0
-148 -1922 1923 0
-1923 1940 0
-157 -1923 1924 0
-1924 1941 0
-166 -1924 1925 0
-1925 1942 0
-175 -1925 1926 0
-1926 1943 0
-184 -1926 1927 0
-1927 1944 0
-193 -1927 1928 0
-1928 1945 0
-199 -1928 1929 0
-1929 1946 0
-208 -1929 1930 0
-1930 1947 0
-217 -1930 1931 0
-1931 1948 0
-226 -1931 1932 0
-1932 1949 0
-235 -1932 0
-94 1933 0
-103 -1933 1934 0
-112 -1934 1935 0
-122 -1935 1936 0
-130 -1936 1937 0
-139 -1937 1938 0
-148 -1938 1939 0
-157 -1939 1940 0
-166 -1940 1941 0
-175 -1941 1942 0
-184 -1942 1943 0
-193 -1943 1944 0
-199 -1944 1945 0
-208 -1945 1946 0
-217 -1946 1947 0
-226 -1947 1948 0
-235 -1948 1949 0
-244 -1949 0
-1950 5 0
-1950 122 0
-1950 199 0
-1950 244 0
-5 -122 -199 -244 1950 0
-1951 5 0
-1951 122 0
-1951 208 0
-1951 235 0
-5 -122 -208 -235 1951 0
-1952 5 0
-1952 122 0
-1952 217 0
-1952 226 0
-5 -122 -217 -226 1952 0
-1953 5 0
-1953 130 0
-1953 175 0
-1953 244 0
-5 -130 -175 -244 1953 0
-1954 5 0
-1954 130 0
-1954 184 0
-1954 235 0
-5 -130 -184 -235 1954 0
-1955 5 0
-1955 130 0
-1955 193 0
-1955 226 0
-5 -130 -193 -226 1955 0
-1956 5 0
-1956 139 0
-1956 166 0
-1956 244 0
-5 -139 -166 -244 1956 0
-1957 5 0
-1957 139 0
-1957 184 0
-1957 217 0
-5 -139 -184 -217 1957 0
-1958 5 0
-1958 139 0
-1958 193 0
-1958 208 0
-5 -139 -193 -208 1958 0
-1959 5 0
-1959 148 0
-1959 166 0
-1959 235 0
-5 -148 -166 -235 1959 0
-1960 5 0
-1960 148 0
-1960 175 0
-1960 217 0
-5 -148 -175 -217 1960 0
-1961 5 0
-1961 148 0
-1961 193 0
-1961 199 0
-5 -148 -193 -199 1961 0
-1962 5 0
-1962 157 0
-1962 166 0
-1962 226 0
-5 -157 -166 -226 1962 0
-1963 5 0
-1963 157 0
-1963 175 0
-1963 208 0
-5 -157 -175 -208 1963 0
-1964 5 0
-1964 157 0
-1964 184 0
-1964 199 0
-5 -157 -184 -199 1964 0
-1965 14 0
-1965 77 0
-1965 199 0
-1965 244 0
-14 -77 -199 -244 1965 0
-1966 14 0
-1966 77 0
-1966 208 0
-1966 235 0
-14 -77 -208 -235 1966 0
-1967 14 0
-1967 77 0
-1967 217 0
-1967 226 0
-14 -77 -217 -226 1967 0
-1968 14 0
-1968 85 0
-1968 175 0
-1968 244 0
-14 -85 -175 -244 1968 0
-1969 14 0
-1969 85 0
-1969 184 0
-1969 235 0
-14 -85 -184 -235 1969 0
-1970 14 0
-1970 85 0
-1970 193 0
-1970 226 0
-14 -85 -193 -226 1970 0
-1971 14 0
-1971 94 0
-1971 166 0
-1971 244 0
-14 -94 -166 -244 1971 0
-1972 14 0
-1972 94 0
-1972 184 0
-1972 217 0
-14 -94 -184 -217 1972 0
-1973 14 0
-1973 94 0
-1973 193 0
-1973 208 0
-14 -94 -193 -208 1973 0
-1974 14 0
-1974 103 0
-1974 166 0
-1974 235 0
-14 -103 -166 -235 1974 0
-1975 14 0
-1975 103 0
-1975 175 0
-1975 217 0
-14 -103 -175 -217 1975 0
-1976 14 0
-1976 103 0
-1976 193 0
-1976 199 0
-14 -103 -193 -199 1976 0
-1977 14 0
-1977 112 0
-1977 166 0
-1977 226 0
-14 -112 -166 -226 1977 0
-1978 14 0
-1978 112 0
-1978 175 0
-1978 208 0
-14 -112 -175 -208 1978 0
-1979 14 0
-1979 112 0
-1979 184 0
-1979 199 0
-14 -112 -184 -199 1979 0
-1980 23 0
-1980 68 0
-1980 199 0
-1980 244 0
-23 -68 -199 -244 1980 0
-1981 23 0
-1981 68 0
-1981 208 0
-1981 235 0
-23 -68 -208 -235 1981 0
-1982 23 0
-1982 68 0
-1982 217 0
-1982 226 0
-23 -68 -217 -226 1982 0
-1983 23 0
-1983 85 0
-1983 139 0
-1983 244 0
-23 -85 -139 -244 1983 0
-1984 23 0
-1984 85 0
-1984 148 0
-1984 235 0
-23 -85 -148 -235 1984 0
-1985 23 0
-1985 85 0
-1985 157 0
-1985 226 0
-23 -85 -157 -226 1985 0
-1986 23 0
-1986 94 0
-1986 130 0
-1986 244 0
-23 -94 -130 -244 1986 0
-1987 23 0
-1987 94 0
-1987 148 0
-1987 217 0
-23 -94 -148 -217 1987 0
-1988 23 0
-1988 94 0
-1988 157 0
-1988 208 0
-23 -94 -157 -208 1988 0
-1989 23 0
-1989 103 0
-1989 130 0
-1989 235 0
-23 -103 -130 -235 1989 0
-1990 23 0
-1990 103 0
-1990 139 0
-1990 217 0
-23 -103 -139 -217 1990 0
-1991 23 0
-1991 103 0
-1991 157 0
-1991 199 0
-23 -103 -157 -199 1991 0
-1992 23 0
-1992 112 0
-1992 130 0
-1992 226 0
-23 -112 -130 -226 1992 0
-1993 23 0
-1993 112 0
-1993 139 0
-1993 208 0
-23 -112 -139 -208 1993 0
-1994 23 0
-1994 112 0
-1994 148 0
-1994 199 0
-23 -112 -148 -199 1994 0
-1995 31 0
-1995 68 0
-1995 175 0
-1995 244 0
-31 -68 -175 -244 1995 0
-1996 31 0
-1996 68 0
-1996 184 0
-1996 235 0
-31 -68 -184 -235 1996 0
-1997 31 0
-1997 68 0
-1997 193 0
-1997 226 0
-31 -68 -193 -226 1997 0
-1998 31 0
-1998 77 0
-1998 139 0
-1998 244 0
-31 -77 -139 -244 1998 0
-1999 31 0
-1999 77 0
-1999 148 0
-1999 235 0
-31 -77 -148 -235 1999 0
-2000 31 0
-2000 77 0
-2000 157 0
-2000 226 0
-31 -77 -157 -226 2000 0
-2001 31 0
-2001 94 0
-2001 122 0
-2001 244 0
-31 -94 -122 -244 2001 0
-2002 31 0
-2002 94 0
-2002 148 0
-2002 193 0
-31 -94 -148 -193 2002 0
-2003 31 0
-2003 94 0
-2003 157 0
-2003 184 0
-31 -94 -157 -184 2003 0
-2004 31 0
-2004 103 0
-2004 122 0
-2004 235 0
-31 -103 -122 -235 2004 0
-2005 31 0
-2005 103 0
-2005 139 0
-2005 193 0
-31 -103 -139 -193 2005 0
-2006 31 0
-2006 103 0
-2006 157 0
-2006 175 0
-31 -103 -157 -175 2006 0
-2007 31 0
-2007 112 0
-2007 122 0
-2007 226 0
-31 -112 -122 -226 2007 0
-2008 31 0
-2008 112 0
-2008 139 0
-2008 184 0
-31 -112 -139 -184 2008 0
-2009 31 0
-2009 112 0
-2009 148 0
-2009 175 0
-31 -112 -148 -175 2009 0
-2010 40 0
-2010 68 0
-2010 166 0
-2010 244 0
-40 -68 -166 -244 2010 0
-2011 40 0
-2011 68 0
-2011 184 0
-2011 217 0
-40 -68 -184 -217 2011 0
-2012 40 0
-2012 68 0
-2012 193 0
-2012 208 0
-40 -68 -193 -208 2012 0
-2013 40 0
-2013 77 0
-2013 130 0
-2013 244 0
-40 -77 -130 -244 2013 0
-2014 40 0
-2014 77 0
-2014 148 0
-2014 217 0
-40 -77 -148 -217 2014 0
-2015 40 0
-2015 77 0
-2015 157 0
-2015 208 0
-40 -77 -157 -208 2015 0
-2016 40 0
-2016 85 0
-2016 122 0
-2016 244 0
-40 -85 -122 -244 2016 0
-2017 40 0
-2017 85 0
-2017 148 0
-2017 193 0
-40 -85 -148 -193 2017 0
-2018 40 0
-2018 85 0
-2018 157 0
-2018 184 0
-40 -85 -157 -184 2018 0
-2019 40 0
-2019 103 0
-2019 122 0
-2019 217 0
-40 -103 -122 -217 2019 0
-2020 40 0
-2020 103 0
-2020 130 0
-2020 193 0
-40 -103 -130 -193 2020 0
-2021 40 0
-2021 103 0
-2021 157 0
-2021 166 0
-40 -103 -157 -166 2021 0
-2022 40 0
-2022 112 0
-2022 122 0
-2022 208 0
-40 -112 -122 -208 2022 0
-2023 40 0
-2023 112 0
-2023 130 0
-2023 184 0
-40 -112 -130 -184 2023 0
-2024 40 0
-2024 112 0
-2024 148 0
-2024 166 0
-40 -112 -148 -166 2024 0
-2025 49 0
-2025 68 0
-2025 166 0
-2025 235 0
-49 -68 -166 -235 2025 0
-2026 49 0
-2026 68 0
-2026 175 0
-2026 217 0
-49 -68 -175 -217 2026 0
-2027 49 0
-2027 68 0
-2027 193 0
-2027 199 0
-49 -68 -193 -199 2027 0
-2028 49 0
-2028 77 0
-2028 130 0
-2028 235 0
-49 -77 -130 -235 2028 0
-2029 49 0
-2029 77 0
-2029 139 0
-2029 217 0
-49 -77 -139 -217 2029 0
-2030 49 0
-2030 77 0
-2030 157 0
-2030 199 0
-49 -77 -157 -199 2030 0
-2031 49 0
-2031 85 0
-2031 122 0
-2031 235 0
-49 -85 -122 -235 2031 0
-2032 49 0
-2032 85 0
-2032 139 0
-2032 193 0
-49 -85 -139 -193 2032 0
-2033 49 0
-2033 85 0
-2033 157 0
-2033 175 0
-49 -85 -157 -175 2033 0
-2034 49 0
-2034 94 0
-2034 122 0
-2034 217 0
-49 -94 -122 -217 2034 0
-2035 49 0
-2035 94 0
-2035 130 0
-2035 193 0
-49 -94 -130 -193 2035 0
-2036 49 0
-2036 94 0
-2036 157 0
-2036 166 0
-49 -94 -157 -166 2036 0
-2037 49 0
-2037 112 0
-2037 122 0
-2037 199 0
-49 -112 -122 -199 2037 0
-2038 49 0
-2038 112 0
-2038 130 0
-2038 175 0
-49 -112 -130 -175 2038 0
-2039 49 0
-2039 112 0
-2039 139 0
-2039 166 0
-49 -112 -139 -166 2039 0
-2040 58 0
-2040 68 0
-2040 166 0
-2040 226 0
-58 -68 -166 -226 2040 0
-2041 58 0
-2041 68 0
-2041 175 0
-2041 208 0
-58 -68 -175 -208 2041 0
-2042 58 0
-2042 68 0
-2042 184 0
-2042 199 0
-58 -68 -184 -199 2042 0
-2043 58 0
-2043 77 0
-2043 130 0
-2043 226 0
-58 -77 -130 -226 2043 0
-2044 58 0
-2044 77 0
-2044 139 0
-2044 208 0
-58 -77 -139 -208 2044 0
-2045 58 0
-2045 77 0
-2045 148 0
-2045 199 0
-58 -77 -148 -199 2045 0
-2046 58 0
-2046 85 0
-2046 122 0
-2046 226 0
-58 -85 -122 -226 2046 0
-2047 58 0
-2047 85 0
-2047 139 0
-2047 184 0
-58 -85 -139 -184 2047 0
-2048 58 0
-2048 85 0
-2048 148 0
-2048 175 0
-58 -85 -148 -175 2048 0
-2049 58 0
-2049 94 0
-2049 122 0
-2049 208 0
-58 -94 -122 -208 2049 0
-2050 58 0
-2050 94 0
-2050 130 0
-2050 184 0
-58 -94 -130 -184 2050 0
-2051 58 0
-2051 94 0
-2051 148 0
-2051 166 0
-58 -94 -148 -166 2051 0
-2052 58 0
-2052 103 0
-2052 122 0
-2052 199 0
-58 -103 -122 -199 2052 0
-2053 58 0
-2053 103 0
-2053 130 0
-2053 175 0
-58 -103 -130 -175 2053 0
-2054 58 0
-2054 103 0
-2054 139 0
-2054 166 0
-58 -103 -139 -166 2054 0
1950 2055 0
-2055 2056 0
1951 -2055 2057 0
-2057 2058 0
1952 -2057 2059 0
-2059 2060 0
1953 -2059 2061 0
-2061 2062 0
1954 -2061 2063 0
-2063 2064 0
1955 -2063 2065 0
-2065 2066 0
1956 -2065 2067 0
-2067 2068 0
1957 -2067 2069 0
-2069 2070 0
1958 -2069 2071 0
-2071 2072 0
1959 -2071 2073 0
-2073 2074 0
1960 -2073 2075 0
-2075 2076 0
1961 -2075 2077 0
-2077 2078 0
1962 -2077 2079 0
-2079 2080 0
1963 -2079 2081 0
-2081 2082 0
1964 -2081 2083 0
-2083 2084 0
1965 -2083 2085 0
-2085 2086 0
1966 -2085 2087 0
-2087 2088 0
1967 -2087 2089 0
-2089 2090 0
1968 -2089 2091 0
-2091 2092 0
1969 -2091 2093 0
-2093 2094 0
1970 -2093 2095 0
-2095 2096 0
1971 -2095 2097 0
-2097 2098 0
1972 -2097 2099 0
-2099 2100 0
1973 -2099 2101 0
-2101 2102 0
1974 -2101 2103 0
-2103 2104 0
1975 -2103 2105 0
-2105 2106 0
1976 -2105 2107 0
-2107 2108 0
1977 -2107 2109 0
-2109 2110 0
1978 -2109 2111 0
-2111 2112 0
1979 -2111 2113 0
-2113 2114 0
1980 -2113 2115 0
-2115 2116 0
1981 -2115 2117 0
-2117 2118 0
1982 -2117 2119 0
-2119 2120 0
1983 -2119 2121 0
-2121 2122 0
1984 -2121 2123 0
-2123 2124 0
1985 -2123 2125 0
-2125 2126 0
1986 -2125 2127 0
-2127 2128 0
1987 -2127 2129 0
-2129 2130 0
1988 -2129 2131 0
-2131 2132 0
1989 -2131 2133 0
-2133 2134 0
1990 -2133 2135 0
-2135 2136 0
1991 -2135 2137 0
-2137 2138 0
1992 -2137 2139 0
-2139 2140 0
1993 -2139 2141 0
-2141 2142 0
1994 -2141 2143 0
-2143 2144 0
1995 -2143 2145 0
-2145 2146 0
1996 -2145 2147 0
-2147 2148 0
1997 -2147 2149 0
-2149 2150 0
1998 -2149 2151 0
-2151 2152 0
1999 -2151 2153 0
-2153 2154 0
2000 -2153 2155 0
-2155 2156 0
2001 -2155 2157 0
-2157 2158 0
2002 -2157 2159 0
-2159 2160 0
2003 -2159 2161 0
-2161 2162 0
2004 -2161 2163 0
-2163 2164 0
2005 -2163 2165 0
-2165 2166 0
2006 -2165 2167 0
-2167 2168 0
2007 -2167 2169 0
-2169 2170 0
2008 -2169 2171 0
-2171 2172 0
2009 -2171 2173 0
-2173 2174 0
2010 -2173 2175 0
-2175 2176 0
2011 -2175 2177 0
-2177 2178 0
2012 -2177 2179 0
-2179 2180 0
2013 -2179 2181 0
-2181 2182 0
2014 -2181 2183 0
-2183 2184 0
2015 -2183 2185 0
-2185 2186 0
2016 -2185 2187 0
-2187 2188 0
2017 -2187 2189 0
-2189 2190 0
2018 -2189 2191 0
-2191 2192 0
2019 -2191 2193 0
-2193 2194 0
2020 -2193 2195 0
-2195 2196 0
2021 -2195 2197 0
-2197 2198 0
2022 -2197 2199 0
-2199 2200 0
2023 -2199 2201 0
-2201 2202 0
2024 -2201 2203 0
-2203 2204 0
2025 -2203 2205 0
-2205 2206 0
2026 -2205 2207 0
-2207 2208 0
2027 -2207 2209 0
-2209 2210 0
2028 -2209 2211 0
-2211 2212 0
2029 -2211 2213 0
-2213 2214 0
2030 -2213 2215 0
-2215 2216 0
2031 -2215 2217 0
-2217 2218 0
2032 -2217 2219 0
-2219 2220 0
2033 -2219 2221 0
-2221 2222 0
2034 -2221 2223 0
-2223 2224 0
2035 -2223 2225 0
-2225 2226 0
2036 -2225 2227 0
-2227 2228 0
2037 -2227 2229 0
-2229 2230 0
2038 -2229 2231 0
-2231 2232 0
2039 -2231 2233 0
-2233 2234 0
2040 -2233 2235 0
-2235 2236 0
2041 -2235 2237 0
-2237 2238 0
2042 -2237 2239 0
-2239 2240 0
2043 -2239 2241 0
-2241 2242 0
2044 -2241 2243 0
-2243 2244 0
2045 -2243 2245 0
-2245 2246 0
2046 -2245 2247 0
-2247 2248 0
2047 -2247 2249 0
-2249 2250 0
2048 -2249 2251 0
-2251 2252 0
2049 -2251 2253 0
-2253 2254 0
2050 -2253 2255 0
-2255 2256 0
2051 -2255 2257 0
-2257 2258 0
2052 -2257 2259 0
-2259 2260 0
2053 -2259 0
1951 2056 0
1952 -2056 2058 0
1953 -2058 2060 0
1954 -2060 2062 0
1955 -2062 2064 0
1956 -2064 2066 0
1957 -2066 2068 0
1958 -2068 2070 0
1959 -2070 2072 0
1960 -2072 2074 0
1961 -2074 2076 0
1962 -2076 2078 0
1963 -2078 2080 0
1964 -2080 2082 0
1965 -2082 2084 0
1966 -2084 2086 0
1967 -2086 2088 0
1968 -2088 2090 0
1969 -2090 2092 0
1970 -2092 2094 0
1971 -2094 2096 0
1972 -2096 2098 0
1973 -2098 2100 0
1974 -2100 2102 0
1975 -2102 2104 0
1976 -2104 2106 0
1977 -2106 2108 0
1978 -2108 2110 0
1979 -2110 2112 0
1980 -2112 2114 0
1981 -2114 2116 0
1982 -2116 2118 0
1983 -2118 2120 0
1984 -2120 2122 0
1985 -2122 2124 0
1986 -2124 2126 0
1987 -2126 2128 0
1988 -2128 2130 0
1989 -2130 2132 0
1990 -2132 2134 0
1991 -2134 2136 0
1992 -2136 2138 0
1993 -2138 2140 0
1994 -2140 2142 0
1995 -2142 2144 0
1996 -2144 2146 0
1997 -2146 2148 0
1998 -2148 2150 0
1999 -2150 2152 0
2000 -2152 2154 0
2001 -2154 2156 0
2002 -2156 2158 0
2003 -2158 2160 0
2004 -2160 2162 0
2005 -2162 2164 0
2006 -2164 2166 0
2007 -2166 2168 0
2008 -2168 2170 0
2009 -2170 2172 0
2010 -2172 2174 0
2011 -2174 2176 0
2012 -2176 2178 0
2013 -2178 2180 0
2014 -2180 2182 0
2015 -2182 2184 0
2016 -2184 2186 0
2017 -2186 2188 0
2018 -2188 2190 0
2019 -2190 2192 0
2020 -2192 2194 0
2021 -2194 2196 0
2022 -2196 2198 0
2023 -2198 2200 0
2024 -2200 2202 0
2025 -2202 2204 0
2026 -2204 2206 0
2027 -2206 2208 0
2028 -2208 2210 0
2029 -2210 2212 0
2030 -2212 2214 0
2031 -2214 2216 0
2032 -2216 2218 0
2033 -2218 2220 0
2034 -2220 2222 0
2035 -2222 2224 0
2036 -2224 2226 0
2037 -2226 2228 0
2038 -2228 2230 0
2039 -2230 2232 0
2040 -2232 2234 0
2041 -2234 2236 0
2042 -2236 2238 0
2043 -2238 2240 0
2044 -2240 2242 0
2045 -2242 2244 0
2046 -2244 2246 0
2047 -2246 2248 0
2048 -2248 2250 0
2049 -2250 2252 0
2050 -2252 2254 0
2051 -2254 2256 0
2052 -2256 2258 0
2053 -2258 2260 0
2054 -2260 0
-1950 2261 0
-2261 2262 0
-1951 -2261 2263 0
-2263 2264 0
-1952 -2263 0
-1951 2262 0
-2262 2265 0
-1952 -2262 2264 0
-2264 2266 0
-1953 -2264 0
-1952 2265 0
-2265 2267 0
-1953 -2265 2266 0
-2266 2268 0
-1954 -2266 0
-1953 2267 0
-2267 2269 0
-1954 -2267 2268 0
-2268 2270 0
-1955 -2268 0
-1954 2269 0
-2269 2271 0
-1955 -2269 2270 0
-2270 2272 0
-1956 -2270 0
-1955 2271 0
-2271 2273 0
-1956 -2271 2272 0
-2272 2274 0
-1957 -2272 0
-1956 2273 0
-2273 2275 0
-1957 -2273 2274 0
-2274 2276 0
-1958 -2274 0
-1957 2275 0
-2275 2277 0
-1958 -2275 2276 0
-2276 2278 0
-1959 -2276 0
-1958 2277 0
-2277 2279 0
-1959 -2277 2278 0
-2278 2280 0
-1960 -2278 0
-1959 2279 0
-2279 2281 0
-1960 -2279 2280 0
-2280 2282 0
-1961 -2280 0
-1960 2281 0
-2281 2283 0
-1961 -2281 2282 0
-2282 2284 0
-1962 -2282 0
-1961 2283 0
-2283 2285 0
-1962 -2283 2284 0
-2284 2286 0
-1963 -2284 0
-1962 2285 0
-2285 2287 0
-1963 -2285 2286 0
-2286 2288 0
-1964 -2286 0
-1963 2287 0
-2287 2289 0
-1964 -2287 2288 0
-2288 2290 0
-1965 -2288 0
-1964 2289 0
-2289 2291 0
-1965 -2289 2290 0
-2290 2292 0
-1966 -2290 0
-1965 2291 0
-2291 2293 0
-1966 -2291 2292 0
-2292 2294 0
-1967 -2292 0
-1966 2293 0
-2293 2295 0
-1967 -2293 2294 0
-2294 2296 0
-1968 -2294 0
-1967 2295 0
-2295 2297 0
-1968 -2295 2296 0
-2296 2298 0
-1969 -2296 0
-1968 2297 0
-2297 2299 0
-1969 -2297 2298 0
-2298 2300 0
-1970 -2298 0
-1969 2299 0
-2299 2301 0
-1970 -2299 2300 0
-2300 2302 0
-1971 -2300 0
-1970 2301 0
-2301 2303 0
-1971 -2301 2302 0
-2302 2304 0
-1972 -2302 0
-1971 2303 0
-2303 2305 0
-1972 -2303 2304 0
-2304 2306 0
-1973 -2304 0
-1972 2305 0
-2305 2307 0
-1973 -2305 2306 0
-2306 2308 0
-1974 -2306 0
-1973 2307 0
-2307 2309 0
-1974 -2307 2308 0
-2308 2310 0
-1975 -2308 0
-1974 2309 0
-2309 2311 0
-1975 -2309 2310 0
-2310 2312 0
-1976 -2310 0
-1975 2311 0
-2311 2313 0
-1976 -2311 2312 0
-2312 2314 0
-1977 -2312 0
-1976 2313 0
-2313 2315 0
-1977 -2313 2314 0
-2314 2316 0
-1978 -2314 0
-1977 2315 0
-2315 2317 0
-1978 -2315 2316 0
-2316 2318 0
-1979 -2316 0
-1978 2317 0
-2317 2319 0
-1979 -2317 2318 0
-2318 2320 0
-1980 -2318 0
-1979 2319 0
-2319 2321 0
-1980 -2319 2320 0
-2320 2322 0
-1981 -2320 0
-1980 2321 0
-2321 2323 0
-1981 -2321 2322 0
-2322 2324 0
-1982 -2322 0
-1981 2323 0
-2323 2325 0
-1982 -2323 2324 0
-2324 2326 0
-1983 -2324 0
-1982 2325 0
-2325 2327 0
-1983 -2325 2326 0
-2326 2328 0
-1984 -2326 0
-1983 2327 0
-2327 2329 0
-1984 -2327 2328 0
-2328 2330 0
-1985 -2328 0
-1984 2329 0
-2329 2331 0
-1985 -2329 2330 0
-2330 2332 0
-1986 -2330 0
-1985 2331 0
-2331 2333 0
-1986 -2331 2332 0
-2332 2334 0
-1987 -2332 0
-1986 2333 0
-2333 2335 0
-1987 -2333 2334 0
-2334 2336 0
-1988 -2334 0
-1987 2335 0
-2335 2337 0
-1988 -2335 2336 0
-2336 2338 0
-1989 -2336 0
-1988 2337 0
-2337 2339 0
-1989 -2337 2338 0
-2338 2340 0
-1990 -2338 0
-1989 2339 0
-2339 2341 0
-1990 -2339 2340 0
-2340 2342 0
-1991 -2340 0
-1990 2341 0
-2341 2343 0
-1991 -2341 2342 0
-2342 2344 0
-1992 -2342 0
-1991 2343 0
-2343 2345 0
-1992 -2343 2344 0
-2344 2346 0
-1993 -2344 0
-1992 2345 0
-2345 2347 0
-1993 -2345 2346 0
-2346 2348 0
-1994 -2346 0
-1993 2347 0
-2347 2349 0
-1994 -2347 2348 0
-2348 2350 0
-1995 -2348 0
-1994 2349 0
-2349 2351 0
-1995 -2349 2350 0
-2350 2352 0
-1996 -2350 0
-1995 2351 0
-2351 2353 0
-1996 -2351 2352 0
-2352 2354 0
-1997 -2352 0
-1996 2353 0
-2353 2355 0
-1997 -2353 2354 0
-2354 2356 0
-1998 -2354 0
-1997 2355 0
-2355 2357 0
-1998 -2355 2356 0
-2356 2358 0
-1999 -2356 0
-1998 2357 0
-2357 2359 0
-1999 -2357 2358 0
-2358 2360 0
-2000 -2358 0
-1999 2359 0
-2359 2361 0
-2000 -2359 2360 0
-2360 2362 0
-2001 -2360 0
-2000 2361 0
-2361 2363 0
-2001 -2361 2362 0
-2362 2364 0
-2002 -2362 0
-2001 2363 0
-2363 2365 0
-2002 -2363 2364 0
-2364 2366 0
-2003 -2364 0
-2002 2365 0
-2365 2367 0
-2003 -2365 2366 0
-2366 2368 0
-2004 -2366 0
-2003 2367 0
-2367 2369 0
-2004 -2367 2368 0
-2368 2370 0
-2005 -2368 0
-2004 2369 0
-2369 2371 0
-2005 -2369 2370 0
-2370 2372 0
-2006 -2370 0
-2005 2371 0
-2371 2373 0
-2006 -2371 2372 0
-2372 2374 0
-2007 -2372 0
-2006 2373 0
-2373 2375 0
-2007 -2373 2374 0
-2374 2376 0
-2008 -2374 0
-2007 2375 0
-2375 2377 0
-2008 -2375 2376 0
-2376 2378 0
-2009 -2376 0
-2008 2377 0
-2377 2379 0
-2009 -2377 2378 0
-2378 2380 0
-2010 -2378 0
-2009 2379 0
-2379 2381 0
-2010 -2379 2380 0
-2380 2382 0
-2011 -2380 0
-2010 2381 0
-2381 2383 0
-2011 -2381 2382 0
-2382 2384 0
-2012 -2382 0
-2011 2383 0
-2383 2385 0
-2012 -2383 2384 0
-2384 2386 0
-2013 -2384 0
-2012 2385 0
-2385 2387 0
-2013 -2385 2386 0
-2386 2388 0
-2014 -2386 0
-2013 2387 0
-2387 2389 0
-2014 -2387 2388 0
-2388 2390 0
-2015 -2388 0
-2014 2389 0
-2389 2391 0
-2015 -2389 2390 0
-2390 2392 0
-2016 -2390 0
-2015 2391 0
-2391 2393 0
-2016 -2391 2392 0
-2392 2394 0
-2017 -2392 0
-2016 2393 0
-2393 2395 0
-2017 -2393 2394 0
-2394 2396 0
-2018 -2394 0
-2017 2395 0
-2395 2397 0
-2018 -2395 2396 0
-2396 2398 0
-2019 -2396 0
-2018 2397 0
-2397 2399 0
-2019 -2397 2398 0
-2398 2400 0
-2020 -2398 0
-2019 2399 0
-2399 2401 0
-2020 -2399 2400 0
-2400 2402 0
-2021 -2400 0
-2020 2401 0
-2401 2403 0
-2021 -2401 2402 0
-2402 2404 0
-2022 -2402 0
-2021 2403 0
-2403 2405 0
-2022 -2403 2404 0
-2404 2406 0
-2023 -2404 0
-2022 2405 0
-2405 2407 0
-2023 -2405 2406 0
-2406 2408 0
-2024 -2406 0
-2023 2407 0
-2407 2409 0
-2024 -2407 2408 0
-2408 2410 0
-2025 -2408 0
-2024 2409 0
-2409 2411 0
-2025 -2409 2410 0
-2410 2412 0
-2026 -2410 0
-2025 2411 0
-2411 2413 0
-2026 -2411 2412 0
-2412 2414 0
-2027 -2412 0
-2026 2413 0
-2413 2415 0
-2027 -2413 2414 0
-2414 2416 0
-2028 -2414 0
-2027 2415 0
-2415 2417 0
-2028 -2415 2416 0
-2416 2418 0
-2029 -2416 0
-2028 2417 0
-2417 2419 0
-2029 -2417 2418 0
-2418 2420 0
-2030 -2418 0
-2029 2419 0
-2419 2421 0
-2030 -2419 2420 0
-2420 2422 0
-2031 -2420 0
-2030 2421 0
-2421 2423 0
-2031 -2421 2422 0
-2422 2424 0
-2032 -2422 0
-2031 2423 0
-2423 2425 0
-2032 -2423 2424 0
-2424 2426 0
-2033 -2424 0
-2032 2425 0
-2425 2427 0
-2033 -2425 2426 0
-2426 2428 0
-2034 -2426 0
-2033 2427 0
-2427 2429 0
-2034 -2427 2428 0
-2428 2430 0
-2035 -2428 0
-2034 2429 0
-2429 2431 0
-2035 -2429 2430 0
-2430 2432 0
-2036 -2430 0
-2035 2431 0
-2431 2433 0
-2036 -2431 2432 0
-2432 2434 0
-2037 -2432 0
-2036 2433 0
-2433 2435 0
-2037 -2433 2434 0
-2434 2436 0
-2038 -2434 0
-2037 2435 0
-2435 2437 0
-2038 -2435 2436 0
-2436 2438 0
-2039 -2436 0
-2038 2437 0
-2437 2439 0
-2039 -2437 2438 0
-2438 2440 0
-2040 -2438 0
-2039 2439 0
-2439 2441 0
-2040 -2439 2440 0
-2440 2442 0
-2041 -2440 0
-2040 2441 0
-2441 2443 0
-2041 -2441 2442 0
-2442 2444 0
-2042 -2442 0
-2041 2443 0
-2443 2445 0
-2042 -2443 2444 0
-2444 2446 0
-2043 -2444 0
-2042 2445 0
-2445 2447 0
-2043 -2445 2446 0
-2446 2448 0
-2044 -2446 0
-2043 2447 0
-2447 2449 0
-2044 -2447 2448 0
-2448 2450 0
-2045 -2448 0
-2044 2449 0
-2449 2451 0
-2045 -2449 2450 0
-2450 2452 0
-2046 -2450 0
-2045 2451 0
-2451 2453 0
-2046 -2451 2452 0
-2452 2454 0
-2047 -2452 0
-2046 2453 0
-2453 2455 0
-2047 -2453 2454 0
-2454 2456 0
-2048 -2454 0
-2047 2455 0
-2455 2457 0
-2048 -2455 2456 0
-2456 2458 0
-2049 -2456 0
-2048 2457 0
-2457 2459 0
-2049 -2457 2458 0
-2458 2460 0
-2050 -2458 0
-2049 2459 0
-2459 2461 0
-2050 -2459 2460 0
-2460 2462 0
-2051 -2460 0
-2050 2461 0
-2461 2463 0
-2051 -2461 2462 0
-2462 2464 0
-2052 -2462 0
-2051 2463 0
-2463 2465 0
-2052 -2463 2464 0
-2464 2466 0
-2053 -2464 0
-2052 2465 0
-2053 -2465 2466 0
-2054 -2466 0
8 2467 0
-2467 2468 0
18 -2467 2469 0
-2469 2470 0
26 -2469 2471 0
-2471 2472 0
36 -2471 2473 0
-2473 2474 0
44 -2473 2475 0
-2475 2476 0
54 -2475 2477 0
-2477 2478 0
62 -2477 2479 0
-2479 2480 0
69 -2479 2481 0
-2481 2482 0
77 -2481 2483 0
-2483 2484 0
87 -2483 2485 0
-2485 2486 0
95 -2485 2487 0
-2487 2488 0
105 -2487 0
18 2468 0
-2468 2489 0
26 -2468 2470 0
-2470 2490 0
36 -2470 2472 0
-2472 2491 0
44 -2472 2474 0
-2474 2492 0
54 -2474 2476 0
-2476 2493 0
62 -2476 2478 0
-2478 2494 0
69 -2478 2480 0
-2480 2495 0
77 -2480 2482 0
-2482 2496 0
87 -2482 2484 0
-2484 2497 0
95 -2484 2486 0
-2486 2498 0
105 -2486 2488 0
-2488 2499 0
113 -2488 0
26 2489 0
-2489 2500 0
36 -2489 2490 0
-2490 2501 0
44 -2490 2491 0
-2491 2502 0
54 -2491 2492 0
-2492 2503 0
62 -2492 2493 0
-2493 2504 0
69 -2493 2494 0
-2494 2505 0
77 -2494 2495 0
-2495 2506 0
87 -2495 2496 0
-2496 2507 0
95 -2496 2497 0
-2497 2508 0
105 -2497 2498 0
-2498 2509 0
113 -2498 2499 0
-2499 2510 0
125 -2499 0
36 2500 0
-2500 2511 0
44 -2500 2501 0
-2501 2512 0
54 -2501 2502 0
-2502 2513 0
62 -2502 2503 0
-2503 2514 0
69 -2503 2504 0
-2504 2515 0
77 -2504 2505 0
-2505 2516 0
87 -2505 2506 0
-2506 2517 0
95 -2506 2507 0
-2507 2518 0
105 -2507 2508 0
-2508 2519 0
113 -2508 2509 0
-2509 2520 0
125 -2509 2510 0
-2510 2521 0
135 -2510 0
44 2511 0
-2511 2522 0
54 -2511 2512 0
-2512 2523 0
62 -2512 2513 0
-2513 2524 0
69 -2513 2514 0
-2514 2525 0
77 -2514 2515 0
-2515 2526 0
87 -2515 2516 0
-2516 2527 0
95 -2516 2517 0
-2517 2528 0
105 -2517 2518 0
-2518 2529 0
113 -2518 2519 0
-2519 2530 0
125 -2519 2520 0
-2520 2531 0
135 -2520 2521 0
-2521 2532 0
143 -2521 0
54 2522 0
-2522 2533 0
62 -2522 2523 0
-2523 2534 0
69 -2523 2524 0
-2524 2535 0
77 -2524 2525 0
-2525 2536 0
87 -2525 2526 0
-2526 2537 0
95 -2526 2527 0
-2527 2538 0
105 -2527 2528 0
-2528 2539 0
113 -2528 2529 0
-2529 2540 0
125 -2529 2530 0
-2530 2541 0
135 -2530 2531 0
-2531 2542 0
143 -2531 2532 0
-2532 2543 0
153 -2532 0
62 2533 0
-2533 2544 0
69 -2533 2534 0
-2534 2545 0
77 -2534 2535 0
-2535 2546 0
87 -2535 2536 0
-2536 2547 0
95 -2536 2537 0
-2537 2548 0
105 -2537 2538 0
-2538 2549 0
113 -2538 2539 0
-2539 2550 0
125 -2539 2540 0
-2540 2551 0
135 -2540 2541 0
-2541 2552 0
143 -2541 2542 0
-2542 2553 0
153 -2542 2543 0
-2543 2554 0
161 -2543 0
69 2544 0
-2544 2555 0
77 -2544 2545 0
-2545 2556 0
87 -2545 2546 0
-2546 2557 0
95 -2546 2547 0
-2547 2558 0
105 -2547 2548 0
-2548 2559 0
113 -2548 2549 0
-2549 2560 0
125 -2549 2550 0
-2550 2561 0
135 -2550 2551 0
-2551 2562 0
143 -2551 2552 0
-2552 2563 0
153 -2552 2553 0
-2553 2564 0
161 -2553 2554 0
-2554 2565 0
168 -2554 0
77 2555 0
-2555 2566 0
87 -2555 2556 0
-2556 2567 0
95 -2556 2557 0
-2557 2568 0
105 -2557 2558 0
-2558 2569 0
113 -2558 2559 0
-2559 2570 0
125 -2559 2560 0
-2560 2571 0
135 -2560 2561 0
-2561 2572 0
143 -2561 2562 0
-2562 2573 0
153 -2562 2563 0
-2563 2574 0
161 -2563 2564 0
-2564 2575 0
168 -2564 2565 0
-2565 2576 0
176 -2565 0
87 2566 0
-2566 2577 0
95 -2566 2567 0
-2567 2578 0
105 -2567 2568 0
-2568 2579 0
113 -2568 2569 0
-2569 2580 0
125 -2569 2570 0
-2570 2581 0
135 -2570 2571 0
-2571 2582 0
143 -2571 2572 0
-2572 2583 0
153 -2572 2573 0
-2573 2584 0
161 -2573 2574 0
-2574 2585 0
168 -2574 2575 0
-2575 2586 0
176 -2575 2576 0
-2576 2587 0
186 -2576 0
95 2577 0
-2577 2588 0
105 -2577 2578 0
-2578 2589 0
113 -2578 2579 0
-2579 2590 0
125 -2579 2580 0
-2580 2591 0
135 -2580 2581 0
-2581 2592 0
143 -2581 2582 0
-2582 2593 0
153 -2582 2583 0
-2583 2594 0
161 -2583 2584 0
-2584 2595 0
168 -2584 2585 0
-2585 2596 0
176 -2585 2586 0
-2586 2597 0
186 -2586 2587 0
-2587 2598 0
194 -2587 0
105 2588 0
-2588 2599 0
113 -2588 2589 0
-2589 2600 0
125 -2589 2590 0
-2590 2601 0
135 -2590 2591 0
-2591 2602 0
143 -2591 2592 0
-2592 2603 0
153 -2592 2593 0
-2593 2604 0
161 -2593 2594 0
-2594 2605 0
168 -2594 2595 0
-2595 2606 0
176 -2595 2596 0
-2596 2607 0
186 -2596 2597 0
-2597 2608 0
194 -2597 2598 0
-2598 2609 0
206 -2598 0
113 2599 0
-2599 2610 0
125 -2599 2600 0
-2600 2611 0
135 -2600 2601 0
-2601 2612 0
143 -2601 2602 0
-2602 2613 0
153 -2602 2603 0
-2603 2614 0
161 -2603 2604 0
-2604 2615 0
168 -2604 2605 0
-2605 2616 0
176 -2605 2606 0
-2606 2617 0
186 -2606 2607 0
-2607 2618 0
194 -2607 2608 0
-2608 2619 0
206 -2608 2609 0
-2609 2620 0
216 -2609 0
125 2610 0
-2610 2621 0
135 -2610 2611 0
-2611 2622 0
143 -2611 2612 0
-2612 2623 0
153 -2612 2613 0
-2613 2624 0
161 -2613 2614 0
-2614 2625 0
168 -2614 2615 0
-2615 2626 0
176 -2615 2616 0
-2616 2627 0
186 -2616 2617 0
-2617 2628 0
194 -2617 2618 0
-2618 2629 0
206 -2618 2619 0
-2619 2630 0
216 -2619 2620 0
-2620 2631 0
224 -2620 0
135 2621 0
-2621 2632 0
143 -2621 2622 0
-2622 2633 0
153 -2622 2623 0
-2623 2634 0
161 -2623 2624 0
-2624 2635 0
168 -2624 2625 0
-2625 2636 0
176 -2625 2626 0
-2626 2637 0
186 -2626 2627 0
-2627 2638 0
194 -2627 2628 0
-2628 2639 0
206 -2628 2629 0
-2629 2640 0
216 -2629 2630 0
-2630 2641 0
224 -2630 2631 0
-2631 2642 0
231 -2631 0
143 2632 0
-2632 2643 0
153 -2632 2633 0
-2633 2644 0
161 -2633 2634 0
-2634 2645 0
168 -2634 2635 0
-2635 2646 0
176 -2635 2636 0
-2636 2647 0
186 -2636 2637 0
-2637 2648 0
194 -2637 2638 0
-2638 2649 0
206 -2638 2639 0
-2639 2650 0
216 -2639 2640 0
-2640 2651 0
224 -2640 2641 0
-2641 2652 0
231 -2641 2642 0
-2642 2653 0
239 -2642 0
153 2643 0
161 -2643 2644 0
168 -2644 2645 0
176 -2645 2646 0
186 -2646 2647 0
194 -2647 2648 0
206 -2648 2649 0
216 -2649 2650 0
224 -2650 2651 0
231 -2651 2652 0
239 -2652 2653 0
251 -2653 0
-8 2654 0
-2654 2655 0
-18 -2654 2656 0
-2656 2657 0
-26 -2656 2658 0
-2658 2659 0
-36 -2658 2660 0
-2660 2661 0
-44 -2660 2662 0
-2662 2663 0
-54 -2662 2664 0
-2664 2665 0
-62 -2664 2666 0
-2666 2667 0
-69 -2666 2668 0
-2668 2669 0
-77 -2668 2670 0
-2670 2671 0
-87 -2670 2672 0
-2672 2673 0
-95 -2672 2674 0
-2674 2675 0
-105 -2674 2676 0
-2676 2677 0
-113 -2676 2678 0
-2678 2679 0
-125 -2678 2680 0
-2680 2681 0
-135 -2680 2682 0
-2682 2683 0
-143 -2682 2684 0
-2684 2685 0
-153 -2684 2686 0
-2686 2687 0
-161 -2686 0
-18 2655 0
-2655 2688 0
-26 -2655 2657 0
-2657 2689 0
-36 -2657 2659 0
-2659 2690 0
-44 -2659 2661 0
-2661 2691 0
-54 -2661 2663 0
-2663 2692 0
-62 -2663 2665 0
-2665 2693 0
-69 -2665 2667 0
-2667 2694 0
-77 -2667 2669 0
-2669 2695 0
-87 -2669 2671 0
-2671 2696 0
-95 -2671 2673 0
-2673 2697 0
-105 -2673 2675 0
-2675 2698 0
-113 -2675 2677 0
-2677 2699 0
-125 -2677 2679 0
-2679 2700 0
-135 -2679 2681 0
-2681 2701 0
-143 -2681 2683 0
-2683 2702 0
-153 -2683 2685 0
-2685 2703 0
-161 -2685 2687 0
-2687 2704 0
-168 -2687 0
-26 2688 0
-2688 2705 0
-36 -2688 2689 0
-2689 2706 0
-44 -2689 2690 0
-2690 2707 0
-54 -2690 2691 0
-2691 2708 0
-62 -2691 2692 0
-2692 2709 0
-69 -2692 2693 0
-2693 2710 0
-77 -2693 2694 0
-2694 2711 0
-87 -2694 2695 0
-2695 2712 0
-95 -2695 2696 0
-2696 2713 0
-105 -2696 2697 0
-2697 2714 0
-113 -2697 2698 0
-2698 2715 0
-125 -2698 2699 0
-2699 2716 0
-135 -2699 2700 0
-2700 2717 0
-143 -2700 2701 0
-2701 2718 0
-153 -2701 2702 0
-2702 2719 0
-161 -2702 2703 0
-2703 2720 0
-168 -2703 2704 0
-2704 2721 0
-176 -2704 0
-36 2705 0
-2705 2722 0
-44 -2705 2706 0
-2706 2723 0
-54 -2706 2707 0
-2707 2724 0
-62 -2707 2708 0
-2708 2725 0
-69 -2708 2709 0
-2709 2726 0
-77 -2709 2710 0
-2710 2727 0
-87 -2710 2711 0
-2711 2728 0
-95 -2711 2712 0
-2712 2729 0
-105 -2712 2713 0
-2713 2730 0
-113 -2713 2714 0
-2714 2731 0
-125 -2714 2715 0
-2715 2732 0
-135 -2715 2716 0
-2716 2733 0
-143 -2716 2717 0
-2717 2734 0
-153 -2717 2718 0
-2718 2735 0
-161 -2718 2719 0
-2719 2736 0
-168 -2719 2720 0
-2720 2737 0
-176 -2720 2721 0
-2721 2738 0
-186 -2721 0
-44 2722 0
-2722 2739 0
-54 -2722 2723 0
-2723 2740 0
-62 -2723 2724 0
-2724 2741 0
-69 -2724 2725 0
-2725 2742 0
-77 -2725 2726 0
-2726 2743 0
-87 -2726 2727 0
-2727 2744 0
-95 -2727 2728 0
-2728 2745 0
-105 -2728 2729 0
-2729 2746 0
-113 -2729 2730 0
-2730 2747 0
-125 -2730 2731 0
-2731 2748 0
-135 -2731 2732 0
-2732 2749 0
-143 -2732 2733 0
-2733 2750 0
-153 -2733 2734 0
-2734 2751 0
-161 -2734 2735 0
-2735 2752 0
-168 -2735 2736 0
-2736 2753 0
-176 -2736 2737 0
-2737 2754 0
-186 -2737 2738 0
-2738 2755 0
-194 -2738 0
-54 2739 0
-2739 2756 0
-62 -2739 2740 0
-2740 2757 0
-69 -2740 2741 0
-2741 2758 0
-77 -2741 2742 0
-2742 2759 0
-87 -2742 2743 0
-2743 2760 0
-95 -2743 2744 0
-2744 2761 0
-105 -2744 2745 0
-2745 2762 0
-113 -2745 2746 0
-2746 2763 0
-125 -2746 2747 0
-2747 2764 0
-135 -2747 2748 0
-2748 2765 0
-143 -2748 2749 0
-2749 2766 0
-153 -2749 2750 0
-2750 2767 0
-161 -2750 2751 0
-2751 2768 0
-168 -2751 2752 0
-2752 2769 0
-176 -2752 2753 0
-2753 2770 0
-186 -2753 2754 0
-2754 2771 0
-194 -2754 2755 0
-2755 2772 0
-206 -2755 0
-62 2756 0
-2756 2773 0
-69 -2756 2757 0
-2757 2774 0
-77 -2757 2758 0
-2758 2775 0
-87 -2758 2759 0
-2759 2776 0
-95 -2759 2760 0
-2760 2777 0
-105 -2760 2761 0
-2761 2778 0
-113 -2761 2762 0
-2762 2779 0
-125 -2762 2763 0
-2763 2780 0
-135 -2763 2764 0
-2764 2781 0
-143 -2764 2765 0
-2765 2782 0
-153 -2765 2766 0
-2766 2783 0
-161 -2766 2767 0
-2767 2784 0
-168 -2767 2768 0
-2768 2785 0
-176 -2768 2769 0
-2769 2786 0
-186 -2769 2770 0
-2770 2787 0
-194 -2770 2771 0
-2771 2788 0
-206 -2771 2772 0
-2772 2789 0
-216 -2772 0
-69 2773 0
-2773 2790 0
-77 -2773 2774 0
-2774 2791 0
-87 -2774 2775 0
-2775 2792 0
-95 -2775 2776 0
-2776 2793 0
-105 -2776 2777 0
-2777 2794 0
-113 -2777 2778 0
-2778 2795 0
-125 -2778 2779 0
-2779 2796 0
-135 -2779 2780 0
-2780 2797 0
-143 -2780 2781 0
-2781 2798 0
-153 -2781 2782 0
-2782 2799 0
-161 -2782 2783 0
-2783 2800 0
-168 -2783 2784 0
-2784 2801 0
-176 -2784 2785 0
-2785 2802 0
-186 -2785 2786 0
-2786 2803 0
-194 -2786 2787 0
-2787 2804 0
-206 -2787 2788 0
-2788 2805 0
-216 -2788 2789 0
-2789 2806 0
-224 -2789 0
-77 2790 0
-2790 2807 0
-87 -2790 2791 0
-2791 2808 0
-95 -2791 2792 0
-2792 2809 0
-105 -2792 2793 0
-2793 2810 0
-113 -2793 2794 0
-2794 2811 0
-125 -2794 2795 0
-2795 2812 0
-135 -2795 2796 0
-2796 2813 0
-143 -2796 2797 0
-2797 2814 0
-153 -2797 2798 0
-2798 2815 0
-161 -2798 2799 0
-2799 2816 0
-168 -2799 2800 0
-2800 2817 0
-176 -2800 2801 0
-2801 2818 0
-186 -2801 2802 0
-2802 2819 0
-194 -2802 2803 0
-2803 2820 0
-206 -2803 2804 0
-2804 2821 0
-216 -2804 2805 0
-2805 2822 0
-224 -2805 2806 0
-2806 2823 0
-231 -2806 0
-87 2807 0
-2807 2824 0
-95 -2807 2808 0
-2808 2825 0
-105 -2808 2809 0
-2809 2826 0
-113 -2809 2810 0
-2810 2827 0
-125 -2810 2811 0
-2811 2828 0
-135 -2811 2812 0
-2812 2829 0
-143 -2812 2813 0
-2813 2830 0
-153 -2813 2814 0
-2814 2831 0
-161 -2814 2815 0
-2815 2832 0
-168 -2815 2816 0
-2816 2833 0
-176 -2816 2817 0
-2817 2834 0
-186 -2817 2818 0
-2818 2835 0
-194 -2818 2819 0
-2819 2836 0
-206 -2819 2820 0
-2820 2837 0
-216 -2820 2821 0
-2821 2838 0
-224 -2821 2822 0
-2822 2839 0
-231 -2822 2823 0
-2823 2840 0
-239 -2823 0
-95 2824 0
-105 -2824 2825 0
-113 -2825 2826 0
-125 -2826 2827 0
-135 -2827 2828 0
-143 -2828 2829 0
-153 -2829 2830 0
-161 -2830 2831 0
-168 -2831 2832 0
-176 -2832 2833 0
-186 -2833 2834 0
-194 -2834 2835 0
-206 -2835 2836 0
-216 -2836 2837 0
-224 -2837 2838 0
-231 -2838 2839 0
-239 -2839 2840 0
-251 -2840 0
-2841 8 0
-2841 125 0
-2841 206 0
-2841 251 0
-8 -125 -206 -251 2841 0
-2842 8 0
-2842 125 0
-2842 216 0
-2842 239 0
-8 -125 -216 -239 2842 0
-2843 8 0
-2843 125 0
-2843 224 0
-2843 231 0
-8 -125 -224 -231 2843 0
-2844 8 0
-2844 135 0
-2844 176 0
-2844 251 0
-8 -135 -176 -251 2844 0
-2845 8 0
-2845 135 0
-2845 186 0
-2845 239 0
-8 -135 -186 -239 2845 0
-2846 8 0
-2846 135 0
-2846 194 0
-2846 231 0
-8 -135 -194 -231 2846 0
-2847 8 0
-2847 143 0
-2847 168 0
-2847 251 0
-8 -143 -168 -251 2847 0
-2848 8 0
-2848 143 0
-2848 186 0
-2848 224 0
-8 -143 -186 -224 2848 0
-2849 8 0
-2849 143 0
-2849 194 0
-2849 216 0
-8 -143 -194 -216 2849 0
-2850 8 0
-2850 153 0
-2850 168 0
-2850 239 0
-8 -153 -168 -239 2850 0
-2851 8 0
-2851 153 0
-2851 176 0
-2851 224 0
-8 -153 -176 -224 2851 0
-2852 8 0
-2852 153 0
-2852 194 0
-2852 206 0
-8 -153 -194 -206 2852 0
-2853 8 0
-2853 161 0
-2853 168 0
-2853 231 0
-8 -161 -168 -231 2853 0
-2854 8 0
-2854 161 0
-2854 176 0
-2854 216 0
-8 -161 -176 -216 2854 0
-2855 8 0
-2855 161 0
-2855 186 0
-2855 206 0
-8 -161 -186 -206 2855 0
-2856 18 0
-2856 77 0
-2856 206 0
-2856 251 0
-18 -77 -206 -251 2856 0
-2857 18 0
-2857 77 0
-2857 216 0
-2857 239 0
-18 -77 -216 -239 2857 0
-2858 18 0
-2858 77 0
-2858 224 0
-2858 231 0
-18 -77 -224 -231 2858 0
-2859 18 0
-2859 87 0
-2859 176 0
-2859 251 0
-18 -87 -176 -251 2859 0
-2860 18 0
-2860 87 0
-2860 186 0
-2860 239 0
-18 -87 -186 -239 2860 0
-2861 18 0
-2861 87 0
-2861 194 0
-2861 231 0
-18 -87 -194 -231 2861 0
-2862 18 0
-2862 95 0
-2862 168 0
-2862 251 0
-18 -95 -168 -251 2862 0
-2863 18 0
-2863 95 0
-2863 186 0
-2863 224 0
-18 -95 -186 -224 2863 0
-2864 18 0
-2864 95 0
-2864 194 0
-2864 216 0
-18 -95 -194 -216 2864 0
-2865 18 0
-2865 105 0
-2865 168 0
-2865 239 0
-18 -105 -168 -239 2865 0
-2866 18 0
-2866 105 0
-2866 176 0
-2866 224 0
-18 -105 -176 -224 2866 0
-2867 18 0
-2867 105 0
-2867 194 0
-2867 206 0
-18 -105 -194 -206 2867 0
-2868 18 0
-2868 113 0
-2868 168 0
-2868 231 0
-18 -113 -168 -231 2868 0
-2869 18 0
-2869 113 0
-2869 176 0
-2869 216 0
-18 -113 -176 -216 2869 0
-2870 18 0
-2870 113 0
-2870 186 0
-2870 206 0
-18 -113 -186 -206 2870 0
-2871 26 0
-2871 69 0
-2871 206 0
-2871 251 0
-26 -69 -206 -251 2871 0
-2872 26 0
-2872 69 0
-2872 216 0
-2872 239 0
-26 -69 -216 -239 2872 0
-2873 26 0
-2873 69 0
-2873 224 0
-2873 231 0
-26 -69 -224 -231 2873 0
-2874 26 0
-2874 87 0
-2874 143 0
-2874 251 0
-26 -87 -143 -251 2874 0
-2875 26 0
-2875 87 0
-2875 153 0
-2875 239 0
-26 -87 -153 -239 2875 0
-2876 26 0
-2876 87 0
-2876 161 0
-2876 231 0
-26 -87 -161 -231 2876 0
-2877 26 0
-2877 95 0
-2877 135 0
-2877 251 0
-26 -95 -135 -251 2877 0
-2878 26 0
-2878 95 0
-2878 153 0
-2878 224 0
-26 -95 -153 -224 2878 0
-2879 26 0
-2879 95 0
-2879 161 0
-2879 216 0
-26 -95 -161 -216 2879 0
-2880 26 0
-2880 105 0
-2880 135 0
-2880 239 0
-26 -105 -135 -239 2880 0
-2881 26 0
-2881 105 0
-2881 143 0
-2881 224 0
-26 -105 -143 -224 2881 0
-2882 26 0
-2882 105 0
-2882 161 0
-2882 206 0
-26 -105 -161 -206 2882 0
-2883 26 0
-2883 113 0
-2883 135 0
-2883 231 0
-26 -113 -135 -231 2883 0
-2884 26 0
-2884 113 0
-2884 143 0
-2884 216 0
-26 -113 -143 -216 2884 0
-2885 26 0
-2885 113 0
-2885 153 0
-2885 206 0
-26 -113 -153 -206 2885 0
-2886 36 0
-2886 69 0
-2886 176 0
-2886 251 0
-36 -69 -176 -251 2886 0
-2887 36 0
-2887 69 0
-2887 186 0
-2887 239 0
-36 -69 -186 -239 2887 0
-2888 36 0
-2888 69 0
-2888 194 0
-2888 231 0
-36 -69 -194 -231 2888 0
-2889 36 0
-2889 77 0
-2889 143 0
-2889 251 0
-36 -77 -143 -251 2889 0
-2890 36 0
-2890 77 0
-2890 153 0
-2890 239 0
-36 -77 -153 -239 2890 0
-2891 36 0
-2891 77 0
-2891 161 0
-2891 231 0
-36 -77 -161 -231 2891 0
-2892 36 0
-2892 95 0
-2892 125 0
-2892 251 0
-36 -95 -125 -251 2892 0
-2893 36 0
-2893 95 0
-2893 153 0
-2893 194 0
-36 -95 -153 -194 2893 0
-2894 36 0
-2894 95 0
-2894 161 0
-2894 186 0
-36 -95 -161 -186 2894 0
-2895 36 0
-2895 105 0
-2895 125 0
-2895 239 0
-36 -105 -125 -239 2895 0
-2896 36 0
-2896 105 0
-2896 143 0
-2896 194 0
-36 -105 -143 -194 2896 0
-2897 36 0
-2897 105 0
-2897 161 0
-2897 176 0
-36 -105 -161 -176 2897 0
-2898 36 0
-2898 113 0
-2898 125 0
-2898 231 0
-36 -113 -125 -231 2898 0
-2899 36 0
-2899 113 0
-2899 143 0
-2899 186 0
-36 -113 -143 -186 2899 0
-2900 36 0
-2900 113 0
-2900 153 0
-2900 176 0
-36 -113 -153 -176 2900 0
-2901 44 0
-2901 69 0
-2901 168 0
-2901 251 0
-44 -69 -168 -251 2901 0
-2902 44 0
-2902 69 0
-2902 186 0
-2902 224 0
-44 -69 -186 -224 2902 0
-2903 44 0
-2903 69 0
-2903 194 0
-2903 216 0
-44 -69 -194 -216 2903 0
-2904 44 0
-2904 77 0
-2904 135 0
-2904 251 0
-44 -77 -135 -251 2904 0
-2905 44 0
-2905 77 0
-2905 153 0
-2905 224 0
-44 -77 -153 -224 2905 0
-2906 44 0
-2906 77 0
-2906 161 0
-2906 216 0
-44 -77 -161 -216 2906 0
-2907 44 0
-2907 87 0
-2907 125 0
-2907 251 0
-44 -87 -125 -251 2907 0
-2908 44 0
-2908 87 0
-2908 153 0
-2908 194 0
-44 -87 -153 -194 2908 0
-2909 44 0
-2909 87 0
-2909 161 0
-2909 186 0
-44 -87 -161 -186 2909 0
-2910 44 0
-2910 105 0
-2910 125 0
-2910 224 0
-44 -105 -125 -224 2910 0
-2911 44 0
-2911 105 0
-2911 135 0
-2911 194 0
-44 -105 -135 -194 2911 0
-2912 44 0
-2912 105 0
-2912 161 0
-2912 168 0
-44 -105 -161 -168 2912 0
-2913 44 0
-2913 113 0
-2913 125 0
-2913 216 0
-44 -113 -125 -216 2913 0
-2914 44 0
-2914 113 0
-2914 135 0
-2914 186 0
-44 -113 -135 -186 2914 0
-2915 44 0
-2915 113 0
-2915 153 0
-2915 168 0
-44 -113 -153 -168 2915 0
-2916 54 0
-2916 69 0
-2916 168 0
-2916 239 0
-54 -69 -168 -239 2916 0
-2917 54 0
-2917 69 0
-2917 176 0
-2917 224 0
-54 -69 -176 -224 2917 0
-2918 54 0
-2918 69 0
-2918 194 0
-2918 206 0
-54 -69 -194 -206 2918 0
-2919 54 0
-2919 77 0
-2919 135 0
-2919 239 0
-54 -77 -135 -239 2919 0
-2920 54 0
-2920 77 0
-2920 143 0
-2920 224 0
-54 -77 -143 -224 2920 0
-2921 54 0
-2921 77 0
-2921 161 0
-2921 206 0
-54 -77 -161 -206 2921 0
-2922 54 0
-2922 87 0
-2922 125 0
-2922 239 0
-54 -87 -125 -239 2922 0
-2923 54 0
-2923 87 0
-2923 143 0
-2923 194 0
-54 -87 -143 -194 2923 0
-2924 54 0
-2924 87 0
-2924 161 0
-2924 176 0
-54 -87 -161 -176 2924 0
-2925 54 0
-2925 95 0
-2925 125 0
-2925 224 0
-54 -95 -125 -224 2925 0
-2926 54 0
-2926 95 0
-2926 135 0
-2926 194 0
-54 -95 -135 -194 2926 0
-2927 54 0
-2927 95 0
-2927 161 0
-2927 168 0
-54 -95 -161 -168 2927 0
-2928 54 0
-2928 113 0
-2928 125 0
-2928 206 0
-54 -113 -125 -206 2928 0
-2929 54 0
-2929 113 0
-2929 135 0
-2929 176 0
-54 -113 -135 -176 2929 0
-2930 54 0
-2930 113 0
-2930 143 0
-2930 168 0
-54 -113 -143 -168 2930 0
-2931 62 0
-2931 69 0
-2931 168 0
-2931 231 0
-62 -69 -168 -231 2931 0
-2932 62 0
-2932 69 0
-2932 176 0
-2932 216 0
-62 -69 -176 -216 2932 0
-2933 62 0
-2933 69 0
-2933 186 0
-2933 206 0
-62 -69 -186 -206 2933 0
-2934 62 0
-2934 77 0
-2934 135 0
-2934 231 0
-62 -77 -135 -231 2934 0
-2935 62 0
-2935 77 0
-2935 143 0
-2935 216 0
-62 -77 -143 -216 2935 0
-2936 62 0
-2936 77 0
-2936 153 0
-2936 206 0
-62 -77 -153 -206 2936 0
-2937 62 0
-2937 87 0
-2937 125 0
-2937 231 0
-62 -87 -125 -231 2937 0
-2938 62 0
-2938 87 0
-2938 143 0
-2938 186 0
-62 -87 -143 -186 2938 0
-2939 62 0
-2939 87 0
-2939 153 0
-2939 176 0
-62 -87 -153 -176 2939 0
-2940 62 0
-2940 95 0
-2940 125 0
-2940 216 0
-62 -95 -125 -216 2940 0
-2941 62 0
-2941 95 0
-2941 135 0
-2941 186 0
-62 -95 -135 -186 2941 0
-2942 62 0
-2942 95 0
-2942 153 0
-2942 168 0
-62 -95 -153 -168 2942 0
-2943 62 0
-2943 105 0
-2943 125 0
-2943 206 0
-62 -105 -125 -206 2943 0
-2944 62 0
-2944 105 0
-2944 135 0
-2944 176 0
-62 -105 -135 -176 2944 0
-2945 62 0
-2945 105 0
-2945 143 0
-2945 168 0
-62 -105 -143 -168 2945 0
2841 2946 0
-2946 2947 0
2842 -2946 2948 0
-2948 2949 0
2843 -2948 2950 0
-2950 2951 0
2844 -2950 2952 0
-2952 2953 0
2845 -2952 2954 0
-2954 2955 0
2846 -2954 2956 0
-2956 2957 0
2847 -2956 2958 0
-2958 2959 0
2848 -2958 2960 0
-2960 2961 0
2849 -2960 2962 0
-2962 2963 0
2850 -2962 2964 0
-2964 2965 0
2851 -2964 2966 0
-2966 2967 0
2852 -2966 2968 0
-2968 2969 0
2853 -2968 2970 0
-2970 2971 0
2854 -2970 2972 0
-2972 2973 0
2855 -2972 2974 0
-2974 2975 0
2856 -2974 2976 0
-2976 2977 0
2857 -2976 2978 0
-2978 2979 0
2858 -2978 2980 0
-2980 2981 0
2859 -2980 2982 0
-2982 2983 0
2860 -2982 2984 0
-2984 2985 0
2861 -2984 2986 0
-2986 2987 0
2862 -2986 2988 0
-2988 2989 0
2863 -2988 2990 0
-2990 2991 0
2864 -2990 2992 0
-2992 2993 0
2865 -2992 2994 0
-2994 2995 0
2866 -2994 2996 0
-2996 2997 0
2867 -2996 2998 0
-2998 2999 0
2868 -2998 3000 0
-3000 3001 0
2869 -3000 3002 0
-3002 3003 0
2870 -3002 3004 0
-3004 3005 0
2871 -3004 3006 0
-3006 3007 0
2872 -3006 3008 0
-3008 3009 0
2873 -3008 3010 0
-3010 3011 0
2874 -3010 3012 0
-3012 3013 0
2875 -3012 3014 0
-3014 3015 0
2876 -3014 3016 0
-3016 3017 0
2877 -3016 3018 0
-3018 3019 0
2878 -3018 3020 0
-3020 3021 0
2879 -3020 3022 0
-3022 3023 0
2880 -3022 3024 0
-3024 3025 0
2881 -3024 3026 0
-3026 3027 0
2882 -3026 3028 0
-3028 3029 0
2883 -3028 3030 0
-3030 3031 0
2884 -3030 3032 0
-3032 3033 0
2885 -3032 3034 0
-3034 3035 0
2886 -3034 3036 0
-3036 3037 0
2887 -3036 3038 0
-3038 3039 0
2888 -3038 3040 0
-3040 3041 0
2889 -3040 3042 0
-3042 3043 0
2890 -3042 3044 0
-3044 3045 0
2891 -3044 3046 0
-3046 3047 0
2892 -3046 3048 0
-3048 3049 0
2893 -3048 3050 0
-3050 3051 0
2894 -3050 3052 0
-3052 3053 0
2895 -3052 3054 0
-3054 3055 0
2896 -3054 3056 0
-3056 3057 0
2897 -3056 3058 0
-3058 3059 0
2898 -3058 3060 0
-3060 3061 0
2899 -3060 3062 0
-3062 3063 0
2900 -3062 3064 0
-3064 3065 0
2901 -3064 3066 0
-3066 3067 0
2902 -3066 3068 0
-3068 3069 0
2903 -3068 3070 0
-3070 3071 0
2904 -3070 3072 0
-3072 3073 0
2905 -3072 3074 0
-3074 3075 0
2906 -3074 3076 0
-3076 3077 0
2907 -3076 3078 0
-3078 3079 0
2908 -3078 3080 0
-3080 3081 0
2909 -3080 3082 0
-3082 3083 0
2910 -3082 3084 0
-3084 3085 0
2911 -3084 3086 0
-3086 3087 0
2912 -3086 3088 0
-3088 3089 0
2913 -3088 3090 0
-3090 3091 0
2914 -3090 3092 0
-3092 3093 0
2915 -3092 3094 0
-3094 3095 0
2916 -3094 3096 0
-3096 3097 0
2917 -3096 3098 0
-3098 3099 0
2918 -3098 3100 0
-3100 3101 0
2919 -3100 3102 0
-3102 3103 0
2920 -3102 3104 0
-3104 3105 0
2921 -3104 3106 0
-3106 3107 0
2922 -3106 3108 0
-3108 3109 0
2923 -3108 3110 0
-3110 3111 0
2924 -3110 3112 0
-3112 3113 0
2925 -3112 3114 0
-3114 3115 0
2926 -3114 3116 0
-3116 3117 0
2927 -3116 3118 0
-3118 3119 0
2928 -3118 3120 0
-3120 3121 0
2929 -3120 3122 0
-3122 3123 0
2930 -3122 3124 0
-3124 3125 0
2931 -3124 3126 0
-3126 3127 0
2932 -3126 3128 0
-3128 3129 0
2933 -3128 3130 0
-3130 3131 0
2934 -3130 3132 0
-3132 3133 0
2935 -3132 3134 0
-3134 3135 0
2936 -3134 3136 0
-3136 3137 0
2937 -3136 3138 0
-3138 3139 0
2938 -3138 3140 0
-3140 3141 0
2939 -3140 3142 0
-3142 3143 0
2940 -3142 3144 0
-3144 3145 0
2941 -3144 3146 0
-3146 3147 0
2942 -3146 3148 0
-3148 3149 0
2943 -3148 3150 0
-3150 3151 0
2944 -3150 0
2842 2947 0
2843 -2947 2949 0
2844 -2949 2951 0
2845 -2951 2953 0
2846 -2953 2955 0
2847 -2955 2957 0
2848 -2957 2959 0
2849 -2959 2961 0
2850 -2961 2963 0
2851 -2963 2965 0
2852 -2965 2967 0
2853 -2967 2969 0
2854 -2969 2971 0
2855 -2971 2973 0
2856 -2973 2975 0
2857 -2975 2977 0
2858 -2977 2979 0
2859 -2979 2981 0
2860 -2981 2983 0
2861 -2983 2985 0
2862 -2985 2987 0
2863 -2987 2989 0
2864 -2989 2991 0
2865 -2991 2993 0
2866 -2993 2995 0
2867 -2995 2997 0
2868 -2997 2999 0
2869 -2999 3001 0
2870 -3001 3003 0
2871 -3003 3005 0
2872 -3005 3007 0
2873 -3007 3009 0
2874 -3009 3011 0
2875 -3011 3013 0
2876 -3013 3015 0
2877 -3015 3017 0
2878 -3017 3019 0
2879 -3019 3021 0
2880 -3021 3023 0
2881 -3023 3025 0
2882 -3025 3027 0
2883 -3027 3029 0
2884 -3029 3031 0
2885 -3031 3033 0
2886 -3033 3035 0
2887 -3035 3037 0
2888 -3037 3039 0
2889 -3039 3041 0
2890 -3041 3043 0
2891 -3043 3045 0
2892 -3045 3047 0
2893 -3047 3049 0
2894 -3049 3051 0
2895 -3051 3053 0
2896 -3053 3055 0
2897 -3055 3057 0
2898 -3057 3059 0
2899 -3059 3061 0
2900 -3061 3063 0
2901 -3063 3065 0
2902 -3065 3067 0
2903 -3067 3069 0
2904 -3069 3071 0
2905 -3071 3073 0
2906 -3073 3075 0
2907 -3075 3077 0
2908 -3077 3079 0
2909 -3079 3081 0
2910 -3081 3083 0
2911 -3083 3085 0
2912 -3085 3087 0
2913 -3087 3089 0
2914 -3089 3091 0
2915 -3091 3093 0
2916 -3093 3095 0
2917 -3095 3097 0
2918 -3097 3099 0
2919 -3099 3101 0
2920 -3101 3103 0
2921 -3103 3105 0
2922 -3105 3107 0
2923 -3107 3109 0
2924 -3109 3111 0
2925 -3111 3113 0
2926 -3113 3115 0
2927 -3115 3117 0
2928 -3117 3119 0
2929 -3119 3121 0
2930 -3121 3123 0
2931 -3123 3125 0
2932 -3125 3127 0
2933 -3127 3129 0
2934 -3129 3131 0
2935 -3131 3133 0
2936 -3133 3135 0
2937 -3135 3137 0
2938 -3137 3139 0
2939 -3139 3141 0
2940 -3141 3143 0
2941 -3143 3145 0
2942 -3145 3147 0
2943 -3147 3149 0
2944 -3149 3151 0
2945 -3151 0
-2841 3152 0
-3152 3153 0
-2842 -3152 3154 0
-3154 3155 0
-2843 -3154 0
-2842 3153 0
-3153 3156 0
-2843 -3153 3155 0
-3155 3157 0
-2844 -3155 0
-2843 3156 0
-3156 3158 0
-2844 -3156 3157 0
-3157 3159 0
-2845 -3157 0
-2844 3158 0
-3158 3160 0
-2845 -3158 3159 0
-3159 3161 0
-2846 -3159 0
-2845 3160 0
-3160 3162 0
-2846 -3160 3161 0
-3161 3163 0
-2847 -3161 0
-2846 3162 0
-3162 3164 0
-2847 -3162 3163 0
-3163 3165 0
-2848 -3163 0
-2847 3164 0
-3164 3166 0
-2848 -3164 3165 0
-3165 3167 0
-2849 -3165 0
-2848 3166 0
-3166 3168 0
-2849 -3166 3167 0
-3167 3169 0
-2850 -3167 0
-2849 3168 0
-3168 3170 0
-2850 -3168 3169 0
-3169 3171 0
-2851 -3169 0
-2850 3170 0
-3170 3172 0
-2851 -3170 3171 0
-3171 3173 0
-2852 -3171 0
-2851 3172 0
-3172 3174 0
-2852 -3172 3173 0
-3173 3175 0
-2853 -3173 0
-2852 3174 0
-3174 3176 0
-2853 -3174 3175 0
-3175 3177 0
-2854 -3175 0
-2853 3176 0
-3176 3178 0
-2854 -3176 3177 0
-3177 3179 0
-2855 -3177 0
-2854 3178 0
-3178 3180 0
-2855 -3178 3179 0
-3179 3181 0
-2856 -3179 0
-2855 3180 0
-3180 3182 0
-2856 -3180 3181 0
-3181 3183 0
-2857 -3181 0
-2856 3182 0
-3182 3184 0
-2857 -3182 3183 0
-3183 3185 0
-2858 -3183 0
-2857 3184 0
-3184 3186 0
-2858 -3184 3185 0
-3185 3187 0
-2859 -3185 0
-2858 3186 0
-3186 3188 0
-2859 -3186 3187 0
-3187 3189 0
-2860 -3187 0
-2859 3188 0
-3188 3190 0
-2860 -3188 3189 0
-3189 3191 0
-2861 -3189 0
-2860 3190 0
-3190 3192 0
-2861 -3190 3191 0
-3191 3193 0
-2862 -3191 0
-2861 3192 0
-3192 3194 0
-2862 -3192 3193 0
-3193 3195 0
-2863 -3193 0
-2862 3194 0
-3194 3196 0
-2863 -3194 3195 0
-3195 3197 0
-2864 -3195 0
-2863 3196 0
-3196 3198 0
-2864 -3196 3197 0
-3197 3199 0
-2865 -3197 0
-2864 3198 0
-3198 3200 0
-2865 -3198 3199 0
-3199 3201 0
-2866 -3199 0
-2865 3200 0
-3200 3202 0
-2866 -3200 3201 0
-3201 3203 0
-2867 -3201 0
-2866 3202 0
-3202 3204 0
-2867 -3202 3203 0
-3203 3205 0
-2868 -3203 0
-2867 3204 0
-3204 3206 0
-2868 -3204 3205 0
-3205 3207 0
-2869 -3205 0
-2868 3206 0
-3206 3208 0
-2869 -3206 3207 0
-3207 3209 0
-2870 -3207 0
-2869 3208 0
-3208 3210 0
-2870 -3208 3209 0
-3209 3211 0
-2871 -3209 0
-2870 3210 0
-3210 3212 0
-2871 -3210 3211 0
-3211 3213 0
-2872 -3211 0
-2871 3212 0
-3212 3214 0
-2872 -3212 3213 0
-3213 3215 0
-2873 -3213 0
-2872 3214 0
-3214 3216 0
-2873 -3214 3215 0
-3215 3217 0
-2874 -3215 0
-2873 3216 0
-3216 3218 0
-2874 -3216 3217 0
-3217 3219 0
-2875 -3217 0
-2874 3218 0
-3218 3220 0
-2875 -3218 3219 0
-3219 3221 0
-2876 -3219 0
-2875 3220 0
-3220 3222 0
-2876 -3220 3221 0
-3221 3223 0
-2877 -3221 0
-2876 3222 0
-3222 3224 0
-2877 -3222 3223 0
-3223 3225 0
-2878 -3223 0
-2877 3224 0
-3224 3226 0
-2878 -3224 3225 0
-3225 3227 0
-2879 -3225 0
-2878 3226 0
-3226 3228 0
-2879 -3226 3227 0
-3227 3229 0
-2880 -3227 0
-2879 3228 0
-3228 3230 0
-2880 -3228 3229 0
-3229 3231 0
-2881 -3229 0
-2880 3230 0
-3230 3232 0
-2881 -3230 3231 0
-3231 3233 0
-2882 -3231 0
-2881 3232 0
-3232 3234 0
-2882 -3232 3233 0
-3233 3235 0
-2883 -3233 0
-2882 3234 0
-3234 3236 0
-2883 -3234 3235 0
-3235 3237 0
-2884 -3235 0
-2883 3236 0
-3236 3238 0
-2884 -3236 3237 0
-3237 3239 0
-2885 -3237 0
-2884 3238 0
-3238 3240 0
-2885 -3238 3239 0
-3239 3241 0
-2886 -3239 0
-2885 3240 0
-3240 3242 0
-2886 -3240 3241 0
-3241 3243 0
-2887 -3241 0
-2886 3242 0
-3242 3244 0
-2887 -3242 3243 0
-3243 3245 0
-2888 -3243 0
-2887 3244 0
-3244 3246 0
-2888 -3244 3245 0
-3245 3247 0
-2889 -3245 0
-2888 3246 0
-3246 3248 0
-2889 -3246 3247 0
-3247 3249 0
-2890 -3247 0
-2889 3248 0
-3248 3250 0
-2890 -3248 3249 0
-3249 3251 0
-2891 -3249 0
-2890 3250 0
-3250 3252 0
-2891 -3250 3251 0
-3251 3253 0
-2892 -3251 0
-2891 3252 0
-3252 3254 0
-2892 -3252 3253 0
-3253 3255 0
-2893 -3253 0
-2892 3254 0
-3254 3256 0
-2893 -3254 3255 0
-3255 3257 0
-2894 -3255 0
-2893 3256 0
-3256 3258 0
-2894 -3256 3257 0
-3257 3259 0
-2895 -3257 0
-2894 3258 0
-3258 3260 0
-2895 -3258 3259 0
-3259 3261 0
-2896 -3259 0
-2895 3260 0
-3260 3262 0
-2896 -3260 3261 0
-3261 3263 0
-2897 -3261 0
-2896 3262 0
-3262 3264 0
-2897 -3262 3263 0
-3263 3265 0
-2898 -3263 0
-2897 3264 0
-3264 3266 0
-2898 -3264 3265 0
-3265 3267 0
-2899 -3265 0
-2898 3266 0
-3266 3268 0
-2899 -3266 3267 0
-3267 3269 0
-2900 -3267 0
-2899 3268 0
-3268 3270 0
-2900 -3268 3269 0
-3269 3271 0
-2901 -3269 0
-2900 3270 0
-3270 3272 0
-2901 -3270 3271 0
-3271 3273 0
-2902 -3271 0
-2901 3272 0
-3272 3274 0
-2902 -3272 3273 0
-3273 3275 0
-2903 -3273 0
-2902 3274 0
-3274 3276 0
-2903 -3274 3275 0
-3275 3277 0
-2904 -3275 0
-2903 3276 0
-3276 3278 0
-2904 -3276 3277 0
-3277 3279 0
-2905 -3277 0
-2904 3278 0
-3278 3280 0
-2905 -3278 3279 0
-3279 3281 0
-2906 -3279 0
-2905 3280 0
-3280 3282 0
-2906 -3280 3281 0
-3281 3283 0
-2907 -3281 0
-2906 3282 0
-3282 3284 0
-2907 -3282 3283 0
-3283 3285 0
-2908 -3283 0
-2907 3284 0
-3284 3286 0
-2908 -3284 3285 0
-3285 3287 0
-2909 -3285 0
-2908 3286 0
-3286 3288 0
-2909 -3286 3287 0
-3287 3289 0
-2910 -3287 0
-2909 3288 0
-3288 3290 0
-2910 -3288 3289 0
-3289 3291 0
-2911 -3289 0
-2910 3290 0
-3290 3292 0
-2911 -3290 3291 0
-3291 3293 0
-2912 -3291 0
-2911 3292 0
-3292 3294 0
-2912 -3292 3293 0
-3293 3295 0
-2913 -3293 0
-2912 3294 0
-3294 3296 0
-2913 -3294 3295 0
-3295 3297 0
-2914 -3295 0
-2913 3296 0
-3296 3298 0
-2914 -3296 3297 0
-3297 3299 0
-2915 -3297 0
-2914 3298 0
-3298 3300 0
-2915 -3298 3299 0
-3299 3301 0
-2916 -3299 0
-2915 3300 0
-3300 3302 0
-2916 -3300 3301 0
-3301 3303 0
-2917 -3301 0
-2916 3302 0
-3302 3304 0
-2917 -3302 3303 0
-3303 3305 0
-2918 -3303 0
-2917 3304 0
-3304 3306 0
-2918 -3304 3305 0
-3305 3307 0
-2919 -3305 0
-2918 3306 0
-3306 3308 0
-2919 -3306 3307 0
-3307 3309 0
-2920 -3307 0
-2919 3308 0
-3308 3310 0
-2920 -3308 3309 0
-3309 3311 0
-2921 -3309 0
-2920 3310 0
-3310 3312 0
-2921 -3310 3311 0
-3311 3313 0
-2922 -3311 0
-2921 3312 0
-3312 3314 0
-2922 -3312 3313 0
-3313 3315 0
-2923 -3313 0
-2922 3314 0
-3314 3316 0
-2923 -3314 3315 0
-3315 3317 0
-2924 -3315 0
-2923 3316 0
-3316 3318 0
-2924 -3316 3317 0
-3317 3319 0
-2925 -3317 0
-2924 3318 0
-3318 3320 0
-2925 -3318 3319 0
-3319 3321 0
-2926 -3319 0
-2925 3320 0
-3320 3322 0
-2926 -3320 3321 0
-3321 3323 0
-2927 -3321 0
-2926 3322 0
-3322 3324 0
-2927 -3322 3323 0
-3323 3325 0
-2928 -3323 0
-2927 3324 0
-3324 3326 0
-2928 -3324 3325 0
-3325 3327 0
-2929 -3325 0
-2928 3326 0
-3326 3328 0
-2929 -3326 3327 0
-3327 3329 0
-2930 -3327 0
-2929 3328 0
-3328 3330 0
-2930 -3328 3329 0
-3329 3331 0
-2931 -3329 0
-2930 3330 0
-3330 3332 0
-2931 -3330 3331 0
-3331 3333 0
-2932 -3331 0
-2931 3332 0
-3332 3334 0
-2932 -3332 3333 0
-3333 3335 0
-2933 -3333 0
-2932 3334 0
-3334 3336 0
-2933 -3334 3335 0
-3335 3337 0
-2934 -3335 0
-2933 3336 0
-3336 3338 0
-2934 -3336 3337 0
-3337 3339 0
-2935 -3337 0
-2934 3338 0
-3338 3340 0
-2935 -3338 3339 0
-3339 3341 0
-2936 -3339 0
-2935 3340 0
-3340 3342 0
-2936 -3340 3341 0
-3341 3343 0
-2937 -3341 0
-2936 3342 0
-3342 3344 0
-2937 -3342 3343 0
-3343 3345 0
-2938 -3343 0
-2937 3344 0
-3344 3346 0
-2938 -3344 3345 0
-3345 3347 0
-2939 -3345 0
-2938 3346 0
-3346 3348 0
-2939 -3346 3347 0
-3347 3349 0
-2940 -3347 0
-2939 3348 0
-3348 3350 0
-2940 -3348 3349 0
-3349 3351 0
-2941 -3349 0
-2940 3350 0
-3350 3352 0
-2941 -3350 3351 0
-3351 3353 0
-2942 -3351 0
-2941 3352 0
-3352 3354 0
-2942 -3352 3353 0
-3353 3355 0
-2943 -3353 0
-2942 3354 0
-3354 3356 0
-2943 -3354 3355 0
-3355 3357 0
-2944 -3355 0
-2943 3356 0
-2944 -3356 3357 0
-2945 -3357 0
1 3358 0
-3358 3359 0
12 -3358 3360 0
-3360 3361 0
21 -3360 3362 0
-3362 3363 0
28 -3362 3364 0
-3364 3365 0
37 -3364 3366 0
-3366 3367 0
48 -3366 3368 0
-3368 3369 0
57 -3368 3370 0
-3370 3371 0
66 -3370 3372 0
-3372 3373 0
75 -3372 3374 0
-3374 3375 0
82 -3374 3376 0
-3376 3377 0
91 -3376 3378 0
-3378 3379 0
102 -3378 0
12 3359 0
-3359 3380 0
21 -3359 3361 0
-3361 3381 0
28 -3361 3363 0
-3363 3382 0
37 -3363 3365 0
-3365 3383 0
48 -3365 3367 0
-3367 3384 0
57 -3367 3369 0
-3369 3385 0
66 -3369 3371 0
-3371 3386 0
75 -3371 3373 0
-3373 3387 0
82 -3373 3375 0
-3375 3388 0
91 -3375 3377 0
-3377 3389 0
102 -3377 3379 0
-3379 3390 0
111 -3379 0
21 3380 0
-3380 3391 0
28 -3380 3381 0
-3381 3392 0
37 -3381 3382 0
-3382 3393 0
48 -3382 3383 0
-3383 3394 0
57 -3383 3384 0
-3384 3395 0
66 -3384 3385 0
-3385 3396 0
75 -3385 3386 0
-3386 3397 0
82 -3386 3387 0
-3387 3398 0
91 -3387 3388 0
-3388 3399 0
102 -3388 3389 0
-3389 3400 0
111 -3389 3390 0
-3390 3401 0
126 -3390 0
28 3391 0
-3391 3402 0
37 -3391 3392 0
-3392 3403 0
48 -3392 3393 0
-3393 3404 0
57 -3393 3394 0
-3394 3405 0
66 -3394 3395 0
-3395 3406 0
75 -3395 3396 0
-3396 3407 0
82 -3396 3397 0
-3397 3408 0
91 -3397 3398 0
-3398 3409 0
102 -3398 3399 0
-3399 3410 0
111 -3399 3400 0
-3400 3411 0
126 -3400 3401 0
-3401 3412 0
133 -3401 0
37 3402 0
-3402 3413 0
48 -3402 3403 0
-3403 3414 0
57 -3403 3404 0
-3404 3415 0
66 -3404 3405 0
-3405 3416 0
75 -3405 3406 0
-3406 3417 0
82 -3406 3407 0
-3407 3418 0
91 -3407 3408 0
-3408 3419 0
102 -3408 3409 0
-3409 3420 0
111 -3409 3410 0
-3410 3421 0
126 -3410 3411 0
-3411 3422 0
133 -3411 3412 0
-3412 3423 0
142 -3412 0
48 3413 0
-3413 3424 0
57 -3413 3414 0
-3414 3425 0
66 -3414 3415 0
-3415 3426 0
75 -3415 3416 0
-3416 3427 0
82 -3416 3417 0
-3417 3428 0
91 -3417 3418 0
-3418 3429 0
102 -3418 3419 0
-3419 3430 0
111 -3419 3420 0
-3420 3431 0
126 -3420 3421 0
-3421 3432 0
133 -3421 3422 0
-3422 3433 0
142 -3422 3423 0
-3423 3434 0
153 -3423 0
57 3424 0
-3424 3435 0
66 -3424 3425 0
-3425 3436 0
75 -3425 3426 0
-3426 3437 0
82 -3426 3427 0
-3427 3438 0
91 -3427 3428 0
-3428 3439 0
102 -3428 3429 0
-3429 3440 0
111 -3429 3430 0
-3430 3441 0
126 -3430 3431 0
-3431 3442 0
133 -3431 3432 0
-3432 3443 0
142 -3432 3433 0
-3433 3444 0
153 -3433 3434 0
-3434 3445 0
162 -3434 0
66 3435 0
-3435 3446 0
75 -3435 3436 0
-3436 3447 0
82 -3436 3437 0
-3437 3448 0
91 -3437 3438 0
-3438 3449 0
102 -3438 3439 0
-3439 3450 0
111 -3439 3440 0
-3440 3451 0
126 -3440 3441 0
-3441 3452 0
133 -3441 3442 0
-3442 3453 0
142 -3442 3443 0
-3443 3454 0
153 -3443 3444 0
-3444 3455 0
162 -3444 3445 0
-3445 3456 0
169 -3445 0
75 3446 0
-3446 3457 0
82 -3446 3447 0
-3447 3458 0
91 -3447 3448 0
-3448 3459 0
102 -3448 3449 0
-3449 3460 0
111 -3449 3450 0
-3450 3461 0
126 -3450 3451 0
-3451 3462 0
133 -3451 3452 0
-3452 3463 0
142 -3452 3453 0
-3453 3464 0
153 -3453 3454 0
-3454 3465 0
162 -3454 3455 0
-3455 3466 0
169 -3455 3456 0
-3456 3467 0
178 -3456 0
82 3457 0
-3457 3468 0
91 -3457 3458 0
-3458 3469 0
102 -3458 3459 0
-3459 3470 0
111 -3459 3460 0
-3460 3471 0
126 -3460 3461 0
-3461 3472 0
133 -3461 3462 0
-3462 3473 0
142 -3462 3463 0
-3463 3474 0
153 -3463 3464 0
-3464 3475 0
162 -3464 3465 0
-3465 3476 0
169 -3465 3466 0
-3466 3477 0
178 -3466 3467 0
-3467 3478 0
189 -3467 0
91 3468 0
-3468 3479 0
102 -3468 3469 0
-3469 3480 0
111 -3469 3470 0
-3470 3481 0
126 -3470 3471 0
-3471 3482 0
133 -3471 3472 0
-3472 3483 0
142 -3472 3473 0
-3473 3484 0
153 -3473 3474 0
-3474 3485 0
162 -3474 3475 0
-3475 3486 0
169 -3475 3476 0
-3476 3487 0
178 -3476 3477 0
-3477 3488 0
189 -3477 3478 0
-3478 3489 0
198 -3478 0
102 3479 0
-3479 3490 0
111 -3479 3480 0
-3480 3491 0
126 -3480 3481 0
-3481 3492 0
133 -3481 3482 0
-3482 3493 0
142 -3482 3483 0
-3483 3494 0
153 -3483 3484 0
-3484 3495 0
162 -3484 3485 0
-3485 3496 0
169 -3485 3486 0
-3486 3497 0
178 -3486 3487 0
-3487 3498 0
189 -3487 3488 0
-3488 3499 0
198 -3488 3489 0
-3489 3500 0
199 -3489 0
111 3490 0
-3490 3501 0
126 -3490 3491 0
-3491 3502 0
133 -3491 3492 0
-3492 3503 0
142 -3492 3493 0
-3493 3504 0
153 -3493 3494 0
-3494 3505 0
162 -3494 3495 0
-3495 3506 0
169 -3495 3496 0
-3496 3507 0
178 -3496 3497 0
-3497 3508 0
189 -3497 3498 0
-3498 3509 0
198 -3498 3499 0
-3499 3510 0
199 -3499 3500 0
-3500 3511 0
210 -3500 0
126 3501 0
-3501 3512 0
133 -3501 3502 0
-3502 3513 0
142 -3502 3503 0
-3503 3514 0
153 -3503 3504 0
-3504 3515 0
162 -3504 3505 0
-3505 3516 0
169 -3505 3506 0
-3506 3517 0
178 -3506 3507 0
-3507 3518 0
189 -3507 3508 0
-3508 3519 0
198 -3508 3509 0
-3509 3520 0
199 -3509 3510 0
-3510 3521 0
210 -3510 3511 0
-3511 3522 0
219 -3511 0
133 3512 0
-3512 3523 0
142 -3512 3513 0
-3513 3524 0
153 -3513 3514 0
-3514 3525 0
162 -3514 3515 0
-3515 3526 0
169 -3515 3516 0
-3516 3527 0
178 -3516 3517 0
-3517 3528 0
189 -3517 3518 0
-3518 3529 0
198 -3518 3519 0
-3519 3530 0
199 -3519 3520 0
-3520 3531 0
210 -3520 3521 0
-3521 3532 0
219 -3521 3522 0
-3522 3533 0
228 -3522 0
142 3523 0
-3523 3534 0
153 -3523 3524 0
-3524 3535 0
162 -3524 3525 0
-3525 3536 0
169 -3525 3526 0
-3526 3537 0
178 -3526 3527 0
-3527 3538 0
189 -3527 3528 0
-3528 3539 0
198 -3528 3529 0
-3529 3540 0
199 -3529 3530 0
-3530 3541 0
210 -3530 3531 0
-3531 3542 0
219 -3531 3532 0
-3532 3543 0
228 -3532 3533 0
-3533 3544 0
237 -3533 0
153 3534 0
162 -3534 3535 0
169 -3535 3536 0
178 -3536 3537 0
189 -3537 3538 0
198 -3538 3539 0
199 -3539 3540 0
210 -3540 3541 0
219 -3541 3542 0
228 -3542 3543 0
237 -3543 3544 0
252 -3544 0
-1 3545 0
-3545 3546 0
-12 -3545 3547 0
-3547 3548 0
-21 -3547 3549 0
-3549 3550 0
-28 -3549 3551 0
-3551 3552 0
-37 -3551 3553 0
-3553 3554 0
-48 -3553 3555 0
-3555 3556 0
-57 -3555 3557 0
-3557 3558 0
-66 -3557 3559 0
-3559 3560 0
-75 -3559 3561 0
-3561 3562 0
-82 -3561 3563 0
-3563 3564 0
-91 -3563 3565 0
-3565 3566 0
-102 -3565 3567 0
-3567 3568 0
-111 -3567 3569 0
-3569 3570 0
-126 -3569 3571 0
-3571 3572 0
-133 -3571 3573 0
-3573 3574 0
-142 -3573 3575 0
-3575 3576 0
-153 -3575 3577 0
-3577 3578 0
-162 -3577 0
-12 3546 0
-3546 3579 0
-21 -3546 3548 0
-3548 3580 0
-28 -3548 3550 0
-3550 3581 0
-37 -3550 3552 0
-3552 3582 0
-48 -3552 3554 0
-3554 3583 0
-57 -3554 3556 0
-3556 3584 0
-66 -3556 3558 0
-3558 3585 0
-75 -3558 3560 0
-3560 3586 0
-82 -3560 3562 0
-3562 3587 0
-91 -3562 3564 0
-3564 3588 0
-102 -3564 3566 0
-3566 3589 0
-111 -3566 3568 0
-3568 3590 0
-126 -3568 3570 0
-3570 3591 0
-133 -3570 3572 0
-3572 3592 0
-142 -3572 3574 0
-3574 3593 0
-153 -3574 3576 0
-3576 3594 0
-162 -3576 3578 0
-3578 3595 0
-169 -3578 0
-21 3579 0
-3579 3596 0
-28 -3579 3580 0
-3580 3597 0
-37 -3580 3581 0
-3581 3598 0
-48 -3581 3582 0
-3582 3599 0
-57 -3582 3583 0
-3583 3600 0
-66 -3583 3584 0
-3584 3601 0
-75 -3584 3585 0
-3585 3602 0
-82 -3585 3586 0
-3586 3603 0
-91 -3586 3587 0
-3587 3604 0
-102 -3587 3588 0
-3588 3605 0
-111 -3588 3589 0
-3589 3606 0
-126 -3589 3590 0
-3590 3607 0
-133 -3590 3591 0
-3591 3608 0
-142 -3591 3592 0
-3592 3609 0
-153 -3592 3593 0
-3593 3610 0
-162 -3593 3594 0
-3594 3611 0
-169 -3594 3595 0
-3595 3612 0
-178 -3595 0
-28 3596 0
-3596 3613 0
-37 -3596 3597 0
-3597 3614 0
-48 -3597 3598 0
-3598 3615 0
-57 -3598 3599 0
-3599 3616 0
-66 -3599 3600 0
-3600 3617 0
-75 -3600 3601 0
-3601 3618 0
-82 -3601 3602 0
-3602 3619 0
-91 -3602 3603 0
-3603 3620 0
-102 -3603 3604 0
-3604 3621 0
-111 -3604 3605 0
-3605 3622 0
-126 -3605 3606 0
-3606 3623 0
-133 -3606 3607 0
-3607 3624 0
-142 -3607 3608 0
-3608 3625 0
-153 -3608 3609 0
-3609 3626 0
-162 -3609 3610 0
-3610 3627 0
-169 -3610 3611 0
-3611 3628 0
-178 -3611 3612 0
-3612 3629 0
-189 -3612 0
-37 3613 0
-3613 3630 0
-48 -3613 3614 0
-3614 3631 0
-57 -3614 3615 0
-3615 3632 0
-66 -3615 3616 0
-3616 3633 0
-75 -3616 3617 0
-3617 3634 0
-82 -3617 3618 0
-3618 3635 0
-91 -3618 3619 0
-3619 3636 0
-102 -3619 3620 0
-3620 3637 0
-111 -3620 3621 0
-3621 3638 0
-126 -3621 3622 0
-3622 3639 0
-133 -3622 3623 0
-3623 3640 0
-142 -3623 3624 0
-3624 3641 0
-153 -3624 3625 0
-3625 3642 0
-162 -3625 3626 0
-3626 3643 0
-169 -3626 3627 0
-3627 3644 0
-178 -3627 3628 0
-3628 3645 0
-189 -3628 3629 0
-3629 3646 0
-198 -3629 0
-48 3630 0
-3630 3647 0
-57 -3630 3631 0
-3631 3648 0
-66 -3631 3632 0
-3632 3649 0
-75 -3632 3633 0
-3633 3650 0
-82 -3633 3634 0
-3634 3651 0
-91 -3634 3635 0
-3635 3652 0
-102 -3635 3636 0
-3636 3653 0
-111 -3636 3637 0
-3637 3654 0
-126 -3637 3638 0
-3638 3655 0
-133 -3638 3639 0
-3639 3656 0
-142 -3639 3640 0
-3640 3657 0
-153 -3640 3641 0
-3641 3658 0
-162 -3641 3642 0
-3642 3659 0
-169 -3642 3643 0
-3643 3660 0
-178 -3643 3644 0
-3644 3661 0
-189 -3644 3645 0
-3645 3662 0
-198 -3645 3646 0
-3646 3663 0
-199 -3646 0
-57 3647 0
-3647 3664 0
-66 -3647 3648 0
-3648 3665 0
-75 -3648 3649 0
-3649 3666 0
-82 -3649 3650 0
-3650 3667 0
-91 -3650 3651 0
-3651 3668 0
-102 -3651 3652 0
-3652 3669 0
-111 -3652 3653 0
-3653 3670 0
-126 -3653 3654 0
-3654 3671 0
-133 -3654 3655 0
-3655 3672 0
-142 -3655 3656 0
-3656 3673 0
-153 -3656 3657 0
-3657 3674 0
-162 -3657 3658 0
-3658 3675 0
-169 -3658 3659 0
-3659 3676 0
-178 -3659 3660 0
-3660 3677 0
-189 -3660 3661 0
-3661 3678 0
-198 -3661 3662 0
-3662 3679 0
-199 -3662 3663 0
-3663 3680 0
-210 -3663 0
-66 3664 0
-3664 3681 0
-75 -3664 3665 0
-3665 3682 0
-82 -3665 3666 0
-3666 3683 0
-91 -3666 3667 0
-3667 3684 0
-102 -3667 3668 0
-3668 3685 0
-111 -3668 3669 0
-3669 3686 0
-126 -3669 3670 0
-3670 3687 0
-133 -3670 3671 0
-3671 3688 0
-142 -3671 3672 0
-3672 3689 0
-153 -3672 3673 0
-3673 3690 0
-162 -3673 3674 0
-3674 3691 0
-169 -3674 3675 0
-3675 3692 0
-178 -3675 3676 0
-3676 3693 0
-189 -3676 3677 0
-3677 3694 0
-198 -3677 3678 0
-3678 3695 0
-199 -3678 3679 0
-3679 3696 0
-210 -3679 3680 0
-3680 3697 0
-219 -3680 0
-75 3681 0
-3681 3698 0
-82 -3681 3682 0
-3682 3699 0
-91 -3682 3683 0
-3683 3700 0
-102 -3683 3684 0
-3684 3701 0
-111 -3684 3685 0
-3685 3702 0
-126 -3685 3686 0
-3686 3703 0
-133 -3686 3687 0
-3687 3704 0
-142 -3687 3688 0
-3688 3705 0
-153 -3688 3689 0
-3689 3706 0
-162 -3689 3690 0
-3690 3707 0
-169 -3690 3691 0
-3691 3708 0
-178 -3691 3692 0
-3692 3709 0
-189 -3692 3693 0
-3693 3710 0
-198 -3693 3694 0
-3694 3711 0
-199 -3694 3695 0
-3695 3712 0
-210 -3695 3696 0
-3696 3713 0
-219 -3696 3697 0
-3697 3714 0
-228 -3697 0
-82 3698 0
-3698 3715 0
-91 -3698 3699 0
-3699 3716 0
-102 -3699 3700 0
-3700 3717 0
-111 -3700 3701 0
-3701 3718 0
-126 -3701 3702 0
-3702 3719 0
-133 -3702 3703 0
-3703 3720 0
-142 -3703 3704 0
-3704 3721 0
-153 -3704 3705 0
-3705 3722 0
-162 -3705 3706 0
-3706 3723 0
-169 -3706 3707 0
-3707 3724 0
-178 -3707 3708 0
-3708 3725 0
-189 -3708 3709 0
-3709 3726 0
-198 -3709 3710 0
-3710 3727 0
-199 -3710 3711 0
-3711 3728 0
-210 -3711 3712 0
-3712 3729 0
-219 -3712 3713 0
-3713 3730 0
-228 -3713 3714 0
-3714 3731 0
-237 -3714 0
-91 3715 0
-102 -3715 3716 0
-111 -3716 3717 0
-126 -3717 3718 0
-133 -3718 3719 0
-142 -3719 3720 0
-153 -3720 3721 0
-162 -3721 3722 0
-169 -3722 3723 0
-178 -3723 3724 0
-189 -3724 3725 0
-198 -3725 3726 0
-199 -3726 3727 0
-210 -3727 3728 0
-219 -3728 3729 0
-228 -3729 3730 0
-237 -3730 3731 0
-252 -3731 0
-3732 1 0
-3732 126 0
-3732 199 0
-3732 252 0
-1 -126 -199 -252 3732 0
-3733 1 0
-3733 126 0
-3733 210 0
-3733 237 0
-1 -126 -210 -237 3733 0
-3734 1 0
-3734 126 0
-3734 219 0
-3734 228 0
-1 -126 -219 -228 3734 0
-3735 1 0
-3735 133 0
-3735 178 0
-3735 252 0
-1 -133 -178 -252 3735 0
-3736 1 0
-3736 133 0
-3736 189 0
-3736 237 0
-1 -133 -189 -237 3736 0
-3737 1 0
-3737 133 0
-3737 198 0
-3737 228 0
-1 -133 -198 -228 3737 0
-3738 1 0
-3738 142 0
-3738 169 0
-3738 252 0
-1 -142 -169 -252 3738 0
-3739 1 0
-3739 142 0
-3739 189 0
-3739 219 0
-1 -142 -189 -219 3739 0
-3740 1 0
-3740 142 0
-3740 198 0
-3740 210 0
-1 -142 -198 -210 3740 0
-3741 1 0
-3741 153 0
-3741 169 0
-3741 237 0
-1 -153 -169 -237 3741 0
-3742 1 0
-3742 153 0
-3742 178 0
-3742 219 0
-1 -153 -178 -219 3742 0
-3743 1 0
-3743 153 0
-3743 198 0
-3743 199 0
-1 -153 -198 -199 3743 0
-3744 1 0
-3744 162 0
-3744 169 0
-3744 228 0
-1 -162 -169 -228 3744 0
-3745 1 0
-3745 162 0
-3745 178 0
-3745 210 0
-1 -162 -178 -210 3745 0
-3746 1 0
-3746 162 0
-3746 189 0
-3746 199 0
-1 -162 -189 -199 3746 0
-3747 12 0
-3747 75 0
-3747 199 0
-3747 252 0
-12 -75 -199 -252 3747 0
-3748 12 0
-3748 75 0
-3748 210 0
-3748 237 0
-12 -75 -210 -237 3748 0
-3749 12 0
-3749 75 0
-3749 219 0
-3749 228 0
-12 -75 -219 -228 3749 0
-3750 12 0
-3750 82 0
-3750 178 0
-3750 252 0
-12 -82 -178 -252 3750 0
-3751 12 0
-3751 82 0
-3751 189 0
-3751 237 0
-12 -82 -189 -237 3751 0
-3752 12 0
-3752 82 0
-3752 198 0
-3752 228 0
-12 -82 -198 -228 3752 0
-3753 12 0
-3753 91 0
-3753 169 0
-3753 252 0
-12 -91 -169 -252 3753 0
-3754 12 0
-3754 91 0
-3754 189 0
-3754 219 0
-12 -91 -189 -219 3754 0
-3755 12 0
-3755 91 0
-3755 198 0
-3755 210 0
-12 -91 -198 -210 3755 0
-3756 12 0
-3756 102 0
-3756 169 0
-3756 237 0
-12 -102 -169 -237 3756 0
-3757 12 0
-3757 102 0
-3757 178 0
-3757 219 0
-12 -102 -178 -219 3757 0
-3758 12 0
-3758 102 0
-3758 198 0
-3758 199 0
-12 -102 -198 -199 3758 0
-3759 12 0
-3759 111 0
-3759 169 0
-3759 228 0
-12 -111 -169 -228 3759 0
-3760 12 0
-3760 111 0
-3760 178 0
-3760 210 0
-12 -111 -178 -210 3760 0
-3761 12 0
-3761 111 0
-3761 189 0
-3761 199 0
-12 -111 -189 -199 3761 0
-3762 21 0
-3762 66 0
-3762 199 0
-3762 252 0
-21 -66 -199 -252 3762 0
-3763 21 0
-3763 66 0
-3763 210 0
-3763 237 0
-21 -66 -210 -237 3763 0
-3764 21 0
-3764 66 0
-3764 219 0
-3764 228 0
-21 -66 -219 -228 3764 0
-3765 21 0
-3765 82 0
-3765 142 0
-3765 252 0
-21 -82 -142 -252 3765 0
-3766 21 0
-3766 82 0
-3766 153 0
-3766 237 0
-21 -82 -153 -237 3766 0
-3767 21 0
-3767 82 0
-3767 162 0
-3767 228 0
-21 -82 -162 -228 3767 0
-3768 21 0
-3768 91 0
-3768 133 0
-3768 252 0
-21 -91 -133 -252 3768 0
-3769 21 0
-3769 91 0
-3769 153 0
-3769 219 0
-21 -91 -153 -219 3769 0
-3770 21 0
-3770 91 0
-3770 162 0
-3770 210 0
-21 -91 -162 -210 3770 0
-3771 21 0
-3771 102 0
-3771 133 0
-3771 237 0
-21 -102 -133 -237 3771 0
-3772 21 0
-3772 102 0
-3772 142 0
-3772 219 0
-21 -102 -142 -219 3772 0
-3773 21 0
-3773 102 0
-3773 162 0
-3773 199 0
-21 -102 -162 -199 3773 0
-3774 21 0
-3774 111 0
-3774 133 0
-3774 228 0
-21 -111 -133 -228 3774 0
-3775 21 0
-3775 111 0
-3775 142 0
-3775 210 0
-21 -111 -142 -210 3775 0
-3776 21 0
-3776 111 0
-3776 153 0
-3776 199 0
-21 -111 -153 -199 3776 0
-3777 28 0
-3777 66 0
-3777 178 0
-3777 252 0
-28 -66 -178 -252 3777 0
-3778 28 0
-3778 66 0
-3778 189 0
-3778 237 0
-28 -66 -189 -237 3778 0
-3779 28 0
-3779 66 0
-3779 198 0
-3779 228 0
-28 -66 -198 -228 3779 0
-3780 28 0
-3780 75 0
-3780 142 0
-3780 252 0
-28 -75 -142 -252 3780 0
-3781 28 0
-3781 75 0
-3781 153 0
-3781 237 0
-28 -75 -153 -237 3781 0
-3782 28 0
-3782 75 0
-3782 162 0
-3782 228 0
-28 -75 -162 -228 3782 0
-3783 28 0
-3783 91 0
-3783 126 0
-3783 252 0
-28 -91 -126 -252 3783 0
-3784 28 0
-3784 91 0
-3784 153 0
-3784 198 0
-28 -91 -153 -198 3784 0
-3785 28 0
-3785 91 0
-3785 162 0
-3785 189 0
-28 -91 -162 -189 3785 0
-3786 28 0
-3786 102 0
-3786 126 0
-3786 237 0
-28 -102 -126 -237 3786 0
-3787 28 0
-3787 102 0
-3787 142 0
-3787 198 0
-28 -102 -142 -198 3787 0
-3788 28 0
-3788 102 0
-3788 162 0
-3788 178 0
-28 -102 -162 -178 3788 0
-3789 28 0
-3789 111 0
-3789 126 0
-3789 228 0
-28 -111 -126 -228 3789 0
-3790 28 0
-3790 111 0
-3790 142 0
-3790 189 0
-28 -111 -142 -189 3790 0
-3791 28 0
-3791 111 0
-3791 153 0
-3791 178 0
-28 -111 -153 -178 3791 0
-3792 37 0
-3792 66 0
-3792 169 0
-3792 252 0
-37 -66 -169 -252 3792 0
-3793 37 0
-3793 66 0
-3793 189 0
-3793 219 0
-37 -66 -189 -219 3793 0
-3794 37 0
-3794 66 0
-3794 198 0
-3794 210 0
-37 -66 -198 -210 3794 0
-3795 37 0
-3795 75 0
-3795 133 0
-3795 252 0
-37 -75 -133 -252 3795 0
-3796 37 0
-3796 75 0
-3796 153 0
-3796 219 0
-37 -75 -153 -219 3796 0
-3797 37 0
-3797 75 0
-3797 162 0
-3797 210 0
-37 -75 -162 -210 3797 0
-3798 37 0
-3798 82 0
-3798 126 0
-3798 252 0
-37 -82 -126 -252 3798 0
-3799 37 0
-3799 82 0
-3799 153 0
-3799 198 0
-37 -82 -153 -198 3799 0
-3800 37 0
-3800 82 0
-3800 162 0
-3800 189 0
-37 -82 -162 -189 3800 0
-3801 37 0
-3801 102 0
-3801 126 0
-3801 219 0
-37 -102 -126 -219 3801 0
-3802 37 0
-3802 102 0
-3802 133 0
-3802 198 0
-37 -102 -133 -198 3802 0
-3803 37 0
-3803 102 0
-3803 162 0
-3803 169 0
-37 -102 -162 -169 3803 0
-3804 37 0
-3804 111 0
-3804 126 0
-3804 210 0
-37 -111 -126 -210 3804 0
-3805 37 0
-3805 111 0
-3805 133 0
-3805 189 0
-37 -111 -133 -189 3805 0
-3806 37 0
-3806 111 0
-3806 153 0
-3806 169 0
-37 -111 -153 -169 3806 0
-3807 48 0
-3807 66 0
-3807 169 0
-3807 237 0
-48 -66 -169 -237 3807 0
-3808 48 0
-3808 66 0
-3808 178 0
-3808 219 0
-48 -66 -178 -219 3808 0
-3809 48 0
-3809 66 0
-3809 198 0
-3809 199 0
-48 -66 -198 -199 3809 0
-3810 48 0
-3810 75 0
-3810 133 0
-3810 237 0
-48 -75 -133 -237 3810 0
-3811 48 0
-3811 75 0
-3811 142 0
-3811 219 0
-48 -75 -142 -219 3811 0
-3812 48 0
-3812 75 0
-3812 162 0
-3812 199 0
-48 -75 -162 -199 3812 0
-3813 48 0
-3813 82 0
-3813 126 0
-3813 237 0
-48 -82 -126 -237 3813 0
-3814 48 0
-3814 82 0
-3814 142 0
-3814 198 0
-48 -82 -142 -198 3814 0
-3815 48 0
-3815 82 0
-3815 162 0
-3815 178 0
-48 -82 -162 -178 3815 0
-3816 48 0
-3816 91 0
-3816 126 0
-3816 219 0
-48 -91 -126 -219 3816 0
-3817 48 0
-3817 91 0
-3817 133 0
-3817 198 0
-48 -91 -133 -198 3817 0
-3818 48 0
-3818 91 0
-3818 162 0
-3818 169 0
-48 -91 -162 -169 3818 0
-3819 48 0
-3819 111 0
-3819 126 0
-3819 199 0
-48 -111 -126 -199 3819 0
-3820 48 0
-3820 111 0
-3820 133 0
-3820 178 0
-48 -111 -133 -178 3820 0
-3821 48 0
-3821 111 0
-3821 142 0
-3821 169 0
-48 -111 -142 -169 3821 0
-3822 57 0
-3822 66 0
-3822 169 0
-3822 228 0
-57 -66 -169 -228 3822 0
-3823 57 0
-3823 66 0
-3823 178 0
-3823 210 0
-57 -66 -178 -210 3823 0
-3824 57 0
-3824 66 0
-3824 189 0
-3824 199 0
-57 -66 -189 -199 3824 0
-3825 57 0
-3825 75 0
-3825 133 0
-3825 228 0
-57 -75 -133 -228 3825 0
-3826 57 0
-3826 75 0
-3826 142 0
-3826 210 0
-57 -75 -142 -210 3826 0
-3827 57 0
-3827 75 0
-3827 153 0
-3827 199 0
-57 -75 -153 -199 3827 0
-3828 57 0
-3828 82 0
-3828 126 0
-3828 228 0
-57 -82 -126 -228 3828 0
-3829 57 0
-3829 82 0
-3829 142 0
-3829 189 0
-57 -82 -142 -189 3829 0
-3830 57 0
-3830 82 0
-3830 153 0
-3830 178 0
-57 -82 -153 -178 3830 0
-3831 57 0
-3831 91 0
-3831 126 0
-3831 210 0
-57 -91 -126 -210 3831 0
-3832 57 0
-3832 91 0
-3832 133 0
-3832 189 0
-57 -91 -133 -189 3832 0
-3833 57 0
-3833 91 0
-3833 153 0
-3833 169 0
-57 -91 -153 -169 3833 0
-3834 57 0
-3834 102 0
-3834 126 0
-3834 199 0
-57 -102 -126 -199 3834 0
-3835 57 0
-3835 102 0
-3835 133 0
-3835 178 0
-57 -102 -133 -178 3835 0
-3836 57 0
-3836 102 0
-3836 142 0
-3836 169 0
-57 -102 -142 -169 3836 0
3732 3837 0
-3837 3838 0
3733 -3837 3839 0
-3839 3840 0
3734 -3839 3841 0
-3841 3842 0
3735 -3841 3843 0
-3843 3844 0
3736 -3843 3845 0
-3845 3846 0
3737 -3845 3847 0
-3847 3848 0
3738 -3847 3849 0
-3849 3850 0
3739 -3849 3851 0
-3851 3852 0
3740 -3851 3853 0
-3853 3854 0
3741 -3853 3855 0
-3855 3856 0
3742 -3855 3857 0
-3857 3858 0
3743 -3857 3859 0
-3859 3860 0
3744 -3859 3861 0
-3861 3862 0
3745 -3861 3863 0
-3863 3864 0
3746 -3863 3865 0
-3865 3866 0
3747 -3865 3867 0
-3867 3868 0
3748 -3867 3869 0
-3869 3870 0
3749 -3869 3871 0
-3871 3872 0
3750 -3871 3873 0
-3873 3874 0
3751 -3873 3875 0
-3875 3876 0
3752 -3875 3877 0
-3877 3878 0
3753 -3877 3879 0
-3879 3880 0
3754 -3879 3881 0
-3881 3882 0
3755 -3881 3883 0
-3883 3884 0
3756 -3883 3885 0
-3885 3886 0
3757 -3885 3887 0
-3887 3888 0
3758 -3887 3889 0
-3889 3890 0
3759 -3889 3891 0
-3891 3892 0
3760 -3891 3893 0
-3893 3894 0
3761 -3893 3895 0
-3895 3896 0
3762 -3895 3897 0
-3897 3898 0
3763 -3897 3899 0
-3899 3900 0
3764 -3899 3901 0
-3901 3902 0
3765 -3901 3903 0
-3903 3904 0
3766 -3903 3905 0
-3905 3906 0
3767 -3905 3907 0
-3907 3908 0
3768 -3907 3909 0
-3909 3910 0
3769 -3909 3911 0
-3911 3912 0
3770 -3911 3913 0
-3913 3914 0
3771 -3913 3915 0
-3915 3916 0
3772 -3915 3917 0
-3917 3918 0
3773 -3917 3919 0
-3919 3920 0
3774 -3919 3921 0
-3921 3922 0
3775 -3921 3923 0
-3923 3924 0
3776 -3923 3925 0
-3925 3926 0
3777 -3925 3927 0
-3927 3928 0
3778 -3927 3929 0
-3929 3930 0
3779 -3929 3931 0
-3931 3932 0
3780 -3931 3933 0
-3933 3934 0
3781 -3933 3935 0
-3935 3936 0
3782 -3935 3937 0
-3937 3938 0
3783 -3937 3939 0
-3939 3940 0
3784 -3939 3941 0
-3941 3942 0
3785 -3941 3943 0
-3943 3944 0
3786 -3943 3945 0
-3945 3946 0
3787 -3945 3947 0
-3947 3948 0
3788 -3947 3949 0
-3949 3950 0
3789 -3949 3951 0
-3951 3952 0
3790 -3951 3953 0
-3953 3954 0
3791 -3953 3955 0
-3955 3956 0
3792 -3955 3957 0
-3957 3958 0
3793 -3957 3959 0
-3959 3960 0
3794 -3959 3961 0
-3961 3962 0
3795 -3961 3963 0
-3963 3964 0
3796 -3963 3965 0
-3965 3966 0
3797 -3965 3967 0
-3967 3968 0
3798 -3967 3969 0
-3969 3970 0
3799 -3969 3971 0
-3971 3972 0
3800 -3971 3973 0
-3973 3974 0
3801 -3973 3975 0
-3975 3976 0
3802 -3975 3977 0
-3977 3978 0
3803 -3977 3979 0
-3979 3980 0
3804 -3979 3981 0
-3981 3982 0
3805 -3981 3983 0
-3983 3984 0
3806 -3983 3985 0
-3985 3986 0
3807 -3985 3987 0
-3987 3988 0
3808 -3987 3989 0
-3989 3990 0
3809 -3989 3991 0
-3991 3992 0
3810 -3991 3993 0
-3993 3994 0
3811 -3993 3995 0
-3995 3996 0
3812 -3995 3997 0
-3997 3998 0
3813 -3997 3999 0
-3999 4000 0
3814 -3999 4001 0
-4001 4002 0
3815 -4001 4003 0
-4003 4004 0
3816 -4003 4005 0
-4005 4006 0
3817 -4005 4007 0
-4007 4008 0
3818 -4007 4009 0
-4009 4010 0
3819 -4009 4011 0
-4011 4012 0
3820 -4011 4013 0
-4013 4014 0
3821 -4013 4015 0
-4015 4016 0
3822 -4015 4017 0
-4017 4018 0
3823 -4017 4019 0
-4019 4020 0
3824 -4019 4021 0
-4021 4022 0
3825 -4021 4023 0
-4023 4024 0
3826 -4023 4025 0
-4025 4026 0
3827 -4025 4027 0
-4027 4028 0
3828 -4027 4029 0
-4029 4030 0
3829 -4029 4031 0
-4031 4032 0
3830 -4031 4033 0
-4033 4034 0
3831 -4033 4035 0
-4035 4036 0
3832 -4035 4037 0
-4037 4038 0
3833 -4037 4039 0
-4039 4040 0
3834 -4039 4041 0
-4041 4042 0
3835 -4041 0
3733 3838 0
3734 -3838 3840 0
3735 -3840 3842 0
3736 -3842 3844 0
3737 -3844 3846 0
3738 -3846 3848 0
3739 -3848 3850 0
3740 -3850 3852 0
3741 -3852 3854 0
3742 -3854 3856 0
3743 -3856 3858 0
3744 -3858 3860 0
3745 -3860 3862 0
3746 -3862 3864 0
3747 -3864 3866 0
3748 -3866 3868 0
3749 -3868 3870 0
3750 -3870 3872 0
3751 -3872 3874 0
3752 -3874 3876 0
3753 -3876 3878 0
3754 -3878 3880 0
3755 -3880 3882 0
3756 -3882 3884 0
3757 -3884 3886 0
3758 -3886 3888 0
3759 -3888 3890 0
3760 -3890 3892 0
3761 -3892 3894 0
3762 -3894 3896 0
3763 -3896 3898 0
3764 -3898 3900 0
3765 -3900 3902 0
3766 -3902 3904 0
3767 -3904 3906 0
3768 -3906 3908 0
3769 -3908 3910 0
3770 -3910 3912 0
3771 -3912 3914 0
3772 -3914 3916 0
3773 -3916 3918 0
3774 -3918 3920 0
3775 -3920 3922 0
3776 -3922 3924 0
3777 -3924 3926 0
3778 -3926 3928 0
3779 -3928 3930 0
3780 -3930 3932 0
3781 -3932 3934 0
3782 -3934 3936 0
3783 -3936 3938 0
3784 -3938 3940 0
3785 -3940 3942 0
3786 -3942 3944 0
3787 -3944 3946 0
3788 -3946 3948 0
3789 -3948 3950 0
3790 -3950 3952 0
3791 -3952 3954 0
3792 -3954 3956 0
3793 -3956 3958 0
3794 -3958 3960 0
3795 -3960 3962 0
3796 -3962 3964 0
3797 -3964 3966 0
3798 -3966 3968 0
3799 -3968 3970 0
3800 -3970 3972 0
3801 -3972 3974 0
3802 -3974 3976 0
3803 -3976 3978 0
3804 -3978 3980 0
3805 -3980 3982 0
3806 -3982 3984 0
3807 -3984 3986 0
3808 -3986 3988 0
3809 -3988 3990 0
3810 -3990 3992 0
3811 -3992 3994 0
3812 -3994 3996 0
3813 -3996 3998 0
3814 -3998 4000 0
3815 -4000 4002 0
3816 -4002 4004 0
3817 -4004 4006 0
3818 -4006 4008 0
3819 -4008 4010 0
3820 -4010 4012 0
3821 -4012 4014 0
3822 -4014 4016 0
3823 -4016 4018 0
3824 -4018 4020 0
3825 -4020 4022 0
3826 -4022 4024 0
3827 -4024 4026 0
3828 -4026 4028 0
3829 -4028 4030 0
3830 -4030 4032 0
3831 -4032 4034 0
3832 -4034 4036 0
3833 -4036 4038 0
3834 -4038 4040 0
3835 -4040 4042 0
3836 -4042 0
-3732 4043 0
-4043 4044 0
-3733 -4043 4045 0
-4045 4046 0
-3734 -4045 0
-3733 4044 0
-4044 4047 0
-3734 -4044 4046 0
-4046 4048 0
-3735 -4046 0
-3734 4047 0
-4047 4049 0
-3735 -4047 4048 0
-4048 4050 0
-3736 -4048 0
-3735 4049 0
-4049 4051 0
-3736 -4049 4050 0
-4050 4052 0
-3737 -4050 0
-3736 4051 0
-4051 4053 0
-3737 -4051 4052 0
-4052 4054 0
-3738 -4052 0
-3737 4053 0
-4053 4055 0
-3738 -4053 4054 0
-4054 4056 0
-3739 -4054 0
-3738 4055 0
-4055 4057 0
-3739 -4055 4056 0
-4056 4058 0
-3740 -4056 0
-3739 4057 0
-4057 4059 0
-3740 -4057 4058 0
-4058 4060 0
-3741 -4058 0
-3740 4059 0
-4059 4061 0
-3741 -4059 4060 0
-4060 4062 0
-3742 -4060 0
-3741 4061 0
-4061 4063 0
-3742 -4061 4062 0
-4062 4064 0
-3743 -4062 0
-3742 4063 0
-4063 4065 0
-3743 -4063 4064 0
-4064 4066 0
-3744 -4064 0
-3743 4065 0
-4065 4067 0
-3744 -4065 4066 0
-4066 4068 0
-3745 -4066 0
-3744 4067 0
-4067 4069 0
-3745 -4067 4068 0
-4068 4070 0
-3746 -4068 0
-3745 4069 0
-4069 4071 0
-3746 -4069 4070 0
-4070 4072 0
-3747 -4070 0
-3746 4071 0
-4071 4073 0
-3747 -4071 4072 0
-4072 4074 0
-3748 -4072 0
-3747 4073 0
-4073 4075 0
-3748 -4073 4074 0
-4074 4076 0
-3749 -4074 0
-3748 4075 0
-4075 4077 0
-3749 -4075 4076 0
-4076 4078 0
-3750 -4076 0
-3749 4077 0
-4077 4079 0
-3750 -4077 4078 0
-4078 4080 0
-3751 -4078 0
-3750 4079 0
-4079 4081 0
-3751 -4079 4080 0
-4080 4082 0
-3752 -4080 0
-3751 4081 0
-4081 4083 0
-3752 -4081 4082 0
-4082 4084 0
-3753 -4082 0
-3752 4083 0
-4083 4085 0
-3753 -4083 4084 0
-4084 4086 0
-3754 -4084 0
-3753 4085 0
-4085 4087 0
-3754 -4085 4086 0
-4086 4088 0
-3755 -4086 0
-3754 4087 0
-4087 4089 0
-3755 -4087 4088 0
-4088 4090 0
-3756 -4088 0
-3755 4089 0
-4089 4091 0
-3756 -4089 4090 0
-4090 4092 0
-3757 -4090 0
-3756 4091 0
-4091 4093 0
-3757 -4091 4092 0
-4092 4094 0
-3758 -4092 0
-3757 4093 0
-4093 4095 0
-3758 -4093 4094 0
-4094 4096 0
-3759 -4094 0
-3758 4095 0
-4095 4097 0
-3759 -4095 4096 0
-4096 4098 0
-3760 -4096 0
-3759 4097 0
-4097 4099 0
-3760 -4097 4098 0
-4098 4100 0
-3761 -4098 0
-3760 4099 0
-4099 4101 0
-3761 -4099 4100 0
-4100 4102 0
-3762 -4100 0
-3761 4101 0
-4101 4103 0
-3762 -4101 4102 0
-4102 4104 0
-3763 -4102 0
-3762 4103 0
-4103 4105 0
-3763 -4103 4104 0
-4104 4106 0
-3764 -4104 0
-3763 4105 0
-4105 4107 0
-3764 -4105 4106 0
-4106 4108 0
-3765 -4106 0
-3764 4107 0
-4107 4109 0
-3765 -4107 4108 0
-4108 4110 0
-3766 -4108 0
-3765 4109 0
-4109 4111 0
-3766 -4109 4110 0
-4110 4112 0
-3767 -4110 0
-3766 4111 0
-4111 4113 0
-3767 -4111 4112 0
-4112 4114 0
-3768 -4112 0
-3767 4113 0
-4113 4115 0
-3768 -4113 4114 0
-4114 4116 0
-3769 -4114 0
-3768 4115 0
-4115 4117 0
-3769 -4115 4116 0
-4116 4118 0
-3770 -4116 0
-3769 4117 0
-4117 4119 0
-3770 -4117 4118 0
-4118 4120 0
-3771 -4118 0
-3770 4119 0
-4119 4121 0
-3771 -4119 4120 0
-4120 4122 0
-3772 -4120 0
-3771 4121 0
-4121 4123 0
-3772 -4121 4122 0
-4122 4124 0
-3773 -4122 0
-3772 4123 0
-4123 4125 0
-3773 -4123 4124 0
-4124 4126 0
-3774 -4124 0
-3773 4125 0
-4125 4127 0
-3774 -4125 4126 0
-4126 4128 0
-3775 -4126 0
-3774 4127 0
-4127 4129 0
-3775 -4127 4128 0
-4128 4130 0
-3776 -4128 0
-3775 4129 0
-4129 4131 0
-3776 -4129 4130 0
-4130 4132 0
-3777 -4130 0
-3776 4131 0
-4131 4133 0
-3777 -4131 4132 0
-4132 4134 0
-3778 -4132 0
-3777 4133 0
-4133 4135 0
-3778 -4133 4134 0
-4134 4136 0
-3779 -4134 0
-3778 4135 0
-4135 4137 0
-3779 -4135 4136 0
-4136 4138 0
-3780 -4136 0
-3779 4137 0
-4137 4139 0
-3780 -4137 4138 0
-4138 4140 0
-3781 -4138 0
-3780 4139 0
-4139 4141 0
-3781 -4139 4140 0
-4140 4142 0
-3782 -4140 0
-3781 4141 0
-4141 4143 0
-3782 -4141 4142 0
-4142 4144 0
-3783 -4142 0
-3782 4143 0
-4143 4145 0
-3783 -4143 4144 0
-4144 4146 0
-3784 -4144 0
-3783 4145 0
-4145 4147 0
-3784 -4145 4146 0
-4146 4148 0
-3785 -4146 0
-3784 4147 0
-4147 4149 0
-3785 -4147 4148 0
-4148 4150 0
-3786 -4148 0
-3785 4149 0
-4149 4151 0
-3786 -4149 4150 0
-4150 4152 0
-3787 -4150 0
-3786 4151 0
-4151 4153 0
-3787 -4151 4152 0
-4152 4154 0
-3788 -4152 0
-3787 4153 0
-4153 4155 0
-3788 -4153 4154 0
-4154 4156 0
-3789 -4154 0
-3788 4155 0
-4155 4157 0
-3789 -4155 4156 0
-4156 4158 0
-3790 -4156 0
-3789 4157 0
-4157 4159 0
-3790 -4157 4158 0
-4158 4160 0
-3791 -4158 0
-3790 4159 0
-4159 4161 0
-3791 -4159 4160 0
-4160 4162 0
-3792 -4160 0
-3791 4161 0
-4161 4163 0
-3792 -4161 4162 0
-4162 4164 0
-3793 -4162 0
-3792 4163 0
-4163 4165 0
-3793 -4163 4164 0
-4164 4166 0
-3794 -4164 0
-3793 4165 0
-4165 4167 0
-3794 -4165 4166 0
-4166 4168 0
-3795 -4166 0
-3794 4167 0
-4167 4169 0
-3795 -4167 4168 0
-4168 4170 0
-3796 -4168 0
-3795 4169 0
-4169 4171 0
-3796 -4169 4170 0
-4170 4172 0
-3797 -4170 0
-3796 4171 0
-4171 4173 0
-3797 -4171 4172 0
-4172 4174 0
-3798 -4172 0
-3797 4173 0
-4173 4175 0
-3798 -4173 4174 0
-4174 4176 0
-3799 -4174 0
-3798 4175 0
-4175 4177 0
-3799 -4175 4176 0
-4176 4178 0
-3800 -4176 0
-3799 4177 0
-4177 4179 0
-3800 -4177 4178 0
-4178 4180 0
-3801 -4178 0
-3800 4179 0
-4179 4181 0
-3801 -4179 4180 0
-4180 4182 0
-3802 -4180 0
-3801 4181 0
-4181 4183 0
-3802 -4181 4182 0
-4182 4184 0
-3803 -4182 0
-3802 4183 0
-4183 4185 0
-3803 -4183 4184 0
-4184 4186 0
-3804 -4184 0
-3803 4185 0
-4185 4187 0
-3804 -4185 4186 0
-4186 4188 0
-3805 -4186 0
-3804 4187 0
-4187 4189 0
-3805 -4187 4188 0
-4188 4190 0
-3806 -4188 0
-3805 4189 0
-4189 4191 0
-3806 -4189 4190 0
-4190 4192 0
-3807 -4190 0
-3806 4191 0
-4191 4193 0
-3807 -4191 4192 0
-4192 4194 0
-3808 -4192 0
-3807 4193 0
-4193 4195 0
-3808 -4193 4194 0
-4194 4196 0
-3809 -4194 0
-3808 4195 0
-4195 4197 0
-3809 -4195 4196 0
-4196 4198 0
-3810 -4196 0
-3809 4197 0
-4197 4199 0
-3810 -4197 4198 0
-4198 4200 0
-3811 -4198 0
-3810 4199 0
-4199 4201 0
-3811 -4199 4200 0
-4200 4202 0
-3812 -4200 0
-3811 4201 0
-4201 4203 0
-3812 -4201 4202 0
-4202 4204 0
-3813 -4202 0
-3812 4203 0
-4203 4205 0
-3813 -4203 4204 0
-4204 4206 0
-3814 -4204 0
-3813 4205 0
-4205 4207 0
-3814 -4205 4206 0
-4206 4208 0
-3815 -4206 0
-3814 4207 0
-4207 4209 0
-3815 -4207 4208 0
-4208 4210 0
-3816 -4208 0
-3815 4209 0
-4209 4211 0
-3816 -4209 4210 0
-4210 4212 0
-3817 -4210 0
-3816 4211 0
-4211 4213 0
-3817 -4211 4212 0
-4212 4214 0
-3818 -4212 0
-3817 4213 0
-4213 4215 0
-3818 -4213 4214 0
-4214 4216 0
-3819 -4214 0
-3818 4215 0
-4215 4217 0
-3819 -4215 4216 0
-4216 4218 0
-3820 -4216 0
-3819 4217 0
-4217 4219 0
-3820 -4217 4218 0
-4218 4220 0
-3821 -4218 0
-3820 4219 0
-4219 4221 0
-3821 -4219 4220 0
-4220 4222 0
-3822 -4220 0
-3821 4221 0
-4221 4223 0
-3822 -4221 4222 0
-4222 4224 0
-3823 -4222 0
-3822 4223 0
-4223 4225 0
-3823 -4223 4224 0
-4224 4226 0
-3824 -4224 0
-3823 4225 0
-4225 4227 0
-3824 -4225 4226 0
-4226 4228 0
-3825 -4226 0
-3824 4227 0
-4227 4229 0
-3825 -4227 4228 0
-4228 4230 0
-3826 -4228 0
-3825 4229 0
-4229 4231 0
-3826 -4229 4230 0
-4230 4232 0
-3827 -4230 0
-3826 4231 0
-4231 4233 0
-3827 -4231 4232 0
-4232 4234 0
-3828 -4232 0
-3827 4233 0
-4233 4235 0
-3828 -4233 4234 0
-4234 4236 0
-3829 -4234 0
-3828 4235 0
-4235 4237 0
-3829 -4235 4236 0
-4236 4238 0
-3830 -4236 0
-3829 4237 0
-4237 4239 0
-3830 -4237 4238 0
-4238 4240 0
-3831 -4238 0
-3830 4239 0
-4239 4241 0
-3831 -4239 4240 0
-4240 4242 0
-3832 -4240 0
-3831 4241 0
-4241 4243 0
-3832 -4241 4242 0
-4242 4244 0
-3833 -4242 0
-3832 4243 0
-4243 4245 0
-3833 -4243 4244 0
-4244 4246 0
-3834 -4244 0
-3833 4245 0
-4245 4247 0
-3834 -4245 4246 0
-4246 4248 0
-3835 -4246 0
-3834 4247 0
-3835 -4247 4248 0
-3836 -4248 0
1 4249 0
-4249 4250 0
10 -4249 4251 0
-4251 4252 0
19 -4251 4253 0
-4253 4254 0
29 -4253 4255 0
-4255 4256 0
38 -4255 4257 0
-4257 4258 0
47 -4257 4259 0
-4259 4260 0
56 -4259 4261 0
-4261 4262 0
64 -4261 4263 0
-4263 4264 0
73 -4263 4265 0
-4265 4266 0
83 -4265 4267 0
-4267 4268 0
92 -4267 4269 0
-4269 4270 0
101 -4269 0
10 4250 0
-4250 4271 0
19 -4250 4252 0
-4252 4272 0
29 -4252 4254 0
-4254 4273 0
38 -4254 4256 0
-4256 4274 0
47 -4256 4258 0
-4258 4275 0
56 -4258 4260 0
-4260 4276 0
64 -4260 4262 0
-4262 4277 0
73 -4262 4264 0
-4264 4278 0
83 -4264 4266 0
-4266 4279 0
92 -4266 4268 0
-4268 4280 0
101 -4268 4270 0
-4270 4281 0
110 -4270 0
19 4271 0
-4271 4282 0
29 -4271 4272 0
-4272 4283 0
38 -4272 4273 0
-4273 4284 0
47 -4273 4274 0
-4274 4285 0
56 -4274 4275 0
-4275 4286 0
64 -4275 4276 0
-4276 4287 0
73 -4276 4277 0
-4277 4288 0
83 -4277 4278 0
-4278 4289 0
92 -4278 4279 0
-4279 4290 0
101 -4279 4280 0
-4280 4291 0
110 -4280 4281 0
-4281 4292 0
118 -4281 0
29 4282 0
-4282 4293 0
38 -4282 4283 0
-4283 4294 0
47 -4283 4284 0
-4284 4295 0
56 -4284 4285 0
-4285 4296 0
64 -4285 4286 0
-4286 4297 0
73 -4286 4287 0
-4287 4298 0
83 -4287 4288 0
-4288 4299 0
92 -4288 4289 0
-4289 4300 0
101 -4289 4290 0
-4290 4301 0
110 -4290 4291 0
-4291 4302 0
118 -4291 4292 0
-4292 4303 0
128 -4292 0
38 4293 0
-4293 4304 0
47 -4293 4294 0
-4294 4305 0
56 -4294 4295 0
-4295 4306 0
64 -4295 4296 0
-4296 4307 0
73 -4296 4297 0
-4297 4308 0
83 -4297 4298 0
-4298 4309 0
92 -4298 4299 0
-4299 4310 0
101 -4299 4300 0
-4300 4311 0
110 -4300 4301 0
-4301 4312 0
118 -4301 4302 0
-4302 4313 0
128 -4302 4303 0
-4303 4314 0
137 -4303 0
47 4304 0
-4304 4315 0
56 -4304 4305 0
-4305 4316 0
64 -4305 4306 0
-4306 4317 0
73 -4306 4307 0
-4307 4318 0
83 -4307 4308 0
-4308 4319 0
92 -4308 4309 0
-4309 4320 0
101 -4309 4310 0
-4310 4321 0
110 -4310 4311 0
-4311 4322 0
118 -4311 4312 0
-4312 4323 0
128 -4312 4313 0
-4313 4324 0
137 -4313 4314 0
-4314 4325 0
146 -4314 0
56 4315 0
-4315 4326 0
64 -4315 4316 0
-4316 4327 0
73 -4316 4317 0
-4317 4328 0
83 -4317 4318 0
-4318 4329 0
92 -4318 4319 0
-4319 4330 0
101 -4319 4320 0
-4320 4331 0
110 -4320 4321 0
-4321 4332 0
118 -4321 4322 0
-4322 4333 0
128 -4322 4323 0
-4323 4334 0
137 -4323 4324 0
-4324 4335 0
146 -4324 4325 0
-4325 4336 0
155 -4325 0
64 4326 0
-4326 4337 0
73 -4326 4327 0
-4327 4338 0
83 -4327 4328 0
-4328 4339 0
92 -4328 4329 0
-4329 4340 0
101 -4329 4330 0
-4330 4341 0
110 -4330 4331 0
-4331 4342 0
118 -4331 4332 0
-4332 4343 0
128 -4332 4333 0
-4333 4344 0
137 -4333 4334 0
-4334 4345 0
146 -4334 4335 0
-4335 4346 0
155 -4335 4336 0
-4336 4347 0
164 -4336 0
73 4337 0
-4337 4348 0
83 -4337 4338 0
-4338 4349 0
92 -4338 4339 0
-4339 4350 0
101 -4339 4340 0
-4340 4351 0
110 -4340 4341 0
-4341 4352 0
118 -4341 4342 0
-4342 4353 0
128 -4342 4343 0
-4343 4354 0
137 -4343 4344 0
-4344 4355 0
146 -4344 4345 0
-4345 4356 0
155 -4345 4346 0
-4346 4357 0
164 -4346 4347 0
-4347 4358 0
173 -4347 0
83 4348 0
-4348 4359 0
92 -4348 4349 0
-4349 4360 0
101 -4349 4350 0
-4350 4361 0
110 -4350 4351 0
-4351 4362 0
118 -4351 4352 0
-4352 4363 0
128 -4352 4353 0
-4353 4364 0
137 -4353 4354 0
-4354 4365 0
146 -4354 4355 0
-4355 4366 0
155 -4355 4356 0
-4356 4367 0
164 -4356 4357 0
-4357 4368 0
173 -4357 4358 0
-4358 4369 0
182 -4358 0
92 4359 0
-4359 4370 0
101 -4359 4360 0
-4360 4371 0
110 -4360 4361 0
-4361 4372 0
118 -4361 4362 0
-4362 4373 0
128 -4362 4363 0
-4363 4374 0
137 -4363 4364 0
-4364 4375 0
146 -4364 4365 0
-4365 4376 0
155 -4365 4366 0
-4366 4377 0
164 -4366 4367 0
-4367 4378 0
173 -4367 4368 0
-4368 4379 0
182 -4368 4369 0
-4369 4380 0
191 -4369 0
101 4370 0
-4370 4381 0
110 -4370 4371 0
-4371 4382 0
118 -4371 4372 0
-4372 4383 0
128 -4372 4373 0
-4373 4384 0
137 -4373 4374 0
-4374 4385 0
146 -4374 4375 0
-4375 4386 0
155 -4375 4376 0
-4376 4387 0
164 -4376 4377 0
-4377 4388 0
173 -4377 4378 0
-4378 4389 0
182 -4378 4379 0
-4379 4390 0
191 -4379 4380 0
-4380 4391 0
203 -4380 0
110 4381 0
-4381 4392 0
118 -4381 4382 0
-4382 4393 0
128 -4382 4383 0
-4383 4394 0
137 -4383 4384 0
-4384 4395 0
146 -4384 4385 0
-4385 4396 0
155 -4385 4386 0
-4386 4397 0
164 -4386 4387 0
-4387 4398 0
173 -4387 4388 0
-4388 4399 0
182 -4388 4389 0
-4389 4400 0
191 -4389 4390 0
-4390 4401 0
203 -4390 4391 0
-4391 4402 0
212 -4391 0
118 4392 0
-4392 4403 0
128 -4392 4393 0
-4393 4404 0
137 -4393 4394 0
-4394 4405 0
146 -4394 4395 0
-4395 4406 0
155 -4395 4396 0
-4396 4407 0
164 -4396 4397 0
-4397 4408 0
173 -4397 4398 0
-4398 4409 0
182 -4398 4399 0
-4399 4410 0
191 -4399 4400 0
-4400 4411 0
203 -4400 4401 0
-4401 4412 0
212 -4401 4402 0
-4402 4413 0
221 -4402 0
128 4403 0
-4403 4414 0
137 -4403 4404 0
-4404 4415 0
146 -4404 4405 0
-4405 4416 0
155 -4405 4406 0
-4406 4417 0
164 -4406 4407 0
-4407 4418 0
173 -4407 4408 0
-4408 4419 0
182 -4408 4409 0
-4409 4420 0
191 -4409 4410 0
-4410 4421 0
203 -4410 4411 0
-4411 4422 0
212 -4411 4412 0
-4412 4423 0
221 -4412 4413 0
-4413 4424 0
230 -4413 0
137 4414 0
-4414 4425 0
146 -4414 4415 0
-4415 4426 0
155 -4415 4416 0
-4416 4427 0
164 -4416 4417 0
-4417 4428 0
173 -4417 4418 0
-4418 4429 0
182 -4418 4419 0
-4419 4430 0
191 -4419 4420 0
-4420 4431 0
203 -4420 4421 0
-4421 4432 0
212 -4421 4422 0
-4422 4433 0
221 -4422 4423 0
-4423 4434 0
230 -4423 4424 0
-4424 4435 0
239 -4424 0
146 4425 0
155 -4425 4426 0
164 -4426 4427 0
173 -4427 4428 0
182 -4428 4429 0
191 -4429 4430 0
203 -4430 4431 0
212 -4431 4432 0
221 -4432 4433 0
230 -4433 4434 0
239 -4434 4435 0
248 -4435 0
-1 4436 0
-4436 4437 0
-10 -4436 4438 0
-4438 4439 0
-19 -4438 4440 0
-4440 4441 0
-29 -4440 4442 0
-4442 4443 0
-38 -4442 4444 0
-4444 4445 0
-47 -4444 4446 0
-4446 4447 0
-56 -4446 4448 0
-4448 4449 0
-64 -4448 4450 0
-4450 4451 0
-73 -4450 4452 0
-4452 4453 0
-83 -4452 4454 0
-4454 4455 0
-92 -4454 4456 0
-4456 4457 0
-101 -4456 4458 0
-4458 4459 0
-110 -4458 4460 0
-4460 4461 0
-118 -4460 4462 0
-4462 4463 0
-128 -4462 4464 0
-4464 4465 0
-137 -4464 4466 0
-4466 4467 0
-146 -4466 4468 0
-4468 4469 0
-155 -4468 0
-10 4437 0
-4437 4470 0
-19 -4437 4439 0
-4439 4471 0
-29 -4439 4441 0
-4441 4472 0
-38 -4441 4443 0
-4443 4473 0
-47 -4443 4445 0
-4445 4474 0
-56 -4445 4447 0
-4447 4475 0
-64 -4447 4449 0
-4449 4476 0
-73 -4449 4451 0
-4451 4477 0
-83 -4451 4453 0
-4453 4478 0
-92 -4453 4455 0
-4455 4479 0
-101 -4455 4457 0
-4457 4480 0
-110 -4457 4459 0
-4459 4481 0
-118 -4459 4461 0
-4461 4482 0
-128 -4461 4463 0
-4463 4483 0
-137 -4463 4465 0
-4465 4484 0
-146 -4465 4467 0
-4467 4485 0
-155 -4467 4469 0
-4469 4486 0
-164 -4469 0
-19 4470 0
-4470 4487 0
-29 -4470 4471 0
-4471 4488 0
-38 -4471 4472 0
-4472 4489 0
-47 -4472 4473 0
-4473 4490 0
-56 -4473 4474 0
-4474 4491 0
-64 -4474 4475 0
-4475 4492 0
-73 -4475 4476 0
-4476 4493 0
-83 -4476 4477 0
-4477 4494 0
-92 -4477 4478 0
-4478 4495 0
-101 -4478 4479 0
-4479 4496 0
-110 -4479 4480 0
-4480 4497 0
-118 -4480 4481 0
-4481 4498 0
-128 -4481 4482 0
-4482 4499 0
-137 -4482 4483 0
-4483 4500 0
-146 -4483 4484 0
-4484 4501 0
-155 -4484 4485 0
-4485 4502 0
-164 -4485 4486 0
-4486 4503 0
-173 -4486 0
-29 4487 0
-4487 4504 0
-38 -4487 4488 0
-4488 4505 0
-47 -4488 4489 0
-4489 4506 0
-56 -4489 4490 0
-4490 4507 0
-64 -4490 4491 0
-4491 4508 0
-73 -4491 4492 0
-4492 4509 0
-83 -4492 4493 0
-4493 4510 0
-92 -4493 4494 0
-4494 4511 0
-101 -4494 4495 0
-4495 4512 0
-110 -4495 4496 0
-4496 4513 0
-118 -4496 4497 0
-4497 4514 0
-128 -4497 4498 0
-4498 4515 0
-137 -4498 4499 0
-4499 4516 0
-146 -4499 4500 0
-4500 4517 0
-155 -4500 4501 0
-4501 4518 0
-164 -4501 4502 0
-4502 4519 0
-173 -4502 4503 0
-4503 4520 0
-182 -4503 0
-38 4504 0
-4504 4521 0
-47 -4504 4505 0
-4505 4522 0
-56 -4505 4506 0
-4506 4523 0
-64 -4506 4507 0
-4507 4524 0
-73 -4507 4508 0
-4508 4525 0
-83 -4508 4509 0
-4509 4526 0
-92 -4509 4510 0
-4510 4527 0
-101 -4510 4511 0
-4511 4528 0
-110 -4511 4512 0
-4512 4529 0
-118 -4512 4513 0
-4513 4530 0
-128 -4513 4514 0
-4514 4531 0
-137 -4514 4515 0
-4515 4532 0
-146 -4515 4516 0
-4516 4533 0
-155 -4516 4517 0
-4517 4534 0
-164 -4517 4518 0
-4518 4535 0
-173 -4518 4519 0
-4519 4536 0
-182 -4519 4520 0
-4520 4537 0
-191 -4520 0
-47 4521 0
-4521 4538 0
-56 -4521 4522 0
-4522 4539 0
-64 -4522 4523 0
-4523 4540 0
-73 -4523 4524 0
-4524 4541 0
-83 -4524 4525 0
-4525 4542 0
-92 -4525 4526 0
-4526 4543 0
-101 -4526 4527 0
-4527 4544 0
-110 -4527 4528 0
-4528 4545 0
-118 -4528 4529 0
-4529 4546 0
-128 -4529 4530 0
-4530 4547 0
-137 -4530 4531 0
-4531 4548 0
-146 -4531 4532 0
-4532 4549 0
-155 -4532 4533 0
-4533 4550 0
-164 -4533 4534 0
-4534 4551 0
-173 -4534 4535 0
-4535 4552 0
-182 -4535 4536 0
-4536 4553 0
-191 -4536 4537 0
-4537 4554 0
-203 -4537 0
-56 4538 0
-4538 4555 0
-64 -4538 4539 0
-4539 4556 0
-73 -4539 4540 0
-4540 4557 0
-83 -4540 4541 0
-4541 4558 0
-92 -4541 4542 0
-4542 4559 0
-101 -4542 4543 0
-4543 4560 0
-110 -4543 4544 0
-4544 4561 0
-118 -4544 4545 0
-4545 4562 0
-128 -4545 4546 0
-4546 4563 0
-137 -4546 4547 0
-4547 4564 0
-146 -4547 4548 0
-4548 4565 0
-155 -4548 4549 0
-4549 4566 0
-164 -4549 4550 0
-4550 4567 0
-173 -4550 4551 0
-4551 4568 0
-182 -4551 4552 0
-4552 4569 0
-191 -4552 4553 0
-4553 4570 0
-203 -4553 4554 0
-4554 4571 0
-212 -4554 0
-64 4555 0
-4555 4572 0
-73 -4555 4556 0
-4556 4573 0
-83 -4556 4557 0
-4557 4574 0
-92 -4557 4558 0
-4558 4575 0
-101 -4558 4559 0
-4559 4576 0
-110 -4559 4560 0
-4560 4577 0
-118 -4560 4561 0
-4561 4578 0
-128 -4561 4562 0
-4562 4579 0
-137 -4562 4563 0
-4563 4580 0
-146 -4563 4564 0
-4564 4581 0
-155 -4564 4565 0
-4565 4582 0
-164 -4565 4566 0
-4566 4583 0
-173 -4566 4567 0
-4567 4584 0
-182 -4567 4568 0
-4568 4585 0
-191 -4568 4569 0
-4569 4586 0
-203 -4569 4570 0
-4570 4587 0
-212 -4570 4571 0
-4571 4588 0
-221 -4571 0
-73 4572 0
-4572 4589 0
-83 -4572 4573 0
-4573 4590 0
-92 -4573 4574 0
-4574 4591 0
-101 -4574 4575 0
-4575 4592 0
-110 -4575 4576 0
-4576 4593 0
-118 -4576 4577 0
-4577 4594 0
-128 -4577 4578 0
-4578 4595 0
-137 -4578 4579 0
-4579 4596 0
-146 -4579 4580 0
-4580 4597 0
-155 -4580 4581 0
-4581 4598 0
-164 -4581 4582 0
-4582 4599 0
-173 -4582 4583 0
-4583 4600 0
-182 -4583 4584 0
-4584 4601 0
-191 -4584 4585 0
-4585 4602 0
-203 -4585 4586 0
-4586 4603 0
-212 -4586 4587 0
-4587 4604 0
-221 -4587 4588 0
-4588 4605 0
-230 -4588 0
-83 4589 0
-4589 4606 0
-92 -4589 4590 0
-4590 4607 0
-101 -4590 4591 0
-4591 4608 0
-110 -4591 4592 0
-4592 4609 0
-118 -4592 4593 0
-4593 4610 0
-128 -4593 4594 0
-4594 4611 0
-137 -4594 4595 0
-4595 4612 0
-146 -4595 4596 0
-4596 4613 0
-155 -4596 4597 0
-4597 4614 0
-164 -4597 4598 0
-4598 4615 0
-173 -4598 4599 0
-4599 4616 0
-182 -4599 4600 0
-4600 4617 0
-191 -4600 4601 0
-4601 4618 0
-203 -4601 4602 0
-4602 4619 0
-212 -4602 4603 0
-4603 4620 0
-221 -4603 4604 0
-4604 4621 0
-230 -4604 4605 0
-4605 4622 0
-239 -4605 0
-92 4606 0
-101 -4606 4607 0
-110 -4607 4608 0
-118 -4608 4609 0
-128 -4609 4610 0
-137 -4610 4611 0
-146 -4611 4612 0
-155 -4612 4613 0
-164 -4613 4614 0
-173 -4614 4615 0
-182 -4615 4616 0
-191 -4616 4617 0
-203 -4617 4618 0
-212 -4618 4619 0
-221 -4619 4620 0
-230 -4620 4621 0
-239 -4621 4622 0
-248 -4622 0
-4623 1 0
-4623 118 0
-4623 203 0
-4623 248 0
-1 -118 -203 -248 4623 0
-4624 1 0
-4624 118 0
-4624 212 0
-4624 239 0
-1 -118 -212 -239 4624 0
-4625 1 0
-4625 118 0
-4625 221 0
-4625 230 0
-1 -118 -221 -230 4625 0
-4626 1 0
-4626 128 0
-4626 173 0
-4626 248 0
-1 -128 -173 -248 4626 0
-4627 1 0
-4627 128 0
-4627 182 0
-4627 239 0
-1 -128 -182 -239 4627 0
-4628 1 0
-4628 128 0
-4628 191 0
-4628 230 0
-1 -128 -191 -230 4628 0
-4629 1 0
-4629 137 0
-4629 164 0
-4629 248 0
-1 -137 -164 -248 4629 0
-4630 1 0
-4630 137 0
-4630 182 0
-4630 221 0
-1 -137 -182 -221 4630 0
-4631 1 0
-4631 137 0
-4631 191 0
-4631 212 0
-1 -137 -191 -212 4631 0
-4632 1 0
-4632 146 0
-4632 164 0
-4632 239 0
-1 -146 -164 -239 4632 0
-4633 1 0
-4633 146 0
-4633 173 0
-4633 221 0
-1 -146 -173 -221 4633 0
-4634 1 0
-4634 146 0
-4634 191 0
-4634 203 0
-1 -146 -191 -203 4634 0
-4635 1 0
-4635 155 0
-4635 164 0
-4635 230 0
-1 -155 -164 -230 4635 0
-4636 1 0
-4636 155 0
-4636 173 0
-4636 212 0
-1 -155 -173 -212 4636 0
-4637 1 0
-4637 155 0
-4637 182 0
-4637 203 0
-1 -155 -182 -203 4637 0
-4638 10 0
-4638 73 0
-4638 203 0
-4638 248 0
-10 -73 -203 -248 4638 0
-4639 10 0
-4639 73 0
-4639 212 0
-4639 239 0
-10 -73 -212 -239 4639 0
-4640 10 0
-4640 73 0
-4640 221 0
-4640 230 0
-10 -73 -221 -230 4640 0
-4641 10 0
-4641 83 0
-4641 173 0
-4641 248 0
-10 -83 -173 -248 4641 0
-4642 10 0
-4642 83 0
-4642 182 0
-4642 239 0
-10 -83 -182 -239 4642 0
-4643 10 0
-4643 83 0
-4643 191 0
-4643 230 0
-10 -83 -191 -230 4643 0
-4644 10 0
-4644 92 0
-4644 164 0
-4644 248 0
-10 -92 -164 -248 4644 0
-4645 10 0
-4645 92 0
-4645 182 0
-4645 221 0
-10 -92 -182 -221 4645 0
-4646 10 0
-4646 92 0
-4646 191 0
-4646 212 0
-10 -92 -191 -212 4646 0
-4647 10 0
-4647 101 0
-4647 164 0
-4647 239 0
-10 -101 -164 -239 4647 0
-4648 10 0
-4648 101 0
-4648 173 0
-4648 221 0
-10 -101 -173 -221 4648 0
-4649 10 0
-4649 101 0
-4649 191 0
-4649 203 0
-10 -101 -191 -203 4649 0
-4650 10 0
-4650 110 0
-4650 164 0
-4650 230 0
-10 -110 -164 -230 4650 0
-4651 10 0
-4651 110 0
-4651 173 0
-4651 212 0
-10 -110 -173 -212 4651 0
-4652 10 0
-4652 110 0
-4652 182 0
-4652 203 0
-10 -110 -182 -203 4652 0
-4653 19 0
-4653 64 0
-4653 203 0
-4653 248 0
-19 -64 -203 -248 4653 0
-4654 19 0
-4654 64 0
-4654 212 0
-4654 239 0
-19 -64 -212 -239 4654 0
-4655 19 0
-4655 64 0
-4655 221 0
-4655 230 0
-19 -64 -221 -230 4655 0
-4656 19 0
-4656 83 0
-4656 137 0
-4656 248 0
-19 -83 -137 -248 4656 0
-4657 19 0
-4657 83 0
-4657 146 0
-4657 239 0
-19 -83 -146 -239 4657 0
-4658 19 0
-4658 83 0
-4658 155 0
-4658 230 0
-19 -83 -155 -230 4658 0
-4659 19 0
-4659 92 0
-4659 128 0
-4659 248 0
-19 -92 -128 -248 4659 0
-4660 19 0
-4660 92 0
-4660 146 0
-4660 221 0
-19 -92 -146 -221 4660 0
-4661 19 0
-4661 92 0
-4661 155 0
-4661 212 0
-19 -92 -155 -212 4661 0
-4662 19 0
-4662 101 0
-4662 128 0
-4662 239 0
-19 -101 -128 -239 4662 0
-4663 19 0
-4663 101 0
-4663 137 0
-4663 221 0
-19 -101 -137 -221 4663 0
-4664 19 0
-4664 101 0
-4664 155 0
-4664 203 0
-19 -101 -155 -203 4664 0
-4665 19 0
-4665 110 0
-4665 128 0
-4665 230 0
-19 -110 -128 -230 4665 0
-4666 19 0
-4666 110 0
-4666 137 0
-4666 212 0
-19 -110 -137 -212 4666 0
-4667 19 0
-4667 110 0
-4667 146 0
-4667 203 0
-19 -110 -146 -203 4667 0
-4668 29 0
-4668 64 0
-4668 173 0
-4668 248 0
-29 -64 -173 -248 4668 0
-4669 29 0
-4669 64 0
-4669 182 0
-4669 239 0
-29 -64 -182 -239 4669 0
-4670 29 0
-4670 64 0
-4670 191 0
-4670 230 0
-29 -64 -191 -230 4670 0
-4671 29 0
-4671 73 0
-4671 137 0
-4671 248 0
-29 -73 -137 -248 4671 0
-4672 29 0
-4672 73 0
-4672 146 0
-4672 239 0
-29 -73 -146 -239 4672 0
-4673 29 0
-4673 73 0
-4673 155 0
-4673 230 0
-29 -73 -155 -230 4673 0
-4674 29 0
-4674 92 0
-4674 118 0
-4674 248 0
-29 -92 -118 -248 4674 0
-4675 29 0
-4675 92 0
-4675 146 0
-4675 191 0
-29 -92 -146 -191 4675 0
-4676 29 0
-4676 92 0
-4676 155 0
-4676 182 0
-29 -92 -155 -182 4676 0
-4677 29 0
-4677 101 0
-4677 118 0
-4677 239 0
-29 -101 -118 -239 4677 0
-4678 29 0
-4678 101 0
-4678 137 0
-4678 191 0
-29 -101 -137 -191 4678 0
-4679 29 0
-4679 101 0
-4679 155 0
-4679 173 0
-29 -101 -155 -173 4679 0
-4680 29 0
-4680 110 0
-4680 118 0
-4680 230 0
-29 -110 -118 -230 4680 0
-4681 29 0
-4681 110 0
-4681 137 0
-4681 182 0
-29 -110 -137 -182 4681 0
-4682 29 0
-4682 110 0
-4682 146 0
-4682 173 0
-29 -110 -146 -173 4682 0
-4683 38 0
-4683 64 0
-4683 164 0
-4683 248 0
-38 -64 -164 -248 4683 0
-4684 38 0
-4684 64 0
-4684 182 0
-4684 221 0
-38 -64 -182 -221 4684 0
-4685 38 0
-4685 64 0
-4685 191 0
-4685 212 0
-38 -64 -191 -212 4685 0
-4686 38 0
-4686 73 0
-4686 128 0
-4686 248 0
-38 -73 -128 -248 4686 0
-4687 38 0
-4687 73 0
-4687 146 0
-4687 221 0
-38 -73 -146 -221 4687 0
-4688 38 0
-4688 73 0
-4688 155 0
-4688 212 0
-38 -73 -155 -212 4688 0
-4689 38 0
-4689 83 0
-4689 118 0
-4689 248 0
-38 -83 -118 -248 4689 0
-4690 38 0
-4690 83 0
-4690 146 0
-4690 191 0
-38 -83 -146 -191 4690 0
-4691 38 0
-4691 83 0
-4691 155 0
-4691 182 0
-38 -83 -155 -182 4691 0
-4692 38 0
-4692 101 0
-4692 118 0
-4692 221 0
-38 -101 -118 -221 4692 0
-4693 38 0
-4693 101 0
-4693 128 0
-4693 191 0
-38 -101 -128 -191 4693 0
-4694 38 0
-4694 101 0
-4694 155 0
-4694 164 0
-38 -101 -155 -164 4694 0
-4695 38 0
-4695 110 0
-4695 118 0
-4695 212 0
-38 -110 -118 -212 4695 0
-4696 38 0
-4696 110 0
-4696 128 0
-4696 182 0
-38 -110 -128 -182 4696 0
-4697 38 0
-4697 110 0
-4697 146 0
-4697 164 0
-38 -110 -146 -164 4697 0
-4698 47 0
-4698 64 0
-4698 164 0
-4698 239 0
-47 -64 -164 -239 4698 0
-4699 47 0
-4699 64 0
-4699 173 0
-4699 221 0
-47 -64 -173 -221 4699 0
-4700 47 0
-4700 64 0
-4700 191 0
-4700 203 0
-47 -64 -191 -203 4700 0
-4701 47 0
-4701 73 0
-4701 128 0
-4701 239 0
-47 -73 -128 -239 4701 0
-4702 47 0
-4702 73 0
-4702 137 0
-4702 221 0
-47 -73 -137 -221 4702 0
-4703 47 0
-4703 73 0
-4703 155 0
-4703 203 0
-47 -73 -155 -203 4703 0
-4704 47 0
-4704 83 0
-4704 118 0
-4704 239 0
-47 -83 -118 -239 4704 0
-4705 47 0
-4705 83 0
-4705 137 0
-4705 191 0
-47 -83 -137 -191 4705 0
-4706 47 0
-4706 83 0
-4706 155 0
-4706 173 0
-47 -83 -155 -173 4706 0
-4707 47 0
-4707 92 0
-4707 118 0
-4707 221 0
-47 -92 -118 -221 4707 0
-4708 47 0
-4708 92 0
-4708 128 0
-4708 191 0
-47 -92 -128 -191 4708 0
-4709 47 0
-4709 92 0
-4709 155 0
-4709 164 0
-47 -92 -155 -164 4709 0
-4710 47 0
-4710 110 0
-4710 118 0
-4710 203 0
-47 -110 -118 -203 4710 0
-4711 47 0
-4711 110 0
-4711 128 0
-4711 173 0
-47 -110 -128 -173 4711 0
-4712 47 0
-4712 110 0
-4712 137 0
-4712 164 0
-47 -110 -137 -164 4712 0
-4713 56 0
-4713 64 0
-4713 164 0
-4713 230 0
-56 -64 -164 -230 4713 0
-4714 56 0
-4714 64 0
-4714 173 0
-4714 212 0
-56 -64 -173 -212 4714 0
-4715 56 0
-4715 64 0
-4715 182 0
-4715 203 0
-56 -64 -182 -203 4715 0
-4716 56 0
-4716 73 0
-4716 128 0
-4716 230 0
-56 -73 -128 -230 4716 0
-4717 56 0
-4717 73 0
-4717 137 0
-4717 212 0
-56 -73 -137 -212 4717 0
-4718 56 0
-4718 73 0
-4718 146 0
-4718 203 0
-56 -73 -146 -203 4718 0
-4719 56 0
-4719 83 0
-4719 118 0
-4719 230 0
-56 -83 -118 -230 4719 0
-4720 56 0
-4720 83 0
-4720 137 0
-4720 182 0
-56 -83 -137 -182 4720 0
-4721 56 0
-4721 83 0
-4721 146 0
-4721 173 0
-56 -83 -146 -173 4721 0
-4722 56 0
-4722 92 0
-4722 118 0
-4722 212 0
-56 -92 -118 -212 4722 0
-4723 56 0
-4723 92 0
-4723 128 0
-4723 182 0
-56 -92 -128 -182 4723 0
-4724 56 0
-4724 92 0
-4724 146 0
-4724 164 0
-56 -92 -146 -164 4724 0
-4725 56 0
-4725 101 0
-4725 118 0
-4725 203 0
-56 -101 -118 -203 4725 0
-4726 56 0
-4726 101 0
-4726 128 0
-4726 173 0
-56 -101 -128 -173 4726 0
-4727 56 0
-4727 101 0
-4727 137 0
-4727 164 0
-56 -101 -137 -164 4727 0
4623 4728 0
-4728 4729 0
4624 -4728 4730 0
-4730 4731 0
4625 -4730 4732 0
-4732 4733 0
4626 -4732 4734 0
-4734 4735 0
4627 -4734 4736 0
-4736 4737 0
4628 -4736 4738 0
-4738 4739 0
4629 -4738 4740 0
-4740 4741 0
4630 -4740 4742 0
-4742 4743 0
4631 -4742 4744 0
-4744 4745 0
4632 -4744 4746 0
-4746 4747 0
4633 -4746 4748 0
-4748 4749 0
4634 -4748 4750 0
-4750 4751 0
4635 -4750 4752 0
-4752 4753 0
4636 -4752 4754 0
-4754 4755 0
4637 -4754 4756 0
-4756 4757 0
4638 -4756 4758 0
-4758 4759 0
4639 -4758 4760 0
-4760 4761 0
4640 -4760 4762 0
-4762 4763 0
4641 -4762 4764 0
-4764 4765 0
4642 -4764 4766 0
-4766 4767 0
4643 -4766 4768 0
-4768 4769 0
4644 -4768 4770 0
-4770 4771 0
4645 -4770 4772 0
-4772 4773 0
4646 -4772 4774 0
-4774 4775 0
4647 -4774 4776 0
-4776 4777 0
4648 -4776 4778 0
-4778 4779 0
4649 -4778 4780 0
-4780 4781 0
4650 -4780 4782 0
-4782 4783 0
4651 -4782 4784 0
-4784 4785 0
4652 -4784 4786 0
-4786 4787 0
4653 -4786 4788 0
-4788 4789 0
4654 -4788 4790 0
-4790 4791 0
4655 -4790 4792 0
-4792 4793 0
4656 -4792 4794 0
-4794 4795 0
4657 -4794 4796 0
-4796 4797 0
4658 -4796 4798 0
-4798 4799 0
4659 -4798 4800 0
-4800 4801 0
4660 -4800 4802 0
-4802 4803 0
4661 -4802 4804 0
-4804 4805 0
4662 -4804 4806 0
-4806 4807 0
4663 -4806 4808 0
-4808 4809 0
4664 -4808 4810 0
-4810 4811 0
4665 -4810 4812 0
-4812 4813 0
4666 -4812 4814 0
-4814 4815 0
4667 -4814 4816 0
-4816 4817 0
4668 -4816 4818 0
-4818 4819 0
4669 -4818 4820 0
-4820 4821 0
4670 -4820 4822 0
-4822 4823 0
4671 -4822 4824 0
-4824 4825 0
4672 -4824 4826 0
-4826 4827 0
4673 -4826 4828 0
-4828 4829 0
4674 -4828 4830 0
-4830 4831 0
4675 -4830 4832 0
-4832 4833 0
4676 -4832 4834 0
-4834 4835 0
4677 -4834 4836 0
-4836 4837 0
4678 -4836 4838 0
-4838 4839 0
4679 -4838 4840 0
-4840 4841 0
4680 -4840 4842 0
-4842 4843 0
4681 -4842 4844 0
-4844 4845 0
4682 -4844 4846 0
-4846 4847 0
4683 -4846 4848 0
-4848 4849 0
4684 -4848 4850 0
-4850 4851 0
4685 -4850 4852 0
-4852 4853 0
4686 -4852 4854 0
-4854 4855 0
4687 -4854 4856 0
-4856 4857 0
4688 -4856 4858 0
-4858 4859 0
4689 -4858 4860 0
-4860 4861 0
4690 -4860 4862 0
-4862 4863 0
4691 -4862 4864 0
-4864 4865 0
4692 -4864 4866 0
-4866 4867 0
4693 -4866 4868 0
-4868 4869 0
4694 -4868 4870 0
-4870 4871 0
4695 -4870 4872 0
-4872 4873 0
4696 -4872 4874 0
-4874 4875 0
4697 -4874 4876 0
-4876 4877 0
4698 -4876 4878 0
-4878 4879 0
4699 -4878 4880 0
-4880 4881 0
4700 -4880 4882 0
-4882 4883 0
4701 -4882 4884 0
-4884 4885 0
4702 -4884 4886 0
-4886 4887 0
4703 -4886 4888 0
-4888 4889 0
4704 -4888 4890 0
-4890 4891 0
4705 -4890 4892 0
-4892 4893 0
4706 -4892 4894 0
-4894 4895 0
4707 -4894 4896 0
-4896 4897 0
4708 -4896 4898 0
-4898 4899 0
4709 -4898 4900 0
-4900 4901 0
4710 -4900 4902 0
-4902 4903 0
4711 -4902 4904 0
-4904 4905 0
4712 -4904 4906 0
-4906 4907 0
4713 -4906 4908 0
-4908 4909 0
4714 -4908 4910 0
-4910 4911 0
4715 -4910 4912 0
-4912 4913 0
4716 -4912 4914 0
-4914 4915 0
4717 -4914 4916 0
-4916 4917 0
4718 -4916 4918 0
-4918 4919 0
4719 -4918 4920 0
-4920 4921 0
4720 -4920 4922 0
-4922 4923 0
4721 -4922 4924 0
-4924 4925 0
4722 -4924 4926 0
-4926 4927 0
4723 -4926 4928 0
-4928 4929 0
4724 -4928 4930 0
-4930 4931 0
4725 -4930 4932 0
-4932 4933 0
4726 -4932 0
4624 4729 0
4625 -4729 4731 0
4626 -4731 4733 0
4627 -4733 4735 0
4628 -4735 4737 0
4629 -4737 4739 0
4630 -4739 4741 0
4631 -4741 4743 0
4632 -4743 4745 0
4633 -4745 4747 0
4634 -4747 4749 0
4635 -4749 4751 0
4636 -4751 4753 0
4637 -4753 4755 0
4638 -4755 4757 0
4639 -4757 4759 0
4640 -4759 4761 0
4641 -4761 4763 0
4642 -4763 4765 0
4643 -4765 4767 0
4644 -4767 4769 0
4645 -4769 4771 0
4646 -4771 4773 0
4647 -4773 4775 0
4648 -4775 4777 0
4649 -4777 4779 0
4650 -4779 4781 0
4651 -4781 4783 0
4652 -4783 4785 0
4653 -4785 4787 0
4654 -4787 4789 0
4655 -4789 4791 0
4656 -4791 4793 0
4657 -4793 4795 0
4658 -4795 4797 0
4659 -4797 4799 0
4660 -4799 4801 0
4661 -4801 4803 0
4662 -4803 4805 0
4663 -4805 4807 0
4664 -4807 4809 0
4665 -4809 4811 0
4666 -4811 4813 0
4667 -4813 4815 0
4668 -4815 4817 0
4669 -4817 4819 0
4670 -4819 4821 0
4671 -4821 4823 0
4672 -4823 4825 0
4673 -4825 4827 0
4674 -4827 4829 0
4675 -4829 4831 0
4676 -4831 4833 0
4677 -4833 4835 0
4678 -4835 4837 0
4679 -4837 4839 0
4680 -4839 4841 0
4681 -4841 4843 0
4682 -4843 4845 0
4683 -4845 4847 0
4684 -4847 4849 0
4685 -4849 4851 0
4686 -4851 4853 0
4687 -4853 4855 0
4688 -4855 4857 0
4689 -4857 4859 0
4690 -4859 4861 0
4691 -4861 4863 0
4692 -4863 4865 0
4693 -4865 4867 0
4694 -4867 4869 0
4695 -4869 4871 0
4696 -4871 4873 0
4697 -4873 4875 0
4698 -4875 4877 0
4699 -4877 4879 0
4700 -4879 4881 0
4701 -4881 4883 0
4702 -4883 4885 0
4703 -4885 4887 0
4704 -4887 4889 0
4705 -4889 4891 0
4706 -4891 4893 0
4707 -4893 4895 0
4708 -4895 4897 0
4709 -4897 4899 0
4710 -4899 4901 0
4711 -4901 4903 0
4712 -4903 4905 0
4713 -4905 4907 0
4714 -4907 4909 0
4715 -4909 4911 0
4716 -4911 4913 0
4717 -4913 4915 0
4718 -4915 4917 0
4719 -4917 4919 0
4720 -4919 4921 0
4721 -4921 4923 0
4722 -4923 4925 0
4723 -4925 4927 0
4724 -4927 4929 0
4725 -4929 4931 0
4726 -4931 4933 0
4727 -4933 0
-4623 4934 0
-4934 4935 0
-4624 -4934 4936 0
-4936 4937 0
-4625 -4936 0
-4624 4935 0
-4935 4938 0
-4625 -4935 4937 0
-4937 4939 0
-4626 -4937 0
-4625 4938 0
-4938 4940 0
-4626 -4938 4939 0
-4939 4941 0
-4627 -4939 0
-4626 4940 0
-4940 4942 0
-4627 -4940 4941 0
-4941 4943 0
-4628 -4941 0
-4627 4942 0
-4942 4944 0
-4628 -4942 4943 0
-4943 4945 0
-4629 -4943 0
-4628 4944 0
-4944 4946 0
-4629 -4944 4945 0
-4945 4947 0
-4630 -4945 0
-4629 4946 0
-4946 4948 0
-4630 -4946 4947 0
-4947 4949 0
-4631 -4947 0
-4630 4948 0
-4948 4950 0
-4631 -4948 4949 0
-4949 4951 0
-4632 -4949 0
-4631 4950 0
-4950 4952 0
-4632 -4950 4951 0
-4951 4953 0
-4633 -4951 0
-4632 4952 0
-4952 4954 0
-4633 -4952 4953 0
-4953 4955 0
-4634 -4953 0
-4633 4954 0
-4954 4956 0
-4634 -4954 4955 0
-4955 4957 0
-4635 -4955 0
-4634 4956 0
-4956 4958 0
-4635 -4956 4957 0
-4957 4959 0
-4636 -4957 0
-4635 4958 0
-4958 4960 0
-4636 -4958 4959 0
-4959 4961 0
-4637 -4959 0
-4636 4960 0
-4960 4962 0
-4637 -4960 4961 0
-4961 4963 0
-4638 -4961 0
-4637 4962 0
-4962 4964 0
-4638 -4962 4963 0
-4963 4965 0
-4639 -4963 0
-4638 4964 0
-4964 4966 0
-4639 -4964 4965 0
-4965 4967 0
-4640 -4965 0
-4639 4966 0
-4966 4968 0
-4640 -4966 4967 0
-4967 4969 0
-4641 -4967 0
-4640 4968 0
-4968 4970 0
-4641 -4968 4969 0
-4969 4971 0
-4642 -4969 0
-4641 4970 0
-4970 4972 0
-4642 -4970 4971 0
-4971 4973 0
-4643 -4971 0
-4642 4972 0
-4972 4974 0
-4643 -4972 4973 0
-4973 4975 0
-4644 -4973 0
-4643 4974 0
-4974 4976 0
-4644 -4974 4975 0
-4975 4977 0
-4645 -4975 0
-4644 4976 0
-4976 4978 0
-4645 -4976 4977 0
-4977 4979 0
-4646 -4977 0
-4645 4978 0
-4978 4980 0
-4646 -4978 4979 0
-4979 4981 0
-4647 -4979 0
-4646 4980 0
-4980 4982 0
-4647 -4980 4981 0
-4981 4983 0
-4648 -4981 0
-4647 4982 0
-4982 4984 0
-4648 -4982 4983 0
-4983 4985 0
-4649 -4983 0
-4648 4984 0
-4984 4986 0
-4649 -4984 4985 0
-4985 4987 0
-4650 -4985 0
-4649 4986 0
-4986 4988 0
-4650 -4986 4987 0
-4987 4989 0
-4651 -4987 0
-4650 4988 0
-4988 4990 0
-4651 -4988 4989 0
-4989 4991 0
-4652 -4989 0
-4651 4990 0
-4990 4992 0
-4652 -4990 4991 0
-4991 4993 0
-4653 -4991 0
-4652 4992 0
-4992 4994 0
-4653 -4992 4993 0
-4993 4995 0
-4654 -4993 0
-4653 4994 0
-4994 4996 0
-4654 -4994 4995 0
-4995 4997 0
-4655 -4995 0
-4654 4996 0
-4996 4998 0
-4655 -4996 4997 0
-4997 4999 0
-4656 -4997 0
-4655 4998 0
-4998 5000 0
-4656 -4998 4999 0
-4999 5001 0
-4657 -4999 0
-4656 5000 0
-5000 5002 0
-4657 -5000 5001 0
-5001 5003 0
-4658 -5001 0
-4657 5002 0
-5002 5004 0
-4658 -5002 5003 0
-5003 5005 0
-4659 -5003 0
-4658 5004 0
-5004 5006 0
-4659 -5004 5005 0
-5005 5007 0
-4660 -5005 0
-4659 5006 0
-5006 5008 0
-4660 -5006 5007 0
-5007 5009 0
-4661 -5007 0
-4660 5008 0
-5008 5010 0
-4661 -5008 5009 0
-5009 5011 0
-4662 -5009 0
-4661 5010 0
-5010 5012 0
-4662 -5010 5011 0
-5011 5013 0
-4663 -5011 0
-4662 5012 0
-5012 5014 0
-4663 -5012 5013 0
-5013 5015 0
-4664 -5013 0
-4663 5014 0
-5014 5016 0
-4664 -5014 5015 0
-5015 5017 0
-4665 -5015 0
-4664 5016 0
-5016 5018 0
-4665 -5016 5017 0
-5017 5019 0
-4666 -5017 0
-4665 5018 0
-5018 5020 0
-4666 -5018 5019 0
-5019 5021 0
-4667 -5019 0
-4666 5020 0
-5020 5022 0
-4667 -5020 5021 0
-5021 5023 0
-4668 -5021 0
-4667 5022 0
-5022 5024 0
-4668 -5022 5023 0
-5023 5025 0
-4669 -5023 0
-4668 5024 0
-5024 5026 0
-4669 -5024 5025 0
-5025 5027 0
-4670 -5025 0
-4669 5026 0
-5026 5028 0
-4670 -5026 5027 0
-5027 5029 0
-4671 -5027 0
-4670 5028 0
-5028 5030 0
-4671 -5028 5029 0
-5029 5031 0
-4672 -5029 0
-4671 5030 0
-5030 5032 0
-4672 -5030 5031 0
-5031 5033 0
-4673 -5031 0
-4672 5032 0
-5032 5034 0
-4673 -5032 5033 0
-5033 5035 0
-4674 -5033 0
-4673 5034 0
-5034 5036 0
-4674 -5034 5035 0
-5035 5037 0
-4675 -5035 0
-4674 5036 0
-5036 5038 0
-4675 -5036 5037 0
-5037 5039 0
-4676 -5037 0
-4675 5038 0
-5038 5040 0
-4676 -5038 5039 0
-5039 5041 0
-4677 -5039 0
-4676 5040 0
-5040 5042 0
-4677 -5040 5041 0
-5041 5043 0
-4678 -5041 0
-4677 5042 0
-5042 5044 0
-4678 -5042 5043 0
-5043 5045 0
-4679 -5043 0
-4678 5044 0
-5044 5046 0
-4679 -5044 5045 0
-5045 5047 0
-4680 -5045 0
-4679 5046 0
-5046 5048 0
-4680 -5046 5047 0
-5047 5049 0
-4681 -5047 0
-4680 5048 0
-5048 5050 0
-4681 -5048 5049 0
-5049 5051 0
-4682 -5049 0
-4681 5050 0
-5050 5052 0
-4682 -5050 5051 0
-5051 5053 0
-4683 -5051 0
-4682 5052 0
-5052 5054 0
-4683 -5052 5053 0
-5053 5055 0
-4684 -5053 0
-4683 5054 0
-5054 5056 0
-4684 -5054 5055 0
-5055 5057 0
-4685 -5055 0
-4684 5056 0
-5056 5058 0
-4685 -5056 5057 0
-5057 5059 0
-4686 -5057 0
-4685 5058 0
-5058 5060 0
-4686 -5058 5059 0
-5059 5061 0
-4687 -5059 0
-4686 5060 0
-5060 5062 0
-4687 -5060 5061 0
-5061 5063 0
-4688 -5061 0
-4687 5062 0
-5062 5064 0
-4688 -5062 5063 0
-5063 5065 0
-4689 -5063 0
-4688 5064 0
-5064 5066 0
-4689 -5064 5065 0
-5065 5067 0
-4690 -5065 0
-4689 5066 0
-5066 5068 0
-4690 -5066 5067 0
-5067 5069 0
-4691 -5067 0
-4690 5068 0
-5068 5070 0
-4691 -5068 5069 0
-5069 5071 0
-4692 -5069 0
-4691 5070 0
-5070 5072 0
-4692 -5070 5071 0
-5071 5073 0
-4693 -5071 0
-4692 5072 0
-5072 5074 0
-4693 -5072 5073 0
-5073 5075 0
-4694 -5073 0
-4693 5074 0
-5074 5076 0
-4694 -5074 5075 0
-5075 5077 0
-4695 -5075 0
-4694 5076 0
-5076 5078 0
-4695 -5076 5077 0
-5077 5079 0
-4696 -5077 0
-4695 5078 0
-5078 5080 0
-4696 -5078 5079 0
-5079 5081 0
-4697 -5079 0
-4696 5080 0
-5080 5082 0
-4697 -5080 5081 0
-5081 5083 0
-4698 -5081 0
-4697 5082 0
-5082 5084 0
-4698 -5082 5083 0
-5083 5085 0
-4699 -5083 0
-4698 5084 0
-5084 5086 0
-4699 -5084 5085 0
-5085 5087 0
-4700 -5085 0
-4699 5086 0
-5086 5088 0
-4700 -5086 5087 0
-5087 5089 0
-4701 -5087 0
-4700 5088 0
-5088 5090 0
-4701 -5088 5089 0
-5089 5091 0
-4702 -5089 0
-4701 5090 0
-5090 5092 0
-4702 -5090 5091 0
-5091 5093 0
-4703 -5091 0
-4702 5092 0
-5092 5094 0
-4703 -5092 5093 0
-5093 5095 0
-4704 -5093 0
-4703 5094 0
-5094 5096 0
-4704 -5094 5095 0
-5095 5097 0
-4705 -5095 0
-4704 5096 0
-5096 5098 0
-4705 -5096 5097 0
-5097 5099 0
-4706 -5097 0
-4705 5098 0
-5098 5100 0
-4706 -5098 5099 0
-5099 5101 0
-4707 -5099 0
-4706 5100 0
-5100 5102 0
-4707 -5100 5101 0
-5101 5103 0
-4708 -5101 0
-4707 5102 0
-5102 5104 0
-4708 -5102 5103 0
-5103 5105 0
-4709 -5103 0
-4708 5104 0
-5104 5106 0
-4709 -5104 5105 0
-5105 5107 0
-4710 -5105 0
-4709 5106 0
-5106 5108 0
-4710 -5106 5107 0
-5107 5109 0
-4711 -5107 0
-4710 5108 0
-5108 5110 0
-4711 -5108 5109 0
-5109 5111 0
-4712 -5109 0
-4711 5110 0
-5110 5112 0
-4712 -5110 5111 0
-5111 5113 0
-4713 -5111 0
-4712 5112 0
-5112 5114 0
-4713 -5112 5113 0
-5113 5115 0
-4714 -5113 0
-4713 5114 0
-5114 5116 0
-4714 -5114 5115 0
-5115 5117 0
-4715 -5115 0
-4714 5116 0
-5116 5118 0
-4715 -5116 5117 0
-5117 5119 0
-4716 -5117 0
-4715 5118 0
-5118 5120 0
-4716 -5118 5119 0
-5119 5121 0
-4717 -5119 0
-4716 5120 0
-5120 5122 0
-4717 -5120 5121 0
-5121 5123 0
-4718 -5121 0
-4717 5122 0
-5122 5124 0
-4718 -5122 5123 0
-5123 5125 0
-4719 -5123 0
-4718 5124 0
-5124 5126 0
-4719 -5124 5125 0
-5125 5127 0
-4720 -5125 0
-4719 5126 0
-5126 5128 0
-4720 -5126 5127 0
-5127 5129 0
-4721 -5127 0
-4720 5128 0
-5128 5130 0
-4721 -5128 5129 0
-5129 5131 0
-4722 -5129 0
-4721 5130 0
-5130 5132 0
-4722 -5130 5131 0
-5131 5133 0
-4723 -5131 0
-4722 5132 0
-5132 5134 0
-4723 -5132 5133 0
-5133 5135 0
-4724 -5133 0
-4723 5134 0
-5134 5136 0
-4724 -5134 5135 0
-5135 5137 0
-4725 -5135 0
-4724 5136 0
-5136 5138 0
-4725 -5136 5137 0
-5137 5139 0
-4726 -5137 0
-4725 5138 0
-4726 -5138 5139 0
-4727 -5139 0
6 5140 0
-5140 5141 0
14 -5140 5142 0
-5142 5143 0
24 -5142 5144 0
-5144 5145 0
32 -5144 5146 0
-5146 5147 0
42 -5146 5148 0
-5148 5149 0
50 -5148 5150 0
-5150 5151 0
60 -5150 5152 0
-5152 5153 0
71 -5152 5154 0
-5154 5155 0
81 -5154 5156 0
-5156 5157 0
89 -5156 5158 0
-5158 5159 0
99 -5158 5160 0
-5160 5161 0
107 -5160 0
14 5141 0
-5141 5162 0
24 -5141 5143 0
-5143 5163 0
32 -5143 5145 0
-5145 5164 0
42 -5145 5147 0
-5147 5165 0
50 -5147 5149 0
-5149 5166 0
60 -5149 5151 0
-5151 5167 0
71 -5151 5153 0
-5153 5168 0
81 -5153 5155 0
-5155 5169 0
89 -5155 5157 0
-5157 5170 0
99 -5157 5159 0
-5159 5171 0
107 -5159 5161 0
-5161 5172 0
117 -5161 0
24 5162 0
-5162 5173 0
32 -5162 5163 0
-5163 5174 0
42 -5163 5164 0
-5164 5175 0
50 -5164 5165 0
-5165 5176 0
60 -5165 5166 0
-5166 5177 0
71 -5166 5167 0
-5167 5178 0
81 -5167 5168 0
-5168 5179 0
89 -5168 5169 0
-5169 5180 0
99 -5169 5170 0
-5170 5181 0
107 -5170 5171 0
-5171 5182 0
117 -5171 5172 0
-5172 5183 0
123 -5172 0
32 5173 0
-5173 5184 0
42 -5173 5174 0
-5174 5185 0
50 -5174 5175 0
-5175 5186 0
60 -5175 5176 0
-5176 5187 0
71 -5176 5177 0
-5177 5188 0
81 -5177 5178 0
-5178 5189 0
89 -5178 5179 0
-5179 5190 0
99 -5179 5180 0
-5180 5191 0
107 -5180 5181 0
-5181 5192 0
117 -5181 5182 0
-5182 5193 0
123 -5182 5183 0
-5183 5194 0
131 -5183 0
42 5184 0
-5184 5195 0
50 -5184 5185 0
-5185 5196 0
60 -5185 5186 0
-5186 5197 0
71 -5186 5187 0
-5187 5198 0
81 -5187 5188 0
-5188 5199 0
89 -5188 5189 0
-5189 5200 0
99 -5189 5190 0
-5190 5201 0
107 -5190 5191 0
-5191 5202 0
117 -5191 5192 0
-5192 5203 0
123 -5192 5193 0
-5193 5204 0
131 -5193 5194 0
-5194 5205 0
141 -5194 0
50 5195 0
-5195 5206 0
60 -5195 5196 0
-5196 5207 0
71 -5196 5197 0
-5197 5208 0
81 -5197 5198 0
-5198 5209 0
89 -5198 5199 0
-5199 5210 0
99 -5199 5200 0
-5200 5211 0
107 -5200 5201 0
-5201 5212 0
117 -5201 5202 0
-5202 5213 0
123 -5202 5203 0
-5203 5214 0
131 -5203 5204 0
-5204 5215 0
141 -5204 5205 0
-5205 5216 0
149 -5205 0
60 5206 0
-5206 5217 0
71 -5206 5207 0
-5207 5218 0
81 -5207 5208 0
-5208 5219 0
89 -5208 5209 0
-5209 5220 0
99 -5209 5210 0
-5210 5221 0
107 -5210 5211 0
-5211 5222 0
117 -5211 5212 0
-5212 5223 0
123 -5212 5213 0
-5213 5224 0
131 -5213 5214 0
-5214 5225 0
141 -5214 5215 0
-5215 5226 0
149 -5215 5216 0
-5216 5227 0
159 -5216 0
71 5217 0
-5217 5228 0
81 -5217 5218 0
-5218 5229 0
89 -5218 5219 0
-5219 5230 0
99 -5219 5220 0
-5220 5231 0
107 -5220 5221 0
-5221 5232 0
117 -5221 5222 0
-5222 5233 0
123 -5222 5223 0
-5223 5234 0
131 -5223 5224 0
-5224 5235 0
141 -5224 5225 0
-5225 5236 0
149 -5225 5226 0
-5226 5237 0
159 -5226 5227 0
-5227 5238 0
170 -5227 0
81 5228 0
-5228 5239 0
89 -5228 5229 0
-5229 5240 0
99 -5229 5230 0
-5230 5241 0
107 -5230 5231 0
-5231 5242 0
117 -5231 5232 0
-5232 5243 0
123 -5232 5233 0
-5233 5244 0
131 -5233 5234 0
-5234 5245 0
141 -5234 5235 0
-5235 5246 0
149 -5235 5236 0
-5236 5247 0
159 -5236 5237 0
-5237 5248 0
170 -5237 5238 0
-5238 5249 0
180 -5238 0
89 5239 0
-5239 5250 0
99 -5239 5240 0
-5240 5251 0
107 -5240 5241 0
-5241 5252 0
117 -5241 5242 0
-5242 5253 0
123 -5242 5243 0
-5243 5254 0
131 -5243 5244 0
-5244 5255 0
141 -5244 5245 0
-5245 5256 0
149 -5245 5246 0
-5246 5257 0
159 -5246 5247 0
-5247 5258 0
170 -5247 5248 0
-5248 5259 0
180 -5248 5249 0
-5249 5260 0
188 -5249 0
99 5250 0
-5250 5261 0
107 -5250 5251 0
-5251 5262 0
117 -5251 5252 0
-5252 5263 0
123 -5252 5253 0
-5253 5264 0
131 -5253 5254 0
-5254 5265 0
141 -5254 5255 0
-5255 5266 0
149 -5255 5256 0
-5256 5267 0
159 -5256 5257 0
-5257 5268 0
170 -5257 5258 0
-5258 5269 0
180 -5258 5259 0
-5259 5270 0
188 -5259 5260 0
-5260 5271 0
198 -5260 0
107 5261 0
-5261 5272 0
117 -5261 5262 0
-5262 5273 0
123 -5262 5263 0
-5263 5274 0
131 -5263 5264 0
-5264 5275 0
141 -5264 5265 0
-5265 5276 0
149 -5265 5266 0
-5266 5277 0
159 -5266 5267 0
-5267 5278 0
170 -5267 5268 0
-5268 5279 0
180 -5268 5269 0
-5269 5280 0
188 -5269 5270 0
-5270 5281 0
198 -5270 5271 0
-5271 5282 0
204 -5271 0
117 5272 0
-5272 5283 0
123 -5272 5273 0
-5273 5284 0
131 -5273 5274 0
-5274 5285 0
141 -5274 5275 0
-5275 5286 0
149 -5275 5276 0
-5276 5287 0
159 -5276 5277 0
-5277 5288 0
170 -5277 5278 0
-5278 5289 0
180 -5278 5279 0
-5279 5290 0
188 -5279 5280 0
-5280 5291 0
198 -5280 5281 0
-5281 5292 0
204 -5281 5282 0
-5282 5293 0
212 -5282 0
123 5283 0
-5283 5294 0
131 -5283 5284 0
-5284 5295 0
141 -5284 5285 0
-5285 5296 0
149 -5285 5286 0
-5286 5297 0
159 -5286 5287 0
-5287 5298 0
170 -5287 5288 0
-5288 5299 0
180 -5288 5289 0
-5289 5300 0
188 -5289 5290 0
-5290 5301 0
198 -5290 5291 0
-5291 5302 0
204 -5291 5292 0
-5292 5303 0
212 -5292 5293 0
-5293 5304 0
222 -5293 0
131 5294 0
-5294 5305 0
141 -5294 5295 0
-5295 5306 0
149 -5295 5296 0
-5296 5307 0
159 -5296 5297 0
-5297 5308 0
170 -5297 5298 0
-5298 5309 0
180 -5298 5299 0
-5299 5310 0
188 -5299 5300 0
-5300 5311 0
198 -5300 5301 0
-5301 5312 0
204 -5301 5302 0
-5302 5313 0
212 -5302 5303 0
-5303 5314 0
222 -5303 5304 0
-5304 5315 0
233 -5304 0
141 5305 0
-5305 5316 0
149 -5305 5306 0
-5306 5317 0
159 -5306 5307 0
-5307 5318 0
170 -5307 5308 0
-5308 5319 0
180 -5308 5309 0
-5309 5320 0
188 -5309 5310 0
-5310 5321 0
198 -5310 5311 0
-5311 5322 0
204 -5311 5312 0
-5312 5323 0
212 -5312 5313 0
-5313 5324 0
222 -5313 5314 0
-5314 5325 0
233 -5314 5315 0
-5315 5326 0
243 -5315 0
149 5316 0
159 -5316 5317 0
170 -5317 5318 0
180 -5318 5319 0
188 -5319 5320 0
198 -5320 5321 0
204 -5321 5322 0
212 -5322 5323 0
222 -5323 5324 0
233 -5324 5325 0
243 -5325 5326 0
249 -5326 0
-6 5327 0
-5327 5328 0
-14 -5327 5329 0
-5329 5330 0
-24 -5329 5331 0
-5331 5332 0
-32 -5331 5333 0
-5333 5334 0
-42 -5333 5335 0
-5335 5336 0
-50 -5335 5337 0
-5337 5338 0
-60 -5337 5339 0
-5339 5340 0
-71 -5339 5341 0
-5341 5342 0
-81 -5341 5343 0
-5343 5344 0
-89 -5343 5345 0
-5345 5346 0
-99 -5345 5347 0
-5347 5348 0
-107 -5347 5349 0
-5349 5350 0
-117 -5349 5351 0
-5351 5352 0
-123 -5351 5353 0
-5353 5354 0
-131 -5353 5355 0
-5355 5356 0
-141 -5355 5357 0
-5357 5358 0
-149 -5357 5359 0
-5359 5360 0
-159 -5359 0
-14 5328 0
-5328 5361 0
-24 -5328 5330 0
-5330 5362 0
-32 -5330 5332 0
-5332 5363 0
-42 -5332 5334 0
-5334 5364 0
-50 -5334 5336 0
-5336 5365 0
-60 -5336 5338 0
-5338 5366 0
-71 -5338 5340 0
-5340 5367 0
-81 -5340 5342 0
-5342 5368 0
-89 -5342 5344 0
-5344 5369 0
-99 -5344 5346 0
-5346 5370 0
-107 -5346 5348 0
-5348 5371 0
-117 -5348 5350 0
-5350 5372 0
-123 -5350 5352 0
-5352 5373 0
-131 -5352 5354 0
-5354 5374 0
-141 -5354 5356 0
-5356 5375 0
-149 -5356 5358 0
-5358 5376 0
-159 -5358 5360 0
-5360 5377 0
-170 -5360 0
-24 5361 0
-5361 5378 0
-32 -5361 5362 0
-5362 5379 0
-42 -5362 5363 0
-5363 5380 0
-50 -5363 5364 0
-5364 5381 0
-60 -5364 5365 0
-5365 5382 0
-71 -5365 5366 0
-5366 5383 0
-81 -5366 5367 0
-5367 5384 0
-89 -5367 5368 0
-5368 5385 0
-99 -5368 5369 0
-5369 5386 0
-107 -5369 5370 0
-5370 5387 0
-117 -5370 5371 0
-5371 5388 0
-123 -5371 5372 0
-5372 5389 0
-131 -5372 5373 0
-5373 5390 0
-141 -5373 5374 0
-5374 5391 0
-149 -5374 5375 0
-5375 5392 0
-159 -5375 5376 0
-5376 5393 0
-170 -5376 5377 0
-5377 5394 0
-180 -5377 0
-32 5378 0
-5378 5395 0
-42 -5378 5379 0
-5379 5396 0
-50 -5379 5380 0
-5380 5397 0
-60 -5380 5381 0
-5381 5398 0
-71 -5381 5382 0
-5382 5399 0
-81 -5382 5383 0
-5383 5400 0
-89 -5383 5384 0
-5384 5401 0
-99 -5384 5385 0
-5385 5402 0
-107 -5385 5386 0
-5386 5403 0
-117 -5386 5387 0
-5387 5404 0
-123 -5387 5388 0
-5388 5405 0
-131 -5388 5389 0
-5389 5406 0
-141 -5389 5390 0
-5390 5407 0
-149 -5390 5391 0
-5391 5408 0
-159 -5391 5392 0
-5392 5409 0
-170 -5392 5393 0
-5393 5410 0
-180 -5393 5394 0
-5394 5411 0
-188 -5394 0
-42 5395 0
-5395 5412 0
-50 -5395 5396 0
-5396 5413 0
-60 -5396 5397 0
-5397 5414 0
-71 -5397 5398 0
-5398 5415 0
-81 -5398 5399 0
-5399 5416 0
-89 -5399 5400 0
-5400 5417 0
-99 -5400 5401 0
-5401 5418 0
-107 -5401 5402 0
-5402 5419 0
-117 -5402 5403 0
-5403 5420 0
-123 -5403 5404 0
-5404 5421 0
-131 -5404 5405 0
-5405 5422 0
-141 -5405 5406 0
-5406 5423 0
-149 -5406 5407 0
-5407 5424 0
-159 -5407 5408 0
-5408 5425 0
-170 -5408 5409 0
-5409 5426 0
-180 -5409 5410 0
-5410 5427 0
-188 -5410 5411 0
-5411 5428 0
-198 -5411 0
-50 5412 0
-5412 5429 0
-60 -5412 5413 0
-5413 5430 0
-71 -5413 5414 0
-5414 5431 0
-81 -5414 5415 0
-5415 5432 0
-89 -5415 5416 0
-5416 5433 0
-99 -5416 5417 0
-5417 5434 0
-107 -5417 5418 0
-5418 5435 0
-117 -5418 5419 0
-5419 5436 0
-123 -5419 5420 0
-5420 5437 0
-131 -5420 5421 0
-5421 5438 0
-141 -5421 5422 0
-5422 5439 0
-149 -5422 5423 0
-5423 5440 0
-159 -5423 5424 0
-5424 5441 0
-170 -5424 5425 0
-5425 5442 0
-180 -5425 5426 0
-5426 5443 0
-188 -5426 5427 0
-5427 5444 0
-198 -5427 5428 0
-5428 5445 0
-204 -5428 0
-60 5429 0
-5429 5446 0
-71 -5429 5430 0
-5430 5447 0
-81 -5430 5431 0
-5431 5448 0
-89 -5431 5432 0
-5432 5449 0
-99 -5432 5433 0
-5433 5450 0
-107 -5433 5434 0
-5434 5451 0
-117 -5434 5435 0
-5435 5452 0
-123 -5435 5436 0
-5436 5453 0
-131 -5436 5437 0
-5437 5454 0
-141 -5437 5438 0
-5438 5455 0
-149 -5438 5439 0
-5439 5456 0
-159 -5439 5440 0
-5440 5457 0
-170 -5440 5441 0
-5441 5458 0
-180 -5441 5442 0
-5442 5459 0
-188 -5442 5443 0
-5443 5460 0
-198 -5443 5444 0
-5444 5461 0
-204 -5444 5445 0
-5445 5462 0
-212 -5445 0
-71 5446 0
-5446 5463 0
-81 -5446 5447 0
-5447 5464 0
-89 -5447 5448 0
-5448 5465 0
-99 -5448 5449 0
-5449 5466 0
-107 -5449 5450 0
-5450 5467 0
-117 -5450 5451 0
-5451 5468 0
-123 -5451 5452 0
-5452 5469 0
-131 -5452 5453 0
-5453 5470 0
-141 -5453 5454 0
-5454 5471 0
-149 -5454 5455 0
-5455 5472 0
-159 -5455 5456 0
-5456 5473 0
-170 -5456 5457 0
-5457 5474 0
-180 -5457 5458 0
-5458 5475 0
-188 -5458 5459 0
-5459 5476 0
-198 -5459 5460 0
-5460 5477 0
-204 -5460 5461 0
-5461 5478 0
-212 -5461 5462 0
-5462 5479 0
-222 -5462 0
-81 5463 0
-5463 5480 0
-89 -5463 5464 0
-5464 5481 0
-99 -5464 5465 0
-5465 5482 0
-107 -5465 5466 0
-5466 5483 0
-117 -5466 5467 0
-5467 5484 0
-123 -5467 5468 0
-5468 5485 0
-131 -5468 5469 0
-5469 5486 0
-141 -5469 5470 0
-5470 5487 0
-149 -5470 5471 0
-5471 5488 0
-159 -5471 5472 0
-5472 5489 0
-170 -5472 5473 0
-5473 5490 0
-180 -5473 5474 0
-5474 5491 0
-188 -5474 5475 0
-5475 5492 0
-198 -5475 5476 0
-5476 5493 0
-204 -5476 5477 0
-5477 5494 0
-212 -5477 5478 0
-5478 5495 0
-222 -5478 5479 0
-5479 5496 0
-233 -5479 0
-89 5480 0
-5480 5497 0
-99 -5480 5481 0
-5481 5498 0
-107 -5481 5482 0
-5482 5499 0
-117 -5482 5483 0
-5483 5500 0
-123 -5483 5484 0
-5484 5501 0
-131 -5484 5485 0
-5485 5502 0
-141 -5485 5486 0
-5486 5503 0
-149 -5486 5487 0
-5487 5504 0
-159 -5487 5488 0
-5488 5505 0
-170 -5488 5489 0
-5489 5506 0
-180 -5489 5490 0
-5490 5507 0
-188 -5490 5491 0
-5491 5508 0
-198 -5491 5492 0
-5492 5509 0
-204 -5492 5493 0
-5493 5510 0
-212 -5493 5494 0
-5494 5511 0
-222 -5494 5495 0
-5495 5512 0
-233 -5495 5496 0
-5496 5513 0
-243 -5496 0
-99 5497 0
-107 -5497 5498 0
-117 -5498 5499 0
-123 -5499 5500 0
-131 -5500 5501 0
-141 -5501 5502 0
-149 -5502 5503 0
-159 -5503 5504 0
-170 -5504 5505 0
-180 -5505 5506 0
-188 -5506 5507 0
-198 -5507 5508 0
-204 -5508 5509 0
-212 -5509 5510 0
-222 -5510 5511 0
-233 -5511 5512 0
-243 -5512 5513 0
-249 -5513 0
-5514 6 0
-5514 123 0
-5514 204 0
-5514 249 0
-6 -123 -204 -249 5514 0
-5515 6 0
-5515 123 0
-5515 212 0
-5515 243 0
-6 -123 -212 -243 5515 0
-5516 6 0
-5516 123 0
-5516 222 0
-5516 233 0
-6 -123 -222 -233 5516 0
-5517 6 0
-5517 131 0
-5517 180 0
-5517 249 0
-6 -131 -180 -249 5517 0
-5518 6 0
-5518 131 0
-5518 188 0
-5518 243 0
-6 -131 -188 -243 5518 0
-5519 6 0
-5519 131 0
-5519 198 0
-5519 233 0
-6 -131 -198 -233 5519 0
-5520 6 0
-5520 141 0
-5520 170 0
-5520 249 0
-6 -141 -170 -249 5520 0
-5521 6 0
-5521 141 0
-5521 188 0
-5521 222 0
-6 -141 -188 -222 5521 0
-5522 6 0
-5522 141 0
-5522 198 0
-5522 212 0
-6 -141 -198 -212 5522 0
-5523 6 0
-5523 149 0
-5523 170 0
-5523 243 0
-6 -149 -170 -243 5523 0
-5524 6 0
-5524 149 0
-5524 180 0
-5524 222 0
-6 -149 -180 -222 5524 0
-5525 6 0
-5525 149 0
-5525 198 0
-5525 204 0
-6 -149 -198 -204 5525 0
-5526 6 0
-5526 159 0
-5526 170 0
-5526 233 0
-6 -159 -170 -233 5526 0
-5527 6 0
-5527 159 0
-5527 180 0
-5527 212 0
-6 -159 -180 -212 5527 0
-5528 6 0
-5528 159 0
-5528 188 0
-5528 204 0
-6 -159 -188 -204 5528 0
-5529 14 0
-5529 81 0
-5529 204 0
-5529 249 0
-14 -81 -204 -249 5529 0
-5530 14 0
-5530 81 0
-5530 212 0
-5530 243 0
-14 -81 -212 -243 5530 0
-5531 14 0
-5531 81 0
-5531 222 0
-5531 233 0
-14 -81 -222 -233 5531 0
-5532 14 0
-5532 89 0
-5532 180 0
-5532 249 0
-14 -89 -180 -249 5532 0
-5533 14 0
-5533 89 0
-5533 188 0
-5533 243 0
-14 -89 -188 -243 5533 0
-5534 14 0
-5534 89 0
-5534 198 0
-5534 233 0
-14 -89 -198 -233 5534 0
-5535 14 0
-5535 99 0
-5535 170 0
-5535 249 0
-14 -99 -170 -249 5535 0
-5536 14 0
-5536 99 0
-5536 188 0
-5536 222 0
-14 -99 -188 -222 5536 0
-5537 14 0
-5537 99 0
-5537 198 0
-5537 212 0
-14 -99 -198 -212 5537 0
-5538 14 0
-5538 107 0
-5538 170 0
-5538 243 0
-14 -107 -170 -243 5538 0
-5539 14 0
-5539 107 0
-5539 180 0
-5539 222 0
-14 -107 -180 -222 5539 0
-5540 14 0
-5540 107 0
-5540 198 0
-5540 204 0
-14 -107 -198 -204 5540 0
-5541 14 0
-5541 117 0
-5541 170 0
-5541 233 0
-14 -117 -170 -233 5541 0
-5542 14 0
-5542 117 0
-5542 180 0
-5542 212 0
-14 -117 -180 -212 5542 0
-5543 14 0
-5543 117 0
-5543 188 0
-5543 204 0
-14 -117 -188 -204 5543 0
-5544 24 0
-5544 71 0
-5544 204 0
-5544 249 0
-24 -71 -204 -249 5544 0
-5545 24 0
-5545 71 0
-5545 212 0
-5545 243 0
-24 -71 -212 -243 5545 0
-5546 24 0
-5546 71 0
-5546 222 0
-5546 233 0
-24 -71 -222 -233 5546 0
-5547 24 0
-5547 89 0
-5547 141 0
-5547 249 0
-24 -89 -141 -249 5547 0
-5548 24 0
-5548 89 0
-5548 149 0
-5548 243 0
-24 -89 -149 -243 5548 0
-5549 24 0
-5549 89 0
-5549 159 0
-5549 233 0
-24 -89 -159 -233 5549 0
-5550 24 0
-5550 99 0
-5550 131 0
-5550 249 0
-24 -99 -131 -249 5550 0
-5551 24 0
-5551 99 0
-5551 149 0
-5551 222 0
-24 -99 -149 -222 5551 0
-5552 24 0
-5552 99 0
-5552 159 0
-5552 212 0
-24 -99 -159 -212 5552 0
-5553 24 0
-5553 107 0
-5553 131 0
-5553 243 0
-24 -107 -131 -243 5553 0
-5554 24 0
-5554 107 0
-5554 141 0
-5554 222 0
-24 -107 -141 -222 5554 0
-5555 24 0
-5555 107 0
-5555 159 0
-5555 204 0
-24 -107 -159 -204 5555 0
-5556 24 0
-5556 117 0
-5556 131 0
-5556 233 0
-24 -117 -131 -233 5556 0
-5557 24 0
-5557 117 0
-5557 141 0
-5557 212 0
-24 -117 -141 -212 5557 0
-5558 24 0
-5558 117 0
-5558 149 0
-5558 204 0
-24 -117 -149 -204 5558 0
-5559 32 0
-5559 71 0
-5559 180 0
-5559 249 0
-32 -71 -180 -249 5559 0
-5560 32 0
-5560 71 0
-5560 188 0
-5560 243 0
-32 -71 -188 -243 5560 0
-5561 32 0
-5561 71 0
-5561 198 0
-5561 233 0
-32 -71 -198 -233 5561 0
-5562 32 0
-5562 81 0
-5562 141 0
-5562 249 0
-32 -81 -141 -249 5562 0
-5563 32 0
-5563 81 0
-5563 149 0
-5563 243 0
-32 -81 -149 -243 5563 0
-5564 32 0
-5564 81 0
-5564 159 0
-5564 233 0
-32 -81 -159 -233 5564 0
-5565 32 0
-5565 99 0
-5565 123 0
-5565 249 0
-32 -99 -123 -249 5565 0
-5566 32 0
-5566 99 0
-5566 149 0
-5566 198 0
-32 -99 -149 -198 5566 0
-5567 32 0
-5567 99 0
-5567 159 0
-5567 188 0
-32 -99 -159 -188 5567 0
-5568 32 0
-5568 107 0
-5568 123 0
-5568 243 0
-32 -107 -123 -243 5568 0
-5569 32 0
-5569 107 0
-5569 141 0
-5569 198 0
-32 -107 -141 -198 5569 0
-5570 32 0
-5570 107 0
-5570 159 0
-5570 180 0
-32 -107 -159 -180 5570 0
-5571 32 0
-5571 117 0
-5571 123 0
-5571 233 0
-32 -117 -123 -233 5571 0
-5572 32 0
-5572 117 0
-5572 141 0
-5572 188 0
-32 -117 -141 -188 5572 0
-5573 32 0
-5573 117 0
-5573 149 0
-5573 180 0
-32 -117 -149 -180 5573 0
-5574 42 0
-5574 71 0
-5574 170 0
-5574 249 0
-42 -71 -170 -249 5574 0
-5575 42 0
-5575 71 0
-5575 188 0
-5575 222 0
-42 -71 -188 -222 5575 0
-5576 42 0
-5576 71 0
-5576 198 0
-5576 212 0
-42 -71 -198 -212 5576 0
-5577 42 0
-5577 81 0
-5577 131 0
-5577 249 0
-42 -81 -131 -249 5577 0
-5578 42 0
-5578 81 0
-5578 149 0
-5578 222 0
-42 -81 -149 -222 5578 0
-5579 42 0
-5579 81 0
-5579 159 0
-5579 212 0
-42 -81 -159 -212 5579 0
-5580 42 0
-5580 89 0
-5580 123 0
-5580 249 0
-42 -89 -123 -249 5580 0
-5581 42 0
-5581 89 0
-5581 149 0
-5581 198 0
-42 -89 -149 -198 5581 0
-5582 42 0
-5582 89 0
-5582 159 0
-5582 188 0
-42 -89 -159 -188 5582 0
-5583 42 0
-5583 107 0
-5583 123 0
-5583 222 0
-42 -107 -123 -222 5583 0
-5584 42 0
-5584 107 0
-5584 131 0
-5584 198 0
-42 -107 -131 -198 5584 0
-5585 42 0
-5585 107 0
-5585 159 0
-5585 170 0
-42 -107 -159 -170 5585 0
-5586 42 0
-5586 117 0
-5586 123 0
-5586 212 0
-42 -117 -123 -212 5586 0
-5587 42 0
-5587 117 0
-5587 131 0
-5587 188 0
-42 -117 -131 -188 5587 0
-5588 42 0
-5588 117 0
-5588 149 0
-5588 170 0
-42 -117 -149 -170 5588 0
-5589 50 0
-5589 71 0
-5589 170 0
-5589 243 0
-50 -71 -170 -243 5589 0
-5590 50 0
-5590 71 0
-5590 180 0
-5590 222 0
-50 -71 -180 -222 5590 0
-5591 50 0
-5591 71 0
-5591 198 0
-5591 204 0
-50 -71 -198 -204 5591 0
-5592 50 0
-5592 81 0
-5592 131 0
-5592 243 0
-50 -81 -131 -243 5592 0
-5593 50 0
-5593 81 0
-5593 141 0
-5593 222 0
-50 -81 -141 -222 5593 0
-5594 50 0
-5594 81 0
-5594 159 0
-5594 204 0
-50 -81 -159 -204 5594 0
-5595 50 0
-5595 89 0
-5595 123 0
-5595 243 0
-50 -89 -123 -243 5595 0
-5596 50 0
-5596 89 0
-5596 141 0
-5596 198 0
-50 -89 -141 -198 5596 0
-5597 50 0
-5597 89 0
-5597 159 0
-5597 180 0
-50 -89 -159 -180 5597 0
-5598 50 0
-5598 99 0
-5598 123 0
-5598 222 0
-50 -99 -123 -222 5598 0
-5599 50 0
-5599 99 0
-5599 131 0
-5599 198 0
-50 -99 -131 -198 5599 0
-5600 50 0
-5600 99 0
-5600 159 0
-5600 170 0
-50 -99 -159 -170 5600 0
-5601 50 0
-5601 117 0
-5601 123 0
-5601 204 0
-50 -117 -123 -204 5601 0
-5602 50 0
-5602 117 0
-5602 131 0
-5602 180 0
-50 -117 -131 -180 5602 0
-5603 50 0
-5603 117 0
-5603 141 0
-5603 170 0
-50 -117 -141 -170 5603 0
-5604 60 0
-5604 71 0
-5604 170 0
-5604 233 0
-60 -71 -170 -233 5604 0
-5605 60 0
-5605 71 0
-5605 180 0
-5605 212 0
-60 -71 -180 -212 5605 0
-5606 60 0
-5606 71 0
-5606 188 0
-5606 204 0
-60 -71 -188 -204 5606 0
-5607 60 0
-5607 81 0
-5607 131 0
-5607 233 0
-60 -81 -131 -233 5607 0
-5608 60 0
-5608 81 0
-5608 141 0
-5608 212 0
-60 -81 -141 -212 5608 0
-5609 60 0
-5609 81 0
-5609 149 0
-5609 204 0
-60 -81 -149 -204 5609 0
-5610 60 0
-5610 89 0
-5610 123 0
-5610 233 0
-60 -89 -123 -233 5610 0
-5611 60 0
-5611 89 0
-5611 141 0
-5611 188 0
-60 -89 -141 -188 5611 0
-5612 60 0
-5612 89 0
-5612 149 0
-5612 180 0
-60 -89 -149 -180 5612 0
-5613 60 0
-5613 99 0
-5613 123 0
-5613 212 0
-60 -99 -123 -212 5613 0
-5614 60 0
-5614 99 0
-5614 131 0
-5614 188 0
-60 -99 -131 -188 5614 0
-5615 60 0
-5615 99 0
-5615 149 0
-5615 170 0
-60 -99 -149 -170 5615 0
-5616 60 0
-5616 107 0
-5616 123 0
-5616 204 0
-60 -107 -123 -204 5616 0
-5617 60 0
-5617 107 0
-5617 131 0
-5617 180 0
-60 -107 -131 -180 5617 0
-5618 60 0
-5618 107 0
-5618 141 0
-5618 170 0
-60 -107 -141 -170 5618 0
5514 5619 0
-5619 5620 0
5515 -5619 5621 0
-5621 5622 0
5516 -5621 5623 0
-5623 5624 0
5517 -5623 5625 0
-5625 5626 0
5518 -5625 5627 0
-5627 5628 0
5519 -5627 5629 0
-5629 5630 0
5520 -5629 5631 0
-5631 5632 0
5521 -5631 5633 0
-5633 5634 0
5522 -5633 5635 0
-5635 5636 0
5523 -5635 5637 0
-5637 5638 0
5524 -5637 5639 0
-5639 5640 0
5525 -5639 5641 0
-5641 5642 0
5526 -5641 5643 0
-5643 5644 0
5527 -5643 5645 0
-5645 5646 0
5528 -5645 5647 0
-5647 5648 0
5529 -5647 5649 0
-5649 5650 0
5530 -5649 5651 0
-5651 5652 0
5531 -5651 5653 0
-5653 5654 0
5532 -5653 5655 0
-5655 5656 0
5533 -5655 5657 0
-5657 5658 0
5534 -5657 5659 0
-5659 5660 0
5535 -5659 5661 0
-5661 5662 0
5536 -5661 5663 0
-5663 5664 0
5537 -5663 5665 0
-5665 5666 0
5538 -5665 5667 0
-5667 5668 0
5539 -5667 5669 0
-5669 5670 0
5540 -5669 5671 0
-5671 5672 0
5541 -5671 5673 0
-5673 5674 0
5542 -5673 5675 0
-5675 5676 0
5543 -5675 5677 0
-5677 5678 0
5544 -5677 5679 0
-5679 5680 0
5545 -5679 5681 0
-5681 5682 0
5546 -5681 5683 0
-5683 5684 0
5547 -5683 5685 0
-5685 5686 0
5548 -5685 5687 0
-5687 5688 0
5549 -5687 5689 0
-5689 5690 0
5550 -5689 5691 0
-5691 5692 0
5551 -5691 5693 0
-5693 5694 0
5552 -5693 5695 0
-5695 5696 0
5553 -5695 5697 0
-5697 5698 0
5554 -5697 5699 0
-5699 5700 0
5555 -5699 5701 0
-5701 5702 0
5556 -5701 5703 0
-5703 5704 0
5557 -5703 5705 0
-5705 5706 0
5558 -5705 5707 0
-5707 5708 0
5559 -5707 5709 0
-5709 5710 0
5560 -5709 5711 0
-5711 5712 0
5561 -5711 5713 0
-5713 5714 0
5562 -5713 5715 0
-5715 5716 0
5563 -5715 5717 0
-5717 5718 0
5564 -5717 5719 0
-5719 5720 0
5565 -5719 5721 0
-5721 5722 0
5566 -5721 5723 0
-5723 5724 0
5567 -5723 5725 0
-5725 5726 0
5568 -5725 5727 0
-5727 5728 0
5569 -5727 5729 0
-5729 5730 0
5570 -5729 5731 0
-5731 5732 0
5571 -5731 5733 0
-5733 5734 0
5572 -5733 5735 0
-5735 5736 0
5573 -5735 5737 0
-5737 5738 0
5574 -5737 5739 0
-5739 5740 0
5575 -5739 5741 0
-5741 5742 0
5576 -5741 5743 0
-5743 5744 0
5577 -5743 5745 0
-5745 5746 0
5578 -5745 5747 0
-5747 5748 0
5579 -5747 5749 0
-5749 5750 0
5580 -5749 5751 0
-5751 5752 0
5581 -5751 5753 0
-5753 5754 0
5582 -5753 5755 0
-5755 5756 0
5583 -5755 5757 0
-5757 5758 0
5584 -5757 5759 0
-5759 5760 0
5585 -5759 5761 0
-5761 5762 0
5586 -5761 5763 0
-5763 5764 0
5587 -5763 5765 0
-5765 5766 0
5588 -5765 5767 0
-5767 5768 0
5589 -5767 5769 0
-5769 5770 0
5590 -5769 5771 0
-5771 5772 0
5591 -5771 5773 0
-5773 5774 0
5592 -5773 5775 0
-5775 5776 0
5593 -5775 5777 0
-5777 5778 0
5594 -5777 5779 0
-5779 5780 0
5595 -5779 5781 0
-5781 5782 0
5596 -5781 5783 0
-5783 5784 0
5597 -5783 5785 0
-5785 5786 0
5598 -5785 5787 0
-5787 5788 0
5599 -5787 5789 0
-5789 5790 0
5600 -5789 5791 0
-5791 5792 0
5601 -5791 5793 0
-5793 5794 0
5602 -5793 5795 0
-5795 5796 0
5603 -5795 5797 0
-5797 5798 0
5604 -5797 5799 0
-5799 5800 0
5605 -5799 5801 0
-5801 5802 0
5606 -5801 5803 0
-5803 5804 0
5607 -5803 5805 0
-5805 5806 0
5608 -5805 5807 0
-5807 5808 0
5609 -5807 5809 0
-5809 5810 0
5610 -5809 5811 0
-5811 5812 0
5611 -5811 5813 0
-5813 5814 0
5612 -5813 5815 0
-5815 5816 0
5613 -5815 5817 0
-5817 5818 0
5614 -5817 5819 0
-5819 5820 0
5615 -5819 5821 0
-5821 5822 0
5616 -5821 5823 0
-5823 5824 0
5617 -5823 0
5515 5620 0
5516 -5620 5622 0
5517 -5622 5624 0
5518 -5624 5626 0
5519 -5626 5628 0
5520 -5628 5630 0
5521 -5630 5632 0
5522 -5632 5634 0
5523 -5634 5636 0
5524 -5636 5638 0
5525 -5638 5640 0
5526 -5640 5642 0
5527 -5642 5644 0
5528 -5644 5646 0
5529 -5646 5648 0
5530 -5648 5650 0
5531 -5650 5652 0
5532 -5652 5654 0
5533 -5654 5656 0
5534 -5656 5658 0
5535 -5658 5660 0
5536 -5660 5662 0
5537 -5662 5664 0
5538 -5664 5666 0
5539 -5666 5668 0
5540 -5668 5670 0
5541 -5670 5672 0
5542 -5672 5674 0
5543 -5674 5676 0
5544 -5676 5678 0
5545 -5678 5680 0
5546 -5680 5682 0
5547 -5682 5684 0
5548 -5684 5686 0
5549 -5686 5688 0
5550 -5688 5690 0
5551 -5690 5692 0
5552 -5692 5694 0
5553 -5694 5696 0
5554 -5696 5698 0
5555 -5698 5700 0
5556 -5700 5702 0
5557 -5702 5704 0
5558 -5704 5706 0
5559 -5706 5708 0
5560 -5708 5710 0
5561 -5710 5712 0
5562 -5712 5714 0
5563 -5714 5716 0
5564 -5716 5718 0
5565 -5718 5720 0
5566 -5720 5722 0
5567 -5722 5724 0
5568 -5724 5726 0
5569 -5726 5728 0
5570 -5728 5730 0
5571 -5730 5732 0
5572 -5732 5734 0
5573 -5734 5736 0
5574 -5736 5738 0
5575 -5738 5740 0
5576 -5740 5742 0
5577 -5742 5744 0
5578 -5744 5746 0
5579 -5746 5748 0
5580 -5748 5750 0
5581 -5750 5752 0
5582 -5752 5754 0
5583 -5754 5756 0
5584 -5756 5758 0
5585 -5758 5760 0
5586 -5760 5762 0
5587 -5762 5764 0
5588 -5764 5766 0
5589 -5766 5768 0
5590 -5768 5770 0
5591 -5770 5772 0
5592 -5772 5774 0
5593 -5774 5776 0
5594 -5776 5778 0
5595 -5778 5780 0
5596 -5780 5782 0
5597 -5782 5784 0
5598 -5784 5786 0
5599 -5786 5788 0
5600 -5788 5790 0
5601 -5790 5792 0
5602 -5792 5794 0
5603 -5794 5796 0
5604 -5796 5798 0
5605 -5798 5800 0
5606 -5800 5802 0
5607 -5802 5804 0
5608 -5804 5806 0
5609 -5806 5808 0
5610 -5808 5810 0
5611 -5810 5812 0
5612 -5812 5814 0
5613 -5814 5816 0
5614 -5816 5818 0
5615 -5818 5820 0
5616 -5820 5822 0
5617 -5822 5824 0
5618 -5824 0
-5514 5825 0
-5825 5826 0
-5515 -5825 5827 0
-5827 5828 0
-5516 -5827 0
-5515 5826 0
-5826 5829 0
-5516 -5826 5828 0
-5828 5830 0
-5517 -5828 0
-5516 5829 0
-5829 5831 0
-5517 -5829 5830 0
-5830 5832 0
-5518 -5830 0
-5517 5831 0
-5831 5833 0
-5518 -5831 5832 0
-5832 5834 0
-5519 -5832 0
-5518 5833 0
-5833 5835 0
-5519 -5833 5834 0
-5834 5836 0
-5520 -5834 0
-5519 5835 0
-5835 5837 0
-5520 -5835 5836 0
-5836 5838 0
-5521 -5836 0
-5520 5837 0
-5837 5839 0
-5521 -5837 5838 0
-5838 5840 0
-5522 -5838 0
-5521 5839 0
-5839 5841 0
-5522 -5839 5840 0
-5840 5842 0
-5523 -5840 0
-5522 5841 0
-5841 5843 0
-5523 -5841 5842 0
-5842 5844 0
-5524 -5842 0
-5523 5843 0
-5843 5845 0
-5524 -5843 5844 0
-5844 5846 0
-5525 -5844 0
-5524 5845 0
-5845 5847 0
-5525 -5845 5846 0
-5846 5848 0
-5526 -5846 0
-5525 5847 0
-5847 5849 0
-5526 -5847 5848 0
-5848 5850 0
-5527 -5848 0
-5526 5849 0
-5849 5851 0
-5527 -5849 5850 0
-5850 5852 0
-5528 -5850 0
-5527 5851 0
-5851 5853 0
-5528 -5851 5852 0
-5852 5854 0
-5529 -5852 0
-5528 5853 0
-5853 5855 0
-5529 -5853 5854 0
-5854 5856 0
-5530 -5854 0
-5529 5855 0
-5855 5857 0
-5530 -5855 5856 0
-5856 5858 0
-5531 -5856 0
-5530 5857 0
-5857 5859 0
-5531 -5857 5858 0
-5858 5860 0
-5532 -5858 0
-5531 5859 0
-5859 5861 0
-5532 -5859 5860 0
-5860 5862 0
-5533 -5860 0
-5532 5861 0
-5861 5863 0
-5533 -5861 5862 0
-5862 5864 0
-5534 -5862 0
-5533 5863 0
-5863 5865 0
-5534 -5863 5864 0
-5864 5866 0
-5535 -5864 0
-5534 5865 0
-5865 5867 0
-5535 -5865 5866 0
-5866 5868 0
-5536 -5866 0
-5535 5867 0
-5867 5869 0
-5536 -5867 5868 0
-5868 5870 0
-5537 -5868 0
-5536 5869 0
-5869 5871 0
-5537 -5869 5870 0
-5870 5872 0
-5538 -5870 0
-5537 5871 0
-5871 5873 0
-5538 -5871 5872 0
-5872 5874 0
-5539 -5872 0
-5538 5873 0
-5873 5875 0
-5539 -5873 5874 0
-5874 5876 0
-5540 -5874 0
-5539 5875 0
-5875 5877 0
-5540 -5875 5876 0
-5876 5878 0
-5541 -5876 0
-5540 5877 0
-5877 5879 0
-5541 -5877 5878 0
-5878 5880 0
-5542 -5878 0
-5541 5879 0
-5879 5881 0
-5542 -5879 5880 0
-5880 5882 0
-5543 -5880 0
-5542 5881 0
-5881 5883 0
-5543 -5881 5882 0
-5882 5884 0
-5544 -5882 0
-5543 5883 0
-5883 5885 0
-5544 -5883 5884 0
-5884 5886 0
-5545 -5884 0
-5544 5885 0
-5885 5887 0
-5545 -5885 5886 0
-5886 5888 0
-5546 -5886 0
-5545 5887 0
-5887 5889 0
-5546 -5887 5888 0
-5888 5890 0
-5547 -5888 0
-5546 5889 0
-5889 5891 0
-5547 -5889 5890 0
-5890 5892 0
-5548 -5890 0
-5547 5891 0
-5891 5893 0
-5548 -5891 5892 0
-5892 5894 0
-5549 -5892 0
-5548 5893 0
-5893 5895 0
-5549 -5893 5894 0
-5894 5896 0
-5550 -5894 0
-5549 5895 0
-5895 5897 0
-5550 -5895 5896 0
-5896 5898 0
-5551 -5896 0
-5550 5897 0
-5897 5899 0
-5551 -5897 5898 0
-5898 5900 0
-5552 -5898 0
-5551 5899 0
-5899 5901 0
-5552 -5899 5900 0
-5900 5902 0
-5553 -5900 0
-5552 5901 0
-5901 5903 0
-5553 -5901 5902 0
-5902 5904 0
-5554 -5902 0
-5553 5903 0
-5903 5905 0
-5554 -5903 5904 0
-5904 5906 0
-5555 -5904 0
-5554 5905 0
-5905 5907 0
-5555 -5905 5906 0
-5906 5908 0
-5556 -5906 0
-5555 5907 0
-5907 5909 0
-5556 -5907 5908 0
-5908 5910 0
-5557 -5908 0
-5556 5909 0
-5909 5911 0
-5557 -5909 5910 0
-5910 5912 0
-5558 -5910 0
-5557 5911 0
-5911 5913 0
-5558 -5911 5912 0
-5912 5914 0
-5559 -5912 0
-5558 5913 0
-5913 5915 0
-5559 -5913 5914 0
-5914 5916 0
-5560 -5914 0
-5559 5915 0
-5915 5917 0
-5560 -5915 5916 0
-5916 5918 0
-5561 -5916 0
-5560 5917 0
-5917 5919 0
-5561 -5917 5918 0
-5918 5920 0
-5562 -5918 0
-5561 5919 0
-5919 5921 0
-5562 -5919 5920 0
-5920 5922 0
-5563 -5920 0
-5562 5921 0
-5921 5923 0
-5563 -5921 5922 0
-5922 5924 0
-5564 -5922 0
-5563 5923 0
-5923 5925 0
-5564 -5923 5924 0
-5924 5926 0
-5565 -5924 0
-5564 5925 0
-5925 5927 0
-5565 -5925 5926 0
-5926 5928 0
-5566 -5926 0
-5565 5927 0
-5927 5929 0
-5566 -5927 5928 0
-5928 5930 0
-5567 -5928 0
-5566 5929 0
-5929 5931 0
-5567 -5929 5930 0
-5930 5932 0
-5568 -5930 0
-5567 5931 0
-5931 5933 0
-5568 -5931 5932 0
-5932 5934 0
-5569 -5932 0
-5568 5933 0
-5933 5935 0
-5569 -5933 5934 0
-5934 5936 0
-5570 -5934 0
-5569 5935 0
-5935 5937 0
-5570 -5935 5936 0
-5936 5938 0
-5571 -5936 0
-5570 5937 0
-5937 5939 0
-5571 -5937 5938 0
-5938 5940 0
-5572 -5938 0
-5571 5939 0
-5939 5941 0
-5572 -5939 5940 0
-5940 5942 0
-5573 -5940 0
-5572 5941 0
-5941 5943 0
-5573 -5941 5942 0
-5942 5944 0
-5574 -5942 0
-5573 5943 0
-5943 5945 0
-5574 -5943 5944 0
-5944 5946 0
-5575 -5944 0
-5574 5945 0
-5945 5947 0
-5575 -5945 5946 0
-5946 5948 0
-5576 -5946 0
-5575 5947 0
-5947 5949 0
-5576 -5947 5948 0
-5948 5950 0
-5577 -5948 0
-5576 5949 0
-5949 5951 0
-5577 -5949 5950 0
-5950 5952 0
-5578 -5950 0
-5577 5951 0
-5951 5953 0
-5578 -5951 5952 0
-5952 5954 0
-5579 -5952 0
-5578 5953 0
-5953 5955 0
-5579 -5953 5954 0
-5954 5956 0
-5580 -5954 0
-5579 5955 0
-5955 5957 0
-5580 -5955 5956 0
-5956 5958 0
-5581 -5956 0
-5580 5957 0
-5957 5959 0
-5581 -5957 5958 0
-5958 5960 0
-5582 -5958 0
-5581 5959 0
-5959 5961 0
-5582 -5959 5960 0
-5960 5962 0
-5583 -5960 0
-5582 5961 0
-5961 5963 0
-5583 -5961 5962 0
-5962 5964 0
-5584 -5962 0
-5583 5963 0
-5963 5965 0
-5584 -5963 5964 0
-5964 5966 0
-5585 -5964 0
-5584 5965 0
-5965 5967 0
-5585 -5965 5966 0
-5966 5968 0
-5586 -5966 0
-5585 5967 0
-5967 5969 0
-5586 -5967 5968 0
-5968 5970 0
-5587 -5968 0
-5586 5969 0
-5969 5971 0
-5587 -5969 5970 0
-5970 5972 0
-5588 -5970 0
-5587 5971 0
-5971 5973 0
-5588 -5971 5972 0
-5972 5974 0
-5589 -5972 0
-5588 5973 0
-5973 5975 0
-5589 -5973 5974 0
-5974 5976 0
-5590 -5974 0
-5589 5975 0
-5975 5977 0
-5590 -5975 5976 0
-5976 5978 0
-5591 -5976 0
-5590 5977 0
-5977 5979 0
-5591 -5977 5978 0
-5978 5980 0
-5592 -5978 0
-5591 5979 0
-5979 5981 0
-5592 -5979 5980 0
-5980 5982 0
-5593 -5980 0
-5592 5981 0
-5981 5983 0
-5593 -5981 5982 0
-5982 5984 0
-5594 -5982 0
-5593 5983 0
-5983 5985 0
-5594 -5983 5984 0
-5984 5986 0
-5595 -5984 0
-5594 5985 0
-5985 5987 0
-5595 -5985 5986 0
-5986 5988 0
-5596 -5986 0
-5595 5987 0
-5987 5989 0
-5596 -5987 5988 0
-5988 5990 0
-5597 -5988 0
-5596 5989 0
-5989 5991 0
-5597 -5989 5990 0
-5990 5992 0
-5598 -5990 0
-5597 5991 0
-5991 5993 0
-5598 -5991 5992 0
-5992 5994 0
-5599 -5992 0
-5598 5993 0
-5993 5995 0
-5599 -5993 5994 0
-5994 5996 0
-5600 -5994 0
-5599 5995 0
-5995 5997 0
-5600 -5995 5996 0
-5996 5998 0
-5601 -5996 0
-5600 5997 0
-5997 5999 0
-5601 -5997 5998 0
-5998 6000 0
-5602 -5998 0
-5601 5999 0
-5999 6001 0
-5602 -5999 6000 0
-6000 6002 0
-5603 -6000 0
-5602 6001 0
-6001 6003 0
-5603 -6001 6002 0
-6002 6004 0
-5604 -6002 0
-5603 6003 0
-6003 6005 0
-5604 -6003 6004 0
-6004 6006 0
-5605 -6004 0
-5604 6005 0
-6005 6007 0
-5605 -6005 6006 0
-6006 6008 0
-5606 -6006 0
-5605 6007 0
-6007 6009 0
-5606 -6007 6008 0
-6008 6010 0
-5607 -6008 0
-5606 6009 0
-6009 6011 0
-5607 -6009 6010 0
-6010 6012 0
-5608 -6010 0
-5607 6011 0
-6011 6013 0
-5608 -6011 6012 0
-6012 6014 0
-5609 -6012 0
-5608 6013 0
-6013 6015 0
-5609 -6013 6014 0
-6014 6016 0
-5610 -6014 0
-5609 6015 0
-6015 6017 0
-5610 -6015 6016 0
-6016 6018 0
-5611 -6016 0
-5610 6017 0
-6017 6019 0
-5611 -6017 6018 0
-6018 6020 0
-5612 -6018 0
-5611 6019 0
-6019 6021 0
-5612 -6019 6020 0
-6020 6022 0
-5613 -6020 0
-5612 6021 0
-6021 6023 0
-5613 -6021 6022 0
-6022 6024 0
-5614 -6022 0
-5613 6023 0
-6023 6025 0
-5614 -6023 6024 0
-6024 6026 0
-5615 -6024 0
-5614 6025 0
-6025 6027 0
-5615 -6025 6026 0
-6026 6028 0
-5616 -6026 0
-5615 6027 0
-6027 6029 0
-5616 -6027 6028 0
-6028 6030 0
-5617 -6028 0
-5616 6029 0
-5617 -6029 6030 0
-5618 -6030 0
1 0
118 0
199 0
244 0
14 0
77 0
212 0
239 0
36 0
99 0
153 0
198 0
