p cnf 11891 41506
1 0
4 0
13 0
27 0
32 0
41 0
68 0
72 0
73 0
118 0
167 0
176 0
208 0
225 0
234 0
235 0
248 0
-258 254 259 0
-256 254 259 0
-256 -258 259 0
-259 253 0
-257 253 0
-259 -257 0
-255 253 0
-259 -255 0
-255 -257 0
-259 -255 -257 0
-263 258 264 0
-261 258 264 0
-261 -263 264 0
-264 257 0
-262 257 0
-264 -262 0
-260 257 0
-264 -260 0
-260 -262 0
-264 -260 -262 0
-268 263 269 0
-266 263 269 0
-266 -268 269 0
-269 262 0
-267 262 0
-269 -267 0
-265 262 0
-269 -265 0
-265 -267 0
-269 -265 -267 0
-273 268 274 0
-271 268 274 0
-271 -273 274 0
-274 267 0
-272 267 0
-274 -272 0
-270 267 0
-274 -270 0
-270 -272 0
-274 -270 -272 0
-278 273 279 0
-276 273 279 0
-276 -278 279 0
-279 272 0
-277 272 0
-279 -277 0
-275 272 0
-279 -275 0
-275 -277 0
-279 -275 -277 0
-247 278 282 0
-281 278 282 0
-281 -247 282 0
-282 277 0
-280 277 0
-282 -280 0
-245 281 283 0
-244 281 283 0
-244 -245 283 0
-283 280 0
-239 276 286 0
-285 276 286 0
-285 -239 286 0
-286 275 0
-284 275 0
-286 -284 0
-238 285 287 0
-236 285 287 0
-236 -238 287 0
-287 284 0
-291 271 292 0
-289 271 292 0
-289 -291 292 0
-292 270 0
-290 270 0
-292 -290 0
-288 270 0
-292 -288 0
-288 -290 0
-292 -288 -290 0
-230 291 295 0
-294 291 295 0
-294 -230 295 0
-295 290 0
-293 290 0
-295 -293 0
-229 294 296 0
-227 294 296 0
-227 -229 296 0
-296 293 0
-226 289 299 0
-298 289 299 0
-298 -226 299 0
-299 288 0
-297 288 0
-299 -297 0
-221 298 300 0
-220 298 300 0
-220 -221 300 0
-300 297 0
-304 266 305 0
-302 266 305 0
-302 -304 305 0
-305 265 0
-303 265 0
-305 -303 0
-301 265 0
-305 -301 0
-301 -303 0
-305 -301 -303 0
-309 304 310 0
-307 304 310 0
-307 -309 310 0
-310 303 0
-308 303 0
-310 -308 0
-306 303 0
-310 -306 0
-306 -308 0
-310 -306 -308 0
-218 309 313 0
-312 309 313 0
-312 -218 313 0
-313 308 0
-311 308 0
-313 -311 0
-217 312 314 0
-212 312 314 0
-212 -217 314 0
-314 311 0
-211 307 317 0
-316 307 317 0
-316 -211 317 0
-317 306 0
-315 306 0
-317 -315 0
-209 316 318 0
-203 316 318 0
-203 -209 318 0
-318 315 0
-322 302 323 0
-320 302 323 0
-320 -322 323 0
-323 301 0
-321 301 0
-323 -321 0
-319 301 0
-323 -319 0
-319 -321 0
-323 -319 -321 0
-202 322 326 0
-325 322 326 0
-325 -202 326 0
-326 321 0
-324 321 0
-326 -324 0
-200 325 327 0
-199 325 327 0
-199 -200 327 0
-327 324 0
-194 320 330 0
-329 320 330 0
-329 -194 330 0
-330 319 0
-328 319 0
-330 -328 0
-193 329 331 0
-191 329 331 0
-191 -193 331 0
-331 328 0
-335 261 336 0
-333 261 336 0
-333 -335 336 0
-336 260 0
-334 260 0
-336 -334 0
-332 260 0
-336 -332 0
-332 -334 0
-336 -332 -334 0
-340 335 341 0
-338 335 341 0
-338 -340 341 0
-341 334 0
-339 334 0
-341 -339 0
-337 334 0
-341 -337 0
-337 -339 0
-341 -337 -339 0
-345 340 346 0
-343 340 346 0
-343 -345 346 0
-346 339 0
-344 339 0
-346 -344 0
-342 339 0
-346 -342 0
-342 -344 0
-346 -342 -344 0
-190 345 349 0
-348 345 349 0
-348 -190 349 0
-349 344 0
-347 344 0
-349 -347 0
-185 348 350 0
-184 348 350 0
-184 -185 350 0
-350 347 0
-182 343 353 0
-352 343 353 0
-352 -182 353 0
-353 342 0
-351 342 0
-353 -351 0
-181 352 354 0
-175 352 354 0
-175 -181 354 0
-354 351 0
-358 338 359 0
-356 338 359 0
-356 -358 359 0
-359 337 0
-357 337 0
-359 -357 0
-355 337 0
-359 -355 0
-355 -357 0
-359 -355 -357 0
-173 358 362 0
-361 358 362 0
-361 -173 362 0
-362 357 0
-360 357 0
-362 -360 0
-172 361 363 0
-166 361 363 0
-166 -172 363 0
-363 360 0
-164 356 366 0
-365 356 366 0
-365 -164 366 0
-366 355 0
-364 355 0
-366 -364 0
-163 365 367 0
-158 365 367 0
-158 -163 367 0
-367 364 0
-371 333 372 0
-369 333 372 0
-369 -371 372 0
-372 332 0
-370 332 0
-372 -370 0
-368 332 0
-372 -368 0
-368 -370 0
-372 -368 -370 0
-376 371 377 0
-374 371 377 0
-374 -376 377 0
-377 370 0
-375 370 0
-377 -375 0
-373 370 0
-377 -373 0
-373 -375 0
-377 -373 -375 0
-157 376 380 0
-379 376 380 0
-379 -157 380 0
-380 375 0
-378 375 0
-380 -378 0
-155 379 381 0
-154 379 381 0
-154 -155 381 0
-381 378 0
-149 374 384 0
-383 374 384 0
-383 -149 384 0
-384 373 0
-382 373 0
-384 -382 0
-148 383 385 0
-146 383 385 0
-146 -148 385 0
-385 382 0
-389 369 390 0
-387 369 390 0
-387 -389 390 0
-390 368 0
-388 368 0
-390 -388 0
-386 368 0
-390 -386 0
-386 -388 0
-390 -386 -388 0
-145 389 393 0
-392 389 393 0
-392 -145 393 0
-393 388 0
-391 388 0
-393 -391 0
-140 392 394 0
-139 392 394 0
-139 -140 394 0
-394 391 0
-398 387 399 0
-396 387 399 0
-396 -398 399 0
-399 386 0
-397 386 0
-399 -397 0
-395 386 0
-399 -395 0
-395 -397 0
-399 -395 -397 0
-137 398 400 0
-136 398 400 0
-136 -137 400 0
-400 397 0
-131 396 401 0
-130 396 401 0
-130 -131 401 0
-401 395 0
-405 256 406 0
-403 256 406 0
-403 -405 406 0
-406 255 0
-404 255 0
-406 -404 0
-402 255 0
-406 -402 0
-402 -404 0
-406 -402 -404 0
-410 405 411 0
-408 405 411 0
-408 -410 411 0
-411 404 0
-409 404 0
-411 -409 0
-407 404 0
-411 -407 0
-407 -409 0
-411 -407 -409 0
-415 410 416 0
-413 410 416 0
-413 -415 416 0
-416 409 0
-414 409 0
-416 -414 0
-412 409 0
-416 -412 0
-412 -414 0
-416 -412 -414 0
-420 415 421 0
-418 415 421 0
-418 -420 421 0
-421 414 0
-419 414 0
-421 -419 0
-417 414 0
-421 -417 0
-417 -419 0
-421 -417 -419 0
-128 420 424 0
-423 420 424 0
-423 -128 424 0
-424 419 0
-422 419 0
-424 -422 0
-127 423 425 0
-122 423 425 0
-122 -127 425 0
-425 422 0
-121 418 428 0
-427 418 428 0
-427 -121 428 0
-428 417 0
-426 417 0
-428 -426 0
-119 427 429 0
-113 427 429 0
-113 -119 429 0
-429 426 0
-433 413 434 0
-431 413 434 0
-431 -433 434 0
-434 412 0
-432 412 0
-434 -432 0
-430 412 0
-434 -430 0
-430 -432 0
-434 -430 -432 0
-112 433 437 0
-436 433 437 0
-436 -112 437 0
-437 432 0
-435 432 0
-437 -435 0
-110 436 438 0
-109 436 438 0
-109 -110 438 0
-438 435 0
-104 431 441 0
-440 431 441 0
-440 -104 441 0
-441 430 0
-439 430 0
-441 -439 0
-103 440 442 0
-101 440 442 0
-101 -103 442 0
-442 439 0
-446 408 447 0
-444 408 447 0
-444 -446 447 0
-447 407 0
-445 407 0
-447 -445 0
-443 407 0
-447 -443 0
-443 -445 0
-447 -443 -445 0
-451 446 452 0
-449 446 452 0
-449 -451 452 0
-452 445 0
-450 445 0
-452 -450 0
-448 445 0
-452 -448 0
-448 -450 0
-452 -448 -450 0
-100 451 455 0
-454 451 455 0
-454 -100 455 0
-455 450 0
-453 450 0
-455 -453 0
-95 454 456 0
-94 454 456 0
-94 -95 456 0
-456 453 0
-92 449 459 0
-458 449 459 0
-458 -92 459 0
-459 448 0
-457 448 0
-459 -457 0
-91 458 460 0
-86 458 460 0
-86 -91 460 0
-460 457 0
-464 444 465 0
-462 444 465 0
-462 -464 465 0
-465 443 0
-463 443 0
-465 -463 0
-461 443 0
-465 -461 0
-461 -463 0
-465 -461 -463 0
-85 464 468 0
-467 464 468 0
-467 -85 468 0
-468 463 0
-466 463 0
-468 -466 0
-83 467 469 0
-82 467 469 0
-82 -83 469 0
-469 466 0
-473 462 474 0
-471 462 474 0
-471 -473 474 0
-474 461 0
-472 461 0
-474 -472 0
-470 461 0
-474 -470 0
-470 -472 0
-474 -470 -472 0
-77 473 475 0
-76 473 475 0
-76 -77 475 0
-475 472 0
-74 471 476 0
-67 471 476 0
-67 -74 476 0
-476 470 0
-480 403 481 0
-478 403 481 0
-478 -480 481 0
-481 402 0
-479 402 0
-481 -479 0
-477 402 0
-481 -477 0
-477 -479 0
-481 -477 -479 0
-485 480 486 0
-483 480 486 0
-483 -485 486 0
-486 479 0
-484 479 0
-486 -484 0
-482 479 0
-486 -482 0
-482 -484 0
-486 -482 -484 0
-490 485 491 0
-488 485 491 0
-488 -490 491 0
-491 484 0
-489 484 0
-491 -489 0
-487 484 0
-491 -487 0
-487 -489 0
-491 -487 -489 0
-65 490 494 0
-493 490 494 0
-493 -65 494 0
-494 489 0
-492 489 0
-494 -492 0
-64 493 495 0
-59 493 495 0
-59 -64 495 0
-495 492 0
-58 488 498 0
-497 488 498 0
-497 -58 498 0
-498 487 0
-496 487 0
-498 -496 0
-56 497 499 0
-55 497 499 0
-55 -56 499 0
-499 496 0
-503 483 504 0
-501 483 504 0
-501 -503 504 0
-504 482 0
-502 482 0
-504 -502 0
-500 482 0
-504 -500 0
-500 -502 0
-504 -500 -502 0
-50 503 507 0
-506 503 507 0
-506 -50 507 0
-507 502 0
-505 502 0
-507 -505 0
-49 506 508 0
-47 506 508 0
-47 -49 508 0
-508 505 0
-46 501 511 0
-510 501 511 0
-510 -46 511 0
-511 500 0
-509 500 0
-511 -509 0
-40 510 512 0
-38 510 512 0
-38 -40 512 0
-512 509 0
-516 478 517 0
-514 478 517 0
-514 -516 517 0
-517 477 0
-515 477 0
-517 -515 0
-513 477 0
-517 -513 0
-513 -515 0
-517 -513 -515 0
-521 516 522 0
-519 516 522 0
-519 -521 522 0
-522 515 0
-520 515 0
-522 -520 0
-518 515 0
-522 -518 0
-518 -520 0
-522 -518 -520 0
-37 521 525 0
-524 521 525 0
-524 -37 525 0
-525 520 0
-523 520 0
-525 -523 0
-31 524 526 0
-29 524 526 0
-29 -31 526 0
-526 523 0
-28 519 529 0
-528 519 529 0
-528 -28 529 0
-529 518 0
-527 518 0
-529 -527 0
-23 528 530 0
-22 528 530 0
-22 -23 530 0
-530 527 0
-534 514 535 0
-532 514 535 0
-532 -534 535 0
-535 513 0
-533 513 0
-535 -533 0
-531 513 0
-535 -531 0
-531 -533 0
-535 -531 -533 0
-20 534 538 0
-537 534 538 0
-537 -20 538 0
-538 533 0
-536 533 0
-538 -536 0
-19 537 539 0
-14 537 539 0
-14 -19 539 0
-539 536 0
-543 532 544 0
-541 532 544 0
-541 -543 544 0
-544 531 0
-542 531 0
-544 -542 0
-540 531 0
-544 -540 0
-540 -542 0
-544 -540 -542 0
-11 543 545 0
-10 543 545 0
-10 -11 545 0
-545 542 0
-5 541 546 0
-2 541 546 0
-2 -5 546 0
-546 540 0
-547 8 0
-547 123 0
-548 8 0
-548 123 0
-548 209 0
-548 236 0
-549 8 0
-549 123 0
-549 218 0
-549 227 0
-550 8 0
-550 130 0
-550 178 0
-551 8 0
-551 130 0
-551 188 0
-551 236 0
-552 8 0
-552 130 0
-552 197 0
-552 227 0
-553 8 0
-553 139 0
-553 169 0
-554 8 0
-554 139 0
-554 188 0
-554 218 0
-555 8 0
-555 139 0
-555 197 0
-555 209 0
-556 8 0
-556 149 0
-556 169 0
-556 236 0
-557 8 0
-557 149 0
-557 178 0
-557 218 0
-558 8 0
-558 149 0
-558 197 0
-559 8 0
-559 158 0
-559 169 0
-559 227 0
-560 8 0
-560 158 0
-560 178 0
-560 209 0
-561 8 0
-561 158 0
-561 188 0
-562 17 0
-562 78 0
-563 17 0
-563 78 0
-563 209 0
-563 236 0
-564 17 0
-564 78 0
-564 218 0
-564 227 0
-565 17 0
-565 85 0
-565 178 0
-566 17 0
-566 85 0
-566 188 0
-566 236 0
-567 17 0
-567 85 0
-567 197 0
-567 227 0
-568 17 0
-568 94 0
-568 169 0
-569 17 0
-569 94 0
-569 188 0
-569 218 0
-570 17 0
-570 94 0
-570 197 0
-570 209 0
-571 17 0
-571 104 0
-571 169 0
-571 236 0
-572 17 0
-572 104 0
-572 178 0
-572 218 0
-573 17 0
-573 104 0
-573 197 0
-574 17 0
-574 113 0
-574 169 0
-574 227 0
-575 17 0
-575 113 0
-575 178 0
-575 209 0
-576 17 0
-576 113 0
-576 188 0
-577 209 0
-577 236 0
-578 218 0
-578 227 0
-579 85 0
-579 139 0
-580 85 0
-580 149 0
-580 236 0
-581 85 0
-581 158 0
-581 227 0
-582 94 0
-582 130 0
-583 94 0
-583 149 0
-583 218 0
-584 94 0
-584 158 0
-584 209 0
-585 104 0
-585 130 0
-585 236 0
-586 104 0
-586 139 0
-586 218 0
-587 104 0
-587 158 0
-588 113 0
-588 130 0
-588 227 0
-589 113 0
-589 139 0
-589 209 0
-590 113 0
-590 149 0
-591 34 0
-591 178 0
-592 34 0
-592 188 0
-592 236 0
-593 34 0
-593 197 0
-593 227 0
-594 34 0
-594 78 0
-594 139 0
-595 34 0
-595 78 0
-595 149 0
-595 236 0
-596 34 0
-596 78 0
-596 158 0
-596 227 0
-597 34 0
-597 94 0
-597 123 0
-598 34 0
-598 94 0
-598 149 0
-598 197 0
-599 34 0
-599 94 0
-599 158 0
-599 188 0
-600 34 0
-600 104 0
-600 123 0
-600 236 0
-601 34 0
-601 104 0
-601 139 0
-601 197 0
-602 34 0
-602 104 0
-602 158 0
-602 178 0
-603 34 0
-603 113 0
-603 123 0
-603 227 0
-604 34 0
-604 113 0
-604 139 0
-604 188 0
-605 34 0
-605 113 0
-605 149 0
-605 178 0
-606 43 0
-606 169 0
-607 43 0
-607 188 0
-607 218 0
-608 43 0
-608 197 0
-608 209 0
-609 43 0
-609 78 0
-609 130 0
-610 43 0
-610 78 0
-610 149 0
-610 218 0
-611 43 0
-611 78 0
-611 158 0
-611 209 0
-612 43 0
-612 85 0
-612 123 0
-613 43 0
-613 85 0
-613 149 0
-613 197 0
-614 43 0
-614 85 0
-614 158 0
-614 188 0
-615 43 0
-615 104 0
-615 123 0
-615 218 0
-616 43 0
-616 104 0
-616 130 0
-616 197 0
-617 43 0
-617 104 0
-617 158 0
-617 169 0
-618 43 0
-618 113 0
-618 123 0
-618 209 0
-619 43 0
-619 113 0
-619 130 0
-619 188 0
-620 43 0
-620 113 0
-620 149 0
-620 169 0
-621 53 0
-621 169 0
-621 236 0
-622 53 0
-622 178 0
-622 218 0
-623 53 0
-623 197 0
-624 53 0
-624 78 0
-624 130 0
-624 236 0
-625 53 0
-625 78 0
-625 139 0
-625 218 0
-626 53 0
-626 78 0
-626 158 0
-627 53 0
-627 85 0
-627 123 0
-627 236 0
-628 53 0
-628 85 0
-628 139 0
-628 197 0
-629 53 0
-629 85 0
-629 158 0
-629 178 0
-630 53 0
-630 94 0
-630 123 0
-630 218 0
-631 53 0
-631 94 0
-631 130 0
-631 197 0
-632 53 0
-632 94 0
-632 158 0
-632 169 0
-633 53 0
-633 113 0
-633 123 0
-634 53 0
-634 113 0
-634 130 0
-634 178 0
-635 53 0
-635 113 0
-635 139 0
-635 169 0
-636 62 0
-636 169 0
-636 227 0
-637 62 0
-637 178 0
-637 209 0
-638 62 0
-638 188 0
-639 62 0
-639 78 0
-639 130 0
-639 227 0
-640 62 0
-640 78 0
-640 139 0
-640 209 0
-641 62 0
-641 78 0
-641 149 0
-642 62 0
-642 85 0
-642 123 0
-642 227 0
-643 62 0
-643 85 0
-643 139 0
-643 188 0
-644 62 0
-644 85 0
-644 149 0
-644 178 0
-645 62 0
-645 94 0
-645 123 0
-645 209 0
-646 62 0
-646 94 0
-646 130 0
-646 188 0
-647 62 0
-647 94 0
-647 149 0
-647 169 0
-648 62 0
-648 104 0
-648 123 0
-649 62 0
-649 104 0
-649 130 0
-649 178 0
-650 62 0
-650 104 0
-650 139 0
-650 169 0
-27 -68 -199 -248 547 548 549 550 551 552 553 554 555 556 557 558 559 560 561 562 563 564 565 566 567 568 569 570 571 572 573 574 575 576 577 578 579 580 581 582 583 584 585 586 587 588 589 590 591 592 593 594 595 596 597 598 599 600 601 602 603 604 605 606 607 608 609 610 611 612 613 614 615 616 617 618 619 620 621 622 623 624 625 626 627 628 629 630 631 632 633 634 635 636 637 638 639 640 641 642 643 644 645 646 647 648 649 650 0
-651 5 0
-651 122 0
-651 200 0
-652 5 0
-652 122 0
-652 209 0
-652 239 0
-653 5 0
-653 122 0
-653 218 0
-653 230 0
-654 5 0
-654 130 0
-654 176 0
-655 5 0
-655 130 0
-655 185 0
-655 239 0
-656 5 0
-656 130 0
-656 194 0
-656 230 0
-657 5 0
-657 140 0
-658 5 0
-658 140 0
-658 185 0
-658 218 0
-659 5 0
-659 140 0
-659 194 0
-659 209 0
-660 5 0
-660 149 0
-660 239 0
-661 5 0
-661 149 0
-661 176 0
-661 218 0
-662 5 0
-662 149 0
-662 194 0
-662 200 0
-663 5 0
-663 158 0
-663 230 0
-664 5 0
-664 158 0
-664 176 0
-664 209 0
-665 5 0
-665 158 0
-665 185 0
-665 200 0
-666 14 0
-666 77 0
-666 200 0
-667 14 0
-667 77 0
-667 209 0
-667 239 0
-668 14 0
-668 77 0
-668 218 0
-668 230 0
-669 14 0
-669 85 0
-669 176 0
-670 14 0
-670 85 0
-670 185 0
-670 239 0
-671 14 0
-671 85 0
-671 194 0
-671 230 0
-672 14 0
-672 95 0
-673 14 0
-673 95 0
-673 185 0
-673 218 0
-674 14 0
-674 95 0
-674 194 0
-674 209 0
-675 14 0
-675 104 0
-675 239 0
-676 14 0
-676 104 0
-676 176 0
-676 218 0
-677 14 0
-677 104 0
-677 194 0
-677 200 0
-678 14 0
-678 113 0
-678 230 0
-679 14 0
-679 113 0
-679 176 0
-679 209 0
-680 14 0
-680 113 0
-680 185 0
-680 200 0
-681 23 0
-681 200 0
-682 23 0
-682 209 0
-682 239 0
-683 23 0
-683 218 0
-683 230 0
-684 23 0
-684 85 0
-684 140 0
-685 23 0
-685 85 0
-685 149 0
-685 239 0
-686 23 0
-686 85 0
-686 158 0
-686 230 0
-687 23 0
-687 95 0
-687 130 0
-688 23 0
-688 95 0
-688 149 0
-688 218 0
-689 23 0
-689 95 0
-689 158 0
-689 209 0
-690 23 0
-690 104 0
-690 130 0
-690 239 0
-691 23 0
-691 104 0
-691 140 0
-691 218 0
-692 23 0
-692 104 0
-692 158 0
-692 200 0
-693 23 0
-693 113 0
-693 130 0
-693 230 0
-694 23 0
-694 113 0
-694 140 0
-694 209 0
-695 23 0
-695 113 0
-695 149 0
-695 200 0
-696 31 0
-696 176 0
-697 31 0
-697 185 0
-697 239 0
-698 31 0
-698 194 0
-698 230 0
-699 31 0
-699 77 0
-699 140 0
-700 31 0
-700 77 0
-700 149 0
-700 239 0
-701 31 0
-701 77 0
-701 158 0
-701 230 0
-702 31 0
-702 95 0
-702 122 0
-703 31 0
-703 95 0
-703 149 0
-703 194 0
-704 31 0
-704 95 0
-704 158 0
-704 185 0
-705 31 0
-705 104 0
-705 122 0
-705 239 0
-706 31 0
-706 104 0
-706 140 0
-706 194 0
-707 31 0
-707 104 0
-707 158 0
-707 176 0
-708 31 0
-708 113 0
-708 122 0
-708 230 0
-709 31 0
-709 113 0
-709 140 0
-709 185 0
-710 31 0
-710 113 0
-710 149 0
-710 176 0
-711 185 0
-711 218 0
-712 194 0
-712 209 0
-713 77 0
-713 130 0
-714 77 0
-714 149 0
-714 218 0
-715 77 0
-715 158 0
-715 209 0
-716 85 0
-716 122 0
-717 85 0
-717 149 0
-717 194 0
-718 85 0
-718 158 0
-718 185 0
-719 104 0
-719 122 0
-719 218 0
-720 104 0
-720 130 0
-720 194 0
-721 104 0
-721 158 0
-722 113 0
-722 122 0
-722 209 0
-723 113 0
-723 130 0
-723 185 0
-724 113 0
-724 149 0
-725 50 0
-725 239 0
-726 50 0
-726 176 0
-726 218 0
-727 50 0
-727 194 0
-727 200 0
-728 50 0
-728 77 0
-728 130 0
-728 239 0
-729 50 0
-729 77 0
-729 140 0
-729 218 0
-730 50 0
-730 77 0
-730 158 0
-730 200 0
-731 50 0
-731 85 0
-731 122 0
-731 239 0
-732 50 0
-732 85 0
-732 140 0
-732 194 0
-733 50 0
-733 85 0
-733 158 0
-733 176 0
-734 50 0
-734 95 0
-734 122 0
-734 218 0
-735 50 0
-735 95 0
-735 130 0
-735 194 0
-736 50 0
-736 95 0
-736 158 0
-737 50 0
-737 113 0
-737 122 0
-737 200 0
-738 50 0
-738 113 0
-738 130 0
-738 176 0
-739 50 0
-739 113 0
-739 140 0
-740 59 0
-740 230 0
-741 59 0
-741 176 0
-741 209 0
-742 59 0
-742 185 0
-742 200 0
-743 59 0
-743 77 0
-743 130 0
-743 230 0
-744 59 0
-744 77 0
-744 140 0
-744 209 0
-745 59 0
-745 77 0
-745 149 0
-745 200 0
-746 59 0
-746 85 0
-746 122 0
-746 230 0
-747 59 0
-747 85 0
-747 140 0
-747 185 0
-748 59 0
-748 85 0
-748 149 0
-748 176 0
-749 59 0
-749 95 0
-749 122 0
-749 209 0
-750 59 0
-750 95 0
-750 130 0
-750 185 0
-751 59 0
-751 95 0
-751 149 0
-752 59 0
-752 104 0
-752 122 0
-752 200 0
-753 59 0
-753 104 0
-753 130 0
-753 176 0
-754 59 0
-754 104 0
-754 140 0
-41 -68 -166 -248 651 652 653 654 655 656 657 658 659 660 661 662 663 664 665 666 667 668 669 670 671 672 673 674 675 676 677 678 679 680 681 682 683 684 685 686 687 688 689 690 691 692 693 694 695 696 697 698 699 700 701 702 703 704 705 706 707 708 709 710 711 712 713 714 715 716 717 718 719 720 721 722 723 724 725 726 727 728 729 730 731 732 733 734 735 736 737 738 739 740 741 742 743 744 745 746 747 748 749 750 751 752 753 754 0
-755 212 0
-755 236 0
-756 221 0
-756 227 0
-757 128 0
-757 172 0
-758 128 0
-758 182 0
-758 236 0
-759 128 0
-759 191 0
-759 227 0
-760 136 0
-760 164 0
-761 136 0
-761 182 0
-761 221 0
-762 136 0
-762 191 0
-762 212 0
-763 146 0
-763 164 0
-763 236 0
-764 146 0
-764 172 0
-764 221 0
-765 146 0
-765 191 0
-766 155 0
-766 164 0
-766 227 0
-767 155 0
-767 172 0
-767 212 0
-768 155 0
-768 182 0
-769 10 0
-769 73 0
-770 10 0
-770 73 0
-770 212 0
-770 236 0
-771 10 0
-771 73 0
-771 221 0
-771 227 0
-772 10 0
-772 83 0
-772 172 0
-773 10 0
-773 83 0
-773 182 0
-773 236 0
-774 10 0
-774 83 0
-774 191 0
-774 227 0
-775 10 0
-775 91 0
-775 164 0
-776 10 0
-776 91 0
-776 182 0
-776 221 0
-777 10 0
-777 91 0
-777 191 0
-777 212 0
-778 10 0
-778 101 0
-778 164 0
-778 236 0
-779 10 0
-779 101 0
-779 172 0
-779 221 0
-780 10 0
-780 101 0
-780 191 0
-781 10 0
-781 110 0
-781 164 0
-781 227 0
-782 10 0
-782 110 0
-782 172 0
-782 212 0
-783 10 0
-783 110 0
-783 182 0
-784 19 0
-784 64 0
-785 19 0
-785 64 0
-785 212 0
-785 236 0
-786 19 0
-786 64 0
-786 221 0
-786 227 0
-787 19 0
-787 83 0
-787 136 0
-788 19 0
-788 83 0
-788 146 0
-788 236 0
-789 19 0
-789 83 0
-789 155 0
-789 227 0
-790 19 0
-790 91 0
-790 128 0
-791 19 0
-791 91 0
-791 146 0
-791 221 0
-792 19 0
-792 91 0
-792 155 0
-792 212 0
-793 19 0
-793 101 0
-793 128 0
-793 236 0
-794 19 0
-794 101 0
-794 136 0
-794 221 0
-795 19 0
-795 101 0
-795 155 0
-796 19 0
-796 110 0
-796 128 0
-796 227 0
-797 19 0
-797 110 0
-797 136 0
-797 212 0
-798 19 0
-798 110 0
-798 146 0
-799 29 0
-799 64 0
-799 172 0
-800 29 0
-800 64 0
-800 182 0
-800 236 0
-801 29 0
-801 64 0
-801 191 0
-801 227 0
-802 29 0
-802 73 0
-802 136 0
-803 29 0
-803 73 0
-803 146 0
-803 236 0
-804 29 0
-804 73 0
-804 155 0
-804 227 0
-805 29 0
-805 91 0
-806 29 0
-806 91 0
-806 146 0
-806 191 0
-807 29 0
-807 91 0
-807 155 0
-807 182 0
-808 29 0
-808 101 0
-808 236 0
-809 29 0
-809 101 0
-809 136 0
-809 191 0
-810 29 0
-810 101 0
-810 155 0
-810 172 0
-811 29 0
-811 110 0
-811 227 0
-812 29 0
-812 110 0
-812 136 0
-812 182 0
-813 29 0
-813 110 0
-813 146 0
-813 172 0
-814 37 0
-814 64 0
-814 164 0
-815 37 0
-815 64 0
-815 182 0
-815 221 0
-816 37 0
-816 64 0
-816 191 0
-816 212 0
-817 37 0
-817 73 0
-817 128 0
-818 37 0
-818 73 0
-818 146 0
-818 221 0
-819 37 0
-819 73 0
-819 155 0
-819 212 0
-820 37 0
-820 83 0
-821 37 0
-821 83 0
-821 146 0
-821 191 0
-822 37 0
-822 83 0
-822 155 0
-822 182 0
-823 37 0
-823 101 0
-823 221 0
-824 37 0
-824 101 0
-824 128 0
-824 191 0
-825 37 0
-825 101 0
-825 155 0
-825 164 0
-826 37 0
-826 110 0
-826 212 0
-827 37 0
-827 110 0
-827 128 0
-827 182 0
-828 37 0
-828 110 0
-828 146 0
-828 164 0
-829 47 0
-829 64 0
-829 164 0
-829 236 0
-830 47 0
-830 64 0
-830 172 0
-830 221 0
-831 47 0
-831 64 0
-831 191 0
-832 47 0
-832 73 0
-832 128 0
-832 236 0
-833 47 0
-833 73 0
-833 136 0
-833 221 0
-834 47 0
-834 73 0
-834 155 0
-835 47 0
-835 83 0
-835 236 0
-836 47 0
-836 83 0
-836 136 0
-836 191 0
-837 47 0
-837 83 0
-837 155 0
-837 172 0
-838 47 0
-838 91 0
-838 221 0
-839 47 0
-839 91 0
-839 128 0
-839 191 0
-840 47 0
-840 91 0
-840 155 0
-840 164 0
-841 47 0
-841 110 0
-842 47 0
-842 110 0
-842 128 0
-842 172 0
-843 47 0
-843 110 0
-843 136 0
-843 164 0
-844 56 0
-844 64 0
-844 164 0
-844 227 0
-845 56 0
-845 64 0
-845 172 0
-845 212 0
-846 56 0
-846 64 0
-846 182 0
-847 56 0
-847 73 0
-847 128 0
-847 227 0
-848 56 0
-848 73 0
-848 136 0
-848 212 0
-849 56 0
-849 73 0
-849 146 0
-850 56 0
-850 83 0
-850 227 0
-851 56 0
-851 83 0
-851 136 0
-851 182 0
-852 56 0
-852 83 0
-852 146 0
-852 172 0
-853 56 0
-853 91 0
-853 212 0
-854 56 0
-854 91 0
-854 128 0
-854 182 0
-855 56 0
-855 91 0
-855 146 0
-855 164 0
-856 56 0
-856 101 0
-857 56 0
-857 101 0
-857 128 0
-857 172 0
-858 56 0
-858 101 0
-858 136 0
-858 164 0
-1 -118 -202 -248 755 756 757 758 759 760 761 762 763 764 765 766 767 768 769 770 771 772 773 774 775 776 777 778 779 780 781 782 783 784 785 786 787 788 789 790 791 792 793 794 795 796 797 798 799 800 801 802 803 804 805 806 807 808 809 810 811 812 813 814 815 816 817 818 819 820 821 822 823 824 825 826 827 828 829 830 831 832 833 834 835 836 837 838 839 840 841 842 843 844 845 846 847 848 849 850 851 852 853 854 855 856 857 858 0
-859 199 0
-859 244 0
-860 217 0
-860 226 0
-861 130 0
-861 172 0
-861 244 0
-862 130 0
-862 181 0
-863 130 0
-863 190 0
-863 226 0
-864 139 0
-864 163 0
-864 244 0
-865 139 0
-865 181 0
-865 217 0
-866 139 0
-866 190 0
-867 148 0
-867 163 0
-868 148 0
-868 172 0
-868 217 0
-869 148 0
-869 190 0
-869 199 0
-870 157 0
-870 163 0
-870 226 0
-871 157 0
-871 172 0
-872 157 0
-872 181 0
-872 199 0
-873 11 0
-873 73 0
-873 199 0
-873 244 0
-874 11 0
-874 73 0
-875 11 0
-875 73 0
-875 217 0
-875 226 0
-876 11 0
-876 82 0
-876 172 0
-876 244 0
-877 11 0
-877 82 0
-877 181 0
-878 11 0
-878 82 0
-878 190 0
-878 226 0
-879 11 0
-879 91 0
-879 163 0
-879 244 0
-880 11 0
-880 91 0
-880 181 0
-880 217 0
-881 11 0
-881 91 0
-881 190 0
-882 11 0
-882 100 0
-882 163 0
-883 11 0
-883 100 0
-883 172 0
-883 217 0
-884 11 0
-884 100 0
-884 190 0
-884 199 0
-885 11 0
-885 109 0
-885 163 0
-885 226 0
-886 11 0
-886 109 0
-886 172 0
-887 11 0
-887 109 0
-887 181 0
-887 199 0
-888 19 0
-888 65 0
-888 199 0
-888 244 0
-889 19 0
-889 65 0
-890 19 0
-890 65 0
-890 217 0
-890 226 0
-891 19 0
-891 82 0
-891 139 0
-891 244 0
-892 19 0
-892 82 0
-892 148 0
-893 19 0
-893 82 0
-893 157 0
-893 226 0
-894 19 0
-894 91 0
-894 130 0
-894 244 0
-895 19 0
-895 91 0
-895 148 0
-895 217 0
-896 19 0
-896 91 0
-896 157 0
-897 19 0
-897 100 0
-897 130 0
-898 19 0
-898 100 0
-898 139 0
-898 217 0
-899 19 0
-899 100 0
-899 157 0
-899 199 0
-900 19 0
-900 109 0
-900 130 0
-900 226 0
-901 19 0
-901 109 0
-901 139 0
-902 19 0
-902 109 0
-902 148 0
-902 199 0
-903 28 0
-903 65 0
-903 172 0
-903 244 0
-904 28 0
-904 65 0
-904 181 0
-905 28 0
-905 65 0
-905 190 0
-905 226 0
-906 28 0
-906 73 0
-906 139 0
-906 244 0
-907 28 0
-907 73 0
-907 148 0
-908 28 0
-908 73 0
-908 157 0
-908 226 0
-909 28 0
-909 91 0
-909 244 0
-910 28 0
-910 91 0
-910 148 0
-910 190 0
-911 28 0
-911 91 0
-911 157 0
-911 181 0
-912 28 0
-912 100 0
-913 28 0
-913 100 0
-913 139 0
-913 190 0
-914 28 0
-914 100 0
-914 157 0
-914 172 0
-915 28 0
-915 109 0
-915 226 0
-916 28 0
-916 109 0
-916 139 0
-916 181 0
-917 28 0
-917 109 0
-917 148 0
-917 172 0
-918 37 0
-918 65 0
-918 163 0
-918 244 0
-919 37 0
-919 65 0
-919 181 0
-919 217 0
-920 37 0
-920 65 0
-920 190 0
-921 37 0
-921 73 0
-921 130 0
-921 244 0
-922 37 0
-922 73 0
-922 148 0
-922 217 0
-923 37 0
-923 73 0
-923 157 0
-924 37 0
-924 82 0
-924 244 0
-925 37 0
-925 82 0
-925 148 0
-925 190 0
-926 37 0
-926 82 0
-926 157 0
-926 181 0
-927 37 0
-927 100 0
-927 217 0
-928 37 0
-928 100 0
-928 130 0
-928 190 0
-929 37 0
-929 100 0
-929 157 0
-929 163 0
-930 37 0
-930 109 0
-931 37 0
-931 109 0
-931 130 0
-931 181 0
-932 37 0
-932 109 0
-932 148 0
-932 163 0
-933 46 0
-933 65 0
-933 163 0
-934 46 0
-934 65 0
-934 172 0
-934 217 0
-935 46 0
-935 65 0
-935 190 0
-935 199 0
-936 46 0
-936 73 0
-936 130 0
-937 46 0
-937 73 0
-937 139 0
-937 217 0
-938 46 0
-938 73 0
-938 157 0
-938 199 0
-939 46 0
-939 82 0
-940 46 0
-940 82 0
-940 139 0
-940 190 0
-941 46 0
-941 82 0
-941 157 0
-941 172 0
-942 46 0
-942 91 0
-942 217 0
-943 46 0
-943 91 0
-943 130 0
-943 190 0
-944 46 0
-944 91 0
-944 157 0
-944 163 0
-945 46 0
-945 109 0
-945 199 0
-946 46 0
-946 109 0
-946 130 0
-946 172 0
-947 46 0
-947 109 0
-947 139 0
-947 163 0
-948 55 0
-948 65 0
-948 163 0
-948 226 0
-949 55 0
-949 65 0
-949 172 0
-950 55 0
-950 65 0
-950 181 0
-950 199 0
-951 55 0
-951 73 0
-951 130 0
-951 226 0
-952 55 0
-952 73 0
-952 139 0
-953 55 0
-953 73 0
-953 148 0
-953 199 0
-954 55 0
-954 82 0
-954 226 0
-955 55 0
-955 82 0
-955 139 0
-955 181 0
-956 55 0
-956 82 0
-956 148 0
-956 172 0
-957 55 0
-957 91 0
-958 55 0
-958 91 0
-958 130 0
-958 181 0
-959 55 0
-959 91 0
-959 148 0
-959 163 0
-960 55 0
-960 100 0
-960 199 0
-961 55 0
-961 100 0
-961 130 0
-961 172 0
-962 55 0
-962 100 0
-962 139 0
-962 163 0
-1 -121 -208 -235 859 860 861 862 863 864 865 866 867 868 869 870 871 872 873 874 875 876 877 878 879 880 881 882 883 884 885 886 887 888 889 890 891 892 893 894 895 896 897 898 899 900 901 902 903 904 905 906 907 908 909 910 911 912 913 914 915 916 917 918 919 920 921 922 923 924 925 926 927 928 929 930 931 932 933 934 935 936 937 938 939 940 941 942 943 944 945 946 947 948 949 950 951 952 953 954 955 956 957 958 959 960 961 962 0
-963 7 0
-963 121 0
-964 7 0
-964 121 0
-964 209 0
-964 236 0
-965 7 0
-965 121 0
-965 218 0
-965 227 0
-966 7 0
-966 130 0
-966 172 0
-967 7 0
-967 130 0
-967 182 0
-967 236 0
-968 7 0
-968 130 0
-968 191 0
-968 227 0
-969 7 0
-969 139 0
-969 163 0
-970 7 0
-970 139 0
-970 182 0
-970 218 0
-971 7 0
-971 139 0
-971 191 0
-971 209 0
-972 7 0
-972 149 0
-972 163 0
-972 236 0
-973 7 0
-973 149 0
-973 172 0
-973 218 0
-974 7 0
-974 149 0
-974 191 0
-975 7 0
-975 158 0
-975 163 0
-975 227 0
-976 7 0
-976 158 0
-976 172 0
-976 209 0
-977 7 0
-977 158 0
-977 182 0
-978 209 0
-978 236 0
-979 218 0
-979 227 0
-980 82 0
-980 172 0
-981 82 0
-981 182 0
-981 236 0
-982 82 0
-982 191 0
-982 227 0
-983 91 0
-983 163 0
-984 91 0
-984 182 0
-984 218 0
-985 91 0
-985 191 0
-985 209 0
-986 101 0
-986 163 0
-986 236 0
-987 101 0
-987 172 0
-987 218 0
-988 101 0
-988 191 0
-989 110 0
-989 163 0
-989 227 0
-990 110 0
-990 172 0
-990 209 0
-991 110 0
-991 182 0
-992 25 0
-992 65 0
-993 25 0
-993 65 0
-993 209 0
-993 236 0
-994 25 0
-994 65 0
-994 218 0
-994 227 0
-995 25 0
-995 82 0
-995 139 0
-996 25 0
-996 82 0
-996 149 0
-996 236 0
-997 25 0
-997 82 0
-997 158 0
-997 227 0
-998 25 0
-998 91 0
-998 130 0
-999 25 0
-999 91 0
-999 149 0
-999 218 0
-1000 25 0
-1000 91 0
-1000 158 0
-1000 209 0
-1001 25 0
-1001 101 0
-1001 130 0
-1001 236 0
-1002 25 0
-1002 101 0
-1002 139 0
-1002 218 0
-1003 25 0
-1003 101 0
-1003 158 0
-1004 25 0
-1004 110 0
-1004 130 0
-1004 227 0
-1005 25 0
-1005 110 0
-1005 139 0
-1005 209 0
-1006 25 0
-1006 110 0
-1006 149 0
-1007 34 0
-1007 65 0
-1007 172 0
-1008 34 0
-1008 65 0
-1008 182 0
-1008 236 0
-1009 34 0
-1009 65 0
-1009 191 0
-1009 227 0
-1010 34 0
-1010 139 0
-1011 34 0
-1011 149 0
-1011 236 0
-1012 34 0
-1012 158 0
-1012 227 0
-1013 34 0
-1013 91 0
-1013 121 0
-1014 34 0
-1014 91 0
-1014 149 0
-1014 191 0
-1015 34 0
-1015 91 0
-1015 158 0
-1015 182 0
-1016 34 0
-1016 101 0
-1016 121 0
-1016 236 0
-1017 34 0
-1017 101 0
-1017 139 0
-1017 191 0
-1018 34 0
-1018 101 0
-1018 158 0
-1018 172 0
-1019 34 0
-1019 110 0
-1019 121 0
-1019 227 0
-1020 34 0
-1020 110 0
-1020 139 0
-1020 182 0
-1021 34 0
-1021 110 0
-1021 149 0
-1021 172 0
-1022 43 0
-1022 65 0
-1022 163 0
-1023 43 0
-1023 65 0
-1023 182 0
-1023 218 0
-1024 43 0
-1024 65 0
-1024 191 0
-1024 209 0
-1025 43 0
-1025 130 0
-1026 43 0
-1026 149 0
-1026 218 0
-1027 43 0
-1027 158 0
-1027 209 0
-1028 43 0
-1028 82 0
-1028 121 0
-1029 43 0
-1029 82 0
-1029 149 0
-1029 191 0
-1030 43 0
-1030 82 0
-1030 158 0
-1030 182 0
-1031 43 0
-1031 101 0
-1031 121 0
-1031 218 0
-1032 43 0
-1032 101 0
-1032 130 0
-1032 191 0
-1033 43 0
-1033 101 0
-1033 158 0
-1033 163 0
-1034 43 0
-1034 110 0
-1034 121 0
-1034 209 0
-1035 43 0
-1035 110 0
-1035 130 0
-1035 182 0
-1036 43 0
-1036 110 0
-1036 149 0
-1036 163 0
-1037 53 0
-1037 65 0
-1037 163 0
-1037 236 0
-1038 53 0
-1038 65 0
-1038 172 0
-1038 218 0
-1039 53 0
-1039 65 0
-1039 191 0
-1040 53 0
-1040 130 0
-1040 236 0
-1041 53 0
-1041 139 0
-1041 218 0
-1042 53 0
-1042 158 0
-1043 53 0
-1043 82 0
-1043 121 0
-1043 236 0
-1044 53 0
-1044 82 0
-1044 139 0
-1044 191 0
-1045 53 0
-1045 82 0
-1045 158 0
-1045 172 0
-1046 53 0
-1046 91 0
-1046 121 0
-1046 218 0
-1047 53 0
-1047 91 0
-1047 130 0
-1047 191 0
-1048 53 0
-1048 91 0
-1048 158 0
-1048 163 0
-1049 53 0
-1049 110 0
-1049 121 0
-1050 53 0
-1050 110 0
-1050 130 0
-1050 172 0
-1051 53 0
-1051 110 0
-1051 139 0
-1051 163 0
-1052 62 0
-1052 65 0
-1052 163 0
-1052 227 0
-1053 62 0
-1053 65 0
-1053 172 0
-1053 209 0
-1054 62 0
-1054 65 0
-1054 182 0
-1055 62 0
-1055 130 0
-1055 227 0
-1056 62 0
-1056 139 0
-1056 209 0
-1057 62 0
-1057 149 0
-1058 62 0
-1058 82 0
-1058 121 0
-1058 227 0
-1059 62 0
-1059 82 0
-1059 139 0
-1059 182 0
-1060 62 0
-1060 82 0
-1060 149 0
-1060 172 0
-1061 62 0
-1061 91 0
-1061 121 0
-1061 209 0
-1062 62 0
-1062 91 0
-1062 130 0
-1062 182 0
-1063 62 0
-1063 91 0
-1063 149 0
-1063 163 0
-1064 62 0
-1064 101 0
-1064 121 0
-1065 62 0
-1065 101 0
-1065 130 0
-1065 172 0
-1066 62 0
-1066 101 0
-1066 139 0
-1066 163 0
-17 -73 -199 -248 963 964 965 966 967 968 969 970 971 972 973 974 975 976 977 978 979 980 981 982 983 984 985 986 987 988 989 990 991 992 993 994 995 996 997 998 999 1000 1001 1002 1003 1004 1005 1006 1007 1008 1009 1010 1011 1012 1013 1014 1015 1016 1017 1018 1019 1020 1021 1022 1023 1024 1025 1026 1027 1028 1029 1030 1031 1032 1033 1034 1035 1036 1037 1038 1039 1040 1041 1042 1043 1044 1045 1046 1047 1048 1049 1050 1051 1052 1053 1054 1055 1056 1057 1058 1059 1060 1061 1062 1063 1064 1065 1066 0
-1067 5 0
-1067 120 0
-1068 5 0
-1068 120 0
-1068 209 0
-1068 236 0
-1069 5 0
-1069 120 0
-1069 218 0
-1069 227 0
-1070 5 0
-1070 127 0
-1070 178 0
-1071 5 0
-1071 127 0
-1071 188 0
-1071 236 0
-1072 5 0
-1072 127 0
-1072 197 0
-1072 227 0
-1073 5 0
-1073 136 0
-1073 169 0
-1074 5 0
-1074 136 0
-1074 188 0
-1074 218 0
-1075 5 0
-1075 136 0
-1075 197 0
-1075 209 0
-1076 5 0
-1076 146 0
-1076 169 0
-1076 236 0
-1077 5 0
-1077 146 0
-1077 178 0
-1077 218 0
-1078 5 0
-1078 146 0
-1078 197 0
-1079 5 0
-1079 155 0
-1079 169 0
-1079 227 0
-1080 5 0
-1080 155 0
-1080 178 0
-1080 209 0
-1081 5 0
-1081 155 0
-1081 188 0
-1082 209 0
-1082 236 0
-1083 218 0
-1083 227 0
-1084 85 0
-1084 178 0
-1085 85 0
-1085 188 0
-1085 236 0
-1086 85 0
-1086 197 0
-1086 227 0
-1087 94 0
-1087 169 0
-1088 94 0
-1088 188 0
-1088 218 0
-1089 94 0
-1089 197 0
-1089 209 0
-1090 104 0
-1090 169 0
-1090 236 0
-1091 104 0
-1091 178 0
-1091 218 0
-1092 104 0
-1092 197 0
-1093 113 0
-1093 169 0
-1093 227 0
-1094 113 0
-1094 178 0
-1094 209 0
-1095 113 0
-1095 188 0
-1096 24 0
-1096 67 0
-1097 24 0
-1097 67 0
-1097 209 0
-1097 236 0
-1098 24 0
-1098 67 0
-1098 218 0
-1098 227 0
-1099 24 0
-1099 85 0
-1099 136 0
-1100 24 0
-1100 85 0
-1100 146 0
-1100 236 0
-1101 24 0
-1101 85 0
-1101 155 0
-1101 227 0
-1102 24 0
-1102 94 0
-1102 127 0
-1103 24 0
-1103 94 0
-1103 146 0
-1103 218 0
-1104 24 0
-1104 94 0
-1104 155 0
-1104 209 0
-1105 24 0
-1105 104 0
-1105 127 0
-1105 236 0
-1106 24 0
-1106 104 0
-1106 136 0
-1106 218 0
-1107 24 0
-1107 104 0
-1107 155 0
-1108 24 0
-1108 113 0
-1108 127 0
-1108 227 0
-1109 24 0
-1109 113 0
-1109 136 0
-1109 209 0
-1110 24 0
-1110 113 0
-1110 146 0
-1111 31 0
-1111 67 0
-1111 178 0
-1112 31 0
-1112 67 0
-1112 188 0
-1112 236 0
-1113 31 0
-1113 67 0
-1113 197 0
-1113 227 0
-1114 31 0
-1114 136 0
-1115 31 0
-1115 146 0
-1115 236 0
-1116 31 0
-1116 155 0
-1116 227 0
-1117 31 0
-1117 94 0
-1117 120 0
-1118 31 0
-1118 94 0
-1118 146 0
-1118 197 0
-1119 31 0
-1119 94 0
-1119 155 0
-1119 188 0
-1120 31 0
-1120 104 0
-1120 120 0
-1120 236 0
-1121 31 0
-1121 104 0
-1121 136 0
-1121 197 0
-1122 31 0
-1122 104 0
-1122 155 0
-1122 178 0
-1123 31 0
-1123 113 0
-1123 120 0
-1123 227 0
-1124 31 0
-1124 113 0
-1124 136 0
-1124 188 0
-1125 31 0
-1125 113 0
-1125 146 0
-1125 178 0
-1126 40 0
-1126 67 0
-1126 169 0
-1127 40 0
-1127 67 0
-1127 188 0
-1127 218 0
-1128 40 0
-1128 67 0
-1128 197 0
-1128 209 0
-1129 40 0
-1129 127 0
-1130 40 0
-1130 146 0
-1130 218 0
-1131 40 0
-1131 155 0
-1131 209 0
-1132 40 0
-1132 85 0
-1132 120 0
-1133 40 0
-1133 85 0
-1133 146 0
-1133 197 0
-1134 40 0
-1134 85 0
-1134 155 0
-1134 188 0
-1135 40 0
-1135 104 0
-1135 120 0
-1135 218 0
-1136 40 0
-1136 104 0
-1136 127 0
-1136 197 0
-1137 40 0
-1137 104 0
-1137 155 0
-1137 169 0
-1138 40 0
-1138 113 0
-1138 120 0
-1138 209 0
-1139 40 0
-1139 113 0
-1139 127 0
-1139 188 0
-1140 40 0
-1140 113 0
-1140 146 0
-1140 169 0
-1141 50 0
-1141 67 0
-1141 169 0
-1141 236 0
-1142 50 0
-1142 67 0
-1142 178 0
-1142 218 0
-1143 50 0
-1143 67 0
-1143 197 0
-1144 50 0
-1144 127 0
-1144 236 0
-1145 50 0
-1145 136 0
-1145 218 0
-1146 50 0
-1146 155 0
-1147 50 0
-1147 85 0
-1147 120 0
-1147 236 0
-1148 50 0
-1148 85 0
-1148 136 0
-1148 197 0
-1149 50 0
-1149 85 0
-1149 155 0
-1149 178 0
-1150 50 0
-1150 94 0
-1150 120 0
-1150 218 0
-1151 50 0
-1151 94 0
-1151 127 0
-1151 197 0
-1152 50 0
-1152 94 0
-1152 155 0
-1152 169 0
-1153 50 0
-1153 113 0
-1153 120 0
-1154 50 0
-1154 113 0
-1154 127 0
-1154 178 0
-1155 50 0
-1155 113 0
-1155 136 0
-1155 169 0
-1156 59 0
-1156 67 0
-1156 169 0
-1156 227 0
-1157 59 0
-1157 67 0
-1157 178 0
-1157 209 0
-1158 59 0
-1158 67 0
-1158 188 0
-1159 59 0
-1159 127 0
-1159 227 0
-1160 59 0
-1160 136 0
-1160 209 0
-1161 59 0
-1161 146 0
-1162 59 0
-1162 85 0
-1162 120 0
-1162 227 0
-1163 59 0
-1163 85 0
-1163 136 0
-1163 188 0
-1164 59 0
-1164 85 0
-1164 146 0
-1164 178 0
-1165 59 0
-1165 94 0
-1165 120 0
-1165 209 0
-1166 59 0
-1166 94 0
-1166 127 0
-1166 188 0
-1167 59 0
-1167 94 0
-1167 146 0
-1167 169 0
-1168 59 0
-1168 104 0
-1168 120 0
-1169 59 0
-1169 104 0
-1169 127 0
-1169 178 0
-1170 59 0
-1170 104 0
-1170 136 0
-1170 169 0
-13 -78 -199 -248 1067 1068 1069 1070 1071 1072 1073 1074 1075 1076 1077 1078 1079 1080 1081 1082 1083 1084 1085 1086 1087 1088 1089 1090 1091 1092 1093 1094 1095 1096 1097 1098 1099 1100 1101 1102 1103 1104 1105 1106 1107 1108 1109 1110 1111 1112 1113 1114 1115 1116 1117 1118 1119 1120 1121 1122 1123 1124 1125 1126 1127 1128 1129 1130 1131 1132 1133 1134 1135 1136 1137 1138 1139 1140 1141 1142 1143 1144 1145 1146 1147 1148 1149 1150 1151 1152 1153 1154 1155 1156 1157 1158 1159 1160 1161 1162 1163 1164 1165 1166 1167 1168 1169 1170 0
-1171 8 0
-1171 123 0
-1171 202 0
-1172 8 0
-1172 123 0
-1172 212 0
-1172 236 0
-1173 8 0
-1173 123 0
-1173 221 0
-1173 227 0
-1174 8 0
-1174 131 0
-1174 178 0
-1175 8 0
-1175 131 0
-1175 188 0
-1175 236 0
-1176 8 0
-1176 131 0
-1176 197 0
-1176 227 0
-1177 8 0
-1177 139 0
-1178 8 0
-1178 139 0
-1178 188 0
-1178 221 0
-1179 8 0
-1179 139 0
-1179 197 0
-1179 212 0
-1180 8 0
-1180 149 0
-1180 236 0
-1181 8 0
-1181 149 0
-1181 178 0
-1181 221 0
-1182 8 0
-1182 149 0
-1182 197 0
-1182 202 0
-1183 8 0
-1183 158 0
-1183 227 0
-1184 8 0
-1184 158 0
-1184 178 0
-1184 212 0
-1185 8 0
-1185 158 0
-1185 188 0
-1185 202 0
-1186 17 0
-1186 78 0
-1186 202 0
-1187 17 0
-1187 78 0
-1187 212 0
-1187 236 0
-1188 17 0
-1188 78 0
-1188 221 0
-1188 227 0
-1189 17 0
-1189 86 0
-1189 178 0
-1190 17 0
-1190 86 0
-1190 188 0
-1190 236 0
-1191 17 0
-1191 86 0
-1191 197 0
-1191 227 0
-1192 17 0
-1192 94 0
-1193 17 0
-1193 94 0
-1193 188 0
-1193 221 0
-1194 17 0
-1194 94 0
-1194 197 0
-1194 212 0
-1195 17 0
-1195 104 0
-1195 236 0
-1196 17 0
-1196 104 0
-1196 178 0
-1196 221 0
-1197 17 0
-1197 104 0
-1197 197 0
-1197 202 0
-1198 17 0
-1198 113 0
-1198 227 0
-1199 17 0
-1199 113 0
-1199 178 0
-1199 212 0
-1200 17 0
-1200 113 0
-1200 188 0
-1200 202 0
-1201 27 0
-1201 202 0
-1202 27 0
-1202 212 0
-1202 236 0
-1203 27 0
-1203 221 0
-1203 227 0
-1204 27 0
-1204 86 0
-1204 139 0
-1205 27 0
-1205 86 0
-1205 149 0
-1205 236 0
-1206 27 0
-1206 86 0
-1206 158 0
-1206 227 0
-1207 27 0
-1207 94 0
-1207 131 0
-1208 27 0
-1208 94 0
-1208 149 0
-1208 221 0
-1209 27 0
-1209 94 0
-1209 158 0
-1209 212 0
-1210 27 0
-1210 104 0
-1210 131 0
-1210 236 0
-1211 27 0
-1211 104 0
-1211 139 0
-1211 221 0
-1212 27 0
-1212 104 0
-1212 158 0
-1212 202 0
-1213 27 0
-1213 113 0
-1213 131 0
-1213 227 0
-1214 27 0
-1214 113 0
-1214 139 0
-1214 212 0
-1215 27 0
-1215 113 0
-1215 149 0
-1215 202 0
-1216 35 0
-1216 178 0
-1217 35 0
-1217 188 0
-1217 236 0
-1218 35 0
-1218 197 0
-1218 227 0
-1219 35 0
-1219 78 0
-1219 139 0
-1220 35 0
-1220 78 0
-1220 149 0
-1220 236 0
-1221 35 0
-1221 78 0
-1221 158 0
-1221 227 0
-1222 35 0
-1222 94 0
-1222 123 0
-1223 35 0
-1223 94 0
-1223 149 0
-1223 197 0
-1224 35 0
-1224 94 0
-1224 158 0
-1224 188 0
-1225 35 0
-1225 104 0
-1225 123 0
-1225 236 0
-1226 35 0
-1226 104 0
-1226 139 0
-1226 197 0
-1227 35 0
-1227 104 0
-1227 158 0
-1227 178 0
-1228 35 0
-1228 113 0
-1228 123 0
-1228 227 0
-1229 35 0
-1229 113 0
-1229 139 0
-1229 188 0
-1230 35 0
-1230 113 0
-1230 149 0
-1230 178 0
-1231 188 0
-1231 221 0
-1232 197 0
-1232 212 0
-1233 78 0
-1233 131 0
-1234 78 0
-1234 149 0
-1234 221 0
-1235 78 0
-1235 158 0
-1235 212 0
-1236 86 0
-1236 123 0
-1237 86 0
-1237 149 0
-1237 197 0
-1238 86 0
-1238 158 0
-1238 188 0
-1239 104 0
-1239 123 0
-1239 221 0
-1240 104 0
-1240 131 0
-1240 197 0
-1241 104 0
-1241 158 0
-1242 113 0
-1242 123 0
-1242 212 0
-1243 113 0
-1243 131 0
-1243 188 0
-1244 113 0
-1244 149 0
-1245 53 0
-1245 236 0
-1246 53 0
-1246 178 0
-1246 221 0
-1247 53 0
-1247 197 0
-1247 202 0
-1248 53 0
-1248 78 0
-1248 131 0
-1248 236 0
-1249 53 0
-1249 78 0
-1249 139 0
-1249 221 0
-1250 53 0
-1250 78 0
-1250 158 0
-1250 202 0
-1251 53 0
-1251 86 0
-1251 123 0
-1251 236 0
-1252 53 0
-1252 86 0
-1252 139 0
-1252 197 0
-1253 53 0
-1253 86 0
-1253 158 0
-1253 178 0
-1254 53 0
-1254 94 0
-1254 123 0
-1254 221 0
-1255 53 0
-1255 94 0
-1255 131 0
-1255 197 0
-1256 53 0
-1256 94 0
-1256 158 0
-1257 53 0
-1257 113 0
-1257 123 0
-1257 202 0
-1258 53 0
-1258 113 0
-1258 131 0
-1258 178 0
-1259 53 0
-1259 113 0
-1259 139 0
-1260 62 0
-1260 227 0
-1261 62 0
-1261 178 0
-1261 212 0
-1262 62 0
-1262 188 0
-1262 202 0
-1263 62 0
-1263 78 0
-1263 131 0
-1263 227 0
-1264 62 0
-1264 78 0
-1264 139 0
-1264 212 0
-1265 62 0
-1265 78 0
-1265 149 0
-1265 202 0
-1266 62 0
-1266 86 0
-1266 123 0
-1266 227 0
-1267 62 0
-1267 86 0
-1267 139 0
-1267 188 0
-1268 62 0
-1268 86 0
-1268 149 0
-1268 178 0
-1269 62 0
-1269 94 0
-1269 123 0
-1269 212 0
-1270 62 0
-1270 94 0
-1270 131 0
-1270 188 0
-1271 62 0
-1271 94 0
-1271 149 0
-1272 62 0
-1272 104 0
-1272 123 0
-1272 202 0
-1273 62 0
-1273 104 0
-1273 131 0
-1273 178 0
-1274 62 0
-1274 104 0
-1274 139 0
-43 -68 -170 -248 1171 1172 1173 1174 1175 1176 1177 1178 1179 1180 1181 1182 1183 1184 1185 1186 1187 1188 1189 1190 1191 1192 1193 1194 1195 1196 1197 1198 1199 1200 1201 1202 1203 1204 1205 1206 1207 1208 1209 1210 1211 1212 1213 1214 1215 1216 1217 1218 1219 1220 1221 1222 1223 1224 1225 1226 1227 1228 1229 1230 1231 1232 1233 1234 1235 1236 1237 1238 1239 1240 1241 1242 1243 1244 1245 1246 1247 1248 1249 1250 1251 1252 1253 1254 1255 1256 1257 1258 1259 1260 1261 1262 1263 1264 1265 1266 1267 1268 1269 1270 1271 1272 1273 1274 0
-1275 5 0
-1275 122 0
-1275 202 0
-1276 5 0
-1276 122 0
-1276 212 0
-1276 236 0
-1277 5 0
-1277 122 0
-1277 221 0
-1277 227 0
-1278 5 0
-1278 131 0
-1279 5 0
-1279 131 0
-1279 185 0
-1279 236 0
-1280 5 0
-1280 131 0
-1280 194 0
-1280 227 0
-1281 5 0
-1281 139 0
-1281 167 0
-1282 5 0
-1282 139 0
-1282 185 0
-1282 221 0
-1283 5 0
-1283 139 0
-1283 194 0
-1283 212 0
-1284 5 0
-1284 149 0
-1284 167 0
-1284 236 0
-1285 5 0
-1285 149 0
-1285 221 0
-1286 5 0
-1286 149 0
-1286 194 0
-1286 202 0
-1287 5 0
-1287 158 0
-1287 167 0
-1287 227 0
-1288 5 0
-1288 158 0
-1288 212 0
-1289 5 0
-1289 158 0
-1289 185 0
-1289 202 0
-1290 14 0
-1290 77 0
-1290 202 0
-1291 14 0
-1291 77 0
-1291 212 0
-1291 236 0
-1292 14 0
-1292 77 0
-1292 221 0
-1292 227 0
-1293 14 0
-1293 86 0
-1294 14 0
-1294 86 0
-1294 185 0
-1294 236 0
-1295 14 0
-1295 86 0
-1295 194 0
-1295 227 0
-1296 14 0
-1296 94 0
-1296 167 0
-1297 14 0
-1297 94 0
-1297 185 0
-1297 221 0
-1298 14 0
-1298 94 0
-1298 194 0
-1298 212 0
-1299 14 0
-1299 104 0
-1299 167 0
-1299 236 0
-1300 14 0
-1300 104 0
-1300 221 0
-1301 14 0
-1301 104 0
-1301 194 0
-1301 202 0
-1302 14 0
-1302 113 0
-1302 167 0
-1302 227 0
-1303 14 0
-1303 113 0
-1303 212 0
-1304 14 0
-1304 113 0
-1304 185 0
-1304 202 0
-1305 23 0
-1305 202 0
-1306 23 0
-1306 212 0
-1306 236 0
-1307 23 0
-1307 221 0
-1307 227 0
-1308 23 0
-1308 86 0
-1308 139 0
-1309 23 0
-1309 86 0
-1309 149 0
-1309 236 0
-1310 23 0
-1310 86 0
-1310 158 0
-1310 227 0
-1311 23 0
-1311 94 0
-1311 131 0
-1312 23 0
-1312 94 0
-1312 149 0
-1312 221 0
-1313 23 0
-1313 94 0
-1313 158 0
-1313 212 0
-1314 23 0
-1314 104 0
-1314 131 0
-1314 236 0
-1315 23 0
-1315 104 0
-1315 139 0
-1315 221 0
-1316 23 0
-1316 104 0
-1316 158 0
-1316 202 0
-1317 23 0
-1317 113 0
-1317 131 0
-1317 227 0
-1318 23 0
-1318 113 0
-1318 139 0
-1318 212 0
-1319 23 0
-1319 113 0
-1319 149 0
-1319 202 0
-1320 185 0
-1320 236 0
-1321 194 0
-1321 227 0
-1322 77 0
-1322 139 0
-1323 77 0
-1323 149 0
-1323 236 0
-1324 77 0
-1324 158 0
-1324 227 0
-1325 94 0
-1325 122 0
-1326 94 0
-1326 149 0
-1326 194 0
-1327 94 0
-1327 158 0
-1327 185 0
-1328 104 0
-1328 122 0
-1328 236 0
-1329 104 0
-1329 139 0
-1329 194 0
-1330 104 0
-1330 158 0
-1331 113 0
-1331 122 0
-1331 227 0
-1332 113 0
-1332 139 0
-1332 185 0
-1333 113 0
-1333 149 0
-1334 40 0
-1334 167 0
-1335 40 0
-1335 185 0
-1335 221 0
-1336 40 0
-1336 194 0
-1336 212 0
-1337 40 0
-1337 77 0
-1337 131 0
-1338 40 0
-1338 77 0
-1338 149 0
-1338 221 0
-1339 40 0
-1339 77 0
-1339 158 0
-1339 212 0
-1340 40 0
-1340 86 0
-1340 122 0
-1341 40 0
-1341 86 0
-1341 149 0
-1341 194 0
-1342 40 0
-1342 86 0
-1342 158 0
-1342 185 0
-1343 40 0
-1343 104 0
-1343 122 0
-1343 221 0
-1344 40 0
-1344 104 0
-1344 131 0
-1344 194 0
-1345 40 0
-1345 104 0
-1345 158 0
-1345 167 0
-1346 40 0
-1346 113 0
-1346 122 0
-1346 212 0
-1347 40 0
-1347 113 0
-1347 131 0
-1347 185 0
-1348 40 0
-1348 113 0
-1348 149 0
-1348 167 0
-1349 50 0
-1349 167 0
-1349 236 0
-1350 50 0
-1350 221 0
-1351 50 0
-1351 194 0
-1351 202 0
-1352 50 0
-1352 77 0
-1352 131 0
-1352 236 0
-1353 50 0
-1353 77 0
-1353 139 0
-1353 221 0
-1354 50 0
-1354 77 0
-1354 158 0
-1354 202 0
-1355 50 0
-1355 86 0
-1355 122 0
-1355 236 0
-1356 50 0
-1356 86 0
-1356 139 0
-1356 194 0
-1357 50 0
-1357 86 0
-1357 158 0
-1358 50 0
-1358 94 0
-1358 122 0
-1358 221 0
-1359 50 0
-1359 94 0
-1359 131 0
-1359 194 0
-1360 50 0
-1360 94 0
-1360 158 0
-1360 167 0
-1361 50 0
-1361 113 0
-1361 122 0
-1361 202 0
-1362 50 0
-1362 113 0
-1362 131 0
-1363 50 0
-1363 113 0
-1363 139 0
-1363 167 0
-1364 59 0
-1364 167 0
-1364 227 0
-1365 59 0
-1365 212 0
-1366 59 0
-1366 185 0
-1366 202 0
-1367 59 0
-1367 77 0
-1367 131 0
-1367 227 0
-1368 59 0
-1368 77 0
-1368 139 0
-1368 212 0
-1369 59 0
-1369 77 0
-1369 149 0
-1369 202 0
-1370 59 0
-1370 86 0
-1370 122 0
-1370 227 0
-1371 59 0
-1371 86 0
-1371 139 0
-1371 185 0
-1372 59 0
-1372 86 0
-1372 149 0
-1373 59 0
-1373 94 0
-1373 122 0
-1373 212 0
-1374 59 0
-1374 94 0
-1374 131 0
-1374 185 0
-1375 59 0
-1375 94 0
-1375 149 0
-1375 167 0
-1376 59 0
-1376 104 0
-1376 122 0
-1376 202 0
-1377 59 0
-1377 104 0
-1377 131 0
-1378 59 0
-1378 104 0
-1378 139 0
-1378 167 0
-32 -68 -175 -248 1275 1276 1277 1278 1279 1280 1281 1282 1283 1284 1285 1286 1287 1288 1289 1290 1291 1292 1293 1294 1295 1296 1297 1298 1299 1300 1301 1302 1303 1304 1305 1306 1307 1308 1309 1310 1311 1312 1313 1314 1315 1316 1317 1318 1319 1320 1321 1322 1323 1324 1325 1326 1327 1328 1329 1330 1331 1332 1333 1334 1335 1336 1337 1338 1339 1340 1341 1342 1343 1344 1345 1346 1347 1348 1349 1350 1351 1352 1353 1354 1355 1356 1357 1358 1359 1360 1361 1362 1363 1364 1365 1366 1367 1368 1369 1370 1371 1372 1373 1374 1375 1376 1377 1378 0
-1379 200 0
-1379 244 0
-1380 217 0
-1380 229 0
-1381 127 0
-1381 173 0
-1381 244 0
-1382 127 0
-1382 181 0
-1383 127 0
-1383 190 0
-1383 229 0
-1384 137 0
-1384 163 0
-1384 244 0
-1385 137 0
-1385 181 0
-1385 217 0
-1386 137 0
-1386 190 0
-1387 145 0
-1387 163 0
-1388 145 0
-1388 173 0
-1388 217 0
-1389 145 0
-1389 190 0
-1389 200 0
-1390 154 0
-1390 163 0
-1390 229 0
-1391 154 0
-1391 173 0
-1392 154 0
-1392 181 0
-1392 200 0
-1393 10 0
-1393 73 0
-1393 200 0
-1393 244 0
-1394 10 0
-1394 73 0
-1395 10 0
-1395 73 0
-1395 217 0
-1395 229 0
-1396 10 0
-1396 82 0
-1396 173 0
-1396 244 0
-1397 10 0
-1397 82 0
-1397 181 0
-1398 10 0
-1398 82 0
-1398 190 0
-1398 229 0
-1399 10 0
-1399 92 0
-1399 163 0
-1399 244 0
-1400 10 0
-1400 92 0
-1400 181 0
-1400 217 0
-1401 10 0
-1401 92 0
-1401 190 0
-1402 10 0
-1402 100 0
-1402 163 0
-1403 10 0
-1403 100 0
-1403 173 0
-1403 217 0
-1404 10 0
-1404 100 0
-1404 190 0
-1404 200 0
-1405 10 0
-1405 109 0
-1405 163 0
-1405 229 0
-1406 10 0
-1406 109 0
-1406 173 0
-1407 10 0
-1407 109 0
-1407 181 0
-1407 200 0
-1408 19 0
-1408 64 0
-1408 200 0
-1408 244 0
-1409 19 0
-1409 64 0
-1410 19 0
-1410 64 0
-1410 217 0
-1410 229 0
-1411 19 0
-1411 82 0
-1411 137 0
-1411 244 0
-1412 19 0
-1412 82 0
-1412 145 0
-1413 19 0
-1413 82 0
-1413 154 0
-1413 229 0
-1414 19 0
-1414 92 0
-1414 127 0
-1414 244 0
-1415 19 0
-1415 92 0
-1415 145 0
-1415 217 0
-1416 19 0
-1416 92 0
-1416 154 0
-1417 19 0
-1417 100 0
-1417 127 0
-1418 19 0
-1418 100 0
-1418 137 0
-1418 217 0
-1419 19 0
-1419 100 0
-1419 154 0
-1419 200 0
-1420 19 0
-1420 109 0
-1420 127 0
-1420 229 0
-1421 19 0
-1421 109 0
-1421 137 0
-1422 19 0
-1422 109 0
-1422 145 0
-1422 200 0
-1423 28 0
-1423 64 0
-1423 173 0
-1423 244 0
-1424 28 0
-1424 64 0
-1424 181 0
-1425 28 0
-1425 64 0
-1425 190 0
-1425 229 0
-1426 28 0
-1426 73 0
-1426 137 0
-1426 244 0
-1427 28 0
-1427 73 0
-1427 145 0
-1428 28 0
-1428 73 0
-1428 154 0
-1428 229 0
-1429 28 0
-1429 92 0
-1429 244 0
-1430 28 0
-1430 92 0
-1430 145 0
-1430 190 0
-1431 28 0
-1431 92 0
-1431 154 0
-1431 181 0
-1432 28 0
-1432 100 0
-1433 28 0
-1433 100 0
-1433 137 0
-1433 190 0
-1434 28 0
-1434 100 0
-1434 154 0
-1434 173 0
-1435 28 0
-1435 109 0
-1435 229 0
-1436 28 0
-1436 109 0
-1436 137 0
-1436 181 0
-1437 28 0
-1437 109 0
-1437 145 0
-1437 173 0
-1438 38 0
-1438 64 0
-1438 163 0
-1438 244 0
-1439 38 0
-1439 64 0
-1439 181 0
-1439 217 0
-1440 38 0
-1440 64 0
-1440 190 0
-1441 38 0
-1441 73 0
-1441 127 0
-1441 244 0
-1442 38 0
-1442 73 0
-1442 145 0
-1442 217 0
-1443 38 0
-1443 73 0
-1443 154 0
-1444 38 0
-1444 82 0
-1444 244 0
-1445 38 0
-1445 82 0
-1445 145 0
-1445 190 0
-1446 38 0
-1446 82 0
-1446 154 0
-1446 181 0
-1447 38 0
-1447 100 0
-1447 217 0
-1448 38 0
-1448 100 0
-1448 127 0
-1448 190 0
-1449 38 0
-1449 100 0
-1449 154 0
-1449 163 0
-1450 38 0
-1450 109 0
-1451 38 0
-1451 109 0
-1451 127 0
-1451 181 0
-1452 38 0
-1452 109 0
-1452 145 0
-1452 163 0
-1453 46 0
-1453 64 0
-1453 163 0
-1454 46 0
-1454 64 0
-1454 173 0
-1454 217 0
-1455 46 0
-1455 64 0
-1455 190 0
-1455 200 0
-1456 46 0
-1456 73 0
-1456 127 0
-1457 46 0
-1457 73 0
-1457 137 0
-1457 217 0
-1458 46 0
-1458 73 0
-1458 154 0
-1458 200 0
-1459 46 0
-1459 82 0
-1460 46 0
-1460 82 0
-1460 137 0
-1460 190 0
-1461 46 0
-1461 82 0
-1461 154 0
-1461 173 0
-1462 46 0
-1462 92 0
-1462 217 0
-1463 46 0
-1463 92 0
-1463 127 0
-1463 190 0
-1464 46 0
-1464 92 0
-1464 154 0
-1464 163 0
-1465 46 0
-1465 109 0
-1465 200 0
-1466 46 0
-1466 109 0
-1466 127 0
-1466 173 0
-1467 46 0
-1467 109 0
-1467 137 0
-1467 163 0
-1468 55 0
-1468 64 0
-1468 163 0
-1468 229 0
-1469 55 0
-1469 64 0
-1469 173 0
-1470 55 0
-1470 64 0
-1470 181 0
-1470 200 0
-1471 55 0
-1471 73 0
-1471 127 0
-1471 229 0
-1472 55 0
-1472 73 0
-1472 137 0
-1473 55 0
-1473 73 0
-1473 145 0
-1473 200 0
-1474 55 0
-1474 82 0
-1474 229 0
-1475 55 0
-1475 82 0
-1475 137 0
-1475 181 0
-1476 55 0
-1476 82 0
-1476 145 0
-1476 173 0
-1477 55 0
-1477 92 0
-1478 55 0
-1478 92 0
-1478 127 0
-1478 181 0
-1479 55 0
-1479 92 0
-1479 145 0
-1479 163 0
-1480 55 0
-1480 100 0
-1480 200 0
-1481 55 0
-1481 100 0
-1481 127 0
-1481 173 0
-1482 55 0
-1482 100 0
-1482 137 0
-1482 163 0
-1 -118 -208 -238 1379 1380 1381 1382 1383 1384 1385 1386 1387 1388 1389 1390 1391 1392 1393 1394 1395 1396 1397 1398 1399 1400 1401 1402 1403 1404 1405 1406 1407 1408 1409 1410 1411 1412 1413 1414 1415 1416 1417 1418 1419 1420 1421 1422 1423 1424 1425 1426 1427 1428 1429 1430 1431 1432 1433 1434 1435 1436 1437 1438 1439 1440 1441 1442 1443 1444 1445 1446 1447 1448 1449 1450 1451 1452 1453 1454 1455 1456 1457 1458 1459 1460 1461 1462 1463 1464 1465 1466 1467 1468 1469 1470 1471 1472 1473 1474 1475 1476 1477 1478 1479 1480 1481 1482 0
-1483 202 0
-1483 244 0
-1484 220 0
-1484 226 0
-1485 128 0
-1485 172 0
-1485 244 0
-1486 128 0
-1486 181 0
-1487 128 0
-1487 190 0
-1487 226 0
-1488 136 0
-1488 164 0
-1488 244 0
-1489 136 0
-1489 181 0
-1489 220 0
-1490 136 0
-1490 190 0
-1491 145 0
-1491 164 0
-1492 145 0
-1492 172 0
-1492 220 0
-1493 145 0
-1493 190 0
-1493 202 0
-1494 154 0
-1494 164 0
-1494 226 0
-1495 154 0
-1495 172 0
-1496 154 0
-1496 181 0
-1496 202 0
-1497 10 0
-1497 73 0
-1497 202 0
-1497 244 0
-1498 10 0
-1498 73 0
-1499 10 0
-1499 73 0
-1499 220 0
-1499 226 0
-1500 10 0
-1500 83 0
-1500 172 0
-1500 244 0
-1501 10 0
-1501 83 0
-1501 181 0
-1502 10 0
-1502 83 0
-1502 190 0
-1502 226 0
-1503 10 0
-1503 91 0
-1503 164 0
-1503 244 0
-1504 10 0
-1504 91 0
-1504 181 0
-1504 220 0
-1505 10 0
-1505 91 0
-1505 190 0
-1506 10 0
-1506 100 0
-1506 164 0
-1507 10 0
-1507 100 0
-1507 172 0
-1507 220 0
-1508 10 0
-1508 100 0
-1508 190 0
-1508 202 0
-1509 10 0
-1509 109 0
-1509 164 0
-1509 226 0
-1510 10 0
-1510 109 0
-1510 172 0
-1511 10 0
-1511 109 0
-1511 181 0
-1511 202 0
-1512 19 0
-1512 64 0
-1512 202 0
-1512 244 0
-1513 19 0
-1513 64 0
-1514 19 0
-1514 64 0
-1514 220 0
-1514 226 0
-1515 19 0
-1515 83 0
-1515 136 0
-1515 244 0
-1516 19 0
-1516 83 0
-1516 145 0
-1517 19 0
-1517 83 0
-1517 154 0
-1517 226 0
-1518 19 0
-1518 91 0
-1518 128 0
-1518 244 0
-1519 19 0
-1519 91 0
-1519 145 0
-1519 220 0
-1520 19 0
-1520 91 0
-1520 154 0
-1521 19 0
-1521 100 0
-1521 128 0
-1522 19 0
-1522 100 0
-1522 136 0
-1522 220 0
-1523 19 0
-1523 100 0
-1523 154 0
-1523 202 0
-1524 19 0
-1524 109 0
-1524 128 0
-1524 226 0
-1525 19 0
-1525 109 0
-1525 136 0
-1526 19 0
-1526 109 0
-1526 145 0
-1526 202 0
-1527 29 0
-1527 64 0
-1527 172 0
-1527 244 0
-1528 29 0
-1528 64 0
-1528 181 0
-1529 29 0
-1529 64 0
-1529 190 0
-1529 226 0
-1530 29 0
-1530 73 0
-1530 136 0
-1530 244 0
-1531 29 0
-1531 73 0
-1531 145 0
-1532 29 0
-1532 73 0
-1532 154 0
-1532 226 0
-1533 29 0
-1533 91 0
-1533 244 0
-1534 29 0
-1534 91 0
-1534 145 0
-1534 190 0
-1535 29 0
-1535 91 0
-1535 154 0
-1535 181 0
-1536 29 0
-1536 100 0
-1537 29 0
-1537 100 0
-1537 136 0
-1537 190 0
-1538 29 0
-1538 100 0
-1538 154 0
-1538 172 0
-1539 29 0
-1539 109 0
-1539 226 0
-1540 29 0
-1540 109 0
-1540 136 0
-1540 181 0
-1541 29 0
-1541 109 0
-1541 145 0
-1541 172 0
-1542 37 0
-1542 64 0
-1542 164 0
-1542 244 0
-1543 37 0
-1543 64 0
-1543 181 0
-1543 220 0
-1544 37 0
-1544 64 0
-1544 190 0
-1545 37 0
-1545 73 0
-1545 128 0
-1545 244 0
-1546 37 0
-1546 73 0
-1546 145 0
-1546 220 0
-1547 37 0
-1547 73 0
-1547 154 0
-1548 37 0
-1548 83 0
-1548 244 0
-1549 37 0
-1549 83 0
-1549 145 0
-1549 190 0
-1550 37 0
-1550 83 0
-1550 154 0
-1550 181 0
-1551 37 0
-1551 100 0
-1551 220 0
-1552 37 0
-1552 100 0
-1552 128 0
-1552 190 0
-1553 37 0
-1553 100 0
-1553 154 0
-1553 164 0
-1554 37 0
-1554 109 0
-1555 37 0
-1555 109 0
-1555 128 0
-1555 181 0
-1556 37 0
-1556 109 0
-1556 145 0
-1556 164 0
-1557 46 0
-1557 64 0
-1557 164 0
-1558 46 0
-1558 64 0
-1558 172 0
-1558 220 0
-1559 46 0
-1559 64 0
-1559 190 0
-1559 202 0
-1560 46 0
-1560 73 0
-1560 128 0
-1561 46 0
-1561 73 0
-1561 136 0
-1561 220 0
-1562 46 0
-1562 73 0
-1562 154 0
-1562 202 0
-1563 46 0
-1563 83 0
-1564 46 0
-1564 83 0
-1564 136 0
-1564 190 0
-1565 46 0
-1565 83 0
-1565 154 0
-1565 172 0
-1566 46 0
-1566 91 0
-1566 220 0
-1567 46 0
-1567 91 0
-1567 128 0
-1567 190 0
-1568 46 0
-1568 91 0
-1568 154 0
-1568 164 0
-1569 46 0
-1569 109 0
-1569 202 0
-1570 46 0
-1570 109 0
-1570 128 0
-1570 172 0
-1571 46 0
-1571 109 0
-1571 136 0
-1571 164 0
-1572 55 0
-1572 64 0
-1572 164 0
-1572 226 0
-1573 55 0
-1573 64 0
-1573 172 0
-1574 55 0
-1574 64 0
-1574 181 0
-1574 202 0
-1575 55 0
-1575 73 0
-1575 128 0
-1575 226 0
-1576 55 0
-1576 73 0
-1576 136 0
-1577 55 0
-1577 73 0
-1577 145 0
-1577 202 0
-1578 55 0
-1578 83 0
-1578 226 0
-1579 55 0
-1579 83 0
-1579 136 0
-1579 181 0
-1580 55 0
-1580 83 0
-1580 145 0
-1580 172 0
-1581 55 0
-1581 91 0
-1582 55 0
-1582 91 0
-1582 128 0
-1582 181 0
-1583 55 0
-1583 91 0
-1583 145 0
-1583 164 0
-1584 55 0
-1584 100 0
-1584 202 0
-1585 55 0
-1585 100 0
-1585 128 0
-1585 172 0
-1586 55 0
-1586 100 0
-1586 136 0
-1586 164 0
-1 -118 -211 -235 1483 1484 1485 1486 1487 1488 1489 1490 1491 1492 1493 1494 1495 1496 1497 1498 1499 1500 1501 1502 1503 1504 1505 1506 1507 1508 1509 1510 1511 1512 1513 1514 1515 1516 1517 1518 1519 1520 1521 1522 1523 1524 1525 1526 1527 1528 1529 1530 1531 1532 1533 1534 1535 1536 1537 1538 1539 1540 1541 1542 1543 1544 1545 1546 1547 1548 1549 1550 1551 1552 1553 1554 1555 1556 1557 1558 1559 1560 1561 1562 1563 1564 1565 1566 1567 1568 1569 1570 1571 1572 1573 1574 1575 1576 1577 1578 1579 1580 1581 1582 1583 1584 1585 1586 0
-1587 5 0
-1587 119 0
-1587 202 0
-1588 5 0
-1588 119 0
-1588 212 0
-1588 236 0
-1589 5 0
-1589 119 0
-1589 221 0
-1589 227 0
-1590 5 0
-1590 128 0
-1590 175 0
-1591 5 0
-1591 128 0
-1591 185 0
-1591 236 0
-1592 5 0
-1592 128 0
-1592 194 0
-1592 227 0
-1593 5 0
-1593 136 0
-1594 5 0
-1594 136 0
-1594 185 0
-1594 221 0
-1595 5 0
-1595 136 0
-1595 194 0
-1595 212 0
-1596 5 0
-1596 146 0
-1596 236 0
-1597 5 0
-1597 146 0
-1597 175 0
-1597 221 0
-1598 5 0
-1598 146 0
-1598 194 0
-1598 202 0
-1599 5 0
-1599 155 0
-1599 227 0
-1600 5 0
-1600 155 0
-1600 175 0
-1600 212 0
-1601 5 0
-1601 155 0
-1601 185 0
-1601 202 0
-1602 77 0
-1602 202 0
-1603 77 0
-1603 212 0
-1603 236 0
-1604 77 0
-1604 221 0
-1604 227 0
-1605 86 0
-1605 175 0
-1606 86 0
-1606 185 0
-1606 236 0
-1607 86 0
-1607 194 0
-1607 227 0
-1608 185 0
-1608 221 0
-1609 194 0
-1609 212 0
-1610 104 0
-1610 236 0
-1611 104 0
-1611 175 0
-1611 221 0
-1612 104 0
-1612 194 0
-1612 202 0
-1613 113 0
-1613 227 0
-1614 113 0
-1614 175 0
-1614 212 0
-1615 113 0
-1615 185 0
-1615 202 0
-1616 23 0
-1616 67 0
-1616 202 0
-1617 23 0
-1617 67 0
-1617 212 0
-1617 236 0
-1618 23 0
-1618 67 0
-1618 221 0
-1618 227 0
-1619 23 0
-1619 86 0
-1619 136 0
-1620 23 0
-1620 86 0
-1620 146 0
-1620 236 0
-1621 23 0
-1621 86 0
-1621 155 0
-1621 227 0
-1622 23 0
-1622 128 0
-1623 23 0
-1623 146 0
-1623 221 0
-1624 23 0
-1624 155 0
-1624 212 0
-1625 23 0
-1625 104 0
-1625 128 0
-1625 236 0
-1626 23 0
-1626 104 0
-1626 136 0
-1626 221 0
-1627 23 0
-1627 104 0
-1627 155 0
-1627 202 0
-1628 23 0
-1628 113 0
-1628 128 0
-1628 227 0
-1629 23 0
-1629 113 0
-1629 136 0
-1629 212 0
-1630 23 0
-1630 113 0
-1630 146 0
-1630 202 0
-1631 32 0
-1631 67 0
-1631 175 0
-1632 32 0
-1632 67 0
-1632 185 0
-1632 236 0
-1633 32 0
-1633 67 0
-1633 194 0
-1633 227 0
-1634 32 0
-1634 77 0
-1634 136 0
-1635 32 0
-1635 77 0
-1635 146 0
-1635 236 0
-1636 32 0
-1636 77 0
-1636 155 0
-1636 227 0
-1637 32 0
-1637 119 0
-1638 32 0
-1638 146 0
-1638 194 0
-1639 32 0
-1639 155 0
-1639 185 0
-1640 32 0
-1640 104 0
-1640 119 0
-1640 236 0
-1641 32 0
-1641 104 0
-1641 136 0
-1641 194 0
-1642 32 0
-1642 104 0
-1642 155 0
-1642 175 0
-1643 32 0
-1643 113 0
-1643 119 0
-1643 227 0
-1644 32 0
-1644 113 0
-1644 136 0
-1644 185 0
-1645 32 0
-1645 113 0
-1645 146 0
-1645 175 0
-1646 40 0
-1646 67 0
-1647 40 0
-1647 67 0
-1647 185 0
-1647 221 0
-1648 40 0
-1648 67 0
-1648 194 0
-1648 212 0
-1649 40 0
-1649 77 0
-1649 128 0
-1650 40 0
-1650 77 0
-1650 146 0
-1650 221 0
-1651 40 0
-1651 77 0
-1651 155 0
-1651 212 0
-1652 40 0
-1652 86 0
-1652 119 0
-1653 40 0
-1653 86 0
-1653 146 0
-1653 194 0
-1654 40 0
-1654 86 0
-1654 155 0
-1654 185 0
-1655 40 0
-1655 104 0
-1655 119 0
-1655 221 0
-1656 40 0
-1656 104 0
-1656 128 0
-1656 194 0
-1657 40 0
-1657 104 0
-1657 155 0
-1658 40 0
-1658 113 0
-1658 119 0
-1658 212 0
-1659 40 0
-1659 113 0
-1659 128 0
-1659 185 0
-1660 40 0
-1660 113 0
-1660 146 0
-1661 50 0
-1661 67 0
-1661 236 0
-1662 50 0
-1662 67 0
-1662 175 0
-1662 221 0
-1663 50 0
-1663 67 0
-1663 194 0
-1663 202 0
-1664 50 0
-1664 77 0
-1664 128 0
-1664 236 0
-1665 50 0
-1665 77 0
-1665 136 0
-1665 221 0
-1666 50 0
-1666 77 0
-1666 155 0
-1666 202 0
-1667 50 0
-1667 86 0
-1667 119 0
-1667 236 0
-1668 50 0
-1668 86 0
-1668 136 0
-1668 194 0
-1669 50 0
-1669 86 0
-1669 155 0
-1669 175 0
-1670 50 0
-1670 119 0
-1670 221 0
-1671 50 0
-1671 128 0
-1671 194 0
-1672 50 0
-1672 155 0
-1673 50 0
-1673 113 0
-1673 119 0
-1673 202 0
-1674 50 0
-1674 113 0
-1674 128 0
-1674 175 0
-1675 50 0
-1675 113 0
-1675 136 0
-1676 59 0
-1676 67 0
-1676 227 0
-1677 59 0
-1677 67 0
-1677 175 0
-1677 212 0
-1678 59 0
-1678 67 0
-1678 185 0
-1678 202 0
-1679 59 0
-1679 77 0
-1679 128 0
-1679 227 0
-1680 59 0
-1680 77 0
-1680 136 0
-1680 212 0
-1681 59 0
-1681 77 0
-1681 146 0
-1681 202 0
-1682 59 0
-1682 86 0
-1682 119 0
-1682 227 0
-1683 59 0
-1683 86 0
-1683 136 0
-1683 185 0
-1684 59 0
-1684 86 0
-1684 146 0
-1684 175 0
-1685 59 0
-1685 119 0
-1685 212 0
-1686 59 0
-1686 128 0
-1686 185 0
-1687 59 0
-1687 146 0
-1688 59 0
-1688 104 0
-1688 119 0
-1688 202 0
-1689 59 0
-1689 104 0
-1689 128 0
-1689 175 0
-1690 59 0
-1690 104 0
-1690 136 0
-13 -94 -167 -248 1587 1588 1589 1590 1591 1592 1593 1594 1595 1596 1597 1598 1599 1600 1601 1602 1603 1604 1605 1606 1607 1608 1609 1610 1611 1612 1613 1614 1615 1616 1617 1618 1619 1620 1621 1622 1623 1624 1625 1626 1627 1628 1629 1630 1631 1632 1633 1634 1635 1636 1637 1638 1639 1640 1641 1642 1643 1644 1645 1646 1647 1648 1649 1650 1651 1652 1653 1654 1655 1656 1657 1658 1659 1660 1661 1662 1663 1664 1665 1666 1667 1668 1669 1670 1671 1672 1673 1674 1675 1676 1677 1678 1679 1680 1681 1682 1683 1684 1685 1686 1687 1688 1689 1690 0
-1691 5 0
-1691 202 0
-1692 5 0
-1692 212 0
-1692 236 0
-1693 5 0
-1693 221 0
-1693 227 0
-1694 5 0
-1694 128 0
-1694 172 0
-1695 5 0
-1695 128 0
-1695 182 0
-1695 236 0
-1696 5 0
-1696 128 0
-1696 191 0
-1696 227 0
-1697 5 0
-1697 136 0
-1697 164 0
-1698 5 0
-1698 136 0
-1698 182 0
-1698 221 0
-1699 5 0
-1699 136 0
-1699 191 0
-1699 212 0
-1700 5 0
-1700 146 0
-1700 164 0
-1700 236 0
-1701 5 0
-1701 146 0
-1701 172 0
-1701 221 0
-1702 5 0
-1702 146 0
-1702 191 0
-1702 202 0
-1703 5 0
-1703 155 0
-1703 164 0
-1703 227 0
-1704 5 0
-1704 155 0
-1704 172 0
-1704 212 0
-1705 5 0
-1705 155 0
-1705 182 0
-1705 202 0
-1706 13 0
-1706 76 0
-1706 202 0
-1707 13 0
-1707 76 0
-1707 212 0
-1707 236 0
-1708 13 0
-1708 76 0
-1708 221 0
-1708 227 0
-1709 13 0
-1709 86 0
-1709 172 0
-1710 13 0
-1710 86 0
-1710 182 0
-1710 236 0
-1711 13 0
-1711 86 0
-1711 191 0
-1711 227 0
-1712 13 0
-1712 164 0
-1713 13 0
-1713 182 0
-1713 221 0
-1714 13 0
-1714 191 0
-1714 212 0
-1715 13 0
-1715 104 0
-1715 164 0
-1715 236 0
-1716 13 0
-1716 104 0
-1716 172 0
-1716 221 0
-1717 13 0
-1717 104 0
-1717 191 0
-1717 202 0
-1718 13 0
-1718 113 0
-1718 164 0
-1718 227 0
-1719 13 0
-1719 113 0
-1719 172 0
-1719 212 0
-1720 13 0
-1720 113 0
-1720 182 0
-1720 202 0
-1721 22 0
-1721 67 0
-1721 202 0
-1722 22 0
-1722 67 0
-1722 212 0
-1722 236 0
-1723 22 0
-1723 67 0
-1723 221 0
-1723 227 0
-1724 22 0
-1724 86 0
-1724 136 0
-1725 22 0
-1725 86 0
-1725 146 0
-1725 236 0
-1726 22 0
-1726 86 0
-1726 155 0
-1726 227 0
-1727 22 0
-1727 128 0
-1728 22 0
-1728 146 0
-1728 221 0
-1729 22 0
-1729 155 0
-1729 212 0
-1730 22 0
-1730 104 0
-1730 128 0
-1730 236 0
-1731 22 0
-1731 104 0
-1731 136 0
-1731 221 0
-1732 22 0
-1732 104 0
-1732 155 0
-1732 202 0
-1733 22 0
-1733 113 0
-1733 128 0
-1733 227 0
-1734 22 0
-1734 113 0
-1734 136 0
-1734 212 0
-1735 22 0
-1735 113 0
-1735 146 0
-1735 202 0
-1736 67 0
-1736 172 0
-1737 67 0
-1737 182 0
-1737 236 0
-1738 67 0
-1738 191 0
-1738 227 0
-1739 76 0
-1739 136 0
-1740 76 0
-1740 146 0
-1740 236 0
-1741 76 0
-1741 155 0
-1741 227 0
-1742 146 0
-1742 191 0
-1743 155 0
-1743 182 0
-1744 104 0
-1744 236 0
-1745 104 0
-1745 136 0
-1745 191 0
-1746 104 0
-1746 155 0
-1746 172 0
-1747 113 0
-1747 227 0
-1748 113 0
-1748 136 0
-1748 182 0
-1749 113 0
-1749 146 0
-1749 172 0
-1750 40 0
-1750 67 0
-1750 164 0
-1751 40 0
-1751 67 0
-1751 182 0
-1751 221 0
-1752 40 0
-1752 67 0
-1752 191 0
-1752 212 0
-1753 40 0
-1753 76 0
-1753 128 0
-1754 40 0
-1754 76 0
-1754 146 0
-1754 221 0
-1755 40 0
-1755 76 0
-1755 155 0
-1755 212 0
-1756 40 0
-1756 86 0
-1757 40 0
-1757 86 0
-1757 146 0
-1757 191 0
-1758 40 0
-1758 86 0
-1758 155 0
-1758 182 0
-1759 40 0
-1759 104 0
-1759 221 0
-1760 40 0
-1760 104 0
-1760 128 0
-1760 191 0
-1761 40 0
-1761 104 0
-1761 155 0
-1761 164 0
-1762 40 0
-1762 113 0
-1762 212 0
-1763 40 0
-1763 113 0
-1763 128 0
-1763 182 0
-1764 40 0
-1764 113 0
-1764 146 0
-1764 164 0
-1765 50 0
-1765 67 0
-1765 164 0
-1765 236 0
-1766 50 0
-1766 67 0
-1766 172 0
-1766 221 0
-1767 50 0
-1767 67 0
-1767 191 0
-1767 202 0
-1768 50 0
-1768 76 0
-1768 128 0
-1768 236 0
-1769 50 0
-1769 76 0
-1769 136 0
-1769 221 0
-1770 50 0
-1770 76 0
-1770 155 0
-1770 202 0
-1771 50 0
-1771 86 0
-1771 236 0
-1772 50 0
-1772 86 0
-1772 136 0
-1772 191 0
-1773 50 0
-1773 86 0
-1773 155 0
-1773 172 0
-1774 50 0
-1774 221 0
-1775 50 0
-1775 128 0
-1775 191 0
-1776 50 0
-1776 155 0
-1776 164 0
-1777 50 0
-1777 113 0
-1777 202 0
-1778 50 0
-1778 113 0
-1778 128 0
-1778 172 0
-1779 50 0
-1779 113 0
-1779 136 0
-1779 164 0
-1780 59 0
-1780 67 0
-1780 164 0
-1780 227 0
-1781 59 0
-1781 67 0
-1781 172 0
-1781 212 0
-1782 59 0
-1782 67 0
-1782 182 0
-1782 202 0
-1783 59 0
-1783 76 0
-1783 128 0
-1783 227 0
-1784 59 0
-1784 76 0
-1784 136 0
-1784 212 0
-1785 59 0
-1785 76 0
-1785 146 0
-1785 202 0
-1786 59 0
-1786 86 0
-1786 227 0
-1787 59 0
-1787 86 0
-1787 136 0
-1787 182 0
-1788 59 0
-1788 86 0
-1788 146 0
-1788 172 0
-1789 59 0
-1789 212 0
-1790 59 0
-1790 128 0
-1790 182 0
-1791 59 0
-1791 146 0
-1791 164 0
-1792 59 0
-1792 104 0
-1792 202 0
-1793 59 0
-1793 104 0
-1793 128 0
-1793 172 0
-1794 59 0
-1794 104 0
-1794 136 0
-1794 164 0
-32 -94 -118 -248 1691 1692 1693 1694 1695 1696 1697 1698 1699 1700 1701 1702 1703 1704 1705 1706 1707 1708 1709 1710 1711 1712 1713 1714 1715 1716 1717 1718 1719 1720 1721 1722 1723 1724 1725 1726 1727 1728 1729 1730 1731 1732 1733 1734 1735 1736 1737 1738 1739 1740 1741 1742 1743 1744 1745 1746 1747 1748 1749 1750 1751 1752 1753 1754 1755 1756 1757 1758 1759 1760 1761 1762 1763 1764 1765 1766 1767 1768 1769 1770 1771 1772 1773 1774 1775 1776 1777 1778 1779 1780 1781 1782 1783 1784 1785 1786 1787 1788 1789 1790 1791 1792 1793 1794 0
-1795 4 0
-1795 119 0
-1795 200 0
-1795 246 0
-1796 4 0
-1796 119 0
-1796 240 0
-1797 4 0
-1797 119 0
-1797 219 0
-1797 229 0
-1798 4 0
-1798 127 0
-1798 246 0
-1799 4 0
-1799 127 0
-1799 184 0
-1799 240 0
-1800 4 0
-1800 127 0
-1800 195 0
-1800 229 0
-1801 4 0
-1801 137 0
-1801 166 0
-1801 246 0
-1802 4 0
-1802 137 0
-1802 184 0
-1802 219 0
-1803 4 0
-1803 137 0
-1803 195 0
-1804 4 0
-1804 145 0
-1804 166 0
-1804 240 0
-1805 4 0
-1805 145 0
-1805 219 0
-1806 4 0
-1806 145 0
-1806 195 0
-1806 200 0
-1807 4 0
-1807 156 0
-1807 166 0
-1807 229 0
-1808 4 0
-1808 156 0
-1809 4 0
-1809 156 0
-1809 184 0
-1809 200 0
-1810 74 0
-1810 200 0
-1810 246 0
-1811 74 0
-1811 240 0
-1812 74 0
-1812 219 0
-1812 229 0
-1813 82 0
-1813 246 0
-1814 82 0
-1814 184 0
-1814 240 0
-1815 82 0
-1815 195 0
-1815 229 0
-1816 92 0
-1816 166 0
-1816 246 0
-1817 92 0
-1817 184 0
-1817 219 0
-1818 92 0
-1818 195 0
-1819 100 0
-1819 166 0
-1819 240 0
-1820 100 0
-1820 219 0
-1821 100 0
-1821 195 0
-1821 200 0
-1822 166 0
-1822 229 0
-1823 184 0
-1823 200 0
-1824 23 0
-1824 64 0
-1824 200 0
-1824 246 0
-1825 23 0
-1825 64 0
-1825 240 0
-1826 23 0
-1826 64 0
-1826 219 0
-1826 229 0
-1827 23 0
-1827 82 0
-1827 137 0
-1827 246 0
-1828 23 0
-1828 82 0
-1828 145 0
-1828 240 0
-1829 23 0
-1829 82 0
-1829 156 0
-1829 229 0
-1830 23 0
-1830 92 0
-1830 127 0
-1830 246 0
-1831 23 0
-1831 92 0
-1831 145 0
-1831 219 0
-1832 23 0
-1832 92 0
-1832 156 0
-1833 23 0
-1833 100 0
-1833 127 0
-1833 240 0
-1834 23 0
-1834 100 0
-1834 137 0
-1834 219 0
-1835 23 0
-1835 100 0
-1835 156 0
-1835 200 0
-1836 23 0
-1836 127 0
-1836 229 0
-1837 23 0
-1837 137 0
-1838 23 0
-1838 145 0
-1838 200 0
-1839 31 0
-1839 64 0
-1839 246 0
-1840 31 0
-1840 64 0
-1840 184 0
-1840 240 0
-1841 31 0
-1841 64 0
-1841 195 0
-1841 229 0
-1842 31 0
-1842 74 0
-1842 137 0
-1842 246 0
-1843 31 0
-1843 74 0
-1843 145 0
-1843 240 0
-1844 31 0
-1844 74 0
-1844 156 0
-1844 229 0
-1845 31 0
-1845 92 0
-1845 119 0
-1845 246 0
-1846 31 0
-1846 92 0
-1846 145 0
-1846 195 0
-1847 31 0
-1847 92 0
-1847 156 0
-1847 184 0
-1848 31 0
-1848 100 0
-1848 119 0
-1848 240 0
-1849 31 0
-1849 100 0
-1849 137 0
-1849 195 0
-1850 31 0
-1850 100 0
-1850 156 0
-1851 31 0
-1851 119 0
-1851 229 0
-1852 31 0
-1852 137 0
-1852 184 0
-1853 31 0
-1853 145 0
-1854 41 0
-1854 64 0
-1854 166 0
-1854 246 0
-1855 41 0
-1855 64 0
-1855 184 0
-1855 219 0
-1856 41 0
-1856 64 0
-1856 195 0
-1857 41 0
-1857 74 0
-1857 127 0
-1857 246 0
-1858 41 0
-1858 74 0
-1858 145 0
-1858 219 0
-1859 41 0
-1859 74 0
-1859 156 0
-1860 41 0
-1860 82 0
-1860 119 0
-1860 246 0
-1861 41 0
-1861 82 0
-1861 145 0
-1861 195 0
-1862 41 0
-1862 82 0
-1862 156 0
-1862 184 0
-1863 41 0
-1863 100 0
-1863 119 0
-1863 219 0
-1864 41 0
-1864 100 0
-1864 127 0
-1864 195 0
-1865 41 0
-1865 100 0
-1865 156 0
-1865 166 0
-1866 41 0
-1866 119 0
-1867 41 0
-1867 127 0
-1867 184 0
-1868 41 0
-1868 145 0
-1868 166 0
-1869 49 0
-1869 64 0
-1869 166 0
-1869 240 0
-1870 49 0
-1870 64 0
-1870 219 0
-1871 49 0
-1871 64 0
-1871 195 0
-1871 200 0
-1872 49 0
-1872 74 0
-1872 127 0
-1872 240 0
-1873 49 0
-1873 74 0
-1873 137 0
-1873 219 0
-1874 49 0
-1874 74 0
-1874 156 0
-1874 200 0
-1875 49 0
-1875 82 0
-1875 119 0
-1875 240 0
-1876 49 0
-1876 82 0
-1876 137 0
-1876 195 0
-1877 49 0
-1877 82 0
-1877 156 0
-1878 49 0
-1878 92 0
-1878 119 0
-1878 219 0
-1879 49 0
-1879 92 0
-1879 127 0
-1879 195 0
-1880 49 0
-1880 92 0
-1880 156 0
-1880 166 0
-1881 49 0
-1881 119 0
-1881 200 0
-1882 49 0
-1882 127 0
-1883 49 0
-1883 137 0
-1883 166 0
-1884 60 0
-1884 64 0
-1884 166 0
-1884 229 0
-1885 60 0
-1885 64 0
-1886 60 0
-1886 64 0
-1886 184 0
-1886 200 0
-1887 60 0
-1887 74 0
-1887 127 0
-1887 229 0
-1888 60 0
-1888 74 0
-1888 137 0
-1889 60 0
-1889 74 0
-1889 145 0
-1889 200 0
-1890 60 0
-1890 82 0
-1890 119 0
-1890 229 0
-1891 60 0
-1891 82 0
-1891 137 0
-1891 184 0
-1892 60 0
-1892 82 0
-1892 145 0
-1893 60 0
-1893 92 0
-1893 119 0
-1894 60 0
-1894 92 0
-1894 127 0
-1894 184 0
-1895 60 0
-1895 92 0
-1895 145 0
-1895 166 0
-1896 60 0
-1896 100 0
-1896 119 0
-1896 200 0
-1897 60 0
-1897 100 0
-1897 127 0
-1898 60 0
-1898 100 0
-1898 137 0
-1898 166 0
-13 -111 -176 -208 1795 1796 1797 1798 1799 1800 1801 1802 1803 1804 1805 1806 1807 1808 1809 1810 1811 1812 1813 1814 1815 1816 1817 1818 1819 1820 1821 1822 1823 1824 1825 1826 1827 1828 1829 1830 1831 1832 1833 1834 1835 1836 1837 1838 1839 1840 1841 1842 1843 1844 1845 1846 1847 1848 1849 1850 1851 1852 1853 1854 1855 1856 1857 1858 1859 1860 1861 1862 1863 1864 1865 1866 1867 1868 1869 1870 1871 1872 1873 1874 1875 1876 1877 1878 1879 1880 1881 1882 1883 1884 1885 1886 1887 1888 1889 1890 1891 1892 1893 1894 1895 1896 1897 1898 0
-1899 5 0
-1899 200 0
-1900 5 0
-1900 209 0
-1900 239 0
-1901 5 0
-1901 218 0
-1901 230 0
-1902 5 0
-1902 127 0
-1902 173 0
-1903 5 0
-1903 127 0
-1903 182 0
-1903 239 0
-1904 5 0
-1904 127 0
-1904 191 0
-1904 230 0
-1905 5 0
-1905 137 0
-1905 163 0
-1906 5 0
-1906 137 0
-1906 182 0
-1906 218 0
-1907 5 0
-1907 137 0
-1907 191 0
-1907 209 0
-1908 5 0
-1908 146 0
-1908 163 0
-1908 239 0
-1909 5 0
-1909 146 0
-1909 173 0
-1909 218 0
-1910 5 0
-1910 146 0
-1910 191 0
-1910 200 0
-1911 5 0
-1911 155 0
-1911 163 0
-1911 230 0
-1912 5 0
-1912 155 0
-1912 173 0
-1912 209 0
-1913 5 0
-1913 155 0
-1913 182 0
-1913 200 0
-1914 13 0
-1914 76 0
-1914 200 0
-1915 13 0
-1915 76 0
-1915 209 0
-1915 239 0
-1916 13 0
-1916 76 0
-1916 218 0
-1916 230 0
-1917 13 0
-1917 173 0
-1918 13 0
-1918 182 0
-1918 239 0
-1919 13 0
-1919 191 0
-1919 230 0
-1920 13 0
-1920 95 0
-1920 163 0
-1921 13 0
-1921 95 0
-1921 182 0
-1921 218 0
-1922 13 0
-1922 95 0
-1922 191 0
-1922 209 0
-1923 13 0
-1923 104 0
-1923 163 0
-1923 239 0
-1924 13 0
-1924 104 0
-1924 173 0
-1924 218 0
-1925 13 0
-1925 104 0
-1925 191 0
-1925 200 0
-1926 13 0
-1926 113 0
-1926 163 0
-1926 230 0
-1927 13 0
-1927 113 0
-1927 173 0
-1927 209 0
-1928 13 0
-1928 113 0
-1928 182 0
-1928 200 0
-1929 22 0
-1929 67 0
-1929 200 0
-1930 22 0
-1930 67 0
-1930 209 0
-1930 239 0
-1931 22 0
-1931 67 0
-1931 218 0
-1931 230 0
-1932 22 0
-1932 137 0
-1933 22 0
-1933 146 0
-1933 239 0
-1934 22 0
-1934 155 0
-1934 230 0
-1935 22 0
-1935 95 0
-1935 127 0
-1936 22 0
-1936 95 0
-1936 146 0
-1936 218 0
-1937 22 0
-1937 95 0
-1937 155 0
-1937 209 0
-1938 22 0
-1938 104 0
-1938 127 0
-1938 239 0
-1939 22 0
-1939 104 0
-1939 137 0
-1939 218 0
-1940 22 0
-1940 104 0
-1940 155 0
-1940 200 0
-1941 22 0
-1941 113 0
-1941 127 0
-1941 230 0
-1942 22 0
-1942 113 0
-1942 137 0
-1942 209 0
-1943 22 0
-1943 113 0
-1943 146 0
-1943 200 0
-1944 31 0
-1944 67 0
-1944 173 0
-1945 31 0
-1945 67 0
-1945 182 0
-1945 239 0
-1946 31 0
-1946 67 0
-1946 191 0
-1946 230 0
-1947 31 0
-1947 76 0
-1947 137 0
-1948 31 0
-1948 76 0
-1948 146 0
-1948 239 0
-1949 31 0
-1949 76 0
-1949 155 0
-1949 230 0
-1950 31 0
-1950 95 0
-1951 31 0
-1951 95 0
-1951 146 0
-1951 191 0
-1952 31 0
-1952 95 0
-1952 155 0
-1952 182 0
-1953 31 0
-1953 104 0
-1953 239 0
-1954 31 0
-1954 104 0
-1954 137 0
-1954 191 0
-1955 31 0
-1955 104 0
-1955 155 0
-1955 173 0
-1956 31 0
-1956 113 0
-1956 230 0
-1957 31 0
-1957 113 0
-1957 137 0
-1957 182 0
-1958 31 0
-1958 113 0
-1958 146 0
-1958 173 0
-1959 67 0
-1959 163 0
-1960 67 0
-1960 182 0
-1960 218 0
-1961 67 0
-1961 191 0
-1961 209 0
-1962 76 0
-1962 127 0
-1963 76 0
-1963 146 0
-1963 218 0
-1964 76 0
-1964 155 0
-1964 209 0
-1965 146 0
-1965 191 0
-1966 155 0
-1966 182 0
-1967 104 0
-1967 218 0
-1968 104 0
-1968 127 0
-1968 191 0
-1969 104 0
-1969 155 0
-1969 163 0
-1970 113 0
-1970 209 0
-1971 113 0
-1971 127 0
-1971 182 0
-1972 113 0
-1972 146 0
-1972 163 0
-1973 50 0
-1973 67 0
-1973 163 0
-1973 239 0
-1974 50 0
-1974 67 0
-1974 173 0
-1974 218 0
-1975 50 0
-1975 67 0
-1975 191 0
-1975 200 0
-1976 50 0
-1976 76 0
-1976 127 0
-1976 239 0
-1977 50 0
-1977 76 0
-1977 137 0
-1977 218 0
-1978 50 0
-1978 76 0
-1978 155 0
-1978 200 0
-1979 50 0
-1979 239 0
-1980 50 0
-1980 137 0
-1980 191 0
-1981 50 0
-1981 155 0
-1981 173 0
-1982 50 0
-1982 95 0
-1982 218 0
-1983 50 0
-1983 95 0
-1983 127 0
-1983 191 0
-1984 50 0
-1984 95 0
-1984 155 0
-1984 163 0
-1985 50 0
-1985 113 0
-1985 200 0
-1986 50 0
-1986 113 0
-1986 127 0
-1986 173 0
-1987 50 0
-1987 113 0
-1987 137 0
-1987 163 0
-1988 59 0
-1988 67 0
-1988 163 0
-1988 230 0
-1989 59 0
-1989 67 0
-1989 173 0
-1989 209 0
-1990 59 0
-1990 67 0
-1990 182 0
-1990 200 0
-1991 59 0
-1991 76 0
-1991 127 0
-1991 230 0
-1992 59 0
-1992 76 0
-1992 137 0
-1992 209 0
-1993 59 0
-1993 76 0
-1993 146 0
-1993 200 0
-1994 59 0
-1994 230 0
-1995 59 0
-1995 137 0
-1995 182 0
-1996 59 0
-1996 146 0
-1996 173 0
-1997 59 0
-1997 95 0
-1997 209 0
-1998 59 0
-1998 95 0
-1998 127 0
-1998 182 0
-1999 59 0
-1999 95 0
-1999 146 0
-1999 163 0
-2000 59 0
-2000 104 0
-2000 200 0
-2001 59 0
-2001 104 0
-2001 127 0
-2001 173 0
-2002 59 0
-2002 104 0
-2002 137 0
-2002 163 0
-41 -85 -118 -248 1899 1900 1901 1902 1903 1904 1905 1906 1907 1908 1909 1910 1911 1912 1913 1914 1915 1916 1917 1918 1919 1920 1921 1922 1923 1924 1925 1926 1927 1928 1929 1930 1931 1932 1933 1934 1935 1936 1937 1938 1939 1940 1941 1942 1943 1944 1945 1946 1947 1948 1949 1950 1951 1952 1953 1954 1955 1956 1957 1958 1959 1960 1961 1962 1963 1964 1965 1966 1967 1968 1969 1970 1971 1972 1973 1974 1975 1976 1977 1978 1979 1980 1981 1982 1983 1984 1985 1986 1987 1988 1989 1990 1991 1992 1993 1994 1995 1996 1997 1998 1999 2000 2001 2002 0
-2003 4 0
-2003 119 0
-2003 202 0
-2003 250 0
-2004 4 0
-2004 119 0
-2004 213 0
-2005 4 0
-2005 119 0
-2005 220 0
-2005 228 0
-2006 4 0
-2006 128 0
-2006 175 0
-2006 250 0
-2007 4 0
-2007 128 0
-2007 186 0
-2008 4 0
-2008 128 0
-2008 193 0
-2008 228 0
-2009 4 0
-2009 136 0
-2009 250 0
-2010 4 0
-2010 136 0
-2010 186 0
-2010 220 0
-2011 4 0
-2011 136 0
-2011 193 0
-2011 213 0
-2012 4 0
-2012 147 0
-2013 4 0
-2013 147 0
-2013 175 0
-2013 220 0
-2014 4 0
-2014 147 0
-2014 193 0
-2014 202 0
-2015 4 0
-2015 154 0
-2015 228 0
-2016 4 0
-2016 154 0
-2016 175 0
-2016 213 0
-2017 4 0
-2017 154 0
-2017 186 0
-2017 202 0
-2018 74 0
-2018 202 0
-2018 250 0
-2019 74 0
-2019 213 0
-2020 74 0
-2020 220 0
-2020 228 0
-2021 83 0
-2021 175 0
-2021 250 0
-2022 83 0
-2022 186 0
-2023 83 0
-2023 193 0
-2023 228 0
-2024 91 0
-2024 250 0
-2025 91 0
-2025 186 0
-2025 220 0
-2026 91 0
-2026 193 0
-2026 213 0
-2027 175 0
-2027 220 0
-2028 193 0
-2028 202 0
-2029 109 0
-2029 228 0
-2030 109 0
-2030 175 0
-2030 213 0
-2031 109 0
-2031 186 0
-2031 202 0
-2032 23 0
-2032 64 0
-2032 202 0
-2032 250 0
-2033 23 0
-2033 64 0
-2033 213 0
-2034 23 0
-2034 64 0
-2034 220 0
-2034 228 0
-2035 23 0
-2035 83 0
-2035 136 0
-2035 250 0
-2036 23 0
-2036 83 0
-2036 147 0
-2037 23 0
-2037 83 0
-2037 154 0
-2037 228 0
-2038 23 0
-2038 91 0
-2038 128 0
-2038 250 0
-2039 23 0
-2039 91 0
-2039 147 0
-2039 220 0
-2040 23 0
-2040 91 0
-2040 154 0
-2040 213 0
-2041 23 0
-2041 128 0
-2042 23 0
-2042 136 0
-2042 220 0
-2043 23 0
-2043 154 0
-2043 202 0
-2044 23 0
-2044 109 0
-2044 128 0
-2044 228 0
-2045 23 0
-2045 109 0
-2045 136 0
-2045 213 0
-2046 23 0
-2046 109 0
-2046 147 0
-2046 202 0
-2047 32 0
-2047 64 0
-2047 175 0
-2047 250 0
-2048 32 0
-2048 64 0
-2048 186 0
-2049 32 0
-2049 64 0
-2049 193 0
-2049 228 0
-2050 32 0
-2050 74 0
-2050 136 0
-2050 250 0
-2051 32 0
-2051 74 0
-2051 147 0
-2052 32 0
-2052 74 0
-2052 154 0
-2052 228 0
-2053 32 0
-2053 91 0
-2053 119 0
-2053 250 0
-2054 32 0
-2054 91 0
-2054 147 0
-2054 193 0
-2055 32 0
-2055 91 0
-2055 154 0
-2055 186 0
-2056 32 0
-2056 119 0
-2057 32 0
-2057 136 0
-2057 193 0
-2058 32 0
-2058 154 0
-2058 175 0
-2059 32 0
-2059 109 0
-2059 119 0
-2059 228 0
-2060 32 0
-2060 109 0
-2060 136 0
-2060 186 0
-2061 32 0
-2061 109 0
-2061 147 0
-2061 175 0
-2062 40 0
-2062 64 0
-2062 250 0
-2063 40 0
-2063 64 0
-2063 186 0
-2063 220 0
-2064 40 0
-2064 64 0
-2064 193 0
-2064 213 0
-2065 40 0
-2065 74 0
-2065 128 0
-2065 250 0
-2066 40 0
-2066 74 0
-2066 147 0
-2066 220 0
-2067 40 0
-2067 74 0
-2067 154 0
-2067 213 0
-2068 40 0
-2068 83 0
-2068 119 0
-2068 250 0
-2069 40 0
-2069 83 0
-2069 147 0
-2069 193 0
-2070 40 0
-2070 83 0
-2070 154 0
-2070 186 0
-2071 40 0
-2071 119 0
-2071 220 0
-2072 40 0
-2072 128 0
-2072 193 0
-2073 40 0
-2073 154 0
-2074 40 0
-2074 109 0
-2074 119 0
-2074 213 0
-2075 40 0
-2075 109 0
-2075 128 0
-2075 186 0
-2076 40 0
-2076 109 0
-2076 147 0
-2077 51 0
-2077 64 0
-2078 51 0
-2078 64 0
-2078 175 0
-2078 220 0
-2079 51 0
-2079 64 0
-2079 193 0
-2079 202 0
-2080 51 0
-2080 74 0
-2080 128 0
-2081 51 0
-2081 74 0
-2081 136 0
-2081 220 0
-2082 51 0
-2082 74 0
-2082 154 0
-2082 202 0
-2083 51 0
-2083 83 0
-2083 119 0
-2084 51 0
-2084 83 0
-2084 136 0
-2084 193 0
-2085 51 0
-2085 83 0
-2085 154 0
-2085 175 0
-2086 51 0
-2086 91 0
-2086 119 0
-2086 220 0
-2087 51 0
-2087 91 0
-2087 128 0
-2087 193 0
-2088 51 0
-2088 91 0
-2088 154 0
-2089 51 0
-2089 109 0
-2089 119 0
-2089 202 0
-2090 51 0
-2090 109 0
-2090 128 0
-2090 175 0
-2091 51 0
-2091 109 0
-2091 136 0
-2092 58 0
-2092 64 0
-2092 228 0
-2093 58 0
-2093 64 0
-2093 175 0
-2093 213 0
-2094 58 0
-2094 64 0
-2094 186 0
-2094 202 0
-2095 58 0
-2095 74 0
-2095 128 0
-2095 228 0
-2096 58 0
-2096 74 0
-2096 136 0
-2096 213 0
-2097 58 0
-2097 74 0
-2097 147 0
-2097 202 0
-2098 58 0
-2098 83 0
-2098 119 0
-2098 228 0
-2099 58 0
-2099 83 0
-2099 136 0
-2099 186 0
-2100 58 0
-2100 83 0
-2100 147 0
-2100 175 0
-2101 58 0
-2101 91 0
-2101 119 0
-2101 213 0
-2102 58 0
-2102 91 0
-2102 128 0
-2102 186 0
-2103 58 0
-2103 91 0
-2103 147 0
-2104 58 0
-2104 119 0
-2104 202 0
-2105 58 0
-2105 128 0
-2105 175 0
-2106 58 0
-2106 136 0
-13 -102 -167 -235 2003 2004 2005 2006 2007 2008 2009 2010 2011 2012 2013 2014 2015 2016 2017 2018 2019 2020 2021 2022 2023 2024 2025 2026 2027 2028 2029 2030 2031 2032 2033 2034 2035 2036 2037 2038 2039 2040 2041 2042 2043 2044 2045 2046 2047 2048 2049 2050 2051 2052 2053 2054 2055 2056 2057 2058 2059 2060 2061 2062 2063 2064 2065 2066 2067 2068 2069 2070 2071 2072 2073 2074 2075 2076 2077 2078 2079 2080 2081 2082 2083 2084 2085 2086 2087 2088 2089 2090 2091 2092 2093 2094 2095 2096 2097 2098 2099 2100 2101 2102 2103 2104 2105 2106 0
-2107 2 0
-2107 122 0
-2107 204 0
-2107 252 0
-2108 2 0
-2108 122 0
-2108 213 0
-2108 243 0
-2109 2 0
-2109 122 0
-2109 222 0
-2110 2 0
-2110 131 0
-2110 177 0
-2110 252 0
-2111 2 0
-2111 131 0
-2111 186 0
-2111 243 0
-2112 2 0
-2112 131 0
-2112 195 0
-2113 2 0
-2113 141 0
-2113 252 0
-2114 2 0
-2114 141 0
-2114 186 0
-2114 222 0
-2115 2 0
-2115 141 0
-2115 195 0
-2115 213 0
-2116 2 0
-2116 150 0
-2116 243 0
-2117 2 0
-2117 150 0
-2117 177 0
-2117 222 0
-2118 2 0
-2118 150 0
-2118 195 0
-2118 204 0
-2119 2 0
-2119 159 0
-2120 2 0
-2120 159 0
-2120 177 0
-2120 213 0
-2121 2 0
-2121 159 0
-2121 186 0
-2121 204 0
-2122 11 0
-2122 77 0
-2122 204 0
-2122 252 0
-2123 11 0
-2123 77 0
-2123 213 0
-2123 243 0
-2124 11 0
-2124 77 0
-2124 222 0
-2125 11 0
-2125 86 0
-2125 177 0
-2125 252 0
-2126 11 0
-2126 86 0
-2126 186 0
-2126 243 0
-2127 11 0
-2127 86 0
-2127 195 0
-2128 11 0
-2128 96 0
-2128 252 0
-2129 11 0
-2129 96 0
-2129 186 0
-2129 222 0
-2130 11 0
-2130 96 0
-2130 195 0
-2130 213 0
-2131 11 0
-2131 105 0
-2131 243 0
-2132 11 0
-2132 105 0
-2132 177 0
-2132 222 0
-2133 11 0
-2133 105 0
-2133 195 0
-2133 204 0
-2134 11 0
-2134 114 0
-2135 11 0
-2135 114 0
-2135 177 0
-2135 213 0
-2136 11 0
-2136 114 0
-2136 186 0
-2136 204 0
-2137 20 0
-2137 204 0
-2137 252 0
-2138 20 0
-2138 213 0
-2138 243 0
-2139 20 0
-2139 222 0
-2140 20 0
-2140 86 0
-2140 141 0
-2140 252 0
-2141 20 0
-2141 86 0
-2141 150 0
-2141 243 0
-2142 20 0
-2142 86 0
-2142 159 0
-2143 20 0
-2143 96 0
-2143 131 0
-2143 252 0
-2144 20 0
-2144 96 0
-2144 150 0
-2144 222 0
-2145 20 0
-2145 96 0
-2145 159 0
-2145 213 0
-2146 20 0
-2146 105 0
-2146 131 0
-2146 243 0
-2147 20 0
-2147 105 0
-2147 141 0
-2147 222 0
-2148 20 0
-2148 105 0
-2148 159 0
-2148 204 0
-2149 20 0
-2149 114 0
-2149 131 0
-2150 20 0
-2150 114 0
-2150 141 0
-2150 213 0
-2151 20 0
-2151 114 0
-2151 150 0
-2151 204 0
-2152 29 0
-2152 177 0
-2152 252 0
-2153 29 0
-2153 186 0
-2153 243 0
-2154 29 0
-2154 195 0
-2155 29 0
-2155 77 0
-2155 141 0
-2155 252 0
-2156 29 0
-2156 77 0
-2156 150 0
-2156 243 0
-2157 29 0
-2157 77 0
-2157 159 0
-2158 29 0
-2158 96 0
-2158 122 0
-2158 252 0
-2159 29 0
-2159 96 0
-2159 150 0
-2159 195 0
-2160 29 0
-2160 96 0
-2160 159 0
-2160 186 0
-2161 29 0
-2161 105 0
-2161 122 0
-2161 243 0
-2162 29 0
-2162 105 0
-2162 141 0
-2162 195 0
-2163 29 0
-2163 105 0
-2163 159 0
-2163 177 0
-2164 29 0
-2164 114 0
-2164 122 0
-2165 29 0
-2165 114 0
-2165 141 0
-2165 186 0
-2166 29 0
-2166 114 0
-2166 150 0
-2166 177 0
-2167 39 0
-2167 252 0
-2168 39 0
-2168 186 0
-2168 222 0
-2169 39 0
-2169 195 0
-2169 213 0
-2170 39 0
-2170 77 0
-2170 131 0
-2170 252 0
-2171 39 0
-2171 77 0
-2171 150 0
-2171 222 0
-2172 39 0
-2172 77 0
-2172 159 0
-2172 213 0
-2173 39 0
-2173 86 0
-2173 122 0
-2173 252 0
-2174 39 0
-2174 86 0
-2174 150 0
-2174 195 0
-2175 39 0
-2175 86 0
-2175 159 0
-2175 186 0
-2176 39 0
-2176 105 0
-2176 122 0
-2176 222 0
-2177 39 0
-2177 105 0
-2177 131 0
-2177 195 0
-2178 39 0
-2178 105 0
-2178 159 0
-2179 39 0
-2179 114 0
-2179 122 0
-2179 213 0
-2180 39 0
-2180 114 0
-2180 131 0
-2180 186 0
-2181 39 0
-2181 114 0
-2181 150 0
-2182 48 0
-2182 243 0
-2183 48 0
-2183 177 0
-2183 222 0
-2184 48 0
-2184 195 0
-2184 204 0
-2185 48 0
-2185 77 0
-2185 131 0
-2185 243 0
-2186 48 0
-2186 77 0
-2186 141 0
-2186 222 0
-2187 48 0
-2187 77 0
-2187 159 0
-2187 204 0
-2188 48 0
-2188 86 0
-2188 122 0
-2188 243 0
-2189 48 0
-2189 86 0
-2189 141 0
-2189 195 0
-2190 48 0
-2190 86 0
-2190 159 0
-2190 177 0
-2191 48 0
-2191 96 0
-2191 122 0
-2191 222 0
-2192 48 0
-2192 96 0
-2192 131 0
-2192 195 0
-2193 48 0
-2193 96 0
-2193 159 0
-2194 48 0
-2194 114 0
-2194 122 0
-2194 204 0
-2195 48 0
-2195 114 0
-2195 131 0
-2195 177 0
-2196 48 0
-2196 114 0
-2196 141 0
-2197 177 0
-2197 213 0
-2198 186 0
-2198 204 0
-2199 77 0
-2199 131 0
-2200 77 0
-2200 141 0
-2200 213 0
-2201 77 0
-2201 150 0
-2201 204 0
-2202 86 0
-2202 122 0
-2203 86 0
-2203 141 0
-2203 186 0
-2204 86 0
-2204 150 0
-2204 177 0
-2205 96 0
-2205 122 0
-2205 213 0
-2206 96 0
-2206 131 0
-2206 186 0
-2207 96 0
-2207 150 0
-2208 105 0
-2208 122 0
-2208 204 0
-2209 105 0
-2209 131 0
-2209 177 0
-2210 105 0
-2210 141 0
-57 -68 -167 -234 2107 2108 2109 2110 2111 2112 2113 2114 2115 2116 2117 2118 2119 2120 2121 2122 2123 2124 2125 2126 2127 2128 2129 2130 2131 2132 2133 2134 2135 2136 2137 2138 2139 2140 2141 2142 2143 2144 2145 2146 2147 2148 2149 2150 2151 2152 2153 2154 2155 2156 2157 2158 2159 2160 2161 2162 2163 2164 2165 2166 2167 2168 2169 2170 2171 2172 2173 2174 2175 2176 2177 2178 2179 2180 2181 2182 2183 2184 2185 2186 2187 2188 2189 2190 2191 2192 2193 2194 2195 2196 2197 2198 2199 2200 2201 2202 2203 2204 2205 2206 2207 2208 2209 2210 0
-2211 122 0
-2211 202 0
-2211 244 0
-2212 122 0
-2212 211 0
-2213 122 0
-2213 220 0
-2213 226 0
-2214 131 0
-2214 175 0
-2214 244 0
-2215 131 0
-2215 184 0
-2216 131 0
-2216 193 0
-2216 226 0
-2217 139 0
-2217 244 0
-2218 139 0
-2218 184 0
-2218 220 0
-2219 139 0
-2219 193 0
-2219 211 0
-2220 175 0
-2220 220 0
-2221 193 0
-2221 202 0
-2222 157 0
-2222 226 0
-2223 157 0
-2223 175 0
-2223 211 0
-2224 157 0
-2224 184 0
-2224 202 0
-2225 11 0
-2225 74 0
-2225 202 0
-2225 244 0
-2226 11 0
-2226 74 0
-2226 211 0
-2227 11 0
-2227 74 0
-2227 220 0
-2227 226 0
-2228 11 0
-2228 83 0
-2228 175 0
-2228 244 0
-2229 11 0
-2229 83 0
-2229 184 0
-2230 11 0
-2230 83 0
-2230 193 0
-2230 226 0
-2231 11 0
-2231 91 0
-2231 244 0
-2232 11 0
-2232 91 0
-2232 184 0
-2232 220 0
-2233 11 0
-2233 91 0
-2233 193 0
-2233 211 0
-2234 11 0
-2234 100 0
-2235 11 0
-2235 100 0
-2235 175 0
-2235 220 0
-2236 11 0
-2236 100 0
-2236 193 0
-2236 202 0
-2237 11 0
-2237 109 0
-2237 226 0
-2238 11 0
-2238 109 0
-2238 175 0
-2238 211 0
-2239 11 0
-2239 109 0
-2239 184 0
-2239 202 0
-2240 20 0
-2240 65 0
-2240 202 0
-2240 244 0
-2241 20 0
-2241 65 0
-2241 211 0
-2242 20 0
-2242 65 0
-2242 220 0
-2242 226 0
-2243 20 0
-2243 83 0
-2243 139 0
-2243 244 0
-2244 20 0
-2244 83 0
-2245 20 0
-2245 83 0
-2245 157 0
-2245 226 0
-2246 20 0
-2246 91 0
-2246 131 0
-2246 244 0
-2247 20 0
-2247 91 0
-2247 220 0
-2248 20 0
-2248 91 0
-2248 157 0
-2248 211 0
-2249 20 0
-2249 100 0
-2249 131 0
-2250 20 0
-2250 100 0
-2250 139 0
-2250 220 0
-2251 20 0
-2251 100 0
-2251 157 0
-2251 202 0
-2252 20 0
-2252 109 0
-2252 131 0
-2252 226 0
-2253 20 0
-2253 109 0
-2253 139 0
-2253 211 0
-2254 20 0
-2254 109 0
-2254 202 0
-2255 29 0
-2255 65 0
-2255 175 0
-2255 244 0
-2256 29 0
-2256 65 0
-2256 184 0
-2257 29 0
-2257 65 0
-2257 193 0
-2257 226 0
-2258 29 0
-2258 74 0
-2258 139 0
-2258 244 0
-2259 29 0
-2259 74 0
-2260 29 0
-2260 74 0
-2260 157 0
-2260 226 0
-2261 29 0
-2261 91 0
-2261 122 0
-2261 244 0
-2262 29 0
-2262 91 0
-2262 193 0
-2263 29 0
-2263 91 0
-2263 157 0
-2263 184 0
-2264 29 0
-2264 100 0
-2264 122 0
-2265 29 0
-2265 100 0
-2265 139 0
-2265 193 0
-2266 29 0
-2266 100 0
-2266 157 0
-2266 175 0
-2267 29 0
-2267 109 0
-2267 122 0
-2267 226 0
-2268 29 0
-2268 109 0
-2268 139 0
-2268 184 0
-2269 29 0
-2269 109 0
-2269 175 0
-2270 37 0
-2270 65 0
-2270 244 0
-2271 37 0
-2271 65 0
-2271 184 0
-2271 220 0
-2272 37 0
-2272 65 0
-2272 193 0
-2272 211 0
-2273 37 0
-2273 74 0
-2273 131 0
-2273 244 0
-2274 37 0
-2274 74 0
-2274 220 0
-2275 37 0
-2275 74 0
-2275 157 0
-2275 211 0
-2276 37 0
-2276 83 0
-2276 122 0
-2276 244 0
-2277 37 0
-2277 83 0
-2277 193 0
-2278 37 0
-2278 83 0
-2278 157 0
-2278 184 0
-2279 37 0
-2279 100 0
-2279 122 0
-2279 220 0
-2280 37 0
-2280 100 0
-2280 131 0
-2280 193 0
-2281 37 0
-2281 100 0
-2281 157 0
-2282 37 0
-2282 109 0
-2282 122 0
-2282 211 0
-2283 37 0
-2283 109 0
-2283 131 0
-2283 184 0
-2284 37 0
-2284 109 0
-2285 46 0
-2285 65 0
-2286 46 0
-2286 65 0
-2286 175 0
-2286 220 0
-2287 46 0
-2287 65 0
-2287 193 0
-2287 202 0
-2288 46 0
-2288 74 0
-2288 131 0
-2289 46 0
-2289 74 0
-2289 139 0
-2289 220 0
-2290 46 0
-2290 74 0
-2290 157 0
-2290 202 0
-2291 46 0
-2291 83 0
-2291 122 0
-2292 46 0
-2292 83 0
-2292 139 0
-2292 193 0
-2293 46 0
-2293 83 0
-2293 157 0
-2293 175 0
-2294 46 0
-2294 91 0
-2294 122 0
-2294 220 0
-2295 46 0
-2295 91 0
-2295 131 0
-2295 193 0
-2296 46 0
-2296 91 0
-2296 157 0
-2297 46 0
-2297 109 0
-2297 122 0
-2297 202 0
-2298 46 0
-2298 109 0
-2298 131 0
-2298 175 0
-2299 46 0
-2299 109 0
-2299 139 0
-2300 55 0
-2300 65 0
-2300 226 0
-2301 55 0
-2301 65 0
-2301 175 0
-2301 211 0
-2302 55 0
-2302 65 0
-2302 184 0
-2302 202 0
-2303 55 0
-2303 74 0
-2303 131 0
-2303 226 0
-2304 55 0
-2304 74 0
-2304 139 0
-2304 211 0
-2305 55 0
-2305 74 0
-2305 202 0
-2306 55 0
-2306 83 0
-2306 122 0
-2306 226 0
-2307 55 0
-2307 83 0
-2307 139 0
-2307 184 0
-2308 55 0
-2308 83 0
-2308 175 0
-2309 55 0
-2309 91 0
-2309 122 0
-2309 211 0
-2310 55 0
-2310 91 0
-2310 131 0
-2310 184 0
-2311 55 0
-2311 91 0
-2312 55 0
-2312 100 0
-2312 122 0
-2312 202 0
-2313 55 0
-2313 100 0
-2313 131 0
-2313 175 0
-2314 55 0
-2314 100 0
-2314 139 0
-1 -148 -167 -235 2211 2212 2213 2214 2215 2216 2217 2218 2219 2220 2221 2222 2223 2224 2225 2226 2227 2228 2229 2230 2231 2232 2233 2234 2235 2236 2237 2238 2239 2240 2241 2242 2243 2244 2245 2246 2247 2248 2249 2250 2251 2252 2253 2254 2255 2256 2257 2258 2259 2260 2261 2262 2263 2264 2265 2266 2267 2268 2269 2270 2271 2272 2273 2274 2275 2276 2277 2278 2279 2280 2281 2282 2283 2284 2285 2286 2287 2288 2289 2290 2291 2292 2293 2294 2295 2296 2297 2298 2299 2300 2301 2302 2303 2304 2305 2306 2307 2308 2309 2310 2311 2312 2313 2314 0
-2315 204 0
-2315 252 0
-2316 213 0
-2316 243 0
-2317 128 0
-2317 174 0
-2317 252 0
-2318 128 0
-2318 183 0
-2318 243 0
-2319 128 0
-2319 192 0
-2320 138 0
-2320 164 0
-2320 252 0
-2321 138 0
-2321 183 0
-2322 138 0
-2322 192 0
-2322 213 0
-2323 147 0
-2323 164 0
-2323 243 0
-2324 147 0
-2324 174 0
-2325 147 0
-2325 192 0
-2325 204 0
-2326 156 0
-2326 164 0
-2327 156 0
-2327 174 0
-2327 213 0
-2328 156 0
-2328 183 0
-2328 204 0
-2329 10 0
-2329 73 0
-2329 204 0
-2329 252 0
-2330 10 0
-2330 73 0
-2330 213 0
-2330 243 0
-2331 10 0
-2331 73 0
-2332 10 0
-2332 83 0
-2332 174 0
-2332 252 0
-2333 10 0
-2333 83 0
-2333 183 0
-2333 243 0
-2334 10 0
-2334 83 0
-2334 192 0
-2335 10 0
-2335 93 0
-2335 164 0
-2335 252 0
-2336 10 0
-2336 93 0
-2336 183 0
-2337 10 0
-2337 93 0
-2337 192 0
-2337 213 0
-2338 10 0
-2338 102 0
-2338 164 0
-2338 243 0
-2339 10 0
-2339 102 0
-2339 174 0
-2340 10 0
-2340 102 0
-2340 192 0
-2340 204 0
-2341 10 0
-2341 111 0
-2341 164 0
-2342 10 0
-2342 111 0
-2342 174 0
-2342 213 0
-2343 10 0
-2343 111 0
-2343 183 0
-2343 204 0
-2344 19 0
-2344 64 0
-2344 204 0
-2344 252 0
-2345 19 0
-2345 64 0
-2345 213 0
-2345 243 0
-2346 19 0
-2346 64 0
-2347 19 0
-2347 83 0
-2347 138 0
-2347 252 0
-2348 19 0
-2348 83 0
-2348 147 0
-2348 243 0
-2349 19 0
-2349 83 0
-2349 156 0
-2350 19 0
-2350 93 0
-2350 128 0
-2350 252 0
-2351 19 0
-2351 93 0
-2351 147 0
-2352 19 0
-2352 93 0
-2352 156 0
-2352 213 0
-2353 19 0
-2353 102 0
-2353 128 0
-2353 243 0
-2354 19 0
-2354 102 0
-2354 138 0
-2355 19 0
-2355 102 0
-2355 156 0
-2355 204 0
-2356 19 0
-2356 111 0
-2356 128 0
-2357 19 0
-2357 111 0
-2357 138 0
-2357 213 0
-2358 19 0
-2358 111 0
-2358 147 0
-2358 204 0
-2359 29 0
-2359 64 0
-2359 174 0
-2359 252 0
-2360 29 0
-2360 64 0
-2360 183 0
-2360 243 0
-2361 29 0
-2361 64 0
-2361 192 0
-2362 29 0
-2362 73 0
-2362 138 0
-2362 252 0
-2363 29 0
-2363 73 0
-2363 147 0
-2363 243 0
-2364 29 0
-2364 73 0
-2364 156 0
-2365 29 0
-2365 93 0
-2365 252 0
-2366 29 0
-2366 93 0
-2366 147 0
-2366 192 0
-2367 29 0
-2367 93 0
-2367 156 0
-2367 183 0
-2368 29 0
-2368 102 0
-2368 243 0
-2369 29 0
-2369 102 0
-2369 138 0
-2369 192 0
-2370 29 0
-2370 102 0
-2370 156 0
-2370 174 0
-2371 29 0
-2371 111 0
-2372 29 0
-2372 111 0
-2372 138 0
-2372 183 0
-2373 29 0
-2373 111 0
-2373 147 0
-2373 174 0
-2374 39 0
-2374 64 0
-2374 164 0
-2374 252 0
-2375 39 0
-2375 64 0
-2375 183 0
-2376 39 0
-2376 64 0
-2376 192 0
-2376 213 0
-2377 39 0
-2377 73 0
-2377 128 0
-2377 252 0
-2378 39 0
-2378 73 0
-2378 147 0
-2379 39 0
-2379 73 0
-2379 156 0
-2379 213 0
-2380 39 0
-2380 83 0
-2380 252 0
-2381 39 0
-2381 83 0
-2381 147 0
-2381 192 0
-2382 39 0
-2382 83 0
-2382 156 0
-2382 183 0
-2383 39 0
-2383 102 0
-2384 39 0
-2384 102 0
-2384 128 0
-2384 192 0
-2385 39 0
-2385 102 0
-2385 156 0
-2385 164 0
-2386 39 0
-2386 111 0
-2386 213 0
-2387 39 0
-2387 111 0
-2387 128 0
-2387 183 0
-2388 39 0
-2388 111 0
-2388 147 0
-2388 164 0
-2389 48 0
-2389 64 0
-2389 164 0
-2389 243 0
-2390 48 0
-2390 64 0
-2390 174 0
-2391 48 0
-2391 64 0
-2391 192 0
-2391 204 0
-2392 48 0
-2392 73 0
-2392 128 0
-2392 243 0
-2393 48 0
-2393 73 0
-2393 138 0
-2394 48 0
-2394 73 0
-2394 156 0
-2394 204 0
-2395 48 0
-2395 83 0
-2395 243 0
-2396 48 0
-2396 83 0
-2396 138 0
-2396 192 0
-2397 48 0
-2397 83 0
-2397 156 0
-2397 174 0
-2398 48 0
-2398 93 0
-2399 48 0
-2399 93 0
-2399 128 0
-2399 192 0
-2400 48 0
-2400 93 0
-2400 156 0
-2400 164 0
-2401 48 0
-2401 111 0
-2401 204 0
-2402 48 0
-2402 111 0
-2402 128 0
-2402 174 0
-2403 48 0
-2403 111 0
-2403 138 0
-2403 164 0
-2404 57 0
-2404 64 0
-2404 164 0
-2405 57 0
-2405 64 0
-2405 174 0
-2405 213 0
-2406 57 0
-2406 64 0
-2406 183 0
-2406 204 0
-2407 57 0
-2407 73 0
-2407 128 0
-2408 57 0
-2408 73 0
-2408 138 0
-2408 213 0
-2409 57 0
-2409 73 0
-2409 147 0
-2409 204 0
-2410 57 0
-2410 83 0
-2411 57 0
-2411 83 0
-2411 138 0
-2411 183 0
-2412 57 0
-2412 83 0
-2412 147 0
-2412 174 0
-2413 57 0
-2413 93 0
-2413 213 0
-2414 57 0
-2414 93 0
-2414 128 0
-2414 183 0
-2415 57 0
-2415 93 0
-2415 147 0
-2415 164 0
-2416 57 0
-2416 102 0
-2416 204 0
-2417 57 0
-2417 102 0
-2417 128 0
-2417 174 0
-2418 57 0
-2418 102 0
-2418 138 0
-2418 164 0
-1 -118 -222 -234 2315 2316 2317 2318 2319 2320 2321 2322 2323 2324 2325 2326 2327 2328 2329 2330 2331 2332 2333 2334 2335 2336 2337 2338 2339 2340 2341 2342 2343 2344 2345 2346 2347 2348 2349 2350 2351 2352 2353 2354 2355 2356 2357 2358 2359 2360 2361 2362 2363 2364 2365 2366 2367 2368 2369 2370 2371 2372 2373 2374 2375 2376 2377 2378 2379 2380 2381 2382 2383 2384 2385 2386 2387 2388 2389 2390 2391 2392 2393 2394 2395 2396 2397 2398 2399 2400 2401 2402 2403 2404 2405 2406 2407 2408 2409 2410 2411 2412 2413 2414 2415 2416 2417 2418 0
-2419 199 0
-2419 246 0
-2420 219 0
-2420 226 0
-2421 127 0
-2421 172 0
-2421 246 0
-2422 127 0
-2422 181 0
-2423 127 0
-2423 192 0
-2423 226 0
-2424 136 0
-2424 163 0
-2424 246 0
-2425 136 0
-2425 181 0
-2425 219 0
-2426 136 0
-2426 192 0
-2427 145 0
-2427 163 0
-2428 145 0
-2428 172 0
-2428 219 0
-2429 145 0
-2429 192 0
-2429 199 0
-2430 156 0
-2430 163 0
-2430 226 0
-2431 156 0
-2431 172 0
-2432 156 0
-2432 181 0
-2432 199 0
-2433 10 0
-2433 73 0
-2433 199 0
-2433 246 0
-2434 10 0
-2434 73 0
-2435 10 0
-2435 73 0
-2435 219 0
-2435 226 0
-2436 10 0
-2436 82 0
-2436 172 0
-2436 246 0
-2437 10 0
-2437 82 0
-2437 181 0
-2438 10 0
-2438 82 0
-2438 192 0
-2438 226 0
-2439 10 0
-2439 91 0
-2439 163 0
-2439 246 0
-2440 10 0
-2440 91 0
-2440 181 0
-2440 219 0
-2441 10 0
-2441 91 0
-2441 192 0
-2442 10 0
-2442 100 0
-2442 163 0
-2443 10 0
-2443 100 0
-2443 172 0
-2443 219 0
-2444 10 0
-2444 100 0
-2444 192 0
-2444 199 0
-2445 10 0
-2445 111 0
-2445 163 0
-2445 226 0
-2446 10 0
-2446 111 0
-2446 172 0
-2447 10 0
-2447 111 0
-2447 181 0
-2447 199 0
-2448 19 0
-2448 64 0
-2448 199 0
-2448 246 0
-2449 19 0
-2449 64 0
-2450 19 0
-2450 64 0
-2450 219 0
-2450 226 0
-2451 19 0
-2451 82 0
-2451 136 0
-2451 246 0
-2452 19 0
-2452 82 0
-2452 145 0
-2453 19 0
-2453 82 0
-2453 156 0
-2453 226 0
-2454 19 0
-2454 91 0
-2454 127 0
-2454 246 0
-2455 19 0
-2455 91 0
-2455 145 0
-2455 219 0
-2456 19 0
-2456 91 0
-2456 156 0
-2457 19 0
-2457 100 0
-2457 127 0
-2458 19 0
-2458 100 0
-2458 136 0
-2458 219 0
-2459 19 0
-2459 100 0
-2459 156 0
-2459 199 0
-2460 19 0
-2460 111 0
-2460 127 0
-2460 226 0
-2461 19 0
-2461 111 0
-2461 136 0
-2462 19 0
-2462 111 0
-2462 145 0
-2462 199 0
-2463 28 0
-2463 64 0
-2463 172 0
-2463 246 0
-2464 28 0
-2464 64 0
-2464 181 0
-2465 28 0
-2465 64 0
-2465 192 0
-2465 226 0
-2466 28 0
-2466 73 0
-2466 136 0
-2466 246 0
-2467 28 0
-2467 73 0
-2467 145 0
-2468 28 0
-2468 73 0
-2468 156 0
-2468 226 0
-2469 28 0
-2469 91 0
-2469 246 0
-2470 28 0
-2470 91 0
-2470 145 0
-2470 192 0
-2471 28 0
-2471 91 0
-2471 156 0
-2471 181 0
-2472 28 0
-2472 100 0
-2473 28 0
-2473 100 0
-2473 136 0
-2473 192 0
-2474 28 0
-2474 100 0
-2474 156 0
-2474 172 0
-2475 28 0
-2475 111 0
-2475 226 0
-2476 28 0
-2476 111 0
-2476 136 0
-2476 181 0
-2477 28 0
-2477 111 0
-2477 145 0
-2477 172 0
-2478 37 0
-2478 64 0
-2478 163 0
-2478 246 0
-2479 37 0
-2479 64 0
-2479 181 0
-2479 219 0
-2480 37 0
-2480 64 0
-2480 192 0
-2481 37 0
-2481 73 0
-2481 127 0
-2481 246 0
-2482 37 0
-2482 73 0
-2482 145 0
-2482 219 0
-2483 37 0
-2483 73 0
-2483 156 0
-2484 37 0
-2484 82 0
-2484 246 0
-2485 37 0
-2485 82 0
-2485 145 0
-2485 192 0
-2486 37 0
-2486 82 0
-2486 156 0
-2486 181 0
-2487 37 0
-2487 100 0
-2487 219 0
-2488 37 0
-2488 100 0
-2488 127 0
-2488 192 0
-2489 37 0
-2489 100 0
-2489 156 0
-2489 163 0
-2490 37 0
-2490 111 0
-2491 37 0
-2491 111 0
-2491 127 0
-2491 181 0
-2492 37 0
-2492 111 0
-2492 145 0
-2492 163 0
-2493 46 0
-2493 64 0
-2493 163 0
-2494 46 0
-2494 64 0
-2494 172 0
-2494 219 0
-2495 46 0
-2495 64 0
-2495 192 0
-2495 199 0
-2496 46 0
-2496 73 0
-2496 127 0
-2497 46 0
-2497 73 0
-2497 136 0
-2497 219 0
-2498 46 0
-2498 73 0
-2498 156 0
-2498 199 0
-2499 46 0
-2499 82 0
-2500 46 0
-2500 82 0
-2500 136 0
-2500 192 0
-2501 46 0
-2501 82 0
-2501 156 0
-2501 172 0
-2502 46 0
-2502 91 0
-2502 219 0
-2503 46 0
-2503 91 0
-2503 127 0
-2503 192 0
-2504 46 0
-2504 91 0
-2504 156 0
-2504 163 0
-2505 46 0
-2505 111 0
-2505 199 0
-2506 46 0
-2506 111 0
-2506 127 0
-2506 172 0
-2507 46 0
-2507 111 0
-2507 136 0
-2507 163 0
-2508 57 0
-2508 64 0
-2508 163 0
-2508 226 0
-2509 57 0
-2509 64 0
-2509 172 0
-2510 57 0
-2510 64 0
-2510 181 0
-2510 199 0
-2511 57 0
-2511 73 0
-2511 127 0
-2511 226 0
-2512 57 0
-2512 73 0
-2512 136 0
-2513 57 0
-2513 73 0
-2513 145 0
-2513 199 0
-2514 57 0
-2514 82 0
-2514 226 0
-2515 57 0
-2515 82 0
-2515 136 0
-2515 181 0
-2516 57 0
-2516 82 0
-2516 145 0
-2516 172 0
-2517 57 0
-2517 91 0
-2518 57 0
-2518 91 0
-2518 127 0
-2518 181 0
-2519 57 0
-2519 91 0
-2519 145 0
-2519 163 0
-2520 57 0
-2520 100 0
-2520 199 0
-2521 57 0
-2521 100 0
-2521 127 0
-2521 172 0
-2522 57 0
-2522 100 0
-2522 136 0
-2522 163 0
-1 -118 -208 -237 2419 2420 2421 2422 2423 2424 2425 2426 2427 2428 2429 2430 2431 2432 2433 2434 2435 2436 2437 2438 2439 2440 2441 2442 2443 2444 2445 2446 2447 2448 2449 2450 2451 2452 2453 2454 2455 2456 2457 2458 2459 2460 2461 2462 2463 2464 2465 2466 2467 2468 2469 2470 2471 2472 2473 2474 2475 2476 2477 2478 2479 2480 2481 2482 2483 2484 2485 2486 2487 2488 2489 2490 2491 2492 2493 2494 2495 2496 2497 2498 2499 2500 2501 2502 2503 2504 2505 2506 2507 2508 2509 2510 2511 2512 2513 2514 2515 2516 2517 2518 2519 2520 2521 2522 0
-2523 8 0
-2523 123 0
-2523 204 0
-2523 247 0
-2524 8 0
-2524 123 0
-2524 212 0
-2524 241 0
-2525 8 0
-2525 123 0
-2525 220 0
-2526 8 0
-2526 131 0
-2526 180 0
-2526 247 0
-2527 8 0
-2527 131 0
-2527 188 0
-2527 241 0
-2528 8 0
-2528 131 0
-2528 196 0
-2529 8 0
-2529 141 0
-2529 247 0
-2530 8 0
-2530 141 0
-2530 188 0
-2530 220 0
-2531 8 0
-2531 141 0
-2531 196 0
-2531 212 0
-2532 8 0
-2532 149 0
-2532 241 0
-2533 8 0
-2533 149 0
-2533 180 0
-2533 220 0
-2534 8 0
-2534 149 0
-2534 196 0
-2534 204 0
-2535 8 0
-2535 157 0
-2536 8 0
-2536 157 0
-2536 180 0
-2536 212 0
-2537 8 0
-2537 157 0
-2537 188 0
-2537 204 0
-2538 17 0
-2538 78 0
-2538 204 0
-2538 247 0
-2539 17 0
-2539 78 0
-2539 212 0
-2539 241 0
-2540 17 0
-2540 78 0
-2540 220 0
-2541 17 0
-2541 86 0
-2541 180 0
-2541 247 0
-2542 17 0
-2542 86 0
-2542 188 0
-2542 241 0
-2543 17 0
-2543 86 0
-2543 196 0
-2544 17 0
-2544 96 0
-2544 247 0
-2545 17 0
-2545 96 0
-2545 188 0
-2545 220 0
-2546 17 0
-2546 96 0
-2546 196 0
-2546 212 0
-2547 17 0
-2547 104 0
-2547 241 0
-2548 17 0
-2548 104 0
-2548 180 0
-2548 220 0
-2549 17 0
-2549 104 0
-2549 196 0
-2549 204 0
-2550 17 0
-2550 112 0
-2551 17 0
-2551 112 0
-2551 180 0
-2551 212 0
-2552 17 0
-2552 112 0
-2552 188 0
-2552 204 0
-2553 27 0
-2553 204 0
-2553 247 0
-2554 27 0
-2554 212 0
-2554 241 0
-2555 27 0
-2555 220 0
-2556 27 0
-2556 86 0
-2556 141 0
-2556 247 0
-2557 27 0
-2557 86 0
-2557 149 0
-2557 241 0
-2558 27 0
-2558 86 0
-2558 157 0
-2559 27 0
-2559 96 0
-2559 131 0
-2559 247 0
-2560 27 0
-2560 96 0
-2560 149 0
-2560 220 0
-2561 27 0
-2561 96 0
-2561 157 0
-2561 212 0
-2562 27 0
-2562 104 0
-2562 131 0
-2562 241 0
-2563 27 0
-2563 104 0
-2563 141 0
-2563 220 0
-2564 27 0
-2564 104 0
-2564 157 0
-2564 204 0
-2565 27 0
-2565 112 0
-2565 131 0
-2566 27 0
-2566 112 0
-2566 141 0
-2566 212 0
-2567 27 0
-2567 112 0
-2567 149 0
-2567 204 0
-2568 35 0
-2568 180 0
-2568 247 0
-2569 35 0
-2569 188 0
-2569 241 0
-2570 35 0
-2570 196 0
-2571 35 0
-2571 78 0
-2571 141 0
-2571 247 0
-2572 35 0
-2572 78 0
-2572 149 0
-2572 241 0
-2573 35 0
-2573 78 0
-2573 157 0
-2574 35 0
-2574 96 0
-2574 123 0
-2574 247 0
-2575 35 0
-2575 96 0
-2575 149 0
-2575 196 0
-2576 35 0
-2576 96 0
-2576 157 0
-2576 188 0
-2577 35 0
-2577 104 0
-2577 123 0
-2577 241 0
-2578 35 0
-2578 104 0
-2578 141 0
-2578 196 0
-2579 35 0
-2579 104 0
-2579 157 0
-2579 180 0
-2580 35 0
-2580 112 0
-2580 123 0
-2581 35 0
-2581 112 0
-2581 141 0
-2581 188 0
-2582 35 0
-2582 112 0
-2582 149 0
-2582 180 0
-2583 45 0
-2583 247 0
-2584 45 0
-2584 188 0
-2584 220 0
-2585 45 0
-2585 196 0
-2585 212 0
-2586 45 0
-2586 78 0
-2586 131 0
-2586 247 0
-2587 45 0
-2587 78 0
-2587 149 0
-2587 220 0
-2588 45 0
-2588 78 0
-2588 157 0
-2588 212 0
-2589 45 0
-2589 86 0
-2589 123 0
-2589 247 0
-2590 45 0
-2590 86 0
-2590 149 0
-2590 196 0
-2591 45 0
-2591 86 0
-2591 157 0
-2591 188 0
-2592 45 0
-2592 104 0
-2592 123 0
-2592 220 0
-2593 45 0
-2593 104 0
-2593 131 0
-2593 196 0
-2594 45 0
-2594 104 0
-2594 157 0
-2595 45 0
-2595 112 0
-2595 123 0
-2595 212 0
-2596 45 0
-2596 112 0
-2596 131 0
-2596 188 0
-2597 45 0
-2597 112 0
-2597 149 0
-2598 53 0
-2598 241 0
-2599 53 0
-2599 180 0
-2599 220 0
-2600 53 0
-2600 196 0
-2600 204 0
-2601 53 0
-2601 78 0
-2601 131 0
-2601 241 0
-2602 53 0
-2602 78 0
-2602 141 0
-2602 220 0
-2603 53 0
-2603 78 0
-2603 157 0
-2603 204 0
-2604 53 0
-2604 86 0
-2604 123 0
-2604 241 0
-2605 53 0
-2605 86 0
-2605 141 0
-2605 196 0
-2606 53 0
-2606 86 0
-2606 157 0
-2606 180 0
-2607 53 0
-2607 96 0
-2607 123 0
-2607 220 0
-2608 53 0
-2608 96 0
-2608 131 0
-2608 196 0
-2609 53 0
-2609 96 0
-2609 157 0
-2610 53 0
-2610 112 0
-2610 123 0
-2610 204 0
-2611 53 0
-2611 112 0
-2611 131 0
-2611 180 0
-2612 53 0
-2612 112 0
-2612 141 0
-2613 180 0
-2613 212 0
-2614 188 0
-2614 204 0
-2615 78 0
-2615 131 0
-2616 78 0
-2616 141 0
-2616 212 0
-2617 78 0
-2617 149 0
-2617 204 0
-2618 86 0
-2618 123 0
-2619 86 0
-2619 141 0
-2619 188 0
-2620 86 0
-2620 149 0
-2620 180 0
-2621 96 0
-2621 123 0
-2621 212 0
-2622 96 0
-2622 131 0
-2622 188 0
-2623 96 0
-2623 149 0
-2624 104 0
-2624 123 0
-2624 204 0
-2625 104 0
-2625 131 0
-2625 180 0
-2626 104 0
-2626 141 0
-61 -68 -170 -233 2523 2524 2525 2526 2527 2528 2529 2530 2531 2532 2533 2534 2535 2536 2537 2538 2539 2540 2541 2542 2543 2544 2545 2546 2547 2548 2549 2550 2551 2552 2553 2554 2555 2556 2557 2558 2559 2560 2561 2562 2563 2564 2565 2566 2567 2568 2569 2570 2571 2572 2573 2574 2575 2576 2577 2578 2579 2580 2581 2582 2583 2584 2585 2586 2587 2588 2589 2590 2591 2592 2593 2594 2595 2596 2597 2598 2599 2600 2601 2602 2603 2604 2605 2606 2607 2608 2609 2610 2611 2612 2613 2614 2615 2616 2617 2618 2619 2620 2621 2622 2623 2624 2625 2626 0
-2627 8 0
-2627 123 0
-2627 202 0
-2628 8 0
-2628 123 0
-2628 212 0
-2628 236 0
-2629 8 0
-2629 123 0
-2629 221 0
-2629 227 0
-2630 8 0
-2630 131 0
-2631 8 0
-2631 131 0
-2631 188 0
-2631 236 0
-2632 8 0
-2632 131 0
-2632 197 0
-2632 227 0
-2633 8 0
-2633 139 0
-2633 170 0
-2634 8 0
-2634 139 0
-2634 188 0
-2634 221 0
-2635 8 0
-2635 139 0
-2635 197 0
-2635 212 0
-2636 8 0
-2636 149 0
-2636 170 0
-2636 236 0
-2637 8 0
-2637 149 0
-2637 221 0
-2638 8 0
-2638 149 0
-2638 197 0
-2638 202 0
-2639 8 0
-2639 158 0
-2639 170 0
-2639 227 0
-2640 8 0
-2640 158 0
-2640 212 0
-2641 8 0
-2641 158 0
-2641 188 0
-2641 202 0
-2642 17 0
-2642 78 0
-2642 202 0
-2643 17 0
-2643 78 0
-2643 212 0
-2643 236 0
-2644 17 0
-2644 78 0
-2644 221 0
-2644 227 0
-2645 17 0
-2645 86 0
-2646 17 0
-2646 86 0
-2646 188 0
-2646 236 0
-2647 17 0
-2647 86 0
-2647 197 0
-2647 227 0
-2648 17 0
-2648 94 0
-2648 170 0
-2649 17 0
-2649 94 0
-2649 188 0
-2649 221 0
-2650 17 0
-2650 94 0
-2650 197 0
-2650 212 0
-2651 17 0
-2651 104 0
-2651 170 0
-2651 236 0
-2652 17 0
-2652 104 0
-2652 221 0
-2653 17 0
-2653 104 0
-2653 197 0
-2653 202 0
-2654 17 0
-2654 113 0
-2654 170 0
-2654 227 0
-2655 17 0
-2655 113 0
-2655 212 0
-2656 17 0
-2656 113 0
-2656 188 0
-2656 202 0
-2657 27 0
-2657 202 0
-2658 27 0
-2658 212 0
-2658 236 0
-2659 27 0
-2659 221 0
-2659 227 0
-2660 27 0
-2660 86 0
-2660 139 0
-2661 27 0
-2661 86 0
-2661 149 0
-2661 236 0
-2662 27 0
-2662 86 0
-2662 158 0
-2662 227 0
-2663 27 0
-2663 94 0
-2663 131 0
-2664 27 0
-2664 94 0
-2664 149 0
-2664 221 0
-2665 27 0
-2665 94 0
-2665 158 0
-2665 212 0
-2666 27 0
-2666 104 0
-2666 131 0
-2666 236 0
-2667 27 0
-2667 104 0
-2667 139 0
-2667 221 0
-2668 27 0
-2668 104 0
-2668 158 0
-2668 202 0
-2669 27 0
-2669 113 0
-2669 131 0
-2669 227 0
-2670 27 0
-2670 113 0
-2670 139 0
-2670 212 0
-2671 27 0
-2671 113 0
-2671 149 0
-2671 202 0
-2672 188 0
-2672 236 0
-2673 197 0
-2673 227 0
-2674 78 0
-2674 139 0
-2675 78 0
-2675 149 0
-2675 236 0
-2676 78 0
-2676 158 0
-2676 227 0
-2677 94 0
-2677 123 0
-2678 94 0
-2678 149 0
-2678 197 0
-2679 94 0
-2679 158 0
-2679 188 0
-2680 104 0
-2680 123 0
-2680 236 0
-2681 104 0
-2681 139 0
-2681 197 0
-2682 104 0
-2682 158 0
-2683 113 0
-2683 123 0
-2683 227 0
-2684 113 0
-2684 139 0
-2684 188 0
-2685 113 0
-2685 149 0
-2686 43 0
-2686 170 0
-2687 43 0
-2687 188 0
-2687 221 0
-2688 43 0
-2688 197 0
-2688 212 0
-2689 43 0
-2689 78 0
-2689 131 0
-2690 43 0
-2690 78 0
-2690 149 0
-2690 221 0
-2691 43 0
-2691 78 0
-2691 158 0
-2691 212 0
-2692 43 0
-2692 86 0
-2692 123 0
-2693 43 0
-2693 86 0
-2693 149 0
-2693 197 0
-2694 43 0
-2694 86 0
-2694 158 0
-2694 188 0
-2695 43 0
-2695 104 0
-2695 123 0
-2695 221 0
-2696 43 0
-2696 104 0
-2696 131 0
-2696 197 0
-2697 43 0
-2697 104 0
-2697 158 0
-2697 170 0
-2698 43 0
-2698 113 0
-2698 123 0
-2698 212 0
-2699 43 0
-2699 113 0
-2699 131 0
-2699 188 0
-2700 43 0
-2700 113 0
-2700 149 0
-2700 170 0
-2701 53 0
-2701 170 0
-2701 236 0
-2702 53 0
-2702 221 0
-2703 53 0
-2703 197 0
-2703 202 0
-2704 53 0
-2704 78 0
-2704 131 0
-2704 236 0
-2705 53 0
-2705 78 0
-2705 139 0
-2705 221 0
-2706 53 0
-2706 78 0
-2706 158 0
-2706 202 0
-2707 53 0
-2707 86 0
-2707 123 0
-2707 236 0
-2708 53 0
-2708 86 0
-2708 139 0
-2708 197 0
-2709 53 0
-2709 86 0
-2709 158 0
-2710 53 0
-2710 94 0
-2710 123 0
-2710 221 0
-2711 53 0
-2711 94 0
-2711 131 0
-2711 197 0
-2712 53 0
-2712 94 0
-2712 158 0
-2712 170 0
-2713 53 0
-2713 113 0
-2713 123 0
-2713 202 0
-2714 53 0
-2714 113 0
-2714 131 0
-2715 53 0
-2715 113 0
-2715 139 0
-2715 170 0
-2716 62 0
-2716 170 0
-2716 227 0
-2717 62 0
-2717 212 0
-2718 62 0
-2718 188 0
-2718 202 0
-2719 62 0
-2719 78 0
-2719 131 0
-2719 227 0
-2720 62 0
-2720 78 0
-2720 139 0
-2720 212 0
-2721 62 0
-2721 78 0
-2721 149 0
-2721 202 0
-2722 62 0
-2722 86 0
-2722 123 0
-2722 227 0
-2723 62 0
-2723 86 0
-2723 139 0
-2723 188 0
-2724 62 0
-2724 86 0
-2724 149 0
-2725 62 0
-2725 94 0
-2725 123 0
-2725 212 0
-2726 62 0
-2726 94 0
-2726 131 0
-2726 188 0
-2727 62 0
-2727 94 0
-2727 149 0
-2727 170 0
-2728 62 0
-2728 104 0
-2728 123 0
-2728 202 0
-2729 62 0
-2729 104 0
-2729 131 0
-2730 62 0
-2730 104 0
-2730 139 0
-2730 170 0
-35 -68 -178 -248 2627 2628 2629 2630 2631 2632 2633 2634 2635 2636 2637 2638 2639 2640 2641 2642 2643 2644 2645 2646 2647 2648 2649 2650 2651 2652 2653 2654 2655 2656 2657 2658 2659 2660 2661 2662 2663 2664 2665 2666 2667 2668 2669 2670 2671 2672 2673 2674 2675 2676 2677 2678 2679 2680 2681 2682 2683 2684 2685 2686 2687 2688 2689 2690 2691 2692 2693 2694 2695 2696 2697 2698 2699 2700 2701 2702 2703 2704 2705 2706 2707 2708 2709 2710 2711 2712 2713 2714 2715 2716 2717 2718 2719 2720 2721 2722 2723 2724 2725 2726 2727 2728 2729 2730 0
-2731 8 0
-2731 122 0
-2731 200 0
-2731 244 0
-2732 8 0
-2732 122 0
-2732 238 0
-2733 8 0
-2733 122 0
-2733 217 0
-2733 229 0
-2734 8 0
-2734 130 0
-2734 244 0
-2735 8 0
-2735 130 0
-2735 184 0
-2735 238 0
-2736 8 0
-2736 130 0
-2736 193 0
-2736 229 0
-2737 8 0
-2737 140 0
-2737 166 0
-2737 244 0
-2738 8 0
-2738 140 0
-2738 184 0
-2738 217 0
-2739 8 0
-2739 140 0
-2739 193 0
-2740 8 0
-2740 148 0
-2740 166 0
-2740 238 0
-2741 8 0
-2741 148 0
-2741 217 0
-2742 8 0
-2742 148 0
-2742 193 0
-2742 200 0
-2743 8 0
-2743 157 0
-2743 166 0
-2743 229 0
-2744 8 0
-2744 157 0
-2745 8 0
-2745 157 0
-2745 184 0
-2745 200 0
-2746 17 0
-2746 77 0
-2746 200 0
-2746 244 0
-2747 17 0
-2747 77 0
-2747 238 0
-2748 17 0
-2748 77 0
-2748 217 0
-2748 229 0
-2749 17 0
-2749 85 0
-2749 244 0
-2750 17 0
-2750 85 0
-2750 184 0
-2750 238 0
-2751 17 0
-2751 85 0
-2751 193 0
-2751 229 0
-2752 17 0
-2752 95 0
-2752 166 0
-2752 244 0
-2753 17 0
-2753 95 0
-2753 184 0
-2753 217 0
-2754 17 0
-2754 95 0
-2754 193 0
-2755 17 0
-2755 103 0
-2755 166 0
-2755 238 0
-2756 17 0
-2756 103 0
-2756 217 0
-2757 17 0
-2757 103 0
-2757 193 0
-2757 200 0
-2758 17 0
-2758 112 0
-2758 166 0
-2758 229 0
-2759 17 0
-2759 112 0
-2760 17 0
-2760 112 0
-2760 184 0
-2760 200 0
-2761 26 0
-2761 200 0
-2761 244 0
-2762 26 0
-2762 238 0
-2763 26 0
-2763 217 0
-2763 229 0
-2764 26 0
-2764 85 0
-2764 140 0
-2764 244 0
-2765 26 0
-2765 85 0
-2765 148 0
-2765 238 0
-2766 26 0
-2766 85 0
-2766 157 0
-2766 229 0
-2767 26 0
-2767 95 0
-2767 130 0
-2767 244 0
-2768 26 0
-2768 95 0
-2768 148 0
-2768 217 0
-2769 26 0
-2769 95 0
-2769 157 0
-2770 26 0
-2770 103 0
-2770 130 0
-2770 238 0
-2771 26 0
-2771 103 0
-2771 140 0
-2771 217 0
-2772 26 0
-2772 103 0
-2772 157 0
-2772 200 0
-2773 26 0
-2773 112 0
-2773 130 0
-2773 229 0
-2774 26 0
-2774 112 0
-2774 140 0
-2775 26 0
-2775 112 0
-2775 148 0
-2775 200 0
-2776 34 0
-2776 244 0
-2777 34 0
-2777 184 0
-2777 238 0
-2778 34 0
-2778 193 0
-2778 229 0
-2779 34 0
-2779 77 0
-2779 140 0
-2779 244 0
-2780 34 0
-2780 77 0
-2780 148 0
-2780 238 0
-2781 34 0
-2781 77 0
-2781 157 0
-2781 229 0
-2782 34 0
-2782 95 0
-2782 122 0
-2782 244 0
-2783 34 0
-2783 95 0
-2783 148 0
-2783 193 0
-2784 34 0
-2784 95 0
-2784 157 0
-2784 184 0
-2785 34 0
-2785 103 0
-2785 122 0
-2785 238 0
-2786 34 0
-2786 103 0
-2786 140 0
-2786 193 0
-2787 34 0
-2787 103 0
-2787 157 0
-2788 34 0
-2788 112 0
-2788 122 0
-2788 229 0
-2789 34 0
-2789 112 0
-2789 140 0
-2789 184 0
-2790 34 0
-2790 112 0
-2790 148 0
-2791 44 0
-2791 166 0
-2791 244 0
-2792 44 0
-2792 184 0
-2792 217 0
-2793 44 0
-2793 193 0
-2794 44 0
-2794 77 0
-2794 130 0
-2794 244 0
-2795 44 0
-2795 77 0
-2795 148 0
-2795 217 0
-2796 44 0
-2796 77 0
-2796 157 0
-2797 44 0
-2797 85 0
-2797 122 0
-2797 244 0
-2798 44 0
-2798 85 0
-2798 148 0
-2798 193 0
-2799 44 0
-2799 85 0
-2799 157 0
-2799 184 0
-2800 44 0
-2800 103 0
-2800 122 0
-2800 217 0
-2801 44 0
-2801 103 0
-2801 130 0
-2801 193 0
-2802 44 0
-2802 103 0
-2802 157 0
-2802 166 0
-2803 44 0
-2803 112 0
-2803 122 0
-2804 44 0
-2804 112 0
-2804 130 0
-2804 184 0
-2805 44 0
-2805 112 0
-2805 148 0
-2805 166 0
-2806 52 0
-2806 166 0
-2806 238 0
-2807 52 0
-2807 217 0
-2808 52 0
-2808 193 0
-2808 200 0
-2809 52 0
-2809 77 0
-2809 130 0
-2809 238 0
-2810 52 0
-2810 77 0
-2810 140 0
-2810 217 0
-2811 52 0
-2811 77 0
-2811 157 0
-2811 200 0
-2812 52 0
-2812 85 0
-2812 122 0
-2812 238 0
-2813 52 0
-2813 85 0
-2813 140 0
-2813 193 0
-2814 52 0
-2814 85 0
-2814 157 0
-2815 52 0
-2815 95 0
-2815 122 0
-2815 217 0
-2816 52 0
-2816 95 0
-2816 130 0
-2816 193 0
-2817 52 0
-2817 95 0
-2817 157 0
-2817 166 0
-2818 52 0
-2818 112 0
-2818 122 0
-2818 200 0
-2819 52 0
-2819 112 0
-2819 130 0
-2820 52 0
-2820 112 0
-2820 140 0
-2820 166 0
-2821 166 0
-2821 229 0
-2822 184 0
-2822 200 0
-2823 77 0
-2823 130 0
-2823 229 0
-2824 77 0
-2824 140 0
-2825 77 0
-2825 148 0
-2825 200 0
-2826 85 0
-2826 122 0
-2826 229 0
-2827 85 0
-2827 140 0
-2827 184 0
-2828 85 0
-2828 148 0
-2829 95 0
-2829 122 0
-2830 95 0
-2830 130 0
-2830 184 0
-2831 95 0
-2831 148 0
-2831 166 0
-2832 103 0
-2832 122 0
-2832 200 0
-2833 103 0
-2833 130 0
-2834 103 0
-2834 140 0
-2834 166 0
-61 -68 -176 -208 2731 2732 2733 2734 2735 2736 2737 2738 2739 2740 2741 2742 2743 2744 2745 2746 2747 2748 2749 2750 2751 2752 2753 2754 2755 2756 2757 2758 2759 2760 2761 2762 2763 2764 2765 2766 2767 2768 2769 2770 2771 2772 2773 2774 2775 2776 2777 2778 2779 2780 2781 2782 2783 2784 2785 2786 2787 2788 2789 2790 2791 2792 2793 2794 2795 2796 2797 2798 2799 2800 2801 2802 2803 2804 2805 2806 2807 2808 2809 2810 2811 2812 2813 2814 2815 2816 2817 2818 2819 2820 2821 2822 2823 2824 2825 2826 2827 2828 2829 2830 2831 2832 2833 2834 0
-2835 5 0
-2835 123 0
-2835 199 0
-2835 246 0
-2836 5 0
-2836 123 0
-2836 237 0
-2837 5 0
-2837 123 0
-2837 219 0
-2837 226 0
-2838 5 0
-2838 130 0
-2838 246 0
-2839 5 0
-2839 130 0
-2839 187 0
-2839 237 0
-2840 5 0
-2840 130 0
-2840 198 0
-2840 226 0
-2841 5 0
-2841 139 0
-2841 169 0
-2841 246 0
-2842 5 0
-2842 139 0
-2842 187 0
-2842 219 0
-2843 5 0
-2843 139 0
-2843 198 0
-2844 5 0
-2844 148 0
-2844 169 0
-2844 237 0
-2845 5 0
-2845 148 0
-2845 219 0
-2846 5 0
-2846 148 0
-2846 198 0
-2846 199 0
-2847 5 0
-2847 159 0
-2847 169 0
-2847 226 0
-2848 5 0
-2848 159 0
-2849 5 0
-2849 159 0
-2849 187 0
-2849 199 0
-2850 14 0
-2850 78 0
-2850 199 0
-2850 246 0
-2851 14 0
-2851 78 0
-2851 237 0
-2852 14 0
-2852 78 0
-2852 219 0
-2852 226 0
-2853 14 0
-2853 85 0
-2853 246 0
-2854 14 0
-2854 85 0
-2854 187 0
-2854 237 0
-2855 14 0
-2855 85 0
-2855 198 0
-2855 226 0
-2856 14 0
-2856 94 0
-2856 169 0
-2856 246 0
-2857 14 0
-2857 94 0
-2857 187 0
-2857 219 0
-2858 14 0
-2858 94 0
-2858 198 0
-2859 14 0
-2859 103 0
-2859 169 0
-2859 237 0
-2860 14 0
-2860 103 0
-2860 219 0
-2861 14 0
-2861 103 0
-2861 198 0
-2861 199 0
-2862 14 0
-2862 114 0
-2862 169 0
-2862 226 0
-2863 14 0
-2863 114 0
-2864 14 0
-2864 114 0
-2864 187 0
-2864 199 0
-2865 24 0
-2865 199 0
-2865 246 0
-2866 24 0
-2866 237 0
-2867 24 0
-2867 219 0
-2867 226 0
-2868 24 0
-2868 85 0
-2868 139 0
-2868 246 0
-2869 24 0
-2869 85 0
-2869 148 0
-2869 237 0
-2870 24 0
-2870 85 0
-2870 159 0
-2870 226 0
-2871 24 0
-2871 94 0
-2871 130 0
-2871 246 0
-2872 24 0
-2872 94 0
-2872 148 0
-2872 219 0
-2873 24 0
-2873 94 0
-2873 159 0
-2874 24 0
-2874 103 0
-2874 130 0
-2874 237 0
-2875 24 0
-2875 103 0
-2875 139 0
-2875 219 0
-2876 24 0
-2876 103 0
-2876 159 0
-2876 199 0
-2877 24 0
-2877 114 0
-2877 130 0
-2877 226 0
-2878 24 0
-2878 114 0
-2878 139 0
-2879 24 0
-2879 114 0
-2879 148 0
-2879 199 0
-2880 31 0
-2880 246 0
-2881 31 0
-2881 187 0
-2881 237 0
-2882 31 0
-2882 198 0
-2882 226 0
-2883 31 0
-2883 78 0
-2883 139 0
-2883 246 0
-2884 31 0
-2884 78 0
-2884 148 0
-2884 237 0
-2885 31 0
-2885 78 0
-2885 159 0
-2885 226 0
-2886 31 0
-2886 94 0
-2886 123 0
-2886 246 0
-2887 31 0
-2887 94 0
-2887 148 0
-2887 198 0
-2888 31 0
-2888 94 0
-2888 159 0
-2888 187 0
-2889 31 0
-2889 103 0
-2889 123 0
-2889 237 0
-2890 31 0
-2890 103 0
-2890 139 0
-2890 198 0
-2891 31 0
-2891 103 0
-2891 159 0
-2892 31 0
-2892 114 0
-2892 123 0
-2892 226 0
-2893 31 0
-2893 114 0
-2893 139 0
-2893 187 0
-2894 31 0
-2894 114 0
-2894 148 0
-2895 40 0
-2895 169 0
-2895 246 0
-2896 40 0
-2896 187 0
-2896 219 0
-2897 40 0
-2897 198 0
-2898 40 0
-2898 78 0
-2898 130 0
-2898 246 0
-2899 40 0
-2899 78 0
-2899 148 0
-2899 219 0
-2900 40 0
-2900 78 0
-2900 159 0
-2901 40 0
-2901 85 0
-2901 123 0
-2901 246 0
-2902 40 0
-2902 85 0
-2902 148 0
-2902 198 0
-2903 40 0
-2903 85 0
-2903 159 0
-2903 187 0
-2904 40 0
-2904 103 0
-2904 123 0
-2904 219 0
-2905 40 0
-2905 103 0
-2905 130 0
-2905 198 0
-2906 40 0
-2906 103 0
-2906 159 0
-2906 169 0
-2907 40 0
-2907 114 0
-2907 123 0
-2908 40 0
-2908 114 0
-2908 130 0
-2908 187 0
-2909 40 0
-2909 114 0
-2909 148 0
-2909 169 0
-2910 49 0
-2910 169 0
-2910 237 0
-2911 49 0
-2911 219 0
-2912 49 0
-2912 198 0
-2912 199 0
-2913 49 0
-2913 78 0
-2913 130 0
-2913 237 0
-2914 49 0
-2914 78 0
-2914 139 0
-2914 219 0
-2915 49 0
-2915 78 0
-2915 159 0
-2915 199 0
-2916 49 0
-2916 85 0
-2916 123 0
-2916 237 0
-2917 49 0
-2917 85 0
-2917 139 0
-2917 198 0
-2918 49 0
-2918 85 0
-2918 159 0
-2919 49 0
-2919 94 0
-2919 123 0
-2919 219 0
-2920 49 0
-2920 94 0
-2920 130 0
-2920 198 0
-2921 49 0
-2921 94 0
-2921 159 0
-2921 169 0
-2922 49 0
-2922 114 0
-2922 123 0
-2922 199 0
-2923 49 0
-2923 114 0
-2923 130 0
-2924 49 0
-2924 114 0
-2924 139 0
-2924 169 0
-2925 169 0
-2925 226 0
-2926 187 0
-2926 199 0
-2927 78 0
-2927 130 0
-2927 226 0
-2928 78 0
-2928 139 0
-2929 78 0
-2929 148 0
-2929 199 0
-2930 85 0
-2930 123 0
-2930 226 0
-2931 85 0
-2931 139 0
-2931 187 0
-2932 85 0
-2932 148 0
-2933 94 0
-2933 123 0
-2934 94 0
-2934 130 0
-2934 187 0
-2935 94 0
-2935 148 0
-2935 169 0
-2936 103 0
-2936 123 0
-2936 199 0
-2937 103 0
-2937 130 0
-2938 103 0
-2938 139 0
-2938 169 0
-60 -68 -178 -208 2835 2836 2837 2838 2839 2840 2841 2842 2843 2844 2845 2846 2847 2848 2849 2850 2851 2852 2853 2854 2855 2856 2857 2858 2859 2860 2861 2862 2863 2864 2865 2866 2867 2868 2869 2870 2871 2872 2873 2874 2875 2876 2877 2878 2879 2880 2881 2882 2883 2884 2885 2886 2887 2888 2889 2890 2891 2892 2893 2894 2895 2896 2897 2898 2899 2900 2901 2902 2903 2904 2905 2906 2907 2908 2909 2910 2911 2912 2913 2914 2915 2916 2917 2918 2919 2920 2921 2922 2923 2924 2925 2926 2927 2928 2929 2930 2931 2932 2933 2934 2935 2936 2937 2938 0
-2939 5 0
-2939 122 0
-2939 202 0
-2940 5 0
-2940 122 0
-2940 212 0
-2940 236 0
-2941 5 0
-2941 122 0
-2941 221 0
-2941 227 0
-2942 5 0
-2942 131 0
-2942 175 0
-2943 5 0
-2943 131 0
-2943 185 0
-2943 236 0
-2944 5 0
-2944 131 0
-2944 194 0
-2944 227 0
-2945 5 0
-2945 139 0
-2946 5 0
-2946 139 0
-2946 185 0
-2946 221 0
-2947 5 0
-2947 139 0
-2947 194 0
-2947 212 0
-2948 5 0
-2948 149 0
-2948 236 0
-2949 5 0
-2949 149 0
-2949 175 0
-2949 221 0
-2950 5 0
-2950 149 0
-2950 194 0
-2950 202 0
-2951 5 0
-2951 158 0
-2951 227 0
-2952 5 0
-2952 158 0
-2952 175 0
-2952 212 0
-2953 5 0
-2953 158 0
-2953 185 0
-2953 202 0
-2954 14 0
-2954 77 0
-2954 202 0
-2955 14 0
-2955 77 0
-2955 212 0
-2955 236 0
-2956 14 0
-2956 77 0
-2956 221 0
-2956 227 0
-2957 14 0
-2957 86 0
-2957 175 0
-2958 14 0
-2958 86 0
-2958 185 0
-2958 236 0
-2959 14 0
-2959 86 0
-2959 194 0
-2959 227 0
-2960 14 0
-2960 94 0
-2961 14 0
-2961 94 0
-2961 185 0
-2961 221 0
-2962 14 0
-2962 94 0
-2962 194 0
-2962 212 0
-2963 14 0
-2963 104 0
-2963 236 0
-2964 14 0
-2964 104 0
-2964 175 0
-2964 221 0
-2965 14 0
-2965 104 0
-2965 194 0
-2965 202 0
-2966 14 0
-2966 113 0
-2966 227 0
-2967 14 0
-2967 113 0
-2967 175 0
-2967 212 0
-2968 14 0
-2968 113 0
-2968 185 0
-2968 202 0
-2969 23 0
-2969 202 0
-2970 23 0
-2970 212 0
-2970 236 0
-2971 23 0
-2971 221 0
-2971 227 0
-2972 23 0
-2972 86 0
-2972 139 0
-2973 23 0
-2973 86 0
-2973 149 0
-2973 236 0
-2974 23 0
-2974 86 0
-2974 158 0
-2974 227 0
-2975 23 0
-2975 94 0
-2975 131 0
-2976 23 0
-2976 94 0
-2976 149 0
-2976 221 0
-2977 23 0
-2977 94 0
-2977 158 0
-2977 212 0
-2978 23 0
-2978 104 0
-2978 131 0
-2978 236 0
-2979 23 0
-2979 104 0
-2979 139 0
-2979 221 0
-2980 23 0
-2980 104 0
-2980 158 0
-2980 202 0
-2981 23 0
-2981 113 0
-2981 131 0
-2981 227 0
-2982 23 0
-2982 113 0
-2982 139 0
-2982 212 0
-2983 23 0
-2983 113 0
-2983 149 0
-2983 202 0
-2984 32 0
-2984 175 0
-2985 32 0
-2985 185 0
-2985 236 0
-2986 32 0
-2986 194 0
-2986 227 0
-2987 32 0
-2987 77 0
-2987 139 0
-2988 32 0
-2988 77 0
-2988 149 0
-2988 236 0
-2989 32 0
-2989 77 0
-2989 158 0
-2989 227 0
-2990 32 0
-2990 94 0
-2990 122 0
-2991 32 0
-2991 94 0
-2991 149 0
-2991 194 0
-2992 32 0
-2992 94 0
-2992 158 0
-2992 185 0
-2993 32 0
-2993 104 0
-2993 122 0
-2993 236 0
-2994 32 0
-2994 104 0
-2994 139 0
-2994 194 0
-2995 32 0
-2995 104 0
-2995 158 0
-2995 175 0
-2996 32 0
-2996 113 0
-2996 122 0
-2996 227 0
-2997 32 0
-2997 113 0
-2997 139 0
-2997 185 0
-2998 32 0
-2998 113 0
-2998 149 0
-2998 175 0
-2999 185 0
-2999 221 0
-3000 194 0
-3000 212 0
-3001 77 0
-3001 131 0
-3002 77 0
-3002 149 0
-3002 221 0
-3003 77 0
-3003 158 0
-3003 212 0
-3004 86 0
-3004 122 0
-3005 86 0
-3005 149 0
-3005 194 0
-3006 86 0
-3006 158 0
-3006 185 0
-3007 104 0
-3007 122 0
-3007 221 0
-3008 104 0
-3008 131 0
-3008 194 0
-3009 104 0
-3009 158 0
-3010 113 0
-3010 122 0
-3010 212 0
-3011 113 0
-3011 131 0
-3011 185 0
-3012 113 0
-3012 149 0
-3013 50 0
-3013 236 0
-3014 50 0
-3014 175 0
-3014 221 0
-3015 50 0
-3015 194 0
-3015 202 0
-3016 50 0
-3016 77 0
-3016 131 0
-3016 236 0
-3017 50 0
-3017 77 0
-3017 139 0
-3017 221 0
-3018 50 0
-3018 77 0
-3018 158 0
-3018 202 0
-3019 50 0
-3019 86 0
-3019 122 0
-3019 236 0
-3020 50 0
-3020 86 0
-3020 139 0
-3020 194 0
-3021 50 0
-3021 86 0
-3021 158 0
-3021 175 0
-3022 50 0
-3022 94 0
-3022 122 0
-3022 221 0
-3023 50 0
-3023 94 0
-3023 131 0
-3023 194 0
-3024 50 0
-3024 94 0
-3024 158 0
-3025 50 0
-3025 113 0
-3025 122 0
-3025 202 0
-3026 50 0
-3026 113 0
-3026 131 0
-3026 175 0
-3027 50 0
-3027 113 0
-3027 139 0
-3028 59 0
-3028 227 0
-3029 59 0
-3029 175 0
-3029 212 0
-3030 59 0
-3030 185 0
-3030 202 0
-3031 59 0
-3031 77 0
-3031 131 0
-3031 227 0
-3032 59 0
-3032 77 0
-3032 139 0
-3032 212 0
-3033 59 0
-3033 77 0
-3033 149 0
-3033 202 0
-3034 59 0
-3034 86 0
-3034 122 0
-3034 227 0
-3035 59 0
-3035 86 0
-3035 139 0
-3035 185 0
-3036 59 0
-3036 86 0
-3036 149 0
-3036 175 0
-3037 59 0
-3037 94 0
-3037 122 0
-3037 212 0
-3038 59 0
-3038 94 0
-3038 131 0
-3038 185 0
-3039 59 0
-3039 94 0
-3039 149 0
-3040 59 0
-3040 104 0
-3040 122 0
-3040 202 0
-3041 59 0
-3041 104 0
-3041 131 0
-3041 175 0
-3042 59 0
-3042 104 0
-3042 139 0
-40 -68 -167 -248 2939 2940 2941 2942 2943 2944 2945 2946 2947 2948 2949 2950 2951 2952 2953 2954 2955 2956 2957 2958 2959 2960 2961 2962 2963 2964 2965 2966 2967 2968 2969 2970 2971 2972 2973 2974 2975 2976 2977 2978 2979 2980 2981 2982 2983 2984 2985 2986 2987 2988 2989 2990 2991 2992 2993 2994 2995 2996 2997 2998 2999 3000 3001 3002 3003 3004 3005 3006 3007 3008 3009 3010 3011 3012 3013 3014 3015 3016 3017 3018 3019 3020 3021 3022 3023 3024 3025 3026 3027 3028 3029 3030 3031 3032 3033 3034 3035 3036 3037 3038 3039 3040 3041 3042 0
-3043 5 0
-3043 119 0
-3043 202 0
-3043 250 0
-3044 5 0
-3044 119 0
-3044 213 0
-3045 5 0
-3045 119 0
-3045 220 0
-3045 228 0
-3046 5 0
-3046 128 0
-3046 175 0
-3046 250 0
-3047 5 0
-3047 128 0
-3047 186 0
-3048 5 0
-3048 128 0
-3048 193 0
-3048 228 0
-3049 5 0
-3049 136 0
-3049 250 0
-3050 5 0
-3050 136 0
-3050 186 0
-3050 220 0
-3051 5 0
-3051 136 0
-3051 193 0
-3051 213 0
-3052 5 0
-3052 147 0
-3053 5 0
-3053 147 0
-3053 175 0
-3053 220 0
-3054 5 0
-3054 147 0
-3054 193 0
-3054 202 0
-3055 5 0
-3055 154 0
-3055 228 0
-3056 5 0
-3056 154 0
-3056 175 0
-3056 213 0
-3057 5 0
-3057 154 0
-3057 186 0
-3057 202 0
-3058 77 0
-3058 202 0
-3058 250 0
-3059 77 0
-3059 213 0
-3060 77 0
-3060 220 0
-3060 228 0
-3061 86 0
-3061 175 0
-3061 250 0
-3062 86 0
-3062 186 0
-3063 86 0
-3063 193 0
-3063 228 0
-3064 94 0
-3064 250 0
-3065 94 0
-3065 186 0
-3065 220 0
-3066 94 0
-3066 193 0
-3066 213 0
-3067 175 0
-3067 220 0
-3068 193 0
-3068 202 0
-3069 112 0
-3069 228 0
-3070 112 0
-3070 175 0
-3070 213 0
-3071 112 0
-3071 186 0
-3071 202 0
-3072 23 0
-3072 67 0
-3072 202 0
-3072 250 0
-3073 23 0
-3073 67 0
-3073 213 0
-3074 23 0
-3074 67 0
-3074 220 0
-3074 228 0
-3075 23 0
-3075 86 0
-3075 136 0
-3075 250 0
-3076 23 0
-3076 86 0
-3076 147 0
-3077 23 0
-3077 86 0
-3077 154 0
-3077 228 0
-3078 23 0
-3078 94 0
-3078 128 0
-3078 250 0
-3079 23 0
-3079 94 0
-3079 147 0
-3079 220 0
-3080 23 0
-3080 94 0
-3080 154 0
-3080 213 0
-3081 23 0
-3081 128 0
-3082 23 0
-3082 136 0
-3082 220 0
-3083 23 0
-3083 154 0
-3083 202 0
-3084 23 0
-3084 112 0
-3084 128 0
-3084 228 0
-3085 23 0
-3085 112 0
-3085 136 0
-3085 213 0
-3086 23 0
-3086 112 0
-3086 147 0
-3086 202 0
-3087 32 0
-3087 67 0
-3087 175 0
-3087 250 0
-3088 32 0
-3088 67 0
-3088 186 0
-3089 32 0
-3089 67 0
-3089 193 0
-3089 228 0
-3090 32 0
-3090 77 0
-3090 136 0
-3090 250 0
-3091 32 0
-3091 77 0
-3091 147 0
-3092 32 0
-3092 77 0
-3092 154 0
-3092 228 0
-3093 32 0
-3093 94 0
-3093 119 0
-3093 250 0
-3094 32 0
-3094 94 0
-3094 147 0
-3094 193 0
-3095 32 0
-3095 94 0
-3095 154 0
-3095 186 0
-3096 32 0
-3096 119 0
-3097 32 0
-3097 136 0
-3097 193 0
-3098 32 0
-3098 154 0
-3098 175 0
-3099 32 0
-3099 112 0
-3099 119 0
-3099 228 0
-3100 32 0
-3100 112 0
-3100 136 0
-3100 186 0
-3101 32 0
-3101 112 0
-3101 147 0
-3101 175 0
-3102 40 0
-3102 67 0
-3102 250 0
-3103 40 0
-3103 67 0
-3103 186 0
-3103 220 0
-3104 40 0
-3104 67 0
-3104 193 0
-3104 213 0
-3105 40 0
-3105 77 0
-3105 128 0
-3105 250 0
-3106 40 0
-3106 77 0
-3106 147 0
-3106 220 0
-3107 40 0
-3107 77 0
-3107 154 0
-3107 213 0
-3108 40 0
-3108 86 0
-3108 119 0
-3108 250 0
-3109 40 0
-3109 86 0
-3109 147 0
-3109 193 0
-3110 40 0
-3110 86 0
-3110 154 0
-3110 186 0
-3111 40 0
-3111 119 0
-3111 220 0
-3112 40 0
-3112 128 0
-3112 193 0
-3113 40 0
-3113 154 0
-3114 40 0
-3114 112 0
-3114 119 0
-3114 213 0
-3115 40 0
-3115 112 0
-3115 128 0
-3115 186 0
-3116 40 0
-3116 112 0
-3116 147 0
-3117 51 0
-3117 67 0
-3118 51 0
-3118 67 0
-3118 175 0
-3118 220 0
-3119 51 0
-3119 67 0
-3119 193 0
-3119 202 0
-3120 51 0
-3120 77 0
-3120 128 0
-3121 51 0
-3121 77 0
-3121 136 0
-3121 220 0
-3122 51 0
-3122 77 0
-3122 154 0
-3122 202 0
-3123 51 0
-3123 86 0
-3123 119 0
-3124 51 0
-3124 86 0
-3124 136 0
-3124 193 0
-3125 51 0
-3125 86 0
-3125 154 0
-3125 175 0
-3126 51 0
-3126 94 0
-3126 119 0
-3126 220 0
-3127 51 0
-3127 94 0
-3127 128 0
-3127 193 0
-3128 51 0
-3128 94 0
-3128 154 0
-3129 51 0
-3129 112 0
-3129 119 0
-3129 202 0
-3130 51 0
-3130 112 0
-3130 128 0
-3130 175 0
-3131 51 0
-3131 112 0
-3131 136 0
-3132 58 0
-3132 67 0
-3132 228 0
-3133 58 0
-3133 67 0
-3133 175 0
-3133 213 0
-3134 58 0
-3134 67 0
-3134 186 0
-3134 202 0
-3135 58 0
-3135 77 0
-3135 128 0
-3135 228 0
-3136 58 0
-3136 77 0
-3136 136 0
-3136 213 0
-3137 58 0
-3137 77 0
-3137 147 0
-3137 202 0
-3138 58 0
-3138 86 0
-3138 119 0
-3138 228 0
-3139 58 0
-3139 86 0
-3139 136 0
-3139 186 0
-3140 58 0
-3140 86 0
-3140 147 0
-3140 175 0
-3141 58 0
-3141 94 0
-3141 119 0
-3141 213 0
-3142 58 0
-3142 94 0
-3142 128 0
-3142 186 0
-3143 58 0
-3143 94 0
-3143 147 0
-3144 58 0
-3144 119 0
-3144 202 0
-3145 58 0
-3145 128 0
-3145 175 0
-3146 58 0
-3146 136 0
-13 -105 -167 -235 3043 3044 3045 3046 3047 3048 3049 3050 3051 3052 3053 3054 3055 3056 3057 3058 3059 3060 3061 3062 3063 3064 3065 3066 3067 3068 3069 3070 3071 3072 3073 3074 3075 3076 3077 3078 3079 3080 3081 3082 3083 3084 3085 3086 3087 3088 3089 3090 3091 3092 3093 3094 3095 3096 3097 3098 3099 3100 3101 3102 3103 3104 3105 3106 3107 3108 3109 3110 3111 3112 3113 3114 3115 3116 3117 3118 3119 3120 3121 3122 3123 3124 3125 3126 3127 3128 3129 3130 3131 3132 3133 3134 3135 3136 3137 3138 3139 3140 3141 3142 3143 3144 3145 3146 0
-3147 8 0
-3147 121 0
-3147 199 0
-3147 244 0
-3148 8 0
-3148 121 0
-3149 8 0
-3149 121 0
-3149 217 0
-3149 226 0
-3150 8 0
-3150 130 0
-3150 172 0
-3150 244 0
-3151 8 0
-3151 130 0
-3151 181 0
-3152 8 0
-3152 130 0
-3152 190 0
-3152 226 0
-3153 8 0
-3153 139 0
-3153 163 0
-3153 244 0
-3154 8 0
-3154 139 0
-3154 181 0
-3154 217 0
-3155 8 0
-3155 139 0
-3155 190 0
-3156 8 0
-3156 148 0
-3156 163 0
-3157 8 0
-3157 148 0
-3157 172 0
-3157 217 0
-3158 8 0
-3158 148 0
-3158 190 0
-3158 199 0
-3159 8 0
-3159 157 0
-3159 163 0
-3159 226 0
-3160 8 0
-3160 157 0
-3160 172 0
-3161 8 0
-3161 157 0
-3161 181 0
-3161 199 0
-3162 17 0
-3162 76 0
-3162 199 0
-3162 244 0
-3163 17 0
-3163 76 0
-3164 17 0
-3164 76 0
-3164 217 0
-3164 226 0
-3165 17 0
-3165 85 0
-3165 172 0
-3165 244 0
-3166 17 0
-3166 85 0
-3166 181 0
-3167 17 0
-3167 85 0
-3167 190 0
-3167 226 0
-3168 17 0
-3168 94 0
-3168 163 0
-3168 244 0
-3169 17 0
-3169 94 0
-3169 181 0
-3169 217 0
-3170 17 0
-3170 94 0
-3170 190 0
-3171 17 0
-3171 103 0
-3171 163 0
-3172 17 0
-3172 103 0
-3172 172 0
-3172 217 0
-3173 17 0
-3173 103 0
-3173 190 0
-3173 199 0
-3174 17 0
-3174 112 0
-3174 163 0
-3174 226 0
-3175 17 0
-3175 112 0
-3175 172 0
-3176 17 0
-3176 112 0
-3176 181 0
-3176 199 0
-3177 199 0
-3177 244 0
-3178 217 0
-3178 226 0
-3179 85 0
-3179 139 0
-3179 244 0
-3180 85 0
-3180 148 0
-3181 85 0
-3181 157 0
-3181 226 0
-3182 94 0
-3182 130 0
-3182 244 0
-3183 94 0
-3183 148 0
-3183 217 0
-3184 94 0
-3184 157 0
-3185 103 0
-3185 130 0
-3186 103 0
-3186 139 0
-3186 217 0
-3187 103 0
-3187 157 0
-3187 199 0
-3188 112 0
-3188 130 0
-3188 226 0
-3189 112 0
-3189 139 0
-3190 112 0
-3190 148 0
-3190 199 0
-3191 34 0
-3191 172 0
-3191 244 0
-3192 34 0
-3192 181 0
-3193 34 0
-3193 190 0
-3193 226 0
-3194 34 0
-3194 76 0
-3194 139 0
-3194 244 0
-3195 34 0
-3195 76 0
-3195 148 0
-3196 34 0
-3196 76 0
-3196 157 0
-3196 226 0
-3197 34 0
-3197 94 0
-3197 121 0
-3197 244 0
-3198 34 0
-3198 94 0
-3198 148 0
-3198 190 0
-3199 34 0
-3199 94 0
-3199 157 0
-3199 181 0
-3200 34 0
-3200 103 0
-3200 121 0
-3201 34 0
-3201 103 0
-3201 139 0
-3201 190 0
-3202 34 0
-3202 103 0
-3202 157 0
-3202 172 0
-3203 34 0
-3203 112 0
-3203 121 0
-3203 226 0
-3204 34 0
-3204 112 0
-3204 139 0
-3204 181 0
-3205 34 0
-3205 112 0
-3205 148 0
-3205 172 0
-3206 43 0
-3206 163 0
-3206 244 0
-3207 43 0
-3207 181 0
-3207 217 0
-3208 43 0
-3208 190 0
-3209 43 0
-3209 76 0
-3209 130 0
-3209 244 0
-3210 43 0
-3210 76 0
-3210 148 0
-3210 217 0
-3211 43 0
-3211 76 0
-3211 157 0
-3212 43 0
-3212 85 0
-3212 121 0
-3212 244 0
-3213 43 0
-3213 85 0
-3213 148 0
-3213 190 0
-3214 43 0
-3214 85 0
-3214 157 0
-3214 181 0
-3215 43 0
-3215 103 0
-3215 121 0
-3215 217 0
-3216 43 0
-3216 103 0
-3216 130 0
-3216 190 0
-3217 43 0
-3217 103 0
-3217 157 0
-3217 163 0
-3218 43 0
-3218 112 0
-3218 121 0
-3219 43 0
-3219 112 0
-3219 130 0
-3219 181 0
-3220 43 0
-3220 112 0
-3220 148 0
-3220 163 0
-3221 52 0
-3221 163 0
-3222 52 0
-3222 172 0
-3222 217 0
-3223 52 0
-3223 190 0
-3223 199 0
-3224 52 0
-3224 76 0
-3224 130 0
-3225 52 0
-3225 76 0
-3225 139 0
-3225 217 0
-3226 52 0
-3226 76 0
-3226 157 0
-3226 199 0
-3227 52 0
-3227 85 0
-3227 121 0
-3228 52 0
-3228 85 0
-3228 139 0
-3228 190 0
-3229 52 0
-3229 85 0
-3229 157 0
-3229 172 0
-3230 52 0
-3230 94 0
-3230 121 0
-3230 217 0
-3231 52 0
-3231 94 0
-3231 130 0
-3231 190 0
-3232 52 0
-3232 94 0
-3232 157 0
-3232 163 0
-3233 52 0
-3233 112 0
-3233 121 0
-3233 199 0
-3234 52 0
-3234 112 0
-3234 130 0
-3234 172 0
-3235 52 0
-3235 112 0
-3235 139 0
-3235 163 0
-3236 61 0
-3236 163 0
-3236 226 0
-3237 61 0
-3237 172 0
-3238 61 0
-3238 181 0
-3238 199 0
-3239 61 0
-3239 76 0
-3239 130 0
-3239 226 0
-3240 61 0
-3240 76 0
-3240 139 0
-3241 61 0
-3241 76 0
-3241 148 0
-3241 199 0
-3242 61 0
-3242 85 0
-3242 121 0
-3242 226 0
-3243 61 0
-3243 85 0
-3243 139 0
-3243 181 0
-3244 61 0
-3244 85 0
-3244 148 0
-3244 172 0
-3245 61 0
-3245 94 0
-3245 121 0
-3246 61 0
-3246 94 0
-3246 130 0
-3246 181 0
-3247 61 0
-3247 94 0
-3247 148 0
-3247 163 0
-3248 61 0
-3248 103 0
-3248 121 0
-3248 199 0
-3249 61 0
-3249 103 0
-3249 130 0
-3249 172 0
-3250 61 0
-3250 103 0
-3250 139 0
-3250 163 0
-25 -68 -208 -235 3147 3148 3149 3150 3151 3152 3153 3154 3155 3156 3157 3158 3159 3160 3161 3162 3163 3164 3165 3166 3167 3168 3169 3170 3171 3172 3173 3174 3175 3176 3177 3178 3179 3180 3181 3182 3183 3184 3185 3186 3187 3188 3189 3190 3191 3192 3193 3194 3195 3196 3197 3198 3199 3200 3201 3202 3203 3204 3205 3206 3207 3208 3209 3210 3211 3212 3213 3214 3215 3216 3217 3218 3219 3220 3221 3222 3223 3224 3225 3226 3227 3228 3229 3230 3231 3232 3233 3234 3235 3236 3237 3238 3239 3240 3241 3242 3243 3244 3245 3246 3247 3248 3249 3250 0
-3251 5 0
-3251 123 0
-3251 203 0
-3252 5 0
-3252 123 0
-3252 212 0
-3252 239 0
-3253 5 0
-3253 123 0
-3253 221 0
-3253 230 0
-3254 5 0
-3254 131 0
-3255 5 0
-3255 131 0
-3255 188 0
-3255 239 0
-3256 5 0
-3256 131 0
-3256 197 0
-3256 230 0
-3257 5 0
-3257 140 0
-3257 170 0
-3258 5 0
-3258 140 0
-3258 188 0
-3258 221 0
-3259 5 0
-3259 140 0
-3259 197 0
-3259 212 0
-3260 5 0
-3260 149 0
-3260 170 0
-3260 239 0
-3261 5 0
-3261 149 0
-3261 221 0
-3262 5 0
-3262 149 0
-3262 197 0
-3262 203 0
-3263 5 0
-3263 158 0
-3263 170 0
-3263 230 0
-3264 5 0
-3264 158 0
-3264 212 0
-3265 5 0
-3265 158 0
-3265 188 0
-3265 203 0
-3266 14 0
-3266 78 0
-3266 203 0
-3267 14 0
-3267 78 0
-3267 212 0
-3267 239 0
-3268 14 0
-3268 78 0
-3268 221 0
-3268 230 0
-3269 14 0
-3269 86 0
-3270 14 0
-3270 86 0
-3270 188 0
-3270 239 0
-3271 14 0
-3271 86 0
-3271 197 0
-3271 230 0
-3272 14 0
-3272 95 0
-3272 170 0
-3273 14 0
-3273 95 0
-3273 188 0
-3273 221 0
-3274 14 0
-3274 95 0
-3274 197 0
-3274 212 0
-3275 14 0
-3275 104 0
-3275 170 0
-3275 239 0
-3276 14 0
-3276 104 0
-3276 221 0
-3277 14 0
-3277 104 0
-3277 197 0
-3277 203 0
-3278 14 0
-3278 113 0
-3278 170 0
-3278 230 0
-3279 14 0
-3279 113 0
-3279 212 0
-3280 14 0
-3280 113 0
-3280 188 0
-3280 203 0
-3281 24 0
-3281 203 0
-3282 24 0
-3282 212 0
-3282 239 0
-3283 24 0
-3283 221 0
-3283 230 0
-3284 24 0
-3284 86 0
-3284 140 0
-3285 24 0
-3285 86 0
-3285 149 0
-3285 239 0
-3286 24 0
-3286 86 0
-3286 158 0
-3286 230 0
-3287 24 0
-3287 95 0
-3287 131 0
-3288 24 0
-3288 95 0
-3288 149 0
-3288 221 0
-3289 24 0
-3289 95 0
-3289 158 0
-3289 212 0
-3290 24 0
-3290 104 0
-3290 131 0
-3290 239 0
-3291 24 0
-3291 104 0
-3291 140 0
-3291 221 0
-3292 24 0
-3292 104 0
-3292 158 0
-3292 203 0
-3293 24 0
-3293 113 0
-3293 131 0
-3293 230 0
-3294 24 0
-3294 113 0
-3294 140 0
-3294 212 0
-3295 24 0
-3295 113 0
-3295 149 0
-3295 203 0
-3296 188 0
-3296 239 0
-3297 197 0
-3297 230 0
-3298 78 0
-3298 140 0
-3299 78 0
-3299 149 0
-3299 239 0
-3300 78 0
-3300 158 0
-3300 230 0
-3301 95 0
-3301 123 0
-3302 95 0
-3302 149 0
-3302 197 0
-3303 95 0
-3303 158 0
-3303 188 0
-3304 104 0
-3304 123 0
-3304 239 0
-3305 104 0
-3305 140 0
-3305 197 0
-3306 104 0
-3306 158 0
-3307 113 0
-3307 123 0
-3307 230 0
-3308 113 0
-3308 140 0
-3308 188 0
-3309 113 0
-3309 149 0
-3310 41 0
-3310 170 0
-3311 41 0
-3311 188 0
-3311 221 0
-3312 41 0
-3312 197 0
-3312 212 0
-3313 41 0
-3313 78 0
-3313 131 0
-3314 41 0
-3314 78 0
-3314 149 0
-3314 221 0
-3315 41 0
-3315 78 0
-3315 158 0
-3315 212 0
-3316 41 0
-3316 86 0
-3316 123 0
-3317 41 0
-3317 86 0
-3317 149 0
-3317 197 0
-3318 41 0
-3318 86 0
-3318 158 0
-3318 188 0
-3319 41 0
-3319 104 0
-3319 123 0
-3319 221 0
-3320 41 0
-3320 104 0
-3320 131 0
-3320 197 0
-3321 41 0
-3321 104 0
-3321 158 0
-3321 170 0
-3322 41 0
-3322 113 0
-3322 123 0
-3322 212 0
-3323 41 0
-3323 113 0
-3323 131 0
-3323 188 0
-3324 41 0
-3324 113 0
-3324 149 0
-3324 170 0
-3325 50 0
-3325 170 0
-3325 239 0
-3326 50 0
-3326 221 0
-3327 50 0
-3327 197 0
-3327 203 0
-3328 50 0
-3328 78 0
-3328 131 0
-3328 239 0
-3329 50 0
-3329 78 0
-3329 140 0
-3329 221 0
-3330 50 0
-3330 78 0
-3330 158 0
-3330 203 0
-3331 50 0
-3331 86 0
-3331 123 0
-3331 239 0
-3332 50 0
-3332 86 0
-3332 140 0
-3332 197 0
-3333 50 0
-3333 86 0
-3333 158 0
-3334 50 0
-3334 95 0
-3334 123 0
-3334 221 0
-3335 50 0
-3335 95 0
-3335 131 0
-3335 197 0
-3336 50 0
-3336 95 0
-3336 158 0
-3336 170 0
-3337 50 0
-3337 113 0
-3337 123 0
-3337 203 0
-3338 50 0
-3338 113 0
-3338 131 0
-3339 50 0
-3339 113 0
-3339 140 0
-3339 170 0
-3340 59 0
-3340 170 0
-3340 230 0
-3341 59 0
-3341 212 0
-3342 59 0
-3342 188 0
-3342 203 0
-3343 59 0
-3343 78 0
-3343 131 0
-3343 230 0
-3344 59 0
-3344 78 0
-3344 140 0
-3344 212 0
-3345 59 0
-3345 78 0
-3345 149 0
-3345 203 0
-3346 59 0
-3346 86 0
-3346 123 0
-3346 230 0
-3347 59 0
-3347 86 0
-3347 140 0
-3347 188 0
-3348 59 0
-3348 86 0
-3348 149 0
-3349 59 0
-3349 95 0
-3349 123 0
-3349 212 0
-3350 59 0
-3350 95 0
-3350 131 0
-3350 188 0
-3351 59 0
-3351 95 0
-3351 149 0
-3351 170 0
-3352 59 0
-3352 104 0
-3352 123 0
-3352 203 0
-3353 59 0
-3353 104 0
-3353 131 0
-3354 59 0
-3354 104 0
-3354 140 0
-3354 170 0
-32 -68 -179 -248 3251 3252 3253 3254 3255 3256 3257 3258 3259 3260 3261 3262 3263 3264 3265 3266 3267 3268 3269 3270 3271 3272 3273 3274 3275 3276 3277 3278 3279 3280 3281 3282 3283 3284 3285 3286 3287 3288 3289 3290 3291 3292 3293 3294 3295 3296 3297 3298 3299 3300 3301 3302 3303 3304 3305 3306 3307 3308 3309 3310 3311 3312 3313 3314 3315 3316 3317 3318 3319 3320 3321 3322 3323 3324 3325 3326 3327 3328 3329 3330 3331 3332 3333 3334 3335 3336 3337 3338 3339 3340 3341 3342 3343 3344 3345 3346 3347 3348 3349 3350 3351 3352 3353 3354 0
-3355 5 0
-3355 122 0
-3355 200 0
-3356 5 0
-3356 122 0
-3356 209 0
-3356 239 0
-3357 5 0
-3357 122 0
-3357 218 0
-3357 230 0
-3358 5 0
-3358 130 0
-3359 5 0
-3359 130 0
-3359 185 0
-3359 239 0
-3360 5 0
-3360 130 0
-3360 194 0
-3360 230 0
-3361 5 0
-3361 140 0
-3361 166 0
-3362 5 0
-3362 140 0
-3362 185 0
-3362 218 0
-3363 5 0
-3363 140 0
-3363 194 0
-3363 209 0
-3364 5 0
-3364 149 0
-3364 166 0
-3364 239 0
-3365 5 0
-3365 149 0
-3365 218 0
-3366 5 0
-3366 149 0
-3366 194 0
-3366 200 0
-3367 5 0
-3367 158 0
-3367 166 0
-3367 230 0
-3368 5 0
-3368 158 0
-3368 209 0
-3369 5 0
-3369 158 0
-3369 185 0
-3369 200 0
-3370 14 0
-3370 77 0
-3370 200 0
-3371 14 0
-3371 77 0
-3371 209 0
-3371 239 0
-3372 14 0
-3372 77 0
-3372 218 0
-3372 230 0
-3373 14 0
-3373 85 0
-3374 14 0
-3374 85 0
-3374 185 0
-3374 239 0
-3375 14 0
-3375 85 0
-3375 194 0
-3375 230 0
-3376 14 0
-3376 95 0
-3376 166 0
-3377 14 0
-3377 95 0
-3377 185 0
-3377 218 0
-3378 14 0
-3378 95 0
-3378 194 0
-3378 209 0
-3379 14 0
-3379 104 0
-3379 166 0
-3379 239 0
-3380 14 0
-3380 104 0
-3380 218 0
-3381 14 0
-3381 104 0
-3381 194 0
-3381 200 0
-3382 14 0
-3382 113 0
-3382 166 0
-3382 230 0
-3383 14 0
-3383 113 0
-3383 209 0
-3384 14 0
-3384 113 0
-3384 185 0
-3384 200 0
-3385 23 0
-3385 200 0
-3386 23 0
-3386 209 0
-3386 239 0
-3387 23 0
-3387 218 0
-3387 230 0
-3388 23 0
-3388 85 0
-3388 140 0
-3389 23 0
-3389 85 0
-3389 149 0
-3389 239 0
-3390 23 0
-3390 85 0
-3390 158 0
-3390 230 0
-3391 23 0
-3391 95 0
-3391 130 0
-3392 23 0
-3392 95 0
-3392 149 0
-3392 218 0
-3393 23 0
-3393 95 0
-3393 158 0
-3393 209 0
-3394 23 0
-3394 104 0
-3394 130 0
-3394 239 0
-3395 23 0
-3395 104 0
-3395 140 0
-3395 218 0
-3396 23 0
-3396 104 0
-3396 158 0
-3396 200 0
-3397 23 0
-3397 113 0
-3397 130 0
-3397 230 0
-3398 23 0
-3398 113 0
-3398 140 0
-3398 209 0
-3399 23 0
-3399 113 0
-3399 149 0
-3399 200 0
-3400 185 0
-3400 239 0
-3401 194 0
-3401 230 0
-3402 77 0
-3402 140 0
-3403 77 0
-3403 149 0
-3403 239 0
-3404 77 0
-3404 158 0
-3404 230 0
-3405 95 0
-3405 122 0
-3406 95 0
-3406 149 0
-3406 194 0
-3407 95 0
-3407 158 0
-3407 185 0
-3408 104 0
-3408 122 0
-3408 239 0
-3409 104 0
-3409 140 0
-3409 194 0
-3410 104 0
-3410 158 0
-3411 113 0
-3411 122 0
-3411 230 0
-3412 113 0
-3412 140 0
-3412 185 0
-3413 113 0
-3413 149 0
-3414 41 0
-3414 166 0
-3415 41 0
-3415 185 0
-3415 218 0
-3416 41 0
-3416 194 0
-3416 209 0
-3417 41 0
-3417 77 0
-3417 130 0
-3418 41 0
-3418 77 0
-3418 149 0
-3418 218 0
-3419 41 0
-3419 77 0
-3419 158 0
-3419 209 0
-3420 41 0
-3420 85 0
-3420 122 0
-3421 41 0
-3421 85 0
-3421 149 0
-3421 194 0
-3422 41 0
-3422 85 0
-3422 158 0
-3422 185 0
-3423 41 0
-3423 104 0
-3423 122 0
-3423 218 0
-3424 41 0
-3424 104 0
-3424 130 0
-3424 194 0
-3425 41 0
-3425 104 0
-3425 158 0
-3425 166 0
-3426 41 0
-3426 113 0
-3426 122 0
-3426 209 0
-3427 41 0
-3427 113 0
-3427 130 0
-3427 185 0
-3428 41 0
-3428 113 0
-3428 149 0
-3428 166 0
-3429 50 0
-3429 166 0
-3429 239 0
-3430 50 0
-3430 218 0
-3431 50 0
-3431 194 0
-3431 200 0
-3432 50 0
-3432 77 0
-3432 130 0
-3432 239 0
-3433 50 0
-3433 77 0
-3433 140 0
-3433 218 0
-3434 50 0
-3434 77 0
-3434 158 0
-3434 200 0
-3435 50 0
-3435 85 0
-3435 122 0
-3435 239 0
-3436 50 0
-3436 85 0
-3436 140 0
-3436 194 0
-3437 50 0
-3437 85 0
-3437 158 0
-3438 50 0
-3438 95 0
-3438 122 0
-3438 218 0
-3439 50 0
-3439 95 0
-3439 130 0
-3439 194 0
-3440 50 0
-3440 95 0
-3440 158 0
-3440 166 0
-3441 50 0
-3441 113 0
-3441 122 0
-3441 200 0
-3442 50 0
-3442 113 0
-3442 130 0
-3443 50 0
-3443 113 0
-3443 140 0
-3443 166 0
-3444 59 0
-3444 166 0
-3444 230 0
-3445 59 0
-3445 209 0
-3446 59 0
-3446 185 0
-3446 200 0
-3447 59 0
-3447 77 0
-3447 130 0
-3447 230 0
-3448 59 0
-3448 77 0
-3448 140 0
-3448 209 0
-3449 59 0
-3449 77 0
-3449 149 0
-3449 200 0
-3450 59 0
-3450 85 0
-3450 122 0
-3450 230 0
-3451 59 0
-3451 85 0
-3451 140 0
-3451 185 0
-3452 59 0
-3452 85 0
-3452 149 0
-3453 59 0
-3453 95 0
-3453 122 0
-3453 209 0
-3454 59 0
-3454 95 0
-3454 130 0
-3454 185 0
-3455 59 0
-3455 95 0
-3455 149 0
-3455 166 0
-3456 59 0
-3456 104 0
-3456 122 0
-3456 200 0
-3457 59 0
-3457 104 0
-3457 130 0
-3458 59 0
-3458 104 0
-3458 140 0
-3458 166 0
-31 -68 -176 -248 3355 3356 3357 3358 3359 3360 3361 3362 3363 3364 3365 3366 3367 3368 3369 3370 3371 3372 3373 3374 3375 3376 3377 3378 3379 3380 3381 3382 3383 3384 3385 3386 3387 3388 3389 3390 3391 3392 3393 3394 3395 3396 3397 3398 3399 3400 3401 3402 3403 3404 3405 3406 3407 3408 3409 3410 3411 3412 3413 3414 3415 3416 3417 3418 3419 3420 3421 3422 3423 3424 3425 3426 3427 3428 3429 3430 3431 3432 3433 3434 3435 3436 3437 3438 3439 3440 3441 3442 3443 3444 3445 3446 3447 3448 3449 3450 3451 3452 3453 3454 3455 3456 3457 3458 0
-3459 5 0
-3459 121 0
-3459 204 0
-3459 252 0
-3460 5 0
-3460 121 0
-3460 213 0
-3460 243 0
-3461 5 0
-3461 121 0
-3461 222 0
-3462 5 0
-3462 131 0
-3462 174 0
-3462 252 0
-3463 5 0
-3463 131 0
-3463 183 0
-3463 243 0
-3464 5 0
-3464 131 0
-3465 5 0
-3465 141 0
-3465 164 0
-3465 252 0
-3466 5 0
-3466 141 0
-3466 183 0
-3466 222 0
-3467 5 0
-3467 141 0
-3467 213 0
-3468 5 0
-3468 150 0
-3468 164 0
-3468 243 0
-3469 5 0
-3469 150 0
-3469 174 0
-3469 222 0
-3470 5 0
-3470 150 0
-3470 204 0
-3471 5 0
-3471 159 0
-3471 164 0
-3472 5 0
-3472 159 0
-3472 174 0
-3472 213 0
-3473 5 0
-3473 159 0
-3473 183 0
-3473 204 0
-3474 14 0
-3474 76 0
-3474 204 0
-3474 252 0
-3475 14 0
-3475 76 0
-3475 213 0
-3475 243 0
-3476 14 0
-3476 76 0
-3476 222 0
-3477 14 0
-3477 86 0
-3477 174 0
-3477 252 0
-3478 14 0
-3478 86 0
-3478 183 0
-3478 243 0
-3479 14 0
-3479 86 0
-3480 14 0
-3480 96 0
-3480 164 0
-3480 252 0
-3481 14 0
-3481 96 0
-3481 183 0
-3481 222 0
-3482 14 0
-3482 96 0
-3482 213 0
-3483 14 0
-3483 105 0
-3483 164 0
-3483 243 0
-3484 14 0
-3484 105 0
-3484 174 0
-3484 222 0
-3485 14 0
-3485 105 0
-3485 204 0
-3486 14 0
-3486 114 0
-3486 164 0
-3487 14 0
-3487 114 0
-3487 174 0
-3487 213 0
-3488 14 0
-3488 114 0
-3488 183 0
-3488 204 0
-3489 22 0
-3489 204 0
-3489 252 0
-3490 22 0
-3490 213 0
-3490 243 0
-3491 22 0
-3491 222 0
-3492 22 0
-3492 86 0
-3492 141 0
-3492 252 0
-3493 22 0
-3493 86 0
-3493 150 0
-3493 243 0
-3494 22 0
-3494 86 0
-3494 159 0
-3495 22 0
-3495 96 0
-3495 131 0
-3495 252 0
-3496 22 0
-3496 96 0
-3496 150 0
-3496 222 0
-3497 22 0
-3497 96 0
-3497 159 0
-3497 213 0
-3498 22 0
-3498 105 0
-3498 131 0
-3498 243 0
-3499 22 0
-3499 105 0
-3499 141 0
-3499 222 0
-3500 22 0
-3500 105 0
-3500 159 0
-3500 204 0
-3501 22 0
-3501 114 0
-3501 131 0
-3502 22 0
-3502 114 0
-3502 141 0
-3502 213 0
-3503 22 0
-3503 114 0
-3503 150 0
-3503 204 0
-3504 174 0
-3504 252 0
-3505 183 0
-3505 243 0
-3506 76 0
-3506 141 0
-3506 252 0
-3507 76 0
-3507 150 0
-3507 243 0
-3508 76 0
-3508 159 0
-3509 96 0
-3509 121 0
-3509 252 0
-3510 96 0
-3510 150 0
-3511 96 0
-3511 159 0
-3511 183 0
-3512 105 0
-3512 121 0
-3512 243 0
-3513 105 0
-3513 141 0
-3514 105 0
-3514 159 0
-3514 174 0
-3515 114 0
-3515 121 0
-3516 114 0
-3516 141 0
-3516 183 0
-3517 114 0
-3517 150 0
-3517 174 0
-3518 42 0
-3518 164 0
-3518 252 0
-3519 42 0
-3519 183 0
-3519 222 0
-3520 42 0
-3520 213 0
-3521 42 0
-3521 76 0
-3521 131 0
-3521 252 0
-3522 42 0
-3522 76 0
-3522 150 0
-3522 222 0
-3523 42 0
-3523 76 0
-3523 159 0
-3523 213 0
-3524 42 0
-3524 86 0
-3524 121 0
-3524 252 0
-3525 42 0
-3525 86 0
-3525 150 0
-3526 42 0
-3526 86 0
-3526 159 0
-3526 183 0
-3527 42 0
-3527 105 0
-3527 121 0
-3527 222 0
-3528 42 0
-3528 105 0
-3528 131 0
-3529 42 0
-3529 105 0
-3529 159 0
-3529 164 0
-3530 42 0
-3530 114 0
-3530 121 0
-3530 213 0
-3531 42 0
-3531 114 0
-3531 131 0
-3531 183 0
-3532 42 0
-3532 114 0
-3532 150 0
-3532 164 0
-3533 51 0
-3533 164 0
-3533 243 0
-3534 51 0
-3534 174 0
-3534 222 0
-3535 51 0
-3535 204 0
-3536 51 0
-3536 76 0
-3536 131 0
-3536 243 0
-3537 51 0
-3537 76 0
-3537 141 0
-3537 222 0
-3538 51 0
-3538 76 0
-3538 159 0
-3538 204 0
-3539 51 0
-3539 86 0
-3539 121 0
-3539 243 0
-3540 51 0
-3540 86 0
-3540 141 0
-3541 51 0
-3541 86 0
-3541 159 0
-3541 174 0
-3542 51 0
-3542 96 0
-3542 121 0
-3542 222 0
-3543 51 0
-3543 96 0
-3543 131 0
-3544 51 0
-3544 96 0
-3544 159 0
-3544 164 0
-3545 51 0
-3545 114 0
-3545 121 0
-3545 204 0
-3546 51 0
-3546 114 0
-3546 131 0
-3546 174 0
-3547 51 0
-3547 114 0
-3547 141 0
-3547 164 0
-3548 60 0
-3548 164 0
-3549 60 0
-3549 174 0
-3549 213 0
-3550 60 0
-3550 183 0
-3550 204 0
-3551 60 0
-3551 76 0
-3551 131 0
-3552 60 0
-3552 76 0
-3552 141 0
-3552 213 0
-3553 60 0
-3553 76 0
-3553 150 0
-3553 204 0
-3554 60 0
-3554 86 0
-3554 121 0
-3555 60 0
-3555 86 0
-3555 141 0
-3555 183 0
-3556 60 0
-3556 86 0
-3556 150 0
-3556 174 0
-3557 60 0
-3557 96 0
-3557 121 0
-3557 213 0
-3558 60 0
-3558 96 0
-3558 131 0
-3558 183 0
-3559 60 0
-3559 96 0
-3559 150 0
-3559 164 0
-3560 60 0
-3560 105 0
-3560 121 0
-3560 204 0
-3561 60 0
-3561 105 0
-3561 131 0
-3561 174 0
-3562 60 0
-3562 105 0
-3562 141 0
-3562 164 0
-32 -68 -192 -234 3459 3460 3461 3462 3463 3464 3465 3466 3467 3468 3469 3470 3471 3472 3473 3474 3475 3476 3477 3478 3479 3480 3481 3482 3483 3484 3485 3486 3487 3488 3489 3490 3491 3492 3493 3494 3495 3496 3497 3498 3499 3500 3501 3502 3503 3504 3505 3506 3507 3508 3509 3510 3511 3512 3513 3514 3515 3516 3517 3518 3519 3520 3521 3522 3523 3524 3525 3526 3527 3528 3529 3530 3531 3532 3533 3534 3535 3536 3537 3538 3539 3540 3541 3542 3543 3544 3545 3546 3547 3548 3549 3550 3551 3552 3553 3554 3555 3556 3557 3558 3559 3560 3561 3562 0
-3563 4 0
-3563 121 0
-3563 202 0
-3563 250 0
-3564 4 0
-3564 121 0
-3564 213 0
-3565 4 0
-3565 121 0
-3565 220 0
-3565 228 0
-3566 4 0
-3566 131 0
-3566 172 0
-3566 250 0
-3567 4 0
-3567 131 0
-3567 183 0
-3568 4 0
-3568 131 0
-3568 190 0
-3568 228 0
-3569 4 0
-3569 139 0
-3569 164 0
-3569 250 0
-3570 4 0
-3570 139 0
-3570 183 0
-3570 220 0
-3571 4 0
-3571 139 0
-3571 190 0
-3571 213 0
-3572 4 0
-3572 164 0
-3573 4 0
-3573 172 0
-3573 220 0
-3574 4 0
-3574 190 0
-3574 202 0
-3575 4 0
-3575 157 0
-3575 164 0
-3575 228 0
-3576 4 0
-3576 157 0
-3576 172 0
-3576 213 0
-3577 4 0
-3577 157 0
-3577 183 0
-3577 202 0
-3578 14 0
-3578 202 0
-3578 250 0
-3579 14 0
-3579 213 0
-3580 14 0
-3580 220 0
-3580 228 0
-3581 14 0
-3581 83 0
-3581 172 0
-3581 250 0
-3582 14 0
-3582 83 0
-3582 183 0
-3583 14 0
-3583 83 0
-3583 190 0
-3583 228 0
-3584 14 0
-3584 91 0
-3584 164 0
-3584 250 0
-3585 14 0
-3585 91 0
-3585 183 0
-3585 220 0
-3586 14 0
-3586 91 0
-3586 190 0
-3586 213 0
-3587 14 0
-3587 102 0
-3587 164 0
-3588 14 0
-3588 102 0
-3588 172 0
-3588 220 0
-3589 14 0
-3589 102 0
-3589 190 0
-3589 202 0
-3590 14 0
-3590 109 0
-3590 164 0
-3590 228 0
-3591 14 0
-3591 109 0
-3591 172 0
-3591 213 0
-3592 14 0
-3592 109 0
-3592 183 0
-3592 202 0
-3593 22 0
-3593 65 0
-3593 202 0
-3593 250 0
-3594 22 0
-3594 65 0
-3594 213 0
-3595 22 0
-3595 65 0
-3595 220 0
-3595 228 0
-3596 22 0
-3596 83 0
-3596 139 0
-3596 250 0
-3597 22 0
-3597 83 0
-3598 22 0
-3598 83 0
-3598 157 0
-3598 228 0
-3599 22 0
-3599 91 0
-3599 131 0
-3599 250 0
-3600 22 0
-3600 91 0
-3600 220 0
-3601 22 0
-3601 91 0
-3601 157 0
-3601 213 0
-3602 22 0
-3602 102 0
-3602 131 0
-3603 22 0
-3603 102 0
-3603 139 0
-3603 220 0
-3604 22 0
-3604 102 0
-3604 157 0
-3604 202 0
-3605 22 0
-3605 109 0
-3605 131 0
-3605 228 0
-3606 22 0
-3606 109 0
-3606 139 0
-3606 213 0
-3607 22 0
-3607 109 0
-3607 202 0
-3608 65 0
-3608 172 0
-3608 250 0
-3609 65 0
-3609 183 0
-3610 65 0
-3610 190 0
-3610 228 0
-3611 139 0
-3611 250 0
-3612 157 0
-3612 228 0
-3613 91 0
-3613 121 0
-3613 250 0
-3614 91 0
-3614 190 0
-3615 91 0
-3615 157 0
-3615 183 0
-3616 102 0
-3616 121 0
-3617 102 0
-3617 139 0
-3617 190 0
-3618 102 0
-3618 157 0
-3618 172 0
-3619 109 0
-3619 121 0
-3619 228 0
-3620 109 0
-3620 139 0
-3620 183 0
-3621 109 0
-3621 172 0
-3622 40 0
-3622 65 0
-3622 164 0
-3622 250 0
-3623 40 0
-3623 65 0
-3623 183 0
-3623 220 0
-3624 40 0
-3624 65 0
-3624 190 0
-3624 213 0
-3625 40 0
-3625 131 0
-3625 250 0
-3626 40 0
-3626 220 0
-3627 40 0
-3627 157 0
-3627 213 0
-3628 40 0
-3628 83 0
-3628 121 0
-3628 250 0
-3629 40 0
-3629 83 0
-3629 190 0
-3630 40 0
-3630 83 0
-3630 157 0
-3630 183 0
-3631 40 0
-3631 102 0
-3631 121 0
-3631 220 0
-3632 40 0
-3632 102 0
-3632 131 0
-3632 190 0
-3633 40 0
-3633 102 0
-3633 157 0
-3633 164 0
-3634 40 0
-3634 109 0
-3634 121 0
-3634 213 0
-3635 40 0
-3635 109 0
-3635 131 0
-3635 183 0
-3636 40 0
-3636 109 0
-3636 164 0
-3637 51 0
-3637 65 0
-3637 164 0
-3638 51 0
-3638 65 0
-3638 172 0
-3638 220 0
-3639 51 0
-3639 65 0
-3639 190 0
-3639 202 0
-3640 51 0
-3640 131 0
-3641 51 0
-3641 139 0
-3641 220 0
-3642 51 0
-3642 157 0
-3642 202 0
-3643 51 0
-3643 83 0
-3643 121 0
-3644 51 0
-3644 83 0
-3644 139 0
-3644 190 0
-3645 51 0
-3645 83 0
-3645 157 0
-3645 172 0
-3646 51 0
-3646 91 0
-3646 121 0
-3646 220 0
-3647 51 0
-3647 91 0
-3647 131 0
-3647 190 0
-3648 51 0
-3648 91 0
-3648 157 0
-3648 164 0
-3649 51 0
-3649 109 0
-3649 121 0
-3649 202 0
-3650 51 0
-3650 109 0
-3650 131 0
-3650 172 0
-3651 51 0
-3651 109 0
-3651 139 0
-3651 164 0
-3652 58 0
-3652 65 0
-3652 164 0
-3652 228 0
-3653 58 0
-3653 65 0
-3653 172 0
-3653 213 0
-3654 58 0
-3654 65 0
-3654 183 0
-3654 202 0
-3655 58 0
-3655 131 0
-3655 228 0
-3656 58 0
-3656 139 0
-3656 213 0
-3657 58 0
-3657 202 0
-3658 58 0
-3658 83 0
-3658 121 0
-3658 228 0
-3659 58 0
-3659 83 0
-3659 139 0
-3659 183 0
-3660 58 0
-3660 83 0
-3660 172 0
-3661 58 0
-3661 91 0
-3661 121 0
-3661 213 0
-3662 58 0
-3662 91 0
-3662 131 0
-3662 183 0
-3663 58 0
-3663 91 0
-3663 164 0
-3664 58 0
-3664 102 0
-3664 121 0
-3664 202 0
-3665 58 0
-3665 102 0
-3665 131 0
-3665 172 0
-3666 58 0
-3666 102 0
-3666 139 0
-3666 164 0
-32 -73 -150 -235 3563 3564 3565 3566 3567 3568 3569 3570 3571 3572 3573 3574 3575 3576 3577 3578 3579 3580 3581 3582 3583 3584 3585 3586 3587 3588 3589 3590 3591 3592 3593 3594 3595 3596 3597 3598 3599 3600 3601 3602 3603 3604 3605 3606 3607 3608 3609 3610 3611 3612 3613 3614 3615 3616 3617 3618 3619 3620 3621 3622 3623 3624 3625 3626 3627 3628 3629 3630 3631 3632 3633 3634 3635 3636 3637 3638 3639 3640 3641 3642 3643 3644 3645 3646 3647 3648 3649 3650 3651 3652 3653 3654 3655 3656 3657 3658 3659 3660 3661 3662 3663 3664 3665 3666 0
-3667 2 0
-3667 123 0
-3667 199 0
-3667 244 0
-3668 2 0
-3668 123 0
-3669 2 0
-3669 123 0
-3669 217 0
-3669 226 0
-3670 2 0
-3670 130 0
-3670 178 0
-3670 244 0
-3671 2 0
-3671 130 0
-3671 187 0
-3672 2 0
-3672 130 0
-3672 196 0
-3672 226 0
-3673 2 0
-3673 139 0
-3673 169 0
-3673 244 0
-3674 2 0
-3674 139 0
-3674 187 0
-3674 217 0
-3675 2 0
-3675 139 0
-3675 196 0
-3676 2 0
-3676 148 0
-3676 169 0
-3677 2 0
-3677 148 0
-3677 178 0
-3677 217 0
-3678 2 0
-3678 148 0
-3678 196 0
-3678 199 0
-3679 2 0
-3679 157 0
-3679 169 0
-3679 226 0
-3680 2 0
-3680 157 0
-3680 178 0
-3681 2 0
-3681 157 0
-3681 187 0
-3681 199 0
-3682 11 0
-3682 78 0
-3682 199 0
-3682 244 0
-3683 11 0
-3683 78 0
-3684 11 0
-3684 78 0
-3684 217 0
-3684 226 0
-3685 11 0
-3685 85 0
-3685 178 0
-3685 244 0
-3686 11 0
-3686 85 0
-3686 187 0
-3687 11 0
-3687 85 0
-3687 196 0
-3687 226 0
-3688 11 0
-3688 94 0
-3688 169 0
-3688 244 0
-3689 11 0
-3689 94 0
-3689 187 0
-3689 217 0
-3690 11 0
-3690 94 0
-3690 196 0
-3691 11 0
-3691 103 0
-3691 169 0
-3692 11 0
-3692 103 0
-3692 178 0
-3692 217 0
-3693 11 0
-3693 103 0
-3693 196 0
-3693 199 0
-3694 11 0
-3694 112 0
-3694 169 0
-3694 226 0
-3695 11 0
-3695 112 0
-3695 178 0
-3696 11 0
-3696 112 0
-3696 187 0
-3696 199 0
-3697 199 0
-3697 244 0
-3698 217 0
-3698 226 0
-3699 85 0
-3699 139 0
-3699 244 0
-3700 85 0
-3700 148 0
-3701 85 0
-3701 157 0
-3701 226 0
-3702 94 0
-3702 130 0
-3702 244 0
-3703 94 0
-3703 148 0
-3703 217 0
-3704 94 0
-3704 157 0
-3705 103 0
-3705 130 0
-3706 103 0
-3706 139 0
-3706 217 0
-3707 103 0
-3707 157 0
-3707 199 0
-3708 112 0
-3708 130 0
-3708 226 0
-3709 112 0
-3709 139 0
-3710 112 0
-3710 148 0
-3710 199 0
-3711 28 0
-3711 178 0
-3711 244 0
-3712 28 0
-3712 187 0
-3713 28 0
-3713 196 0
-3713 226 0
-3714 28 0
-3714 78 0
-3714 139 0
-3714 244 0
-3715 28 0
-3715 78 0
-3715 148 0
-3716 28 0
-3716 78 0
-3716 157 0
-3716 226 0
-3717 28 0
-3717 94 0
-3717 123 0
-3717 244 0
-3718 28 0
-3718 94 0
-3718 148 0
-3718 196 0
-3719 28 0
-3719 94 0
-3719 157 0
-3719 187 0
-3720 28 0
-3720 103 0
-3720 123 0
-3721 28 0
-3721 103 0
-3721 139 0
-3721 196 0
-3722 28 0
-3722 103 0
-3722 157 0
-3722 178 0
-3723 28 0
-3723 112 0
-3723 123 0
-3723 226 0
-3724 28 0
-3724 112 0
-3724 139 0
-3724 187 0
-3725 28 0
-3725 112 0
-3725 148 0
-3725 178 0
-3726 37 0
-3726 169 0
-3726 244 0
-3727 37 0
-3727 187 0
-3727 217 0
-3728 37 0
-3728 196 0
-3729 37 0
-3729 78 0
-3729 130 0
-3729 244 0
-3730 37 0
-3730 78 0
-3730 148 0
-3730 217 0
-3731 37 0
-3731 78 0
-3731 157 0
-3732 37 0
-3732 85 0
-3732 123 0
-3732 244 0
-3733 37 0
-3733 85 0
-3733 148 0
-3733 196 0
-3734 37 0
-3734 85 0
-3734 157 0
-3734 187 0
-3735 37 0
-3735 103 0
-3735 123 0
-3735 217 0
-3736 37 0
-3736 103 0
-3736 130 0
-3736 196 0
-3737 37 0
-3737 103 0
-3737 157 0
-3737 169 0
-3738 37 0
-3738 112 0
-3738 123 0
-3739 37 0
-3739 112 0
-3739 130 0
-3739 187 0
-3740 37 0
-3740 112 0
-3740 148 0
-3740 169 0
-3741 46 0
-3741 169 0
-3742 46 0
-3742 178 0
-3742 217 0
-3743 46 0
-3743 196 0
-3743 199 0
-3744 46 0
-3744 78 0
-3744 130 0
-3745 46 0
-3745 78 0
-3745 139 0
-3745 217 0
-3746 46 0
-3746 78 0
-3746 157 0
-3746 199 0
-3747 46 0
-3747 85 0
-3747 123 0
-3748 46 0
-3748 85 0
-3748 139 0
-3748 196 0
-3749 46 0
-3749 85 0
-3749 157 0
-3749 178 0
-3750 46 0
-3750 94 0
-3750 123 0
-3750 217 0
-3751 46 0
-3751 94 0
-3751 130 0
-3751 196 0
-3752 46 0
-3752 94 0
-3752 157 0
-3752 169 0
-3753 46 0
-3753 112 0
-3753 123 0
-3753 199 0
-3754 46 0
-3754 112 0
-3754 130 0
-3754 178 0
-3755 46 0
-3755 112 0
-3755 139 0
-3755 169 0
-3756 55 0
-3756 169 0
-3756 226 0
-3757 55 0
-3757 178 0
-3758 55 0
-3758 187 0
-3758 199 0
-3759 55 0
-3759 78 0
-3759 130 0
-3759 226 0
-3760 55 0
-3760 78 0
-3760 139 0
-3761 55 0
-3761 78 0
-3761 148 0
-3761 199 0
-3762 55 0
-3762 85 0
-3762 123 0
-3762 226 0
-3763 55 0
-3763 85 0
-3763 139 0
-3763 187 0
-3764 55 0
-3764 85 0
-3764 148 0
-3764 178 0
-3765 55 0
-3765 94 0
-3765 123 0
-3766 55 0
-3766 94 0
-3766 130 0
-3766 187 0
-3767 55 0
-3767 94 0
-3767 148 0
-3767 169 0
-3768 55 0
-3768 103 0
-3768 123 0
-3768 199 0
-3769 55 0
-3769 103 0
-3769 130 0
-3769 178 0
-3770 55 0
-3770 103 0
-3770 139 0
-3770 169 0
-21 -68 -208 -235 3667 3668 3669 3670 3671 3672 3673 3674 3675 3676 3677 3678 3679 3680 3681 3682 3683 3684 3685 3686 3687 3688 3689 3690 3691 3692 3693 3694 3695 3696 3697 3698 3699 3700 3701 3702 3703 3704 3705 3706 3707 3708 3709 3710 3711 3712 3713 3714 3715 3716 3717 3718 3719 3720 3721 3722 3723 3724 3725 3726 3727 3728 3729 3730 3731 3732 3733 3734 3735 3736 3737 3738 3739 3740 3741 3742 3743 3744 3745 3746 3747 3748 3749 3750 3751 3752 3753 3754 3755 3756 3757 3758 3759 3760 3761 3762 3763 3764 3765 3766 3767 3768 3769 3770 0
-3771 199 0
-3771 244 0
-3772 217 0
-3772 226 0
-3773 133 0
-3773 175 0
-3773 244 0
-3774 133 0
-3774 184 0
-3775 133 0
-3775 193 0
-3775 226 0
-3776 142 0
-3776 166 0
-3776 244 0
-3777 142 0
-3777 184 0
-3777 217 0
-3778 142 0
-3778 193 0
-3779 151 0
-3779 166 0
-3780 151 0
-3780 175 0
-3780 217 0
-3781 151 0
-3781 193 0
-3781 199 0
-3782 160 0
-3782 166 0
-3782 226 0
-3783 160 0
-3783 175 0
-3784 160 0
-3784 184 0
-3784 199 0
-3785 12 0
-3785 74 0
-3785 199 0
-3785 244 0
-3786 12 0
-3786 74 0
-3787 12 0
-3787 74 0
-3787 217 0
-3787 226 0
-3788 12 0
-3788 82 0
-3788 175 0
-3788 244 0
-3789 12 0
-3789 82 0
-3789 184 0
-3790 12 0
-3790 82 0
-3790 193 0
-3790 226 0
-3791 12 0
-3791 91 0
-3791 166 0
-3791 244 0
-3792 12 0
-3792 91 0
-3792 184 0
-3792 217 0
-3793 12 0
-3793 91 0
-3793 193 0
-3794 12 0
-3794 100 0
-3794 166 0
-3795 12 0
-3795 100 0
-3795 175 0
-3795 217 0
-3796 12 0
-3796 100 0
-3796 193 0
-3796 199 0
-3797 12 0
-3797 109 0
-3797 166 0
-3797 226 0
-3798 12 0
-3798 109 0
-3798 175 0
-3799 12 0
-3799 109 0
-3799 184 0
-3799 199 0
-3800 20 0
-3800 66 0
-3800 199 0
-3800 244 0
-3801 20 0
-3801 66 0
-3802 20 0
-3802 66 0
-3802 217 0
-3802 226 0
-3803 20 0
-3803 82 0
-3803 142 0
-3803 244 0
-3804 20 0
-3804 82 0
-3804 151 0
-3805 20 0
-3805 82 0
-3805 160 0
-3805 226 0
-3806 20 0
-3806 91 0
-3806 133 0
-3806 244 0
-3807 20 0
-3807 91 0
-3807 151 0
-3807 217 0
-3808 20 0
-3808 91 0
-3808 160 0
-3809 20 0
-3809 100 0
-3809 133 0
-3810 20 0
-3810 100 0
-3810 142 0
-3810 217 0
-3811 20 0
-3811 100 0
-3811 160 0
-3811 199 0
-3812 20 0
-3812 109 0
-3812 133 0
-3812 226 0
-3813 20 0
-3813 109 0
-3813 142 0
-3814 20 0
-3814 109 0
-3814 151 0
-3814 199 0
-3815 28 0
-3815 66 0
-3815 175 0
-3815 244 0
-3816 28 0
-3816 66 0
-3816 184 0
-3817 28 0
-3817 66 0
-3817 193 0
-3817 226 0
-3818 28 0
-3818 74 0
-3818 142 0
-3818 244 0
-3819 28 0
-3819 74 0
-3819 151 0
-3820 28 0
-3820 74 0
-3820 160 0
-3820 226 0
-3821 28 0
-3821 91 0
-3821 244 0
-3822 28 0
-3822 91 0
-3822 151 0
-3822 193 0
-3823 28 0
-3823 91 0
-3823 160 0
-3823 184 0
-3824 28 0
-3824 100 0
-3825 28 0
-3825 100 0
-3825 142 0
-3825 193 0
-3826 28 0
-3826 100 0
-3826 160 0
-3826 175 0
-3827 28 0
-3827 109 0
-3827 226 0
-3828 28 0
-3828 109 0
-3828 142 0
-3828 184 0
-3829 28 0
-3829 109 0
-3829 151 0
-3829 175 0
-3830 37 0
-3830 66 0
-3830 166 0
-3830 244 0
-3831 37 0
-3831 66 0
-3831 184 0
-3831 217 0
-3832 37 0
-3832 66 0
-3832 193 0
-3833 37 0
-3833 74 0
-3833 133 0
-3833 244 0
-3834 37 0
-3834 74 0
-3834 151 0
-3834 217 0
-3835 37 0
-3835 74 0
-3835 160 0
-3836 37 0
-3836 82 0
-3836 244 0
-3837 37 0
-3837 82 0
-3837 151 0
-3837 193 0
-3838 37 0
-3838 82 0
-3838 160 0
-3838 184 0
-3839 37 0
-3839 100 0
-3839 217 0
-3840 37 0
-3840 100 0
-3840 133 0
-3840 193 0
-3841 37 0
-3841 100 0
-3841 160 0
-3841 166 0
-3842 37 0
-3842 109 0
-3843 37 0
-3843 109 0
-3843 133 0
-3843 184 0
-3844 37 0
-3844 109 0
-3844 151 0
-3844 166 0
-3845 46 0
-3845 66 0
-3845 166 0
-3846 46 0
-3846 66 0
-3846 175 0
-3846 217 0
-3847 46 0
-3847 66 0
-3847 193 0
-3847 199 0
-3848 46 0
-3848 74 0
-3848 133 0
-3849 46 0
-3849 74 0
-3849 142 0
-3849 217 0
-3850 46 0
-3850 74 0
-3850 160 0
-3850 199 0
-3851 46 0
-3851 82 0
-3852 46 0
-3852 82 0
-3852 142 0
-3852 193 0
-3853 46 0
-3853 82 0
-3853 160 0
-3853 175 0
-3854 46 0
-3854 91 0
-3854 217 0
-3855 46 0
-3855 91 0
-3855 133 0
-3855 193 0
-3856 46 0
-3856 91 0
-3856 160 0
-3856 166 0
-3857 46 0
-3857 109 0
-3857 199 0
-3858 46 0
-3858 109 0
-3858 133 0
-3858 175 0
-3859 46 0
-3859 109 0
-3859 142 0
-3859 166 0
-3860 55 0
-3860 66 0
-3860 166 0
-3860 226 0
-3861 55 0
-3861 66 0
-3861 175 0
-3862 55 0
-3862 66 0
-3862 184 0
-3862 199 0
-3863 55 0
-3863 74 0
-3863 133 0
-3863 226 0
-3864 55 0
-3864 74 0
-3864 142 0
-3865 55 0
-3865 74 0
-3865 151 0
-3865 199 0
-3866 55 0
-3866 82 0
-3866 226 0
-3867 55 0
-3867 82 0
-3867 142 0
-3867 184 0
-3868 55 0
-3868 82 0
-3868 151 0
-3868 175 0
-3869 55 0
-3869 91 0
-3870 55 0
-3870 91 0
-3870 133 0
-3870 184 0
-3871 55 0
-3871 91 0
-3871 151 0
-3871 166 0
-3872 55 0
-3872 100 0
-3872 199 0
-3873 55 0
-3873 100 0
-3873 133 0
-3873 175 0
-3874 55 0
-3874 100 0
-3874 142 0
-3874 166 0
-1 -125 -208 -235 3771 3772 3773 3774 3775 3776 3777 3778 3779 3780 3781 3782 3783 3784 3785 3786 3787 3788 3789 3790 3791 3792 3793 3794 3795 3796 3797 3798 3799 3800 3801 3802 3803 3804 3805 3806 3807 3808 3809 3810 3811 3812 3813 3814 3815 3816 3817 3818 3819 3820 3821 3822 3823 3824 3825 3826 3827 3828 3829 3830 3831 3832 3833 3834 3835 3836 3837 3838 3839 3840 3841 3842 3843 3844 3845 3846 3847 3848 3849 3850 3851 3852 3853 3854 3855 3856 3857 3858 3859 3860 3861 3862 3863 3864 3865 3866 3867 3868 3869 3870 3871 3872 3873 3874 0
-3875 206 0
-3875 252 0
-3876 216 0
-3876 240 0
-3877 129 0
-3877 173 0
-3877 252 0
-3878 129 0
-3878 183 0
-3878 240 0
-3879 129 0
-3879 192 0
-3880 137 0
-3880 165 0
-3880 252 0
-3881 137 0
-3881 183 0
-3882 137 0
-3882 192 0
-3882 216 0
-3883 147 0
-3883 165 0
-3883 240 0
-3884 147 0
-3884 173 0
-3885 147 0
-3885 192 0
-3885 206 0
-3886 156 0
-3886 165 0
-3887 156 0
-3887 173 0
-3887 216 0
-3888 156 0
-3888 183 0
-3888 206 0
-3889 10 0
-3889 73 0
-3889 206 0
-3889 252 0
-3890 10 0
-3890 73 0
-3890 216 0
-3890 240 0
-3891 10 0
-3891 73 0
-3892 10 0
-3892 84 0
-3892 173 0
-3892 252 0
-3893 10 0
-3893 84 0
-3893 183 0
-3893 240 0
-3894 10 0
-3894 84 0
-3894 192 0
-3895 10 0
-3895 92 0
-3895 165 0
-3895 252 0
-3896 10 0
-3896 92 0
-3896 183 0
-3897 10 0
-3897 92 0
-3897 192 0
-3897 216 0
-3898 10 0
-3898 102 0
-3898 165 0
-3898 240 0
-3899 10 0
-3899 102 0
-3899 173 0
-3900 10 0
-3900 102 0
-3900 192 0
-3900 206 0
-3901 10 0
-3901 111 0
-3901 165 0
-3902 10 0
-3902 111 0
-3902 173 0
-3902 216 0
-3903 10 0
-3903 111 0
-3903 183 0
-3903 206 0
-3904 19 0
-3904 64 0
-3904 206 0
-3904 252 0
-3905 19 0
-3905 64 0
-3905 216 0
-3905 240 0
-3906 19 0
-3906 64 0
-3907 19 0
-3907 84 0
-3907 137 0
-3907 252 0
-3908 19 0
-3908 84 0
-3908 147 0
-3908 240 0
-3909 19 0
-3909 84 0
-3909 156 0
-3910 19 0
-3910 92 0
-3910 129 0
-3910 252 0
-3911 19 0
-3911 92 0
-3911 147 0
-3912 19 0
-3912 92 0
-3912 156 0
-3912 216 0
-3913 19 0
-3913 102 0
-3913 129 0
-3913 240 0
-3914 19 0
-3914 102 0
-3914 137 0
-3915 19 0
-3915 102 0
-3915 156 0
-3915 206 0
-3916 19 0
-3916 111 0
-3916 129 0
-3917 19 0
-3917 111 0
-3917 137 0
-3917 216 0
-3918 19 0
-3918 111 0
-3918 147 0
-3918 206 0
-3919 30 0
-3919 64 0
-3919 173 0
-3919 252 0
-3920 30 0
-3920 64 0
-3920 183 0
-3920 240 0
-3921 30 0
-3921 64 0
-3921 192 0
-3922 30 0
-3922 73 0
-3922 137 0
-3922 252 0
-3923 30 0
-3923 73 0
-3923 147 0
-3923 240 0
-3924 30 0
-3924 73 0
-3924 156 0
-3925 30 0
-3925 92 0
-3925 252 0
-3926 30 0
-3926 92 0
-3926 147 0
-3926 192 0
-3927 30 0
-3927 92 0
-3927 156 0
-3927 183 0
-3928 30 0
-3928 102 0
-3928 240 0
-3929 30 0
-3929 102 0
-3929 137 0
-3929 192 0
-3930 30 0
-3930 102 0
-3930 156 0
-3930 173 0
-3931 30 0
-3931 111 0
-3932 30 0
-3932 111 0
-3932 137 0
-3932 183 0
-3933 30 0
-3933 111 0
-3933 147 0
-3933 173 0
-3934 38 0
-3934 64 0
-3934 165 0
-3934 252 0
-3935 38 0
-3935 64 0
-3935 183 0
-3936 38 0
-3936 64 0
-3936 192 0
-3936 216 0
-3937 38 0
-3937 73 0
-3937 129 0
-3937 252 0
-3938 38 0
-3938 73 0
-3938 147 0
-3939 38 0
-3939 73 0
-3939 156 0
-3939 216 0
-3940 38 0
-3940 84 0
-3940 252 0
-3941 38 0
-3941 84 0
-3941 147 0
-3941 192 0
-3942 38 0
-3942 84 0
-3942 156 0
-3942 183 0
-3943 38 0
-3943 102 0
-3944 38 0
-3944 102 0
-3944 129 0
-3944 192 0
-3945 38 0
-3945 102 0
-3945 156 0
-3945 165 0
-3946 38 0
-3946 111 0
-3946 216 0
-3947 38 0
-3947 111 0
-3947 129 0
-3947 183 0
-3948 38 0
-3948 111 0
-3948 147 0
-3948 165 0
-3949 48 0
-3949 64 0
-3949 165 0
-3949 240 0
-3950 48 0
-3950 64 0
-3950 173 0
-3951 48 0
-3951 64 0
-3951 192 0
-3951 206 0
-3952 48 0
-3952 73 0
-3952 129 0
-3952 240 0
-3953 48 0
-3953 73 0
-3953 137 0
-3954 48 0
-3954 73 0
-3954 156 0
-3954 206 0
-3955 48 0
-3955 84 0
-3955 240 0
-3956 48 0
-3956 84 0
-3956 137 0
-3956 192 0
-3957 48 0
-3957 84 0
-3957 156 0
-3957 173 0
-3958 48 0
-3958 92 0
-3959 48 0
-3959 92 0
-3959 129 0
-3959 192 0
-3960 48 0
-3960 92 0
-3960 156 0
-3960 165 0
-3961 48 0
-3961 111 0
-3961 206 0
-3962 48 0
-3962 111 0
-3962 129 0
-3962 173 0
-3963 48 0
-3963 111 0
-3963 137 0
-3963 165 0
-3964 57 0
-3964 64 0
-3964 165 0
-3965 57 0
-3965 64 0
-3965 173 0
-3965 216 0
-3966 57 0
-3966 64 0
-3966 183 0
-3966 206 0
-3967 57 0
-3967 73 0
-3967 129 0
-3968 57 0
-3968 73 0
-3968 137 0
-3968 216 0
-3969 57 0
-3969 73 0
-3969 147 0
-3969 206 0
-3970 57 0
-3970 84 0
-3971 57 0
-3971 84 0
-3971 137 0
-3971 183 0
-3972 57 0
-3972 84 0
-3972 147 0
-3972 173 0
-3973 57 0
-3973 92 0
-3973 216 0
-3974 57 0
-3974 92 0
-3974 129 0
-3974 183 0
-3975 57 0
-3975 92 0
-3975 147 0
-3975 165 0
-3976 57 0
-3976 102 0
-3976 206 0
-3977 57 0
-3977 102 0
-3977 129 0
-3977 173 0
-3978 57 0
-3978 102 0
-3978 137 0
-3978 165 0
-1 -118 -225 -231 3875 3876 3877 3878 3879 3880 3881 3882 3883 3884 3885 3886 3887 3888 3889 3890 3891 3892 3893 3894 3895 3896 3897 3898 3899 3900 3901 3902 3903 3904 3905 3906 3907 3908 3909 3910 3911 3912 3913 3914 3915 3916 3917 3918 3919 3920 3921 3922 3923 3924 3925 3926 3927 3928 3929 3930 3931 3932 3933 3934 3935 3936 3937 3938 3939 3940 3941 3942 3943 3944 3945 3946 3947 3948 3949 3950 3951 3952 3953 3954 3955 3956 3957 3958 3959 3960 3961 3962 3963 3964 3965 3966 3967 3968 3969 3970 3971 3972 3973 3974 3975 3976 3977 3978 0
-3979 200 0
-3979 246 0
-3980 219 0
-3980 229 0
-3981 127 0
-3981 173 0
-3981 246 0
-3982 127 0
-3982 181 0
-3983 127 0
-3983 192 0
-3983 229 0
-3984 137 0
-3984 163 0
-3984 246 0
-3985 137 0
-3985 181 0
-3985 219 0
-3986 137 0
-3986 192 0
-3987 145 0
-3987 163 0
-3988 145 0
-3988 173 0
-3988 219 0
-3989 145 0
-3989 192 0
-3989 200 0
-3990 156 0
-3990 163 0
-3990 229 0
-3991 156 0
-3991 173 0
-3992 156 0
-3992 181 0
-3992 200 0
-3993 10 0
-3993 73 0
-3993 200 0
-3993 246 0
-3994 10 0
-3994 73 0
-3995 10 0
-3995 73 0
-3995 219 0
-3995 229 0
-3996 10 0
-3996 82 0
-3996 173 0
-3996 246 0
-3997 10 0
-3997 82 0
-3997 181 0
-3998 10 0
-3998 82 0
-3998 192 0
-3998 229 0
-3999 10 0
-3999 92 0
-3999 163 0
-3999 246 0
-4000 10 0
-4000 92 0
-4000 181 0
-4000 219 0
-4001 10 0
-4001 92 0
-4001 192 0
-4002 10 0
-4002 100 0
-4002 163 0
-4003 10 0
-4003 100 0
-4003 173 0
-4003 219 0
-4004 10 0
-4004 100 0
-4004 192 0
-4004 200 0
-4005 10 0
-4005 111 0
-4005 163 0
-4005 229 0
-4006 10 0
-4006 111 0
-4006 173 0
-4007 10 0
-4007 111 0
-4007 181 0
-4007 200 0
-4008 19 0
-4008 64 0
-4008 200 0
-4008 246 0
-4009 19 0
-4009 64 0
-4010 19 0
-4010 64 0
-4010 219 0
-4010 229 0
-4011 19 0
-4011 82 0
-4011 137 0
-4011 246 0
-4012 19 0
-4012 82 0
-4012 145 0
-4013 19 0
-4013 82 0
-4013 156 0
-4013 229 0
-4014 19 0
-4014 92 0
-4014 127 0
-4014 246 0
-4015 19 0
-4015 92 0
-4015 145 0
-4015 219 0
-4016 19 0
-4016 92 0
-4016 156 0
-4017 19 0
-4017 100 0
-4017 127 0
-4018 19 0
-4018 100 0
-4018 137 0
-4018 219 0
-4019 19 0
-4019 100 0
-4019 156 0
-4019 200 0
-4020 19 0
-4020 111 0
-4020 127 0
-4020 229 0
-4021 19 0
-4021 111 0
-4021 137 0
-4022 19 0
-4022 111 0
-4022 145 0
-4022 200 0
-4023 28 0
-4023 64 0
-4023 173 0
-4023 246 0
-4024 28 0
-4024 64 0
-4024 181 0
-4025 28 0
-4025 64 0
-4025 192 0
-4025 229 0
-4026 28 0
-4026 73 0
-4026 137 0
-4026 246 0
-4027 28 0
-4027 73 0
-4027 145 0
-4028 28 0
-4028 73 0
-4028 156 0
-4028 229 0
-4029 28 0
-4029 92 0
-4029 246 0
-4030 28 0
-4030 92 0
-4030 145 0
-4030 192 0
-4031 28 0
-4031 92 0
-4031 156 0
-4031 181 0
-4032 28 0
-4032 100 0
-4033 28 0
-4033 100 0
-4033 137 0
-4033 192 0
-4034 28 0
-4034 100 0
-4034 156 0
-4034 173 0
-4035 28 0
-4035 111 0
-4035 229 0
-4036 28 0
-4036 111 0
-4036 137 0
-4036 181 0
-4037 28 0
-4037 111 0
-4037 145 0
-4037 173 0
-4038 38 0
-4038 64 0
-4038 163 0
-4038 246 0
-4039 38 0
-4039 64 0
-4039 181 0
-4039 219 0
-4040 38 0
-4040 64 0
-4040 192 0
-4041 38 0
-4041 73 0
-4041 127 0
-4041 246 0
-4042 38 0
-4042 73 0
-4042 145 0
-4042 219 0
-4043 38 0
-4043 73 0
-4043 156 0
-4044 38 0
-4044 82 0
-4044 246 0
-4045 38 0
-4045 82 0
-4045 145 0
-4045 192 0
-4046 38 0
-4046 82 0
-4046 156 0
-4046 181 0
-4047 38 0
-4047 100 0
-4047 219 0
-4048 38 0
-4048 100 0
-4048 127 0
-4048 192 0
-4049 38 0
-4049 100 0
-4049 156 0
-4049 163 0
-4050 38 0
-4050 111 0
-4051 38 0
-4051 111 0
-4051 127 0
-4051 181 0
-4052 38 0
-4052 111 0
-4052 145 0
-4052 163 0
-4053 46 0
-4053 64 0
-4053 163 0
-4054 46 0
-4054 64 0
-4054 173 0
-4054 219 0
-4055 46 0
-4055 64 0
-4055 192 0
-4055 200 0
-4056 46 0
-4056 73 0
-4056 127 0
-4057 46 0
-4057 73 0
-4057 137 0
-4057 219 0
-4058 46 0
-4058 73 0
-4058 156 0
-4058 200 0
-4059 46 0
-4059 82 0
-4060 46 0
-4060 82 0
-4060 137 0
-4060 192 0
-4061 46 0
-4061 82 0
-4061 156 0
-4061 173 0
-4062 46 0
-4062 92 0
-4062 219 0
-4063 46 0
-4063 92 0
-4063 127 0
-4063 192 0
-4064 46 0
-4064 92 0
-4064 156 0
-4064 163 0
-4065 46 0
-4065 111 0
-4065 200 0
-4066 46 0
-4066 111 0
-4066 127 0
-4066 173 0
-4067 46 0
-4067 111 0
-4067 137 0
-4067 163 0
-4068 57 0
-4068 64 0
-4068 163 0
-4068 229 0
-4069 57 0
-4069 64 0
-4069 173 0
-4070 57 0
-4070 64 0
-4070 181 0
-4070 200 0
-4071 57 0
-4071 73 0
-4071 127 0
-4071 229 0
-4072 57 0
-4072 73 0
-4072 137 0
-4073 57 0
-4073 73 0
-4073 145 0
-4073 200 0
-4074 57 0
-4074 82 0
-4074 229 0
-4075 57 0
-4075 82 0
-4075 137 0
-4075 181 0
-4076 57 0
-4076 82 0
-4076 145 0
-4076 173 0
-4077 57 0
-4077 92 0
-4078 57 0
-4078 92 0
-4078 127 0
-4078 181 0
-4079 57 0
-4079 92 0
-4079 145 0
-4079 163 0
-4080 57 0
-4080 100 0
-4080 200 0
-4081 57 0
-4081 100 0
-4081 127 0
-4081 173 0
-4082 57 0
-4082 100 0
-4082 137 0
-4082 163 0
-1 -118 -208 -240 3979 3980 3981 3982 3983 3984 3985 3986 3987 3988 3989 3990 3991 3992 3993 3994 3995 3996 3997 3998 3999 4000 4001 4002 4003 4004 4005 4006 4007 4008 4009 4010 4011 4012 4013 4014 4015 4016 4017 4018 4019 4020 4021 4022 4023 4024 4025 4026 4027 4028 4029 4030 4031 4032 4033 4034 4035 4036 4037 4038 4039 4040 4041 4042 4043 4044 4045 4046 4047 4048 4049 4050 4051 4052 4053 4054 4055 4056 4057 4058 4059 4060 4061 4062 4063 4064 4065 4066 4067 4068 4069 4070 4071 4072 4073 4074 4075 4076 4077 4078 4079 4080 4081 4082 0
-4083 8 0
-4083 122 0
-4083 200 0
-4083 245 0
-4084 8 0
-4084 122 0
-4084 239 0
-4085 8 0
-4085 122 0
-4085 218 0
-4085 229 0
-4086 8 0
-4086 130 0
-4086 245 0
-4087 8 0
-4087 130 0
-4087 184 0
-4087 239 0
-4088 8 0
-4088 130 0
-4088 194 0
-4088 229 0
-4089 8 0
-4089 140 0
-4089 166 0
-4089 245 0
-4090 8 0
-4090 140 0
-4090 184 0
-4090 218 0
-4091 8 0
-4091 140 0
-4091 194 0
-4092 8 0
-4092 148 0
-4092 166 0
-4092 239 0
-4093 8 0
-4093 148 0
-4093 218 0
-4094 8 0
-4094 148 0
-4094 194 0
-4094 200 0
-4095 8 0
-4095 158 0
-4095 166 0
-4095 229 0
-4096 8 0
-4096 158 0
-4097 8 0
-4097 158 0
-4097 184 0
-4097 200 0
-4098 17 0
-4098 77 0
-4098 200 0
-4098 245 0
-4099 17 0
-4099 77 0
-4099 239 0
-4100 17 0
-4100 77 0
-4100 218 0
-4100 229 0
-4101 17 0
-4101 85 0
-4101 245 0
-4102 17 0
-4102 85 0
-4102 184 0
-4102 239 0
-4103 17 0
-4103 85 0
-4103 194 0
-4103 229 0
-4104 17 0
-4104 95 0
-4104 166 0
-4104 245 0
-4105 17 0
-4105 95 0
-4105 184 0
-4105 218 0
-4106 17 0
-4106 95 0
-4106 194 0
-4107 17 0
-4107 103 0
-4107 166 0
-4107 239 0
-4108 17 0
-4108 103 0
-4108 218 0
-4109 17 0
-4109 103 0
-4109 194 0
-4109 200 0
-4110 17 0
-4110 113 0
-4110 166 0
-4110 229 0
-4111 17 0
-4111 113 0
-4112 17 0
-4112 113 0
-4112 184 0
-4112 200 0
-4113 26 0
-4113 200 0
-4113 245 0
-4114 26 0
-4114 239 0
-4115 26 0
-4115 218 0
-4115 229 0
-4116 26 0
-4116 85 0
-4116 140 0
-4116 245 0
-4117 26 0
-4117 85 0
-4117 148 0
-4117 239 0
-4118 26 0
-4118 85 0
-4118 158 0
-4118 229 0
-4119 26 0
-4119 95 0
-4119 130 0
-4119 245 0
-4120 26 0
-4120 95 0
-4120 148 0
-4120 218 0
-4121 26 0
-4121 95 0
-4121 158 0
-4122 26 0
-4122 103 0
-4122 130 0
-4122 239 0
-4123 26 0
-4123 103 0
-4123 140 0
-4123 218 0
-4124 26 0
-4124 103 0
-4124 158 0
-4124 200 0
-4125 26 0
-4125 113 0
-4125 130 0
-4125 229 0
-4126 26 0
-4126 113 0
-4126 140 0
-4127 26 0
-4127 113 0
-4127 148 0
-4127 200 0
-4128 34 0
-4128 245 0
-4129 34 0
-4129 184 0
-4129 239 0
-4130 34 0
-4130 194 0
-4130 229 0
-4131 34 0
-4131 77 0
-4131 140 0
-4131 245 0
-4132 34 0
-4132 77 0
-4132 148 0
-4132 239 0
-4133 34 0
-4133 77 0
-4133 158 0
-4133 229 0
-4134 34 0
-4134 95 0
-4134 122 0
-4134 245 0
-4135 34 0
-4135 95 0
-4135 148 0
-4135 194 0
-4136 34 0
-4136 95 0
-4136 158 0
-4136 184 0
-4137 34 0
-4137 103 0
-4137 122 0
-4137 239 0
-4138 34 0
-4138 103 0
-4138 140 0
-4138 194 0
-4139 34 0
-4139 103 0
-4139 158 0
-4140 34 0
-4140 113 0
-4140 122 0
-4140 229 0
-4141 34 0
-4141 113 0
-4141 140 0
-4141 184 0
-4142 34 0
-4142 113 0
-4142 148 0
-4143 44 0
-4143 166 0
-4143 245 0
-4144 44 0
-4144 184 0
-4144 218 0
-4145 44 0
-4145 194 0
-4146 44 0
-4146 77 0
-4146 130 0
-4146 245 0
-4147 44 0
-4147 77 0
-4147 148 0
-4147 218 0
-4148 44 0
-4148 77 0
-4148 158 0
-4149 44 0
-4149 85 0
-4149 122 0
-4149 245 0
-4150 44 0
-4150 85 0
-4150 148 0
-4150 194 0
-4151 44 0
-4151 85 0
-4151 158 0
-4151 184 0
-4152 44 0
-4152 103 0
-4152 122 0
-4152 218 0
-4153 44 0
-4153 103 0
-4153 130 0
-4153 194 0
-4154 44 0
-4154 103 0
-4154 158 0
-4154 166 0
-4155 44 0
-4155 113 0
-4155 122 0
-4156 44 0
-4156 113 0
-4156 130 0
-4156 184 0
-4157 44 0
-4157 113 0
-4157 148 0
-4157 166 0
-4158 52 0
-4158 166 0
-4158 239 0
-4159 52 0
-4159 218 0
-4160 52 0
-4160 194 0
-4160 200 0
-4161 52 0
-4161 77 0
-4161 130 0
-4161 239 0
-4162 52 0
-4162 77 0
-4162 140 0
-4162 218 0
-4163 52 0
-4163 77 0
-4163 158 0
-4163 200 0
-4164 52 0
-4164 85 0
-4164 122 0
-4164 239 0
-4165 52 0
-4165 85 0
-4165 140 0
-4165 194 0
-4166 52 0
-4166 85 0
-4166 158 0
-4167 52 0
-4167 95 0
-4167 122 0
-4167 218 0
-4168 52 0
-4168 95 0
-4168 130 0
-4168 194 0
-4169 52 0
-4169 95 0
-4169 158 0
-4169 166 0
-4170 52 0
-4170 113 0
-4170 122 0
-4170 200 0
-4171 52 0
-4171 113 0
-4171 130 0
-4172 52 0
-4172 113 0
-4172 140 0
-4172 166 0
-4173 166 0
-4173 229 0
-4174 184 0
-4174 200 0
-4175 77 0
-4175 130 0
-4175 229 0
-4176 77 0
-4176 140 0
-4177 77 0
-4177 148 0
-4177 200 0
-4178 85 0
-4178 122 0
-4178 229 0
-4179 85 0
-4179 140 0
-4179 184 0
-4180 85 0
-4180 148 0
-4181 95 0
-4181 122 0
-4182 95 0
-4182 130 0
-4182 184 0
-4183 95 0
-4183 148 0
-4183 166 0
-4184 103 0
-4184 122 0
-4184 200 0
-4185 103 0
-4185 130 0
-4186 103 0
-4186 140 0
-4186 166 0
-62 -68 -176 -208 4083 4084 4085 4086 4087 4088 4089 4090 4091 4092 4093 4094 4095 4096 4097 4098 4099 4100 4101 4102 4103 4104 4105 4106 4107 4108 4109 4110 4111 4112 4113 4114 4115 4116 4117 4118 4119 4120 4121 4122 4123 4124 4125 4126 4127 4128 4129 4130 4131 4132 4133 4134 4135 4136 4137 4138 4139 4140 4141 4142 4143 4144 4145 4146 4147 4148 4149 4150 4151 4152 4153 4154 4155 4156 4157 4158 4159 4160 4161 4162 4163 4164 4165 4166 4167 4168 4169 4170 4171 4172 4173 4174 4175 4176 4177 4178 4179 4180 4181 4182 4183 4184 4185 4186 0
-4187 6 0
-4187 119 0
-4187 199 0
-4187 244 0
-4188 6 0
-4188 119 0
-4189 6 0
-4189 119 0
-4189 217 0
-4189 226 0
-4190 6 0
-4190 127 0
-4190 175 0
-4190 244 0
-4191 6 0
-4191 127 0
-4191 184 0
-4192 6 0
-4192 127 0
-4192 193 0
-4192 226 0
-4193 6 0
-4193 136 0
-4193 166 0
-4193 244 0
-4194 6 0
-4194 136 0
-4194 184 0
-4194 217 0
-4195 6 0
-4195 136 0
-4195 193 0
-4196 6 0
-4196 145 0
-4196 166 0
-4197 6 0
-4197 145 0
-4197 175 0
-4197 217 0
-4198 6 0
-4198 145 0
-4198 193 0
-4198 199 0
-4199 6 0
-4199 154 0
-4199 166 0
-4199 226 0
-4200 6 0
-4200 154 0
-4200 175 0
-4201 6 0
-4201 154 0
-4201 184 0
-4201 199 0
-4202 199 0
-4202 244 0
-4203 217 0
-4203 226 0
-4204 88 0
-4204 175 0
-4204 244 0
-4205 88 0
-4205 184 0
-4206 88 0
-4206 193 0
-4206 226 0
-4207 97 0
-4207 166 0
-4207 244 0
-4208 97 0
-4208 184 0
-4208 217 0
-4209 97 0
-4209 193 0
-4210 106 0
-4210 166 0
-4211 106 0
-4211 175 0
-4211 217 0
-4212 106 0
-4212 193 0
-4212 199 0
-4213 115 0
-4213 166 0
-4213 226 0
-4214 115 0
-4214 175 0
-4215 115 0
-4215 184 0
-4215 199 0
-4216 23 0
-4216 70 0
-4216 199 0
-4216 244 0
-4217 23 0
-4217 70 0
-4218 23 0
-4218 70 0
-4218 217 0
-4218 226 0
-4219 23 0
-4219 88 0
-4219 136 0
-4219 244 0
-4220 23 0
-4220 88 0
-4220 145 0
-4221 23 0
-4221 88 0
-4221 154 0
-4221 226 0
-4222 23 0
-4222 97 0
-4222 127 0
-4222 244 0
-4223 23 0
-4223 97 0
-4223 145 0
-4223 217 0
-4224 23 0
-4224 97 0
-4224 154 0
-4225 23 0
-4225 106 0
-4225 127 0
-4226 23 0
-4226 106 0
-4226 136 0
-4226 217 0
-4227 23 0
-4227 106 0
-4227 154 0
-4227 199 0
-4228 23 0
-4228 115 0
-4228 127 0
-4228 226 0
-4229 23 0
-4229 115 0
-4229 136 0
-4230 23 0
-4230 115 0
-4230 145 0
-4230 199 0
-4231 31 0
-4231 70 0
-4231 175 0
-4231 244 0
-4232 31 0
-4232 70 0
-4232 184 0
-4233 31 0
-4233 70 0
-4233 193 0
-4233 226 0
-4234 31 0
-4234 136 0
-4234 244 0
-4235 31 0
-4235 145 0
-4236 31 0
-4236 154 0
-4236 226 0
-4237 31 0
-4237 97 0
-4237 119 0
-4237 244 0
-4238 31 0
-4238 97 0
-4238 145 0
-4238 193 0
-4239 31 0
-4239 97 0
-4239 154 0
-4239 184 0
-4240 31 0
-4240 106 0
-4240 119 0
-4241 31 0
-4241 106 0
-4241 136 0
-4241 193 0
-4242 31 0
-4242 106 0
-4242 154 0
-4242 175 0
-4243 31 0
-4243 115 0
-4243 119 0
-4243 226 0
-4244 31 0
-4244 115 0
-4244 136 0
-4244 184 0
-4245 31 0
-4245 115 0
-4245 145 0
-4245 175 0
-4246 40 0
-4246 70 0
-4246 166 0
-4246 244 0
-4247 40 0
-4247 70 0
-4247 184 0
-4247 217 0
-4248 40 0
-4248 70 0
-4248 193 0
-4249 40 0
-4249 127 0
-4249 244 0
-4250 40 0
-4250 145 0
-4250 217 0
-4251 40 0
-4251 154 0
-4252 40 0
-4252 88 0
-4252 119 0
-4252 244 0
-4253 40 0
-4253 88 0
-4253 145 0
-4253 193 0
-4254 40 0
-4254 88 0
-4254 154 0
-4254 184 0
-4255 40 0
-4255 106 0
-4255 119 0
-4255 217 0
-4256 40 0
-4256 106 0
-4256 127 0
-4256 193 0
-4257 40 0
-4257 106 0
-4257 154 0
-4257 166 0
-4258 40 0
-4258 115 0
-4258 119 0
-4259 40 0
-4259 115 0
-4259 127 0
-4259 184 0
-4260 40 0
-4260 115 0
-4260 145 0
-4260 166 0
-4261 49 0
-4261 70 0
-4261 166 0
-4262 49 0
-4262 70 0
-4262 175 0
-4262 217 0
-4263 49 0
-4263 70 0
-4263 193 0
-4263 199 0
-4264 49 0
-4264 127 0
-4265 49 0
-4265 136 0
-4265 217 0
-4266 49 0
-4266 154 0
-4266 199 0
-4267 49 0
-4267 88 0
-4267 119 0
-4268 49 0
-4268 88 0
-4268 136 0
-4268 193 0
-4269 49 0
-4269 88 0
-4269 154 0
-4269 175 0
-4270 49 0
-4270 97 0
-4270 119 0
-4270 217 0
-4271 49 0
-4271 97 0
-4271 127 0
-4271 193 0
-4272 49 0
-4272 97 0
-4272 154 0
-4272 166 0
-4273 49 0
-4273 115 0
-4273 119 0
-4273 199 0
-4274 49 0
-4274 115 0
-4274 127 0
-4274 175 0
-4275 49 0
-4275 115 0
-4275 136 0
-4275 166 0
-4276 58 0
-4276 70 0
-4276 166 0
-4276 226 0
-4277 58 0
-4277 70 0
-4277 175 0
-4278 58 0
-4278 70 0
-4278 184 0
-4278 199 0
-4279 58 0
-4279 127 0
-4279 226 0
-4280 58 0
-4280 136 0
-4281 58 0
-4281 145 0
-4281 199 0
-4282 58 0
-4282 88 0
-4282 119 0
-4282 226 0
-4283 58 0
-4283 88 0
-4283 136 0
-4283 184 0
-4284 58 0
-4284 88 0
-4284 145 0
-4284 175 0
-4285 58 0
-4285 97 0
-4285 119 0
-4286 58 0
-4286 97 0
-4286 127 0
-4286 184 0
-4287 58 0
-4287 97 0
-4287 145 0
-4287 166 0
-4288 58 0
-4288 106 0
-4288 119 0
-4288 199 0
-4289 58 0
-4289 106 0
-4289 127 0
-4289 175 0
-4290 58 0
-4290 106 0
-4290 136 0
-4290 166 0
-13 -80 -208 -235 4187 4188 4189 4190 4191 4192 4193 4194 4195 4196 4197 4198 4199 4200 4201 4202 4203 4204 4205 4206 4207 4208 4209 4210 4211 4212 4213 4214 4215 4216 4217 4218 4219 4220 4221 4222 4223 4224 4225 4226 4227 4228 4229 4230 4231 4232 4233 4234 4235 4236 4237 4238 4239 4240 4241 4242 4243 4244 4245 4246 4247 4248 4249 4250 4251 4252 4253 4254 4255 4256 4257 4258 4259 4260 4261 4262 4263 4264 4265 4266 4267 4268 4269 4270 4271 4272 4273 4274 4275 4276 4277 4278 4279 4280 4281 4282 4283 4284 4285 4286 4287 4288 4289 4290 0
-4291 5 0
-4291 123 0
-4291 200 0
-4291 245 0
-4292 5 0
-4292 123 0
-4292 239 0
-4293 5 0
-4293 123 0
-4293 218 0
-4293 229 0
-4294 5 0
-4294 130 0
-4294 179 0
-4294 245 0
-4295 5 0
-4295 130 0
-4295 187 0
-4295 239 0
-4296 5 0
-4296 130 0
-4296 229 0
-4297 5 0
-4297 140 0
-4297 169 0
-4297 245 0
-4298 5 0
-4298 140 0
-4298 187 0
-4298 218 0
-4299 5 0
-4299 140 0
-4300 5 0
-4300 148 0
-4300 169 0
-4300 239 0
-4301 5 0
-4301 148 0
-4301 179 0
-4301 218 0
-4302 5 0
-4302 148 0
-4302 200 0
-4303 5 0
-4303 158 0
-4303 169 0
-4303 229 0
-4304 5 0
-4304 158 0
-4304 179 0
-4305 5 0
-4305 158 0
-4305 187 0
-4305 200 0
-4306 14 0
-4306 78 0
-4306 200 0
-4306 245 0
-4307 14 0
-4307 78 0
-4307 239 0
-4308 14 0
-4308 78 0
-4308 218 0
-4308 229 0
-4309 14 0
-4309 85 0
-4309 179 0
-4309 245 0
-4310 14 0
-4310 85 0
-4310 187 0
-4310 239 0
-4311 14 0
-4311 85 0
-4311 229 0
-4312 14 0
-4312 95 0
-4312 169 0
-4312 245 0
-4313 14 0
-4313 95 0
-4313 187 0
-4313 218 0
-4314 14 0
-4314 95 0
-4315 14 0
-4315 103 0
-4315 169 0
-4315 239 0
-4316 14 0
-4316 103 0
-4316 179 0
-4316 218 0
-4317 14 0
-4317 103 0
-4317 200 0
-4318 14 0
-4318 113 0
-4318 169 0
-4318 229 0
-4319 14 0
-4319 113 0
-4319 179 0
-4320 14 0
-4320 113 0
-4320 187 0
-4320 200 0
-4321 24 0
-4321 200 0
-4321 245 0
-4322 24 0
-4322 239 0
-4323 24 0
-4323 218 0
-4323 229 0
-4324 24 0
-4324 85 0
-4324 140 0
-4324 245 0
-4325 24 0
-4325 85 0
-4325 148 0
-4325 239 0
-4326 24 0
-4326 85 0
-4326 158 0
-4326 229 0
-4327 24 0
-4327 95 0
-4327 130 0
-4327 245 0
-4328 24 0
-4328 95 0
-4328 148 0
-4328 218 0
-4329 24 0
-4329 95 0
-4329 158 0
-4330 24 0
-4330 103 0
-4330 130 0
-4330 239 0
-4331 24 0
-4331 103 0
-4331 140 0
-4331 218 0
-4332 24 0
-4332 103 0
-4332 158 0
-4332 200 0
-4333 24 0
-4333 113 0
-4333 130 0
-4333 229 0
-4334 24 0
-4334 113 0
-4334 140 0
-4335 24 0
-4335 113 0
-4335 148 0
-4335 200 0
-4336 31 0
-4336 179 0
-4336 245 0
-4337 31 0
-4337 187 0
-4337 239 0
-4338 31 0
-4338 229 0
-4339 31 0
-4339 78 0
-4339 140 0
-4339 245 0
-4340 31 0
-4340 78 0
-4340 148 0
-4340 239 0
-4341 31 0
-4341 78 0
-4341 158 0
-4341 229 0
-4342 31 0
-4342 95 0
-4342 123 0
-4342 245 0
-4343 31 0
-4343 95 0
-4343 148 0
-4344 31 0
-4344 95 0
-4344 158 0
-4344 187 0
-4345 31 0
-4345 103 0
-4345 123 0
-4345 239 0
-4346 31 0
-4346 103 0
-4346 140 0
-4347 31 0
-4347 103 0
-4347 158 0
-4347 179 0
-4348 31 0
-4348 113 0
-4348 123 0
-4348 229 0
-4349 31 0
-4349 113 0
-4349 140 0
-4349 187 0
-4350 31 0
-4350 113 0
-4350 148 0
-4350 179 0
-4351 169 0
-4351 245 0
-4352 187 0
-4352 218 0
-4353 78 0
-4353 130 0
-4353 245 0
-4354 78 0
-4354 148 0
-4354 218 0
-4355 78 0
-4355 158 0
-4356 85 0
-4356 123 0
-4356 245 0
-4357 85 0
-4357 148 0
-4358 85 0
-4358 158 0
-4358 187 0
-4359 103 0
-4359 123 0
-4359 218 0
-4360 103 0
-4360 130 0
-4361 103 0
-4361 158 0
-4361 169 0
-4362 113 0
-4362 123 0
-4363 113 0
-4363 130 0
-4363 187 0
-4364 113 0
-4364 148 0
-4364 169 0
-4365 49 0
-4365 169 0
-4365 239 0
-4366 49 0
-4366 179 0
-4366 218 0
-4367 49 0
-4367 200 0
-4368 49 0
-4368 78 0
-4368 130 0
-4368 239 0
-4369 49 0
-4369 78 0
-4369 140 0
-4369 218 0
-4370 49 0
-4370 78 0
-4370 158 0
-4370 200 0
-4371 49 0
-4371 85 0
-4371 123 0
-4371 239 0
-4372 49 0
-4372 85 0
-4372 140 0
-4373 49 0
-4373 85 0
-4373 158 0
-4373 179 0
-4374 49 0
-4374 95 0
-4374 123 0
-4374 218 0
-4375 49 0
-4375 95 0
-4375 130 0
-4376 49 0
-4376 95 0
-4376 158 0
-4376 169 0
-4377 49 0
-4377 113 0
-4377 123 0
-4377 200 0
-4378 49 0
-4378 113 0
-4378 130 0
-4378 179 0
-4379 49 0
-4379 113 0
-4379 140 0
-4379 169 0
-4380 59 0
-4380 169 0
-4380 229 0
-4381 59 0
-4381 179 0
-4382 59 0
-4382 187 0
-4382 200 0
-4383 59 0
-4383 78 0
-4383 130 0
-4383 229 0
-4384 59 0
-4384 78 0
-4384 140 0
-4385 59 0
-4385 78 0
-4385 148 0
-4385 200 0
-4386 59 0
-4386 85 0
-4386 123 0
-4386 229 0
-4387 59 0
-4387 85 0
-4387 140 0
-4387 187 0
-4388 59 0
-4388 85 0
-4388 148 0
-4388 179 0
-4389 59 0
-4389 95 0
-4389 123 0
-4390 59 0
-4390 95 0
-4390 130 0
-4390 187 0
-4391 59 0
-4391 95 0
-4391 148 0
-4391 169 0
-4392 59 0
-4392 103 0
-4392 123 0
-4392 200 0
-4393 59 0
-4393 103 0
-4393 130 0
-4393 179 0
-4394 59 0
-4394 103 0
-4394 140 0
-4394 169 0
-41 -68 -197 -208 4291 4292 4293 4294 4295 4296 4297 4298 4299 4300 4301 4302 4303 4304 4305 4306 4307 4308 4309 4310 4311 4312 4313 4314 4315 4316 4317 4318 4319 4320 4321 4322 4323 4324 4325 4326 4327 4328 4329 4330 4331 4332 4333 4334 4335 4336 4337 4338 4339 4340 4341 4342 4343 4344 4345 4346 4347 4348 4349 4350 4351 4352 4353 4354 4355 4356 4357 4358 4359 4360 4361 4362 4363 4364 4365 4366 4367 4368 4369 4370 4371 4372 4373 4374 4375 4376 4377 4378 4379 4380 4381 4382 4383 4384 4385 4386 4387 4388 4389 4390 4391 4392 4393 4394 0
-4395 5 0
-4395 122 0
-4395 202 0
-4395 244 0
-4396 5 0
-4396 122 0
-4396 211 0
-4397 5 0
-4397 122 0
-4397 220 0
-4397 226 0
-4398 5 0
-4398 131 0
-4398 175 0
-4398 244 0
-4399 5 0
-4399 131 0
-4400 5 0
-4400 131 0
-4400 193 0
-4400 226 0
-4401 5 0
-4401 139 0
-4401 167 0
-4401 244 0
-4402 5 0
-4402 139 0
-4402 220 0
-4403 5 0
-4403 139 0
-4403 193 0
-4403 211 0
-4404 5 0
-4404 148 0
-4404 167 0
-4405 5 0
-4405 148 0
-4405 175 0
-4405 220 0
-4406 5 0
-4406 148 0
-4406 193 0
-4406 202 0
-4407 5 0
-4407 157 0
-4407 167 0
-4407 226 0
-4408 5 0
-4408 157 0
-4408 175 0
-4408 211 0
-4409 5 0
-4409 157 0
-4409 202 0
-4410 14 0
-4410 77 0
-4410 202 0
-4410 244 0
-4411 14 0
-4411 77 0
-4411 211 0
-4412 14 0
-4412 77 0
-4412 220 0
-4412 226 0
-4413 14 0
-4413 86 0
-4413 175 0
-4413 244 0
-4414 14 0
-4414 86 0
-4415 14 0
-4415 86 0
-4415 193 0
-4415 226 0
-4416 14 0
-4416 94 0
-4416 167 0
-4416 244 0
-4417 14 0
-4417 94 0
-4417 220 0
-4418 14 0
-4418 94 0
-4418 193 0
-4418 211 0
-4419 14 0
-4419 103 0
-4419 167 0
-4420 14 0
-4420 103 0
-4420 175 0
-4420 220 0
-4421 14 0
-4421 103 0
-4421 193 0
-4421 202 0
-4422 14 0
-4422 112 0
-4422 167 0
-4422 226 0
-4423 14 0
-4423 112 0
-4423 175 0
-4423 211 0
-4424 14 0
-4424 112 0
-4424 202 0
-4425 23 0
-4425 202 0
-4425 244 0
-4426 23 0
-4426 211 0
-4427 23 0
-4427 220 0
-4427 226 0
-4428 23 0
-4428 86 0
-4428 139 0
-4428 244 0
-4429 23 0
-4429 86 0
-4429 148 0
-4430 23 0
-4430 86 0
-4430 157 0
-4430 226 0
-4431 23 0
-4431 94 0
-4431 131 0
-4431 244 0
-4432 23 0
-4432 94 0
-4432 148 0
-4432 220 0
-4433 23 0
-4433 94 0
-4433 157 0
-4433 211 0
-4434 23 0
-4434 103 0
-4434 131 0
-4435 23 0
-4435 103 0
-4435 139 0
-4435 220 0
-4436 23 0
-4436 103 0
-4436 157 0
-4436 202 0
-4437 23 0
-4437 112 0
-4437 131 0
-4437 226 0
-4438 23 0
-4438 112 0
-4438 139 0
-4438 211 0
-4439 23 0
-4439 112 0
-4439 148 0
-4439 202 0
-4440 175 0
-4440 244 0
-4441 193 0
-4441 226 0
-4442 77 0
-4442 139 0
-4442 244 0
-4443 77 0
-4443 148 0
-4444 77 0
-4444 157 0
-4444 226 0
-4445 94 0
-4445 122 0
-4445 244 0
-4446 94 0
-4446 148 0
-4446 193 0
-4447 94 0
-4447 157 0
-4448 103 0
-4448 122 0
-4449 103 0
-4449 139 0
-4449 193 0
-4450 103 0
-4450 157 0
-4450 175 0
-4451 112 0
-4451 122 0
-4451 226 0
-4452 112 0
-4452 139 0
-4453 112 0
-4453 148 0
-4453 175 0
-4454 40 0
-4454 167 0
-4454 244 0
-4455 40 0
-4455 220 0
-4456 40 0
-4456 193 0
-4456 211 0
-4457 40 0
-4457 77 0
-4457 131 0
-4457 244 0
-4458 40 0
-4458 77 0
-4458 148 0
-4458 220 0
-4459 40 0
-4459 77 0
-4459 157 0
-4459 211 0
-4460 40 0
-4460 86 0
-4460 122 0
-4460 244 0
-4461 40 0
-4461 86 0
-4461 148 0
-4461 193 0
-4462 40 0
-4462 86 0
-4462 157 0
-4463 40 0
-4463 103 0
-4463 122 0
-4463 220 0
-4464 40 0
-4464 103 0
-4464 131 0
-4464 193 0
-4465 40 0
-4465 103 0
-4465 157 0
-4465 167 0
-4466 40 0
-4466 112 0
-4466 122 0
-4466 211 0
-4467 40 0
-4467 112 0
-4467 131 0
-4468 40 0
-4468 112 0
-4468 148 0
-4468 167 0
-4469 49 0
-4469 167 0
-4470 49 0
-4470 175 0
-4470 220 0
-4471 49 0
-4471 193 0
-4471 202 0
-4472 49 0
-4472 77 0
-4472 131 0
-4473 49 0
-4473 77 0
-4473 139 0
-4473 220 0
-4474 49 0
-4474 77 0
-4474 157 0
-4474 202 0
-4475 49 0
-4475 86 0
-4475 122 0
-4476 49 0
-4476 86 0
-4476 139 0
-4476 193 0
-4477 49 0
-4477 86 0
-4477 157 0
-4477 175 0
-4478 49 0
-4478 94 0
-4478 122 0
-4478 220 0
-4479 49 0
-4479 94 0
-4479 131 0
-4479 193 0
-4480 49 0
-4480 94 0
-4480 157 0
-4480 167 0
-4481 49 0
-4481 112 0
-4481 122 0
-4481 202 0
-4482 49 0
-4482 112 0
-4482 131 0
-4482 175 0
-4483 49 0
-4483 112 0
-4483 139 0
-4483 167 0
-4484 58 0
-4484 167 0
-4484 226 0
-4485 58 0
-4485 175 0
-4485 211 0
-4486 58 0
-4486 202 0
-4487 58 0
-4487 77 0
-4487 131 0
-4487 226 0
-4488 58 0
-4488 77 0
-4488 139 0
-4488 211 0
-4489 58 0
-4489 77 0
-4489 148 0
-4489 202 0
-4490 58 0
-4490 86 0
-4490 122 0
-4490 226 0
-4491 58 0
-4491 86 0
-4491 139 0
-4492 58 0
-4492 86 0
-4492 148 0
-4492 175 0
-4493 58 0
-4493 94 0
-4493 122 0
-4493 211 0
-4494 58 0
-4494 94 0
-4494 131 0
-4495 58 0
-4495 94 0
-4495 148 0
-4495 167 0
-4496 58 0
-4496 103 0
-4496 122 0
-4496 202 0
-4497 58 0
-4497 103 0
-4497 131 0
-4497 175 0
-4498 58 0
-4498 103 0
-4498 139 0
-4498 167 0
-32 -68 -184 -235 4395 4396 4397 4398 4399 4400 4401 4402 4403 4404 4405 4406 4407 4408 4409 4410 4411 4412 4413 4414 4415 4416 4417 4418 4419 4420 4421 4422 4423 4424 4425 4426 4427 4428 4429 4430 4431 4432 4433 4434 4435 4436 4437 4438 4439 4440 4441 4442 4443 4444 4445 4446 4447 4448 4449 4450 4451 4452 4453 4454 4455 4456 4457 4458 4459 4460 4461 4462 4463 4464 4465 4466 4467 4468 4469 4470 4471 4472 4473 4474 4475 4476 4477 4478 4479 4480 4481 4482 4483 4484 4485 4486 4487 4488 4489 4490 4491 4492 4493 4494 4495 4496 4497 4498 0
-4499 125 0
-4499 200 0
-4499 245 0
-4500 125 0
-4500 239 0
-4501 125 0
-4501 218 0
-4501 229 0
-4502 133 0
-4502 245 0
-4503 133 0
-4503 184 0
-4503 239 0
-4504 133 0
-4504 194 0
-4504 229 0
-4505 143 0
-4505 166 0
-4505 245 0
-4506 143 0
-4506 184 0
-4506 218 0
-4507 143 0
-4507 194 0
-4508 151 0
-4508 166 0
-4508 239 0
-4509 151 0
-4509 218 0
-4510 151 0
-4510 194 0
-4510 200 0
-4511 166 0
-4511 229 0
-4512 184 0
-4512 200 0
-4513 12 0
-4513 74 0
-4513 200 0
-4513 245 0
-4514 12 0
-4514 74 0
-4514 239 0
-4515 12 0
-4515 74 0
-4515 218 0
-4515 229 0
-4516 12 0
-4516 82 0
-4516 245 0
-4517 12 0
-4517 82 0
-4517 184 0
-4517 239 0
-4518 12 0
-4518 82 0
-4518 194 0
-4518 229 0
-4519 12 0
-4519 92 0
-4519 166 0
-4519 245 0
-4520 12 0
-4520 92 0
-4520 184 0
-4520 218 0
-4521 12 0
-4521 92 0
-4521 194 0
-4522 12 0
-4522 100 0
-4522 166 0
-4522 239 0
-4523 12 0
-4523 100 0
-4523 218 0
-4524 12 0
-4524 100 0
-4524 194 0
-4524 200 0
-4525 12 0
-4525 110 0
-4525 166 0
-4525 229 0
-4526 12 0
-4526 110 0
-4527 12 0
-4527 110 0
-4527 184 0
-4527 200 0
-4528 20 0
-4528 66 0
-4528 200 0
-4528 245 0
-4529 20 0
-4529 66 0
-4529 239 0
-4530 20 0
-4530 66 0
-4530 218 0
-4530 229 0
-4531 20 0
-4531 82 0
-4531 143 0
-4531 245 0
-4532 20 0
-4532 82 0
-4532 151 0
-4532 239 0
-4533 20 0
-4533 82 0
-4533 229 0
-4534 20 0
-4534 92 0
-4534 133 0
-4534 245 0
-4535 20 0
-4535 92 0
-4535 151 0
-4535 218 0
-4536 20 0
-4536 92 0
-4537 20 0
-4537 100 0
-4537 133 0
-4537 239 0
-4538 20 0
-4538 100 0
-4538 143 0
-4538 218 0
-4539 20 0
-4539 100 0
-4539 200 0
-4540 20 0
-4540 110 0
-4540 133 0
-4540 229 0
-4541 20 0
-4541 110 0
-4541 143 0
-4542 20 0
-4542 110 0
-4542 151 0
-4542 200 0
-4543 28 0
-4543 66 0
-4543 245 0
-4544 28 0
-4544 66 0
-4544 184 0
-4544 239 0
-4545 28 0
-4545 66 0
-4545 194 0
-4545 229 0
-4546 28 0
-4546 74 0
-4546 143 0
-4546 245 0
-4547 28 0
-4547 74 0
-4547 151 0
-4547 239 0
-4548 28 0
-4548 74 0
-4548 229 0
-4549 28 0
-4549 92 0
-4549 125 0
-4549 245 0
-4550 28 0
-4550 92 0
-4550 151 0
-4550 194 0
-4551 28 0
-4551 92 0
-4551 184 0
-4552 28 0
-4552 100 0
-4552 125 0
-4552 239 0
-4553 28 0
-4553 100 0
-4553 143 0
-4553 194 0
-4554 28 0
-4554 100 0
-4555 28 0
-4555 110 0
-4555 125 0
-4555 229 0
-4556 28 0
-4556 110 0
-4556 143 0
-4556 184 0
-4557 28 0
-4557 110 0
-4557 151 0
-4558 38 0
-4558 66 0
-4558 166 0
-4558 245 0
-4559 38 0
-4559 66 0
-4559 184 0
-4559 218 0
-4560 38 0
-4560 66 0
-4560 194 0
-4561 38 0
-4561 74 0
-4561 133 0
-4561 245 0
-4562 38 0
-4562 74 0
-4562 151 0
-4562 218 0
-4563 38 0
-4563 74 0
-4564 38 0
-4564 82 0
-4564 125 0
-4564 245 0
-4565 38 0
-4565 82 0
-4565 151 0
-4565 194 0
-4566 38 0
-4566 82 0
-4566 184 0
-4567 38 0
-4567 100 0
-4567 125 0
-4567 218 0
-4568 38 0
-4568 100 0
-4568 133 0
-4568 194 0
-4569 38 0
-4569 100 0
-4569 166 0
-4570 38 0
-4570 110 0
-4570 125 0
-4571 38 0
-4571 110 0
-4571 133 0
-4571 184 0
-4572 38 0
-4572 110 0
-4572 151 0
-4572 166 0
-4573 46 0
-4573 66 0
-4573 166 0
-4573 239 0
-4574 46 0
-4574 66 0
-4574 218 0
-4575 46 0
-4575 66 0
-4575 194 0
-4575 200 0
-4576 46 0
-4576 74 0
-4576 133 0
-4576 239 0
-4577 46 0
-4577 74 0
-4577 143 0
-4577 218 0
-4578 46 0
-4578 74 0
-4578 200 0
-4579 46 0
-4579 82 0
-4579 125 0
-4579 239 0
-4580 46 0
-4580 82 0
-4580 143 0
-4580 194 0
-4581 46 0
-4581 82 0
-4582 46 0
-4582 92 0
-4582 125 0
-4582 218 0
-4583 46 0
-4583 92 0
-4583 133 0
-4583 194 0
-4584 46 0
-4584 92 0
-4584 166 0
-4585 46 0
-4585 110 0
-4585 125 0
-4585 200 0
-4586 46 0
-4586 110 0
-4586 133 0
-4587 46 0
-4587 110 0
-4587 143 0
-4587 166 0
-4588 56 0
-4588 66 0
-4588 166 0
-4588 229 0
-4589 56 0
-4589 66 0
-4590 56 0
-4590 66 0
-4590 184 0
-4590 200 0
-4591 56 0
-4591 74 0
-4591 133 0
-4591 229 0
-4592 56 0
-4592 74 0
-4592 143 0
-4593 56 0
-4593 74 0
-4593 151 0
-4593 200 0
-4594 56 0
-4594 82 0
-4594 125 0
-4594 229 0
-4595 56 0
-4595 82 0
-4595 143 0
-4595 184 0
-4596 56 0
-4596 82 0
-4596 151 0
-4597 56 0
-4597 92 0
-4597 125 0
-4598 56 0
-4598 92 0
-4598 133 0
-4598 184 0
-4599 56 0
-4599 92 0
-4599 151 0
-4599 166 0
-4600 56 0
-4600 100 0
-4600 125 0
-4600 200 0
-4601 56 0
-4601 100 0
-4601 133 0
-4602 56 0
-4602 100 0
-4602 143 0
-4602 166 0
-1 -161 -176 -208 4499 4500 4501 4502 4503 4504 4505 4506 4507 4508 4509 4510 4511 4512 4513 4514 4515 4516 4517 4518 4519 4520 4521 4522 4523 4524 4525 4526 4527 4528 4529 4530 4531 4532 4533 4534 4535 4536 4537 4538 4539 4540 4541 4542 4543 4544 4545 4546 4547 4548 4549 4550 4551 4552 4553 4554 4555 4556 4557 4558 4559 4560 4561 4562 4563 4564 4565 4566 4567 4568 4569 4570 4571 4572 4573 4574 4575 4576 4577 4578 4579 4580 4581 4582 4583 4584 4585 4586 4587 4588 4589 4590 4591 4592 4593 4594 4595 4596 4597 4598 4599 4600 4601 4602 0
-4603 205 0
-4603 247 0
-4604 223 0
-4604 227 0
-4605 129 0
-4605 172 0
-4605 247 0
-4606 129 0
-4606 182 0
-4607 129 0
-4607 190 0
-4607 227 0
-4608 136 0
-4608 165 0
-4608 247 0
-4609 136 0
-4609 182 0
-4609 223 0
-4610 136 0
-4610 190 0
-4611 146 0
-4611 165 0
-4612 146 0
-4612 172 0
-4612 223 0
-4613 146 0
-4613 190 0
-4613 205 0
-4614 154 0
-4614 165 0
-4614 227 0
-4615 154 0
-4615 172 0
-4616 154 0
-4616 182 0
-4616 205 0
-4617 10 0
-4617 73 0
-4617 205 0
-4617 247 0
-4618 10 0
-4618 73 0
-4619 10 0
-4619 73 0
-4619 223 0
-4619 227 0
-4620 10 0
-4620 84 0
-4620 172 0
-4620 247 0
-4621 10 0
-4621 84 0
-4621 182 0
-4622 10 0
-4622 84 0
-4622 190 0
-4622 227 0
-4623 10 0
-4623 91 0
-4623 165 0
-4623 247 0
-4624 10 0
-4624 91 0
-4624 182 0
-4624 223 0
-4625 10 0
-4625 91 0
-4625 190 0
-4626 10 0
-4626 101 0
-4626 165 0
-4627 10 0
-4627 101 0
-4627 172 0
-4627 223 0
-4628 10 0
-4628 101 0
-4628 190 0
-4628 205 0
-4629 10 0
-4629 109 0
-4629 165 0
-4629 227 0
-4630 10 0
-4630 109 0
-4630 172 0
-4631 10 0
-4631 109 0
-4631 182 0
-4631 205 0
-4632 19 0
-4632 64 0
-4632 205 0
-4632 247 0
-4633 19 0
-4633 64 0
-4634 19 0
-4634 64 0
-4634 223 0
-4634 227 0
-4635 19 0
-4635 84 0
-4635 136 0
-4635 247 0
-4636 19 0
-4636 84 0
-4636 146 0
-4637 19 0
-4637 84 0
-4637 154 0
-4637 227 0
-4638 19 0
-4638 91 0
-4638 129 0
-4638 247 0
-4639 19 0
-4639 91 0
-4639 146 0
-4639 223 0
-4640 19 0
-4640 91 0
-4640 154 0
-4641 19 0
-4641 101 0
-4641 129 0
-4642 19 0
-4642 101 0
-4642 136 0
-4642 223 0
-4643 19 0
-4643 101 0
-4643 154 0
-4643 205 0
-4644 19 0
-4644 109 0
-4644 129 0
-4644 227 0
-4645 19 0
-4645 109 0
-4645 136 0
-4646 19 0
-4646 109 0
-4646 146 0
-4646 205 0
-4647 30 0
-4647 64 0
-4647 172 0
-4647 247 0
-4648 30 0
-4648 64 0
-4648 182 0
-4649 30 0
-4649 64 0
-4649 190 0
-4649 227 0
-4650 30 0
-4650 73 0
-4650 136 0
-4650 247 0
-4651 30 0
-4651 73 0
-4651 146 0
-4652 30 0
-4652 73 0
-4652 154 0
-4652 227 0
-4653 30 0
-4653 91 0
-4653 247 0
-4654 30 0
-4654 91 0
-4654 146 0
-4654 190 0
-4655 30 0
-4655 91 0
-4655 154 0
-4655 182 0
-4656 30 0
-4656 101 0
-4657 30 0
-4657 101 0
-4657 136 0
-4657 190 0
-4658 30 0
-4658 101 0
-4658 154 0
-4658 172 0
-4659 30 0
-4659 109 0
-4659 227 0
-4660 30 0
-4660 109 0
-4660 136 0
-4660 182 0
-4661 30 0
-4661 109 0
-4661 146 0
-4661 172 0
-4662 37 0
-4662 64 0
-4662 165 0
-4662 247 0
-4663 37 0
-4663 64 0
-4663 182 0
-4663 223 0
-4664 37 0
-4664 64 0
-4664 190 0
-4665 37 0
-4665 73 0
-4665 129 0
-4665 247 0
-4666 37 0
-4666 73 0
-4666 146 0
-4666 223 0
-4667 37 0
-4667 73 0
-4667 154 0
-4668 37 0
-4668 84 0
-4668 247 0
-4669 37 0
-4669 84 0
-4669 146 0
-4669 190 0
-4670 37 0
-4670 84 0
-4670 154 0
-4670 182 0
-4671 37 0
-4671 101 0
-4671 223 0
-4672 37 0
-4672 101 0
-4672 129 0
-4672 190 0
-4673 37 0
-4673 101 0
-4673 154 0
-4673 165 0
-4674 37 0
-4674 109 0
-4675 37 0
-4675 109 0
-4675 129 0
-4675 182 0
-4676 37 0
-4676 109 0
-4676 146 0
-4676 165 0
-4677 47 0
-4677 64 0
-4677 165 0
-4678 47 0
-4678 64 0
-4678 172 0
-4678 223 0
-4679 47 0
-4679 64 0
-4679 190 0
-4679 205 0
-4680 47 0
-4680 73 0
-4680 129 0
-4681 47 0
-4681 73 0
-4681 136 0
-4681 223 0
-4682 47 0
-4682 73 0
-4682 154 0
-4682 205 0
-4683 47 0
-4683 84 0
-4684 47 0
-4684 84 0
-4684 136 0
-4684 190 0
-4685 47 0
-4685 84 0
-4685 154 0
-4685 172 0
-4686 47 0
-4686 91 0
-4686 223 0
-4687 47 0
-4687 91 0
-4687 129 0
-4687 190 0
-4688 47 0
-4688 91 0
-4688 154 0
-4688 165 0
-4689 47 0
-4689 109 0
-4689 205 0
-4690 47 0
-4690 109 0
-4690 129 0
-4690 172 0
-4691 47 0
-4691 109 0
-4691 136 0
-4691 165 0
-4692 55 0
-4692 64 0
-4692 165 0
-4692 227 0
-4693 55 0
-4693 64 0
-4693 172 0
-4694 55 0
-4694 64 0
-4694 182 0
-4694 205 0
-4695 55 0
-4695 73 0
-4695 129 0
-4695 227 0
-4696 55 0
-4696 73 0
-4696 136 0
-4697 55 0
-4697 73 0
-4697 146 0
-4697 205 0
-4698 55 0
-4698 84 0
-4698 227 0
-4699 55 0
-4699 84 0
-4699 136 0
-4699 182 0
-4700 55 0
-4700 84 0
-4700 146 0
-4700 172 0
-4701 55 0
-4701 91 0
-4702 55 0
-4702 91 0
-4702 129 0
-4702 182 0
-4703 55 0
-4703 91 0
-4703 146 0
-4703 165 0
-4704 55 0
-4704 101 0
-4704 205 0
-4705 55 0
-4705 101 0
-4705 129 0
-4705 172 0
-4706 55 0
-4706 101 0
-4706 136 0
-4706 165 0
-1 -118 -215 -235 4603 4604 4605 4606 4607 4608 4609 4610 4611 4612 4613 4614 4615 4616 4617 4618 4619 4620 4621 4622 4623 4624 4625 4626 4627 4628 4629 4630 4631 4632 4633 4634 4635 4636 4637 4638 4639 4640 4641 4642 4643 4644 4645 4646 4647 4648 4649 4650 4651 4652 4653 4654 4655 4656 4657 4658 4659 4660 4661 4662 4663 4664 4665 4666 4667 4668 4669 4670 4671 4672 4673 4674 4675 4676 4677 4678 4679 4680 4681 4682 4683 4684 4685 4686 4687 4688 4689 4690 4691 4692 4693 4694 4695 4696 4697 4698 4699 4700 4701 4702 4703 4704 4705 4706 0
-4707 201 0
-4707 252 0
-4708 210 0
-4708 243 0
-4709 127 0
-4709 174 0
-4709 252 0
-4710 127 0
-4710 183 0
-4710 243 0
-4711 127 0
-4711 192 0
-4712 138 0
-4712 163 0
-4712 252 0
-4713 138 0
-4713 183 0
-4714 138 0
-4714 192 0
-4714 210 0
-4715 147 0
-4715 163 0
-4715 243 0
-4716 147 0
-4716 174 0
-4717 147 0
-4717 192 0
-4717 201 0
-4718 156 0
-4718 163 0
-4719 156 0
-4719 174 0
-4719 210 0
-4720 156 0
-4720 183 0
-4720 201 0
-4721 10 0
-4721 73 0
-4721 201 0
-4721 252 0
-4722 10 0
-4722 73 0
-4722 210 0
-4722 243 0
-4723 10 0
-4723 73 0
-4724 10 0
-4724 82 0
-4724 174 0
-4724 252 0
-4725 10 0
-4725 82 0
-4725 183 0
-4725 243 0
-4726 10 0
-4726 82 0
-4726 192 0
-4727 10 0
-4727 93 0
-4727 163 0
-4727 252 0
-4728 10 0
-4728 93 0
-4728 183 0
-4729 10 0
-4729 93 0
-4729 192 0
-4729 210 0
-4730 10 0
-4730 102 0
-4730 163 0
-4730 243 0
-4731 10 0
-4731 102 0
-4731 174 0
-4732 10 0
-4732 102 0
-4732 192 0
-4732 201 0
-4733 10 0
-4733 111 0
-4733 163 0
-4734 10 0
-4734 111 0
-4734 174 0
-4734 210 0
-4735 10 0
-4735 111 0
-4735 183 0
-4735 201 0
-4736 19 0
-4736 64 0
-4736 201 0
-4736 252 0
-4737 19 0
-4737 64 0
-4737 210 0
-4737 243 0
-4738 19 0
-4738 64 0
-4739 19 0
-4739 82 0
-4739 138 0
-4739 252 0
-4740 19 0
-4740 82 0
-4740 147 0
-4740 243 0
-4741 19 0
-4741 82 0
-4741 156 0
-4742 19 0
-4742 93 0
-4742 127 0
-4742 252 0
-4743 19 0
-4743 93 0
-4743 147 0
-4744 19 0
-4744 93 0
-4744 156 0
-4744 210 0
-4745 19 0
-4745 102 0
-4745 127 0
-4745 243 0
-4746 19 0
-4746 102 0
-4746 138 0
-4747 19 0
-4747 102 0
-4747 156 0
-4747 201 0
-4748 19 0
-4748 111 0
-4748 127 0
-4749 19 0
-4749 111 0
-4749 138 0
-4749 210 0
-4750 19 0
-4750 111 0
-4750 147 0
-4750 201 0
-4751 28 0
-4751 64 0
-4751 174 0
-4751 252 0
-4752 28 0
-4752 64 0
-4752 183 0
-4752 243 0
-4753 28 0
-4753 64 0
-4753 192 0
-4754 28 0
-4754 73 0
-4754 138 0
-4754 252 0
-4755 28 0
-4755 73 0
-4755 147 0
-4755 243 0
-4756 28 0
-4756 73 0
-4756 156 0
-4757 28 0
-4757 93 0
-4757 252 0
-4758 28 0
-4758 93 0
-4758 147 0
-4758 192 0
-4759 28 0
-4759 93 0
-4759 156 0
-4759 183 0
-4760 28 0
-4760 102 0
-4760 243 0
-4761 28 0
-4761 102 0
-4761 138 0
-4761 192 0
-4762 28 0
-4762 102 0
-4762 156 0
-4762 174 0
-4763 28 0
-4763 111 0
-4764 28 0
-4764 111 0
-4764 138 0
-4764 183 0
-4765 28 0
-4765 111 0
-4765 147 0
-4765 174 0
-4766 39 0
-4766 64 0
-4766 163 0
-4766 252 0
-4767 39 0
-4767 64 0
-4767 183 0
-4768 39 0
-4768 64 0
-4768 192 0
-4768 210 0
-4769 39 0
-4769 73 0
-4769 127 0
-4769 252 0
-4770 39 0
-4770 73 0
-4770 147 0
-4771 39 0
-4771 73 0
-4771 156 0
-4771 210 0
-4772 39 0
-4772 82 0
-4772 252 0
-4773 39 0
-4773 82 0
-4773 147 0
-4773 192 0
-4774 39 0
-4774 82 0
-4774 156 0
-4774 183 0
-4775 39 0
-4775 102 0
-4776 39 0
-4776 102 0
-4776 127 0
-4776 192 0
-4777 39 0
-4777 102 0
-4777 156 0
-4777 163 0
-4778 39 0
-4778 111 0
-4778 210 0
-4779 39 0
-4779 111 0
-4779 127 0
-4779 183 0
-4780 39 0
-4780 111 0
-4780 147 0
-4780 163 0
-4781 48 0
-4781 64 0
-4781 163 0
-4781 243 0
-4782 48 0
-4782 64 0
-4782 174 0
-4783 48 0
-4783 64 0
-4783 192 0
-4783 201 0
-4784 48 0
-4784 73 0
-4784 127 0
-4784 243 0
-4785 48 0
-4785 73 0
-4785 138 0
-4786 48 0
-4786 73 0
-4786 156 0
-4786 201 0
-4787 48 0
-4787 82 0
-4787 243 0
-4788 48 0
-4788 82 0
-4788 138 0
-4788 192 0
-4789 48 0
-4789 82 0
-4789 156 0
-4789 174 0
-4790 48 0
-4790 93 0
-4791 48 0
-4791 93 0
-4791 127 0
-4791 192 0
-4792 48 0
-4792 93 0
-4792 156 0
-4792 163 0
-4793 48 0
-4793 111 0
-4793 201 0
-4794 48 0
-4794 111 0
-4794 127 0
-4794 174 0
-4795 48 0
-4795 111 0
-4795 138 0
-4795 163 0
-4796 57 0
-4796 64 0
-4796 163 0
-4797 57 0
-4797 64 0
-4797 174 0
-4797 210 0
-4798 57 0
-4798 64 0
-4798 183 0
-4798 201 0
-4799 57 0
-4799 73 0
-4799 127 0
-4800 57 0
-4800 73 0
-4800 138 0
-4800 210 0
-4801 57 0
-4801 73 0
-4801 147 0
-4801 201 0
-4802 57 0
-4802 82 0
-4803 57 0
-4803 82 0
-4803 138 0
-4803 183 0
-4804 57 0
-4804 82 0
-4804 147 0
-4804 174 0
-4805 57 0
-4805 93 0
-4805 210 0
-4806 57 0
-4806 93 0
-4806 127 0
-4806 183 0
-4807 57 0
-4807 93 0
-4807 147 0
-4807 163 0
-4808 57 0
-4808 102 0
-4808 201 0
-4809 57 0
-4809 102 0
-4809 127 0
-4809 174 0
-4810 57 0
-4810 102 0
-4810 138 0
-4810 163 0
-1 -118 -219 -234 4707 4708 4709 4710 4711 4712 4713 4714 4715 4716 4717 4718 4719 4720 4721 4722 4723 4724 4725 4726 4727 4728 4729 4730 4731 4732 4733 4734 4735 4736 4737 4738 4739 4740 4741 4742 4743 4744 4745 4746 4747 4748 4749 4750 4751 4752 4753 4754 4755 4756 4757 4758 4759 4760 4761 4762 4763 4764 4765 4766 4767 4768 4769 4770 4771 4772 4773 4774 4775 4776 4777 4778 4779 4780 4781 4782 4783 4784 4785 4786 4787 4788 4789 4790 4791 4792 4793 4794 4795 4796 4797 4798 4799 4800 4801 4802 4803 4804 4805 4806 4807 4808 4809 4810 0
-4811 209 0
-4811 242 0
-4812 218 0
-4812 233 0
-4813 127 0
-4813 174 0
-4814 127 0
-4814 182 0
-4814 242 0
-4815 127 0
-4815 191 0
-4815 233 0
-4816 138 0
-4816 163 0
-4817 138 0
-4817 182 0
-4817 218 0
-4818 138 0
-4818 191 0
-4818 209 0
-4819 146 0
-4819 163 0
-4819 242 0
-4820 146 0
-4820 174 0
-4820 218 0
-4821 146 0
-4821 191 0
-4822 155 0
-4822 163 0
-4822 233 0
-4823 155 0
-4823 174 0
-4823 209 0
-4824 155 0
-4824 182 0
-4825 10 0
-4825 73 0
-4826 10 0
-4826 73 0
-4826 209 0
-4826 242 0
-4827 10 0
-4827 73 0
-4827 218 0
-4827 233 0
-4828 10 0
-4828 82 0
-4828 174 0
-4829 10 0
-4829 82 0
-4829 182 0
-4829 242 0
-4830 10 0
-4830 82 0
-4830 191 0
-4830 233 0
-4831 10 0
-4831 93 0
-4831 163 0
-4832 10 0
-4832 93 0
-4832 182 0
-4832 218 0
-4833 10 0
-4833 93 0
-4833 191 0
-4833 209 0
-4834 10 0
-4834 101 0
-4834 163 0
-4834 242 0
-4835 10 0
-4835 101 0
-4835 174 0
-4835 218 0
-4836 10 0
-4836 101 0
-4836 191 0
-4837 10 0
-4837 110 0
-4837 163 0
-4837 233 0
-4838 10 0
-4838 110 0
-4838 174 0
-4838 209 0
-4839 10 0
-4839 110 0
-4839 182 0
-4840 19 0
-4840 64 0
-4841 19 0
-4841 64 0
-4841 209 0
-4841 242 0
-4842 19 0
-4842 64 0
-4842 218 0
-4842 233 0
-4843 19 0
-4843 82 0
-4843 138 0
-4844 19 0
-4844 82 0
-4844 146 0
-4844 242 0
-4845 19 0
-4845 82 0
-4845 155 0
-4845 233 0
-4846 19 0
-4846 93 0
-4846 127 0
-4847 19 0
-4847 93 0
-4847 146 0
-4847 218 0
-4848 19 0
-4848 93 0
-4848 155 0
-4848 209 0
-4849 19 0
-4849 101 0
-4849 127 0
-4849 242 0
-4850 19 0
-4850 101 0
-4850 138 0
-4850 218 0
-4851 19 0
-4851 101 0
-4851 155 0
-4852 19 0
-4852 110 0
-4852 127 0
-4852 233 0
-4853 19 0
-4853 110 0
-4853 138 0
-4853 209 0
-4854 19 0
-4854 110 0
-4854 146 0
-4855 28 0
-4855 64 0
-4855 174 0
-4856 28 0
-4856 64 0
-4856 182 0
-4856 242 0
-4857 28 0
-4857 64 0
-4857 191 0
-4857 233 0
-4858 28 0
-4858 73 0
-4858 138 0
-4859 28 0
-4859 73 0
-4859 146 0
-4859 242 0
-4860 28 0
-4860 73 0
-4860 155 0
-4860 233 0
-4861 28 0
-4861 93 0
-4862 28 0
-4862 93 0
-4862 146 0
-4862 191 0
-4863 28 0
-4863 93 0
-4863 155 0
-4863 182 0
-4864 28 0
-4864 101 0
-4864 242 0
-4865 28 0
-4865 101 0
-4865 138 0
-4865 191 0
-4866 28 0
-4866 101 0
-4866 155 0
-4866 174 0
-4867 28 0
-4867 110 0
-4867 233 0
-4868 28 0
-4868 110 0
-4868 138 0
-4868 182 0
-4869 28 0
-4869 110 0
-4869 146 0
-4869 174 0
-4870 39 0
-4870 64 0
-4870 163 0
-4871 39 0
-4871 64 0
-4871 182 0
-4871 218 0
-4872 39 0
-4872 64 0
-4872 191 0
-4872 209 0
-4873 39 0
-4873 73 0
-4873 127 0
-4874 39 0
-4874 73 0
-4874 146 0
-4874 218 0
-4875 39 0
-4875 73 0
-4875 155 0
-4875 209 0
-4876 39 0
-4876 82 0
-4877 39 0
-4877 82 0
-4877 146 0
-4877 191 0
-4878 39 0
-4878 82 0
-4878 155 0
-4878 182 0
-4879 39 0
-4879 101 0
-4879 218 0
-4880 39 0
-4880 101 0
-4880 127 0
-4880 191 0
-4881 39 0
-4881 101 0
-4881 155 0
-4881 163 0
-4882 39 0
-4882 110 0
-4882 209 0
-4883 39 0
-4883 110 0
-4883 127 0
-4883 182 0
-4884 39 0
-4884 110 0
-4884 146 0
-4884 163 0
-4885 47 0
-4885 64 0
-4885 163 0
-4885 242 0
-4886 47 0
-4886 64 0
-4886 174 0
-4886 218 0
-4887 47 0
-4887 64 0
-4887 191 0
-4888 47 0
-4888 73 0
-4888 127 0
-4888 242 0
-4889 47 0
-4889 73 0
-4889 138 0
-4889 218 0
-4890 47 0
-4890 73 0
-4890 155 0
-4891 47 0
-4891 82 0
-4891 242 0
-4892 47 0
-4892 82 0
-4892 138 0
-4892 191 0
-4893 47 0
-4893 82 0
-4893 155 0
-4893 174 0
-4894 47 0
-4894 93 0
-4894 218 0
-4895 47 0
-4895 93 0
-4895 127 0
-4895 191 0
-4896 47 0
-4896 93 0
-4896 155 0
-4896 163 0
-4897 47 0
-4897 110 0
-4898 47 0
-4898 110 0
-4898 127 0
-4898 174 0
-4899 47 0
-4899 110 0
-4899 138 0
-4899 163 0
-4900 56 0
-4900 64 0
-4900 163 0
-4900 233 0
-4901 56 0
-4901 64 0
-4901 174 0
-4901 209 0
-4902 56 0
-4902 64 0
-4902 182 0
-4903 56 0
-4903 73 0
-4903 127 0
-4903 233 0
-4904 56 0
-4904 73 0
-4904 138 0
-4904 209 0
-4905 56 0
-4905 73 0
-4905 146 0
-4906 56 0
-4906 82 0
-4906 233 0
-4907 56 0
-4907 82 0
-4907 138 0
-4907 182 0
-4908 56 0
-4908 82 0
-4908 146 0
-4908 174 0
-4909 56 0
-4909 93 0
-4909 209 0
-4910 56 0
-4910 93 0
-4910 127 0
-4910 182 0
-4911 56 0
-4911 93 0
-4911 146 0
-4911 163 0
-4912 56 0
-4912 101 0
-4913 56 0
-4913 101 0
-4913 127 0
-4913 174 0
-4914 56 0
-4914 101 0
-4914 138 0
-4914 163 0
-1 -118 -201 -248 4811 4812 4813 4814 4815 4816 4817 4818 4819 4820 4821 4822 4823 4824 4825 4826 4827 4828 4829 4830 4831 4832 4833 4834 4835 4836 4837 4838 4839 4840 4841 4842 4843 4844 4845 4846 4847 4848 4849 4850 4851 4852 4853 4854 4855 4856 4857 4858 4859 4860 4861 4862 4863 4864 4865 4866 4867 4868 4869 4870 4871 4872 4873 4874 4875 4876 4877 4878 4879 4880 4881 4882 4883 4884 4885 4886 4887 4888 4889 4890 4891 4892 4893 4894 4895 4896 4897 4898 4899 4900 4901 4902 4903 4904 4905 4906 4907 4908 4909 4910 4911 4912 4913 4914 0
-4915 199 0
-4915 252 0
-4916 210 0
-4916 237 0
-4917 127 0
-4917 172 0
-4917 252 0
-4918 127 0
-4918 183 0
-4918 237 0
-4919 127 0
-4919 192 0
-4920 136 0
-4920 163 0
-4920 252 0
-4921 136 0
-4921 183 0
-4922 136 0
-4922 192 0
-4922 210 0
-4923 147 0
-4923 163 0
-4923 237 0
-4924 147 0
-4924 172 0
-4925 147 0
-4925 192 0
-4925 199 0
-4926 156 0
-4926 163 0
-4927 156 0
-4927 172 0
-4927 210 0
-4928 156 0
-4928 183 0
-4928 199 0
-4929 10 0
-4929 73 0
-4929 199 0
-4929 252 0
-4930 10 0
-4930 73 0
-4930 210 0
-4930 237 0
-4931 10 0
-4931 73 0
-4932 10 0
-4932 82 0
-4932 172 0
-4932 252 0
-4933 10 0
-4933 82 0
-4933 183 0
-4933 237 0
-4934 10 0
-4934 82 0
-4934 192 0
-4935 10 0
-4935 91 0
-4935 163 0
-4935 252 0
-4936 10 0
-4936 91 0
-4936 183 0
-4937 10 0
-4937 91 0
-4937 192 0
-4937 210 0
-4938 10 0
-4938 102 0
-4938 163 0
-4938 237 0
-4939 10 0
-4939 102 0
-4939 172 0
-4940 10 0
-4940 102 0
-4940 192 0
-4940 199 0
-4941 10 0
-4941 111 0
-4941 163 0
-4942 10 0
-4942 111 0
-4942 172 0
-4942 210 0
-4943 10 0
-4943 111 0
-4943 183 0
-4943 199 0
-4944 19 0
-4944 64 0
-4944 199 0
-4944 252 0
-4945 19 0
-4945 64 0
-4945 210 0
-4945 237 0
-4946 19 0
-4946 64 0
-4947 19 0
-4947 82 0
-4947 136 0
-4947 252 0
-4948 19 0
-4948 82 0
-4948 147 0
-4948 237 0
-4949 19 0
-4949 82 0
-4949 156 0
-4950 19 0
-4950 91 0
-4950 127 0
-4950 252 0
-4951 19 0
-4951 91 0
-4951 147 0
-4952 19 0
-4952 91 0
-4952 156 0
-4952 210 0
-4953 19 0
-4953 102 0
-4953 127 0
-4953 237 0
-4954 19 0
-4954 102 0
-4954 136 0
-4955 19 0
-4955 102 0
-4955 156 0
-4955 199 0
-4956 19 0
-4956 111 0
-4956 127 0
-4957 19 0
-4957 111 0
-4957 136 0
-4957 210 0
-4958 19 0
-4958 111 0
-4958 147 0
-4958 199 0
-4959 28 0
-4959 64 0
-4959 172 0
-4959 252 0
-4960 28 0
-4960 64 0
-4960 183 0
-4960 237 0
-4961 28 0
-4961 64 0
-4961 192 0
-4962 28 0
-4962 73 0
-4962 136 0
-4962 252 0
-4963 28 0
-4963 73 0
-4963 147 0
-4963 237 0
-4964 28 0
-4964 73 0
-4964 156 0
-4965 28 0
-4965 91 0
-4965 252 0
-4966 28 0
-4966 91 0
-4966 147 0
-4966 192 0
-4967 28 0
-4967 91 0
-4967 156 0
-4967 183 0
-4968 28 0
-4968 102 0
-4968 237 0
-4969 28 0
-4969 102 0
-4969 136 0
-4969 192 0
-4970 28 0
-4970 102 0
-4970 156 0
-4970 172 0
-4971 28 0
-4971 111 0
-4972 28 0
-4972 111 0
-4972 136 0
-4972 183 0
-4973 28 0
-4973 111 0
-4973 147 0
-4973 172 0
-4974 37 0
-4974 64 0
-4974 163 0
-4974 252 0
-4975 37 0
-4975 64 0
-4975 183 0
-4976 37 0
-4976 64 0
-4976 192 0
-4976 210 0
-4977 37 0
-4977 73 0
-4977 127 0
-4977 252 0
-4978 37 0
-4978 73 0
-4978 147 0
-4979 37 0
-4979 73 0
-4979 156 0
-4979 210 0
-4980 37 0
-4980 82 0
-4980 252 0
-4981 37 0
-4981 82 0
-4981 147 0
-4981 192 0
-4982 37 0
-4982 82 0
-4982 156 0
-4982 183 0
-4983 37 0
-4983 102 0
-4984 37 0
-4984 102 0
-4984 127 0
-4984 192 0
-4985 37 0
-4985 102 0
-4985 156 0
-4985 163 0
-4986 37 0
-4986 111 0
-4986 210 0
-4987 37 0
-4987 111 0
-4987 127 0
-4987 183 0
-4988 37 0
-4988 111 0
-4988 147 0
-4988 163 0
-4989 48 0
-4989 64 0
-4989 163 0
-4989 237 0
-4990 48 0
-4990 64 0
-4990 172 0
-4991 48 0
-4991 64 0
-4991 192 0
-4991 199 0
-4992 48 0
-4992 73 0
-4992 127 0
-4992 237 0
-4993 48 0
-4993 73 0
-4993 136 0
-4994 48 0
-4994 73 0
-4994 156 0
-4994 199 0
-4995 48 0
-4995 82 0
-4995 237 0
-4996 48 0
-4996 82 0
-4996 136 0
-4996 192 0
-4997 48 0
-4997 82 0
-4997 156 0
-4997 172 0
-4998 48 0
-4998 91 0
-4999 48 0
-4999 91 0
-4999 127 0
-4999 192 0
-5000 48 0
-5000 91 0
-5000 156 0
-5000 163 0
-5001 48 0
-5001 111 0
-5001 199 0
-5002 48 0
-5002 111 0
-5002 127 0
-5002 172 0
-5003 48 0
-5003 111 0
-5003 136 0
-5003 163 0
-5004 57 0
-5004 64 0
-5004 163 0
-5005 57 0
-5005 64 0
-5005 172 0
-5005 210 0
-5006 57 0
-5006 64 0
-5006 183 0
-5006 199 0
-5007 57 0
-5007 73 0
-5007 127 0
-5008 57 0
-5008 73 0
-5008 136 0
-5008 210 0
-5009 57 0
-5009 73 0
-5009 147 0
-5009 199 0
-5010 57 0
-5010 82 0
-5011 57 0
-5011 82 0
-5011 136 0
-5011 183 0
-5012 57 0
-5012 82 0
-5012 147 0
-5012 172 0
-5013 57 0
-5013 91 0
-5013 210 0
-5014 57 0
-5014 91 0
-5014 127 0
-5014 183 0
-5015 57 0
-5015 91 0
-5015 147 0
-5015 163 0
-5016 57 0
-5016 102 0
-5016 199 0
-5017 57 0
-5017 102 0
-5017 127 0
-5017 172 0
-5018 57 0
-5018 102 0
-5018 136 0
-5018 163 0
-1 -118 -219 -228 4915 4916 4917 4918 4919 4920 4921 4922 4923 4924 4925 4926 4927 4928 4929 4930 4931 4932 4933 4934 4935 4936 4937 4938 4939 4940 4941 4942 4943 4944 4945 4946 4947 4948 4949 4950 4951 4952 4953 4954 4955 4956 4957 4958 4959 4960 4961 4962 4963 4964 4965 4966 4967 4968 4969 4970 4971 4972 4973 4974 4975 4976 4977 4978 4979 4980 4981 4982 4983 4984 4985 4986 4987 4988 4989 4990 4991 4992 4993 4994 4995 4996 4997 4998 4999 5000 5001 5002 5003 5004 5005 5006 5007 5008 5009 5010 5011 5012 5013 5014 5015 5016 5017 5018 0
-5019 8 0
-5019 123 0
-5019 200 0
-5019 244 0
-5020 8 0
-5020 123 0
-5020 238 0
-5021 8 0
-5021 123 0
-5021 217 0
-5021 229 0
-5022 8 0
-5022 130 0
-5022 179 0
-5022 244 0
-5023 8 0
-5023 130 0
-5023 187 0
-5023 238 0
-5024 8 0
-5024 130 0
-5024 229 0
-5025 8 0
-5025 140 0
-5025 169 0
-5025 244 0
-5026 8 0
-5026 140 0
-5026 187 0
-5026 217 0
-5027 8 0
-5027 140 0
-5028 8 0
-5028 148 0
-5028 169 0
-5028 238 0
-5029 8 0
-5029 148 0
-5029 179 0
-5029 217 0
-5030 8 0
-5030 148 0
-5030 200 0
-5031 8 0
-5031 157 0
-5031 169 0
-5031 229 0
-5032 8 0
-5032 157 0
-5032 179 0
-5033 8 0
-5033 157 0
-5033 187 0
-5033 200 0
-5034 17 0
-5034 78 0
-5034 200 0
-5034 244 0
-5035 17 0
-5035 78 0
-5035 238 0
-5036 17 0
-5036 78 0
-5036 217 0
-5036 229 0
-5037 17 0
-5037 85 0
-5037 179 0
-5037 244 0
-5038 17 0
-5038 85 0
-5038 187 0
-5038 238 0
-5039 17 0
-5039 85 0
-5039 229 0
-5040 17 0
-5040 95 0
-5040 169 0
-5040 244 0
-5041 17 0
-5041 95 0
-5041 187 0
-5041 217 0
-5042 17 0
-5042 95 0
-5043 17 0
-5043 103 0
-5043 169 0
-5043 238 0
-5044 17 0
-5044 103 0
-5044 179 0
-5044 217 0
-5045 17 0
-5045 103 0
-5045 200 0
-5046 17 0
-5046 112 0
-5046 169 0
-5046 229 0
-5047 17 0
-5047 112 0
-5047 179 0
-5048 17 0
-5048 112 0
-5048 187 0
-5048 200 0
-5049 27 0
-5049 200 0
-5049 244 0
-5050 27 0
-5050 238 0
-5051 27 0
-5051 217 0
-5051 229 0
-5052 27 0
-5052 85 0
-5052 140 0
-5052 244 0
-5053 27 0
-5053 85 0
-5053 148 0
-5053 238 0
-5054 27 0
-5054 85 0
-5054 157 0
-5054 229 0
-5055 27 0
-5055 95 0
-5055 130 0
-5055 244 0
-5056 27 0
-5056 95 0
-5056 148 0
-5056 217 0
-5057 27 0
-5057 95 0
-5057 157 0
-5058 27 0
-5058 103 0
-5058 130 0
-5058 238 0
-5059 27 0
-5059 103 0
-5059 140 0
-5059 217 0
-5060 27 0
-5060 103 0
-5060 157 0
-5060 200 0
-5061 27 0
-5061 112 0
-5061 130 0
-5061 229 0
-5062 27 0
-5062 112 0
-5062 140 0
-5063 27 0
-5063 112 0
-5063 148 0
-5063 200 0
-5064 34 0
-5064 179 0
-5064 244 0
-5065 34 0
-5065 187 0
-5065 238 0
-5066 34 0
-5066 229 0
-5067 34 0
-5067 78 0
-5067 140 0
-5067 244 0
-5068 34 0
-5068 78 0
-5068 148 0
-5068 238 0
-5069 34 0
-5069 78 0
-5069 157 0
-5069 229 0
-5070 34 0
-5070 95 0
-5070 123 0
-5070 244 0
-5071 34 0
-5071 95 0
-5071 148 0
-5072 34 0
-5072 95 0
-5072 157 0
-5072 187 0
-5073 34 0
-5073 103 0
-5073 123 0
-5073 238 0
-5074 34 0
-5074 103 0
-5074 140 0
-5075 34 0
-5075 103 0
-5075 157 0
-5075 179 0
-5076 34 0
-5076 112 0
-5076 123 0
-5076 229 0
-5077 34 0
-5077 112 0
-5077 140 0
-5077 187 0
-5078 34 0
-5078 112 0
-5078 148 0
-5078 179 0
-5079 169 0
-5079 244 0
-5080 187 0
-5080 217 0
-5081 78 0
-5081 130 0
-5081 244 0
-5082 78 0
-5082 148 0
-5082 217 0
-5083 78 0
-5083 157 0
-5084 85 0
-5084 123 0
-5084 244 0
-5085 85 0
-5085 148 0
-5086 85 0
-5086 157 0
-5086 187 0
-5087 103 0
-5087 123 0
-5087 217 0
-5088 103 0
-5088 130 0
-5089 103 0
-5089 157 0
-5089 169 0
-5090 112 0
-5090 123 0
-5091 112 0
-5091 130 0
-5091 187 0
-5092 112 0
-5092 148 0
-5092 169 0
-5093 52 0
-5093 169 0
-5093 238 0
-5094 52 0
-5094 179 0
-5094 217 0
-5095 52 0
-5095 200 0
-5096 52 0
-5096 78 0
-5096 130 0
-5096 238 0
-5097 52 0
-5097 78 0
-5097 140 0
-5097 217 0
-5098 52 0
-5098 78 0
-5098 157 0
-5098 200 0
-5099 52 0
-5099 85 0
-5099 123 0
-5099 238 0
-5100 52 0
-5100 85 0
-5100 140 0
-5101 52 0
-5101 85 0
-5101 157 0
-5101 179 0
-5102 52 0
-5102 95 0
-5102 123 0
-5102 217 0
-5103 52 0
-5103 95 0
-5103 130 0
-5104 52 0
-5104 95 0
-5104 157 0
-5104 169 0
-5105 52 0
-5105 112 0
-5105 123 0
-5105 200 0
-5106 52 0
-5106 112 0
-5106 130 0
-5106 179 0
-5107 52 0
-5107 112 0
-5107 140 0
-5107 169 0
-5108 61 0
-5108 169 0
-5108 229 0
-5109 61 0
-5109 179 0
-5110 61 0
-5110 187 0
-5110 200 0
-5111 61 0
-5111 78 0
-5111 130 0
-5111 229 0
-5112 61 0
-5112 78 0
-5112 140 0
-5113 61 0
-5113 78 0
-5113 148 0
-5113 200 0
-5114 61 0
-5114 85 0
-5114 123 0
-5114 229 0
-5115 61 0
-5115 85 0
-5115 140 0
-5115 187 0
-5116 61 0
-5116 85 0
-5116 148 0
-5116 179 0
-5117 61 0
-5117 95 0
-5117 123 0
-5118 61 0
-5118 95 0
-5118 130 0
-5118 187 0
-5119 61 0
-5119 95 0
-5119 148 0
-5119 169 0
-5120 61 0
-5120 103 0
-5120 123 0
-5120 200 0
-5121 61 0
-5121 103 0
-5121 130 0
-5121 179 0
-5122 61 0
-5122 103 0
-5122 140 0
-5122 169 0
-44 -68 -196 -208 5019 5020 5021 5022 5023 5024 5025 5026 5027 5028 5029 5030 5031 5032 5033 5034 5035 5036 5037 5038 5039 5040 5041 5042 5043 5044 5045 5046 5047 5048 5049 5050 5051 5052 5053 5054 5055 5056 5057 5058 5059 5060 5061 5062 5063 5064 5065 5066 5067 5068 5069 5070 5071 5072 5073 5074 5075 5076 5077 5078 5079 5080 5081 5082 5083 5084 5085 5086 5087 5088 5089 5090 5091 5092 5093 5094 5095 5096 5097 5098 5099 5100 5101 5102 5103 5104 5105 5106 5107 5108 5109 5110 5111 5112 5113 5114 5115 5116 5117 5118 5119 5120 5121 5122 0
-5123 8 0
-5123 122 0
-5123 203 0
-5124 8 0
-5124 122 0
-5124 212 0
-5124 239 0
-5125 8 0
-5125 122 0
-5125 221 0
-5125 230 0
-5126 8 0
-5126 131 0
-5126 176 0
-5127 8 0
-5127 131 0
-5127 185 0
-5127 239 0
-5128 8 0
-5128 131 0
-5128 194 0
-5128 230 0
-5129 8 0
-5129 140 0
-5130 8 0
-5130 140 0
-5130 185 0
-5130 221 0
-5131 8 0
-5131 140 0
-5131 194 0
-5131 212 0
-5132 8 0
-5132 149 0
-5132 239 0
-5133 8 0
-5133 149 0
-5133 176 0
-5133 221 0
-5134 8 0
-5134 149 0
-5134 194 0
-5134 203 0
-5135 8 0
-5135 158 0
-5135 230 0
-5136 8 0
-5136 158 0
-5136 176 0
-5136 212 0
-5137 8 0
-5137 158 0
-5137 185 0
-5137 203 0
-5138 17 0
-5138 77 0
-5138 203 0
-5139 17 0
-5139 77 0
-5139 212 0
-5139 239 0
-5140 17 0
-5140 77 0
-5140 221 0
-5140 230 0
-5141 17 0
-5141 86 0
-5141 176 0
-5142 17 0
-5142 86 0
-5142 185 0
-5142 239 0
-5143 17 0
-5143 86 0
-5143 194 0
-5143 230 0
-5144 17 0
-5144 95 0
-5145 17 0
-5145 95 0
-5145 185 0
-5145 221 0
-5146 17 0
-5146 95 0
-5146 194 0
-5146 212 0
-5147 17 0
-5147 104 0
-5147 239 0
-5148 17 0
-5148 104 0
-5148 176 0
-5148 221 0
-5149 17 0
-5149 104 0
-5149 194 0
-5149 203 0
-5150 17 0
-5150 113 0
-5150 230 0
-5151 17 0
-5151 113 0
-5151 176 0
-5151 212 0
-5152 17 0
-5152 113 0
-5152 185 0
-5152 203 0
-5153 26 0
-5153 203 0
-5154 26 0
-5154 212 0
-5154 239 0
-5155 26 0
-5155 221 0
-5155 230 0
-5156 26 0
-5156 86 0
-5156 140 0
-5157 26 0
-5157 86 0
-5157 149 0
-5157 239 0
-5158 26 0
-5158 86 0
-5158 158 0
-5158 230 0
-5159 26 0
-5159 95 0
-5159 131 0
-5160 26 0
-5160 95 0
-5160 149 0
-5160 221 0
-5161 26 0
-5161 95 0
-5161 158 0
-5161 212 0
-5162 26 0
-5162 104 0
-5162 131 0
-5162 239 0
-5163 26 0
-5163 104 0
-5163 140 0
-5163 221 0
-5164 26 0
-5164 104 0
-5164 158 0
-5164 203 0
-5165 26 0
-5165 113 0
-5165 131 0
-5165 230 0
-5166 26 0
-5166 113 0
-5166 140 0
-5166 212 0
-5167 26 0
-5167 113 0
-5167 149 0
-5167 203 0
-5168 35 0
-5168 176 0
-5169 35 0
-5169 185 0
-5169 239 0
-5170 35 0
-5170 194 0
-5170 230 0
-5171 35 0
-5171 77 0
-5171 140 0
-5172 35 0
-5172 77 0
-5172 149 0
-5172 239 0
-5173 35 0
-5173 77 0
-5173 158 0
-5173 230 0
-5174 35 0
-5174 95 0
-5174 122 0
-5175 35 0
-5175 95 0
-5175 149 0
-5175 194 0
-5176 35 0
-5176 95 0
-5176 158 0
-5176 185 0
-5177 35 0
-5177 104 0
-5177 122 0
-5177 239 0
-5178 35 0
-5178 104 0
-5178 140 0
-5178 194 0
-5179 35 0
-5179 104 0
-5179 158 0
-5179 176 0
-5180 35 0
-5180 113 0
-5180 122 0
-5180 230 0
-5181 35 0
-5181 113 0
-5181 140 0
-5181 185 0
-5182 35 0
-5182 113 0
-5182 149 0
-5182 176 0
-5183 185 0
-5183 221 0
-5184 194 0
-5184 212 0
-5185 77 0
-5185 131 0
-5186 77 0
-5186 149 0
-5186 221 0
-5187 77 0
-5187 158 0
-5187 212 0
-5188 86 0
-5188 122 0
-5189 86 0
-5189 149 0
-5189 194 0
-5190 86 0
-5190 158 0
-5190 185 0
-5191 104 0
-5191 122 0
-5191 221 0
-5192 104 0
-5192 131 0
-5192 194 0
-5193 104 0
-5193 158 0
-5194 113 0
-5194 122 0
-5194 212 0
-5195 113 0
-5195 131 0
-5195 185 0
-5196 113 0
-5196 149 0
-5197 53 0
-5197 239 0
-5198 53 0
-5198 176 0
-5198 221 0
-5199 53 0
-5199 194 0
-5199 203 0
-5200 53 0
-5200 77 0
-5200 131 0
-5200 239 0
-5201 53 0
-5201 77 0
-5201 140 0
-5201 221 0
-5202 53 0
-5202 77 0
-5202 158 0
-5202 203 0
-5203 53 0
-5203 86 0
-5203 122 0
-5203 239 0
-5204 53 0
-5204 86 0
-5204 140 0
-5204 194 0
-5205 53 0
-5205 86 0
-5205 158 0
-5205 176 0
-5206 53 0
-5206 95 0
-5206 122 0
-5206 221 0
-5207 53 0
-5207 95 0
-5207 131 0
-5207 194 0
-5208 53 0
-5208 95 0
-5208 158 0
-5209 53 0
-5209 113 0
-5209 122 0
-5209 203 0
-5210 53 0
-5210 113 0
-5210 131 0
-5210 176 0
-5211 53 0
-5211 113 0
-5211 140 0
-5212 62 0
-5212 230 0
-5213 62 0
-5213 176 0
-5213 212 0
-5214 62 0
-5214 185 0
-5214 203 0
-5215 62 0
-5215 77 0
-5215 131 0
-5215 230 0
-5216 62 0
-5216 77 0
-5216 140 0
-5216 212 0
-5217 62 0
-5217 77 0
-5217 149 0
-5217 203 0
-5218 62 0
-5218 86 0
-5218 122 0
-5218 230 0
-5219 62 0
-5219 86 0
-5219 140 0
-5219 185 0
-5220 62 0
-5220 86 0
-5220 149 0
-5220 176 0
-5221 62 0
-5221 95 0
-5221 122 0
-5221 212 0
-5222 62 0
-5222 95 0
-5222 131 0
-5222 185 0
-5223 62 0
-5223 95 0
-5223 149 0
-5224 62 0
-5224 104 0
-5224 122 0
-5224 203 0
-5225 62 0
-5225 104 0
-5225 131 0
-5225 176 0
-5226 62 0
-5226 104 0
-5226 140 0
-44 -68 -167 -248 5123 5124 5125 5126 5127 5128 5129 5130 5131 5132 5133 5134 5135 5136 5137 5138 5139 5140 5141 5142 5143 5144 5145 5146 5147 5148 5149 5150 5151 5152 5153 5154 5155 5156 5157 5158 5159 5160 5161 5162 5163 5164 5165 5166 5167 5168 5169 5170 5171 5172 5173 5174 5175 5176 5177 5178 5179 5180 5181 5182 5183 5184 5185 5186 5187 5188 5189 5190 5191 5192 5193 5194 5195 5196 5197 5198 5199 5200 5201 5202 5203 5204 5205 5206 5207 5208 5209 5210 5211 5212 5213 5214 5215 5216 5217 5218 5219 5220 5221 5222 5223 5224 5225 5226 0
-5227 5 0
-5227 123 0
-5227 202 0
-5227 247 0
-5228 5 0
-5228 123 0
-5228 212 0
-5229 5 0
-5229 123 0
-5229 220 0
-5229 227 0
-5230 5 0
-5230 131 0
-5230 178 0
-5230 247 0
-5231 5 0
-5231 131 0
-5232 5 0
-5232 131 0
-5232 196 0
-5232 227 0
-5233 5 0
-5233 139 0
-5233 170 0
-5233 247 0
-5234 5 0
-5234 139 0
-5234 220 0
-5235 5 0
-5235 139 0
-5235 196 0
-5235 212 0
-5236 5 0
-5236 149 0
-5236 170 0
-5237 5 0
-5237 149 0
-5237 178 0
-5237 220 0
-5238 5 0
-5238 149 0
-5238 196 0
-5238 202 0
-5239 5 0
-5239 157 0
-5239 170 0
-5239 227 0
-5240 5 0
-5240 157 0
-5240 178 0
-5240 212 0
-5241 5 0
-5241 157 0
-5241 202 0
-5242 14 0
-5242 78 0
-5242 202 0
-5242 247 0
-5243 14 0
-5243 78 0
-5243 212 0
-5244 14 0
-5244 78 0
-5244 220 0
-5244 227 0
-5245 14 0
-5245 86 0
-5245 178 0
-5245 247 0
-5246 14 0
-5246 86 0
-5247 14 0
-5247 86 0
-5247 196 0
-5247 227 0
-5248 14 0
-5248 94 0
-5248 170 0
-5248 247 0
-5249 14 0
-5249 94 0
-5249 220 0
-5250 14 0
-5250 94 0
-5250 196 0
-5250 212 0
-5251 14 0
-5251 104 0
-5251 170 0
-5252 14 0
-5252 104 0
-5252 178 0
-5252 220 0
-5253 14 0
-5253 104 0
-5253 196 0
-5253 202 0
-5254 14 0
-5254 112 0
-5254 170 0
-5254 227 0
-5255 14 0
-5255 112 0
-5255 178 0
-5255 212 0
-5256 14 0
-5256 112 0
-5256 202 0
-5257 24 0
-5257 202 0
-5257 247 0
-5258 24 0
-5258 212 0
-5259 24 0
-5259 220 0
-5259 227 0
-5260 24 0
-5260 86 0
-5260 139 0
-5260 247 0
-5261 24 0
-5261 86 0
-5261 149 0
-5262 24 0
-5262 86 0
-5262 157 0
-5262 227 0
-5263 24 0
-5263 94 0
-5263 131 0
-5263 247 0
-5264 24 0
-5264 94 0
-5264 149 0
-5264 220 0
-5265 24 0
-5265 94 0
-5265 157 0
-5265 212 0
-5266 24 0
-5266 104 0
-5266 131 0
-5267 24 0
-5267 104 0
-5267 139 0
-5267 220 0
-5268 24 0
-5268 104 0
-5268 157 0
-5268 202 0
-5269 24 0
-5269 112 0
-5269 131 0
-5269 227 0
-5270 24 0
-5270 112 0
-5270 139 0
-5270 212 0
-5271 24 0
-5271 112 0
-5271 149 0
-5271 202 0
-5272 178 0
-5272 247 0
-5273 196 0
-5273 227 0
-5274 78 0
-5274 139 0
-5274 247 0
-5275 78 0
-5275 149 0
-5276 78 0
-5276 157 0
-5276 227 0
-5277 94 0
-5277 123 0
-5277 247 0
-5278 94 0
-5278 149 0
-5278 196 0
-5279 94 0
-5279 157 0
-5280 104 0
-5280 123 0
-5281 104 0
-5281 139 0
-5281 196 0
-5282 104 0
-5282 157 0
-5282 178 0
-5283 112 0
-5283 123 0
-5283 227 0
-5284 112 0
-5284 139 0
-5285 112 0
-5285 149 0
-5285 178 0
-5286 40 0
-5286 170 0
-5286 247 0
-5287 40 0
-5287 220 0
-5288 40 0
-5288 196 0
-5288 212 0
-5289 40 0
-5289 78 0
-5289 131 0
-5289 247 0
-5290 40 0
-5290 78 0
-5290 149 0
-5290 220 0
-5291 40 0
-5291 78 0
-5291 157 0
-5291 212 0
-5292 40 0
-5292 86 0
-5292 123 0
-5292 247 0
-5293 40 0
-5293 86 0
-5293 149 0
-5293 196 0
-5294 40 0
-5294 86 0
-5294 157 0
-5295 40 0
-5295 104 0
-5295 123 0
-5295 220 0
-5296 40 0
-5296 104 0
-5296 131 0
-5296 196 0
-5297 40 0
-5297 104 0
-5297 157 0
-5297 170 0
-5298 40 0
-5298 112 0
-5298 123 0
-5298 212 0
-5299 40 0
-5299 112 0
-5299 131 0
-5300 40 0
-5300 112 0
-5300 149 0
-5300 170 0
-5301 50 0
-5301 170 0
-5302 50 0
-5302 178 0
-5302 220 0
-5303 50 0
-5303 196 0
-5303 202 0
-5304 50 0
-5304 78 0
-5304 131 0
-5305 50 0
-5305 78 0
-5305 139 0
-5305 220 0
-5306 50 0
-5306 78 0
-5306 157 0
-5306 202 0
-5307 50 0
-5307 86 0
-5307 123 0
-5308 50 0
-5308 86 0
-5308 139 0
-5308 196 0
-5309 50 0
-5309 86 0
-5309 157 0
-5309 178 0
-5310 50 0
-5310 94 0
-5310 123 0
-5310 220 0
-5311 50 0
-5311 94 0
-5311 131 0
-5311 196 0
-5312 50 0
-5312 94 0
-5312 157 0
-5312 170 0
-5313 50 0
-5313 112 0
-5313 123 0
-5313 202 0
-5314 50 0
-5314 112 0
-5314 131 0
-5314 178 0
-5315 50 0
-5315 112 0
-5315 139 0
-5315 170 0
-5316 58 0
-5316 170 0
-5316 227 0
-5317 58 0
-5317 178 0
-5317 212 0
-5318 58 0
-5318 202 0
-5319 58 0
-5319 78 0
-5319 131 0
-5319 227 0
-5320 58 0
-5320 78 0
-5320 139 0
-5320 212 0
-5321 58 0
-5321 78 0
-5321 149 0
-5321 202 0
-5322 58 0
-5322 86 0
-5322 123 0
-5322 227 0
-5323 58 0
-5323 86 0
-5323 139 0
-5324 58 0
-5324 86 0
-5324 149 0
-5324 178 0
-5325 58 0
-5325 94 0
-5325 123 0
-5325 212 0
-5326 58 0
-5326 94 0
-5326 131 0
-5327 58 0
-5327 94 0
-5327 149 0
-5327 170 0
-5328 58 0
-5328 104 0
-5328 123 0
-5328 202 0
-5329 58 0
-5329 104 0
-5329 131 0
-5329 178 0
-5330 58 0
-5330 104 0
-5330 139 0
-5330 170 0
-32 -68 -188 -235 5227 5228 5229 5230 5231 5232 5233 5234 5235 5236 5237 5238 5239 5240 5241 5242 5243 5244 5245 5246 5247 5248 5249 5250 5251 5252 5253 5254 5255 5256 5257 5258 5259 5260 5261 5262 5263 5264 5265 5266 5267 5268 5269 5270 5271 5272 5273 5274 5275 5276 5277 5278 5279 5280 5281 5282 5283 5284 5285 5286 5287 5288 5289 5290 5291 5292 5293 5294 5295 5296 5297 5298 5299 5300 5301 5302 5303 5304 5305 5306 5307 5308 5309 5310 5311 5312 5313 5314 5315 5316 5317 5318 5319 5320 5321 5322 5323 5324 5325 5326 5327 5328 5329 5330 0
-5331 5 0
-5331 123 0
-5331 200 0
-5331 246 0
-5332 5 0
-5332 123 0
-5332 240 0
-5333 5 0
-5333 123 0
-5333 219 0
-5333 229 0
-5334 5 0
-5334 130 0
-5334 179 0
-5334 246 0
-5335 5 0
-5335 130 0
-5335 187 0
-5335 240 0
-5336 5 0
-5336 130 0
-5336 229 0
-5337 5 0
-5337 140 0
-5337 169 0
-5337 246 0
-5338 5 0
-5338 140 0
-5338 187 0
-5338 219 0
-5339 5 0
-5339 140 0
-5340 5 0
-5340 148 0
-5340 169 0
-5340 240 0
-5341 5 0
-5341 148 0
-5341 179 0
-5341 219 0
-5342 5 0
-5342 148 0
-5342 200 0
-5343 5 0
-5343 159 0
-5343 169 0
-5343 229 0
-5344 5 0
-5344 159 0
-5344 179 0
-5345 5 0
-5345 159 0
-5345 187 0
-5345 200 0
-5346 14 0
-5346 78 0
-5346 200 0
-5346 246 0
-5347 14 0
-5347 78 0
-5347 240 0
-5348 14 0
-5348 78 0
-5348 219 0
-5348 229 0
-5349 14 0
-5349 85 0
-5349 179 0
-5349 246 0
-5350 14 0
-5350 85 0
-5350 187 0
-5350 240 0
-5351 14 0
-5351 85 0
-5351 229 0
-5352 14 0
-5352 95 0
-5352 169 0
-5352 246 0
-5353 14 0
-5353 95 0
-5353 187 0
-5353 219 0
-5354 14 0
-5354 95 0
-5355 14 0
-5355 103 0
-5355 169 0
-5355 240 0
-5356 14 0
-5356 103 0
-5356 179 0
-5356 219 0
-5357 14 0
-5357 103 0
-5357 200 0
-5358 14 0
-5358 114 0
-5358 169 0
-5358 229 0
-5359 14 0
-5359 114 0
-5359 179 0
-5360 14 0
-5360 114 0
-5360 187 0
-5360 200 0
-5361 24 0
-5361 200 0
-5361 246 0
-5362 24 0
-5362 240 0
-5363 24 0
-5363 219 0
-5363 229 0
-5364 24 0
-5364 85 0
-5364 140 0
-5364 246 0
-5365 24 0
-5365 85 0
-5365 148 0
-5365 240 0
-5366 24 0
-5366 85 0
-5366 159 0
-5366 229 0
-5367 24 0
-5367 95 0
-5367 130 0
-5367 246 0
-5368 24 0
-5368 95 0
-5368 148 0
-5368 219 0
-5369 24 0
-5369 95 0
-5369 159 0
-5370 24 0
-5370 103 0
-5370 130 0
-5370 240 0
-5371 24 0
-5371 103 0
-5371 140 0
-5371 219 0
-5372 24 0
-5372 103 0
-5372 159 0
-5372 200 0
-5373 24 0
-5373 114 0
-5373 130 0
-5373 229 0
-5374 24 0
-5374 114 0
-5374 140 0
-5375 24 0
-5375 114 0
-5375 148 0
-5375 200 0
-5376 31 0
-5376 179 0
-5376 246 0
-5377 31 0
-5377 187 0
-5377 240 0
-5378 31 0
-5378 229 0
-5379 31 0
-5379 78 0
-5379 140 0
-5379 246 0
-5380 31 0
-5380 78 0
-5380 148 0
-5380 240 0
-5381 31 0
-5381 78 0
-5381 159 0
-5381 229 0
-5382 31 0
-5382 95 0
-5382 123 0
-5382 246 0
-5383 31 0
-5383 95 0
-5383 148 0
-5384 31 0
-5384 95 0
-5384 159 0
-5384 187 0
-5385 31 0
-5385 103 0
-5385 123 0
-5385 240 0
-5386 31 0
-5386 103 0
-5386 140 0
-5387 31 0
-5387 103 0
-5387 159 0
-5387 179 0
-5388 31 0
-5388 114 0
-5388 123 0
-5388 229 0
-5389 31 0
-5389 114 0
-5389 140 0
-5389 187 0
-5390 31 0
-5390 114 0
-5390 148 0
-5390 179 0
-5391 169 0
-5391 246 0
-5392 187 0
-5392 219 0
-5393 78 0
-5393 130 0
-5393 246 0
-5394 78 0
-5394 148 0
-5394 219 0
-5395 78 0
-5395 159 0
-5396 85 0
-5396 123 0
-5396 246 0
-5397 85 0
-5397 148 0
-5398 85 0
-5398 159 0
-5398 187 0
-5399 103 0
-5399 123 0
-5399 219 0
-5400 103 0
-5400 130 0
-5401 103 0
-5401 159 0
-5401 169 0
-5402 114 0
-5402 123 0
-5403 114 0
-5403 130 0
-5403 187 0
-5404 114 0
-5404 148 0
-5404 169 0
-5405 49 0
-5405 169 0
-5405 240 0
-5406 49 0
-5406 179 0
-5406 219 0
-5407 49 0
-5407 200 0
-5408 49 0
-5408 78 0
-5408 130 0
-5408 240 0
-5409 49 0
-5409 78 0
-5409 140 0
-5409 219 0
-5410 49 0
-5410 78 0
-5410 159 0
-5410 200 0
-5411 49 0
-5411 85 0
-5411 123 0
-5411 240 0
-5412 49 0
-5412 85 0
-5412 140 0
-5413 49 0
-5413 85 0
-5413 159 0
-5413 179 0
-5414 49 0
-5414 95 0
-5414 123 0
-5414 219 0
-5415 49 0
-5415 95 0
-5415 130 0
-5416 49 0
-5416 95 0
-5416 159 0
-5416 169 0
-5417 49 0
-5417 114 0
-5417 123 0
-5417 200 0
-5418 49 0
-5418 114 0
-5418 130 0
-5418 179 0
-5419 49 0
-5419 114 0
-5419 140 0
-5419 169 0
-5420 60 0
-5420 169 0
-5420 229 0
-5421 60 0
-5421 179 0
-5422 60 0
-5422 187 0
-5422 200 0
-5423 60 0
-5423 78 0
-5423 130 0
-5423 229 0
-5424 60 0
-5424 78 0
-5424 140 0
-5425 60 0
-5425 78 0
-5425 148 0
-5425 200 0
-5426 60 0
-5426 85 0
-5426 123 0
-5426 229 0
-5427 60 0
-5427 85 0
-5427 140 0
-5427 187 0
-5428 60 0
-5428 85 0
-5428 148 0
-5428 179 0
-5429 60 0
-5429 95 0
-5429 123 0
-5430 60 0
-5430 95 0
-5430 130 0
-5430 187 0
-5431 60 0
-5431 95 0
-5431 148 0
-5431 169 0
-5432 60 0
-5432 103 0
-5432 123 0
-5432 200 0
-5433 60 0
-5433 103 0
-5433 130 0
-5433 179 0
-5434 60 0
-5434 103 0
-5434 140 0
-5434 169 0
-41 -68 -198 -208 5331 5332 5333 5334 5335 5336 5337 5338 5339 5340 5341 5342 5343 5344 5345 5346 5347 5348 5349 5350 5351 5352 5353 5354 5355 5356 5357 5358 5359 5360 5361 5362 5363 5364 5365 5366 5367 5368 5369 5370 5371 5372 5373 5374 5375 5376 5377 5378 5379 5380 5381 5382 5383 5384 5385 5386 5387 5388 5389 5390 5391 5392 5393 5394 5395 5396 5397 5398 5399 5400 5401 5402 5403 5404 5405 5406 5407 5408 5409 5410 5411 5412 5413 5414 5415 5416 5417 5418 5419 5420 5421 5422 5423 5424 5425 5426 5427 5428 5429 5430 5431 5432 5433 5434 0
-5435 5 0
-5435 123 0
-5435 200 0
-5435 244 0
-5436 5 0
-5436 123 0
-5436 238 0
-5437 5 0
-5437 123 0
-5437 217 0
-5437 229 0
-5438 5 0
-5438 130 0
-5438 179 0
-5438 244 0
-5439 5 0
-5439 130 0
-5439 187 0
-5439 238 0
-5440 5 0
-5440 130 0
-5440 229 0
-5441 5 0
-5441 140 0
-5441 169 0
-5441 244 0
-5442 5 0
-5442 140 0
-5442 187 0
-5442 217 0
-5443 5 0
-5443 140 0
-5444 5 0
-5444 148 0
-5444 169 0
-5444 238 0
-5445 5 0
-5445 148 0
-5445 179 0
-5445 217 0
-5446 5 0
-5446 148 0
-5446 200 0
-5447 5 0
-5447 157 0
-5447 169 0
-5447 229 0
-5448 5 0
-5448 157 0
-5448 179 0
-5449 5 0
-5449 157 0
-5449 187 0
-5449 200 0
-5450 14 0
-5450 78 0
-5450 200 0
-5450 244 0
-5451 14 0
-5451 78 0
-5451 238 0
-5452 14 0
-5452 78 0
-5452 217 0
-5452 229 0
-5453 14 0
-5453 85 0
-5453 179 0
-5453 244 0
-5454 14 0
-5454 85 0
-5454 187 0
-5454 238 0
-5455 14 0
-5455 85 0
-5455 229 0
-5456 14 0
-5456 95 0
-5456 169 0
-5456 244 0
-5457 14 0
-5457 95 0
-5457 187 0
-5457 217 0
-5458 14 0
-5458 95 0
-5459 14 0
-5459 103 0
-5459 169 0
-5459 238 0
-5460 14 0
-5460 103 0
-5460 179 0
-5460 217 0
-5461 14 0
-5461 103 0
-5461 200 0
-5462 14 0
-5462 112 0
-5462 169 0
-5462 229 0
-5463 14 0
-5463 112 0
-5463 179 0
-5464 14 0
-5464 112 0
-5464 187 0
-5464 200 0
-5465 24 0
-5465 200 0
-5465 244 0
-5466 24 0
-5466 238 0
-5467 24 0
-5467 217 0
-5467 229 0
-5468 24 0
-5468 85 0
-5468 140 0
-5468 244 0
-5469 24 0
-5469 85 0
-5469 148 0
-5469 238 0
-5470 24 0
-5470 85 0
-5470 157 0
-5470 229 0
-5471 24 0
-5471 95 0
-5471 130 0
-5471 244 0
-5472 24 0
-5472 95 0
-5472 148 0
-5472 217 0
-5473 24 0
-5473 95 0
-5473 157 0
-5474 24 0
-5474 103 0
-5474 130 0
-5474 238 0
-5475 24 0
-5475 103 0
-5475 140 0
-5475 217 0
-5476 24 0
-5476 103 0
-5476 157 0
-5476 200 0
-5477 24 0
-5477 112 0
-5477 130 0
-5477 229 0
-5478 24 0
-5478 112 0
-5478 140 0
-5479 24 0
-5479 112 0
-5479 148 0
-5479 200 0
-5480 31 0
-5480 179 0
-5480 244 0
-5481 31 0
-5481 187 0
-5481 238 0
-5482 31 0
-5482 229 0
-5483 31 0
-5483 78 0
-5483 140 0
-5483 244 0
-5484 31 0
-5484 78 0
-5484 148 0
-5484 238 0
-5485 31 0
-5485 78 0
-5485 157 0
-5485 229 0
-5486 31 0
-5486 95 0
-5486 123 0
-5486 244 0
-5487 31 0
-5487 95 0
-5487 148 0
-5488 31 0
-5488 95 0
-5488 157 0
-5488 187 0
-5489 31 0
-5489 103 0
-5489 123 0
-5489 238 0
-5490 31 0
-5490 103 0
-5490 140 0
-5491 31 0
-5491 103 0
-5491 157 0
-5491 179 0
-5492 31 0
-5492 112 0
-5492 123 0
-5492 229 0
-5493 31 0
-5493 112 0
-5493 140 0
-5493 187 0
-5494 31 0
-5494 112 0
-5494 148 0
-5494 179 0
-5495 169 0
-5495 244 0
-5496 187 0
-5496 217 0
-5497 78 0
-5497 130 0
-5497 244 0
-5498 78 0
-5498 148 0
-5498 217 0
-5499 78 0
-5499 157 0
-5500 85 0
-5500 123 0
-5500 244 0
-5501 85 0
-5501 148 0
-5502 85 0
-5502 157 0
-5502 187 0
-5503 103 0
-5503 123 0
-5503 217 0
-5504 103 0
-5504 130 0
-5505 103 0
-5505 157 0
-5505 169 0
-5506 112 0
-5506 123 0
-5507 112 0
-5507 130 0
-5507 187 0
-5508 112 0
-5508 148 0
-5508 169 0
-5509 49 0
-5509 169 0
-5509 238 0
-5510 49 0
-5510 179 0
-5510 217 0
-5511 49 0
-5511 200 0
-5512 49 0
-5512 78 0
-5512 130 0
-5512 238 0
-5513 49 0
-5513 78 0
-5513 140 0
-5513 217 0
-5514 49 0
-5514 78 0
-5514 157 0
-5514 200 0
-5515 49 0
-5515 85 0
-5515 123 0
-5515 238 0
-5516 49 0
-5516 85 0
-5516 140 0
-5517 49 0
-5517 85 0
-5517 157 0
-5517 179 0
-5518 49 0
-5518 95 0
-5518 123 0
-5518 217 0
-5519 49 0
-5519 95 0
-5519 130 0
-5520 49 0
-5520 95 0
-5520 157 0
-5520 169 0
-5521 49 0
-5521 112 0
-5521 123 0
-5521 200 0
-5522 49 0
-5522 112 0
-5522 130 0
-5522 179 0
-5523 49 0
-5523 112 0
-5523 140 0
-5523 169 0
-5524 58 0
-5524 169 0
-5524 229 0
-5525 58 0
-5525 179 0
-5526 58 0
-5526 187 0
-5526 200 0
-5527 58 0
-5527 78 0
-5527 130 0
-5527 229 0
-5528 58 0
-5528 78 0
-5528 140 0
-5529 58 0
-5529 78 0
-5529 148 0
-5529 200 0
-5530 58 0
-5530 85 0
-5530 123 0
-5530 229 0
-5531 58 0
-5531 85 0
-5531 140 0
-5531 187 0
-5532 58 0
-5532 85 0
-5532 148 0
-5532 179 0
-5533 58 0
-5533 95 0
-5533 123 0
-5534 58 0
-5534 95 0
-5534 130 0
-5534 187 0
-5535 58 0
-5535 95 0
-5535 148 0
-5535 169 0
-5536 58 0
-5536 103 0
-5536 123 0
-5536 200 0
-5537 58 0
-5537 103 0
-5537 130 0
-5537 179 0
-5538 58 0
-5538 103 0
-5538 140 0
-5538 169 0
-41 -68 -196 -208 5435 5436 5437 5438 5439 5440 5441 5442 5443 5444 5445 5446 5447 5448 5449 5450 5451 5452 5453 5454 5455 5456 5457 5458 5459 5460 5461 5462 5463 5464 5465 5466 5467 5468 5469 5470 5471 5472 5473 5474 5475 5476 5477 5478 5479 5480 5481 5482 5483 5484 5485 5486 5487 5488 5489 5490 5491 5492 5493 5494 5495 5496 5497 5498 5499 5500 5501 5502 5503 5504 5505 5506 5507 5508 5509 5510 5511 5512 5513 5514 5515 5516 5517 5518 5519 5520 5521 5522 5523 5524 5525 5526 5527 5528 5529 5530 5531 5532 5533 5534 5535 5536 5537 5538 0
-5539 5 0
-5539 123 0
-5539 199 0
-5539 244 0
-5540 5 0
-5540 123 0
-5541 5 0
-5541 123 0
-5541 217 0
-5541 226 0
-5542 5 0
-5542 130 0
-5542 178 0
-5542 244 0
-5543 5 0
-5543 130 0
-5543 187 0
-5544 5 0
-5544 130 0
-5544 196 0
-5544 226 0
-5545 5 0
-5545 139 0
-5545 169 0
-5545 244 0
-5546 5 0
-5546 139 0
-5546 187 0
-5546 217 0
-5547 5 0
-5547 139 0
-5547 196 0
-5548 5 0
-5548 148 0
-5548 169 0
-5549 5 0
-5549 148 0
-5549 178 0
-5549 217 0
-5550 5 0
-5550 148 0
-5550 196 0
-5550 199 0
-5551 5 0
-5551 157 0
-5551 169 0
-5551 226 0
-5552 5 0
-5552 157 0
-5552 178 0
-5553 5 0
-5553 157 0
-5553 187 0
-5553 199 0
-5554 14 0
-5554 78 0
-5554 199 0
-5554 244 0
-5555 14 0
-5555 78 0
-5556 14 0
-5556 78 0
-5556 217 0
-5556 226 0
-5557 14 0
-5557 85 0
-5557 178 0
-5557 244 0
-5558 14 0
-5558 85 0
-5558 187 0
-5559 14 0
-5559 85 0
-5559 196 0
-5559 226 0
-5560 14 0
-5560 94 0
-5560 169 0
-5560 244 0
-5561 14 0
-5561 94 0
-5561 187 0
-5561 217 0
-5562 14 0
-5562 94 0
-5562 196 0
-5563 14 0
-5563 103 0
-5563 169 0
-5564 14 0
-5564 103 0
-5564 178 0
-5564 217 0
-5565 14 0
-5565 103 0
-5565 196 0
-5565 199 0
-5566 14 0
-5566 112 0
-5566 169 0
-5566 226 0
-5567 14 0
-5567 112 0
-5567 178 0
-5568 14 0
-5568 112 0
-5568 187 0
-5568 199 0
-5569 199 0
-5569 244 0
-5570 217 0
-5570 226 0
-5571 85 0
-5571 139 0
-5571 244 0
-5572 85 0
-5572 148 0
-5573 85 0
-5573 157 0
-5573 226 0
-5574 94 0
-5574 130 0
-5574 244 0
-5575 94 0
-5575 148 0
-5575 217 0
-5576 94 0
-5576 157 0
-5577 103 0
-5577 130 0
-5578 103 0
-5578 139 0
-5578 217 0
-5579 103 0
-5579 157 0
-5579 199 0
-5580 112 0
-5580 130 0
-5580 226 0
-5581 112 0
-5581 139 0
-5582 112 0
-5582 148 0
-5582 199 0
-5583 31 0
-5583 178 0
-5583 244 0
-5584 31 0
-5584 187 0
-5585 31 0
-5585 196 0
-5585 226 0
-5586 31 0
-5586 78 0
-5586 139 0
-5586 244 0
-5587 31 0
-5587 78 0
-5587 148 0
-5588 31 0
-5588 78 0
-5588 157 0
-5588 226 0
-5589 31 0
-5589 94 0
-5589 123 0
-5589 244 0
-5590 31 0
-5590 94 0
-5590 148 0
-5590 196 0
-5591 31 0
-5591 94 0
-5591 157 0
-5591 187 0
-5592 31 0
-5592 103 0
-5592 123 0
-5593 31 0
-5593 103 0
-5593 139 0
-5593 196 0
-5594 31 0
-5594 103 0
-5594 157 0
-5594 178 0
-5595 31 0
-5595 112 0
-5595 123 0
-5595 226 0
-5596 31 0
-5596 112 0
-5596 139 0
-5596 187 0
-5597 31 0
-5597 112 0
-5597 148 0
-5597 178 0
-5598 40 0
-5598 169 0
-5598 244 0
-5599 40 0
-5599 187 0
-5599 217 0
-5600 40 0
-5600 196 0
-5601 40 0
-5601 78 0
-5601 130 0
-5601 244 0
-5602 40 0
-5602 78 0
-5602 148 0
-5602 217 0
-5603 40 0
-5603 78 0
-5603 157 0
-5604 40 0
-5604 85 0
-5604 123 0
-5604 244 0
-5605 40 0
-5605 85 0
-5605 148 0
-5605 196 0
-5606 40 0
-5606 85 0
-5606 157 0
-5606 187 0
-5607 40 0
-5607 103 0
-5607 123 0
-5607 217 0
-5608 40 0
-5608 103 0
-5608 130 0
-5608 196 0
-5609 40 0
-5609 103 0
-5609 157 0
-5609 169 0
-5610 40 0
-5610 112 0
-5610 123 0
-5611 40 0
-5611 112 0
-5611 130 0
-5611 187 0
-5612 40 0
-5612 112 0
-5612 148 0
-5612 169 0
-5613 49 0
-5613 169 0
-5614 49 0
-5614 178 0
-5614 217 0
-5615 49 0
-5615 196 0
-5615 199 0
-5616 49 0
-5616 78 0
-5616 130 0
-5617 49 0
-5617 78 0
-5617 139 0
-5617 217 0
-5618 49 0
-5618 78 0
-5618 157 0
-5618 199 0
-5619 49 0
-5619 85 0
-5619 123 0
-5620 49 0
-5620 85 0
-5620 139 0
-5620 196 0
-5621 49 0
-5621 85 0
-5621 157 0
-5621 178 0
-5622 49 0
-5622 94 0
-5622 123 0
-5622 217 0
-5623 49 0
-5623 94 0
-5623 130 0
-5623 196 0
-5624 49 0
-5624 94 0
-5624 157 0
-5624 169 0
-5625 49 0
-5625 112 0
-5625 123 0
-5625 199 0
-5626 49 0
-5626 112 0
-5626 130 0
-5626 178 0
-5627 49 0
-5627 112 0
-5627 139 0
-5627 169 0
-5628 58 0
-5628 169 0
-5628 226 0
-5629 58 0
-5629 178 0
-5630 58 0
-5630 187 0
-5630 199 0
-5631 58 0
-5631 78 0
-5631 130 0
-5631 226 0
-5632 58 0
-5632 78 0
-5632 139 0
-5633 58 0
-5633 78 0
-5633 148 0
-5633 199 0
-5634 58 0
-5634 85 0
-5634 123 0
-5634 226 0
-5635 58 0
-5635 85 0
-5635 139 0
-5635 187 0
-5636 58 0
-5636 85 0
-5636 148 0
-5636 178 0
-5637 58 0
-5637 94 0
-5637 123 0
-5638 58 0
-5638 94 0
-5638 130 0
-5638 187 0
-5639 58 0
-5639 94 0
-5639 148 0
-5639 169 0
-5640 58 0
-5640 103 0
-5640 123 0
-5640 199 0
-5641 58 0
-5641 103 0
-5641 130 0
-5641 178 0
-5642 58 0
-5642 103 0
-5642 139 0
-5642 169 0
-24 -68 -208 -235 5539 5540 5541 5542 5543 5544 5545 5546 5547 5548 5549 5550 5551 5552 5553 5554 5555 5556 5557 5558 5559 5560 5561 5562 5563 5564 5565 5566 5567 5568 5569 5570 5571 5572 5573 5574 5575 5576 5577 5578 5579 5580 5581 5582 5583 5584 5585 5586 5587 5588 5589 5590 5591 5592 5593 5594 5595 5596 5597 5598 5599 5600 5601 5602 5603 5604 5605 5606 5607 5608 5609 5610 5611 5612 5613 5614 5615 5616 5617 5618 5619 5620 5621 5622 5623 5624 5625 5626 5627 5628 5629 5630 5631 5632 5633 5634 5635 5636 5637 5638 5639 5640 5641 5642 0
-5643 125 0
-5643 200 0
-5643 244 0
-5644 125 0
-5644 238 0
-5645 125 0
-5645 217 0
-5645 229 0
-5646 133 0
-5646 244 0
-5647 133 0
-5647 184 0
-5647 238 0
-5648 133 0
-5648 193 0
-5648 229 0
-5649 143 0
-5649 166 0
-5649 244 0
-5650 143 0
-5650 184 0
-5650 217 0
-5651 143 0
-5651 193 0
-5652 151 0
-5652 166 0
-5652 238 0
-5653 151 0
-5653 217 0
-5654 151 0
-5654 193 0
-5654 200 0
-5655 166 0
-5655 229 0
-5656 184 0
-5656 200 0
-5657 12 0
-5657 74 0
-5657 200 0
-5657 244 0
-5658 12 0
-5658 74 0
-5658 238 0
-5659 12 0
-5659 74 0
-5659 217 0
-5659 229 0
-5660 12 0
-5660 82 0
-5660 244 0
-5661 12 0
-5661 82 0
-5661 184 0
-5661 238 0
-5662 12 0
-5662 82 0
-5662 193 0
-5662 229 0
-5663 12 0
-5663 92 0
-5663 166 0
-5663 244 0
-5664 12 0
-5664 92 0
-5664 184 0
-5664 217 0
-5665 12 0
-5665 92 0
-5665 193 0
-5666 12 0
-5666 100 0
-5666 166 0
-5666 238 0
-5667 12 0
-5667 100 0
-5667 217 0
-5668 12 0
-5668 100 0
-5668 193 0
-5668 200 0
-5669 12 0
-5669 109 0
-5669 166 0
-5669 229 0
-5670 12 0
-5670 109 0
-5671 12 0
-5671 109 0
-5671 184 0
-5671 200 0
-5672 20 0
-5672 66 0
-5672 200 0
-5672 244 0
-5673 20 0
-5673 66 0
-5673 238 0
-5674 20 0
-5674 66 0
-5674 217 0
-5674 229 0
-5675 20 0
-5675 82 0
-5675 143 0
-5675 244 0
-5676 20 0
-5676 82 0
-5676 151 0
-5676 238 0
-5677 20 0
-5677 82 0
-5677 229 0
-5678 20 0
-5678 92 0
-5678 133 0
-5678 244 0
-5679 20 0
-5679 92 0
-5679 151 0
-5679 217 0
-5680 20 0
-5680 92 0
-5681 20 0
-5681 100 0
-5681 133 0
-5681 238 0
-5682 20 0
-5682 100 0
-5682 143 0
-5682 217 0
-5683 20 0
-5683 100 0
-5683 200 0
-5684 20 0
-5684 109 0
-5684 133 0
-5684 229 0
-5685 20 0
-5685 109 0
-5685 143 0
-5686 20 0
-5686 109 0
-5686 151 0
-5686 200 0
-5687 28 0
-5687 66 0
-5687 244 0
-5688 28 0
-5688 66 0
-5688 184 0
-5688 238 0
-5689 28 0
-5689 66 0
-5689 193 0
-5689 229 0
-5690 28 0
-5690 74 0
-5690 143 0
-5690 244 0
-5691 28 0
-5691 74 0
-5691 151 0
-5691 238 0
-5692 28 0
-5692 74 0
-5692 229 0
-5693 28 0
-5693 92 0
-5693 125 0
-5693 244 0
-5694 28 0
-5694 92 0
-5694 151 0
-5694 193 0
-5695 28 0
-5695 92 0
-5695 184 0
-5696 28 0
-5696 100 0
-5696 125 0
-5696 238 0
-5697 28 0
-5697 100 0
-5697 143 0
-5697 193 0
-5698 28 0
-5698 100 0
-5699 28 0
-5699 109 0
-5699 125 0
-5699 229 0
-5700 28 0
-5700 109 0
-5700 143 0
-5700 184 0
-5701 28 0
-5701 109 0
-5701 151 0
-5702 38 0
-5702 66 0
-5702 166 0
-5702 244 0
-5703 38 0
-5703 66 0
-5703 184 0
-5703 217 0
-5704 38 0
-5704 66 0
-5704 193 0
-5705 38 0
-5705 74 0
-5705 133 0
-5705 244 0
-5706 38 0
-5706 74 0
-5706 151 0
-5706 217 0
-5707 38 0
-5707 74 0
-5708 38 0
-5708 82 0
-5708 125 0
-5708 244 0
-5709 38 0
-5709 82 0
-5709 151 0
-5709 193 0
-5710 38 0
-5710 82 0
-5710 184 0
-5711 38 0
-5711 100 0
-5711 125 0
-5711 217 0
-5712 38 0
-5712 100 0
-5712 133 0
-5712 193 0
-5713 38 0
-5713 100 0
-5713 166 0
-5714 38 0
-5714 109 0
-5714 125 0
-5715 38 0
-5715 109 0
-5715 133 0
-5715 184 0
-5716 38 0
-5716 109 0
-5716 151 0
-5716 166 0
-5717 46 0
-5717 66 0
-5717 166 0
-5717 238 0
-5718 46 0
-5718 66 0
-5718 217 0
-5719 46 0
-5719 66 0
-5719 193 0
-5719 200 0
-5720 46 0
-5720 74 0
-5720 133 0
-5720 238 0
-5721 46 0
-5721 74 0
-5721 143 0
-5721 217 0
-5722 46 0
-5722 74 0
-5722 200 0
-5723 46 0
-5723 82 0
-5723 125 0
-5723 238 0
-5724 46 0
-5724 82 0
-5724 143 0
-5724 193 0
-5725 46 0
-5725 82 0
-5726 46 0
-5726 92 0
-5726 125 0
-5726 217 0
-5727 46 0
-5727 92 0
-5727 133 0
-5727 193 0
-5728 46 0
-5728 92 0
-5728 166 0
-5729 46 0
-5729 109 0
-5729 125 0
-5729 200 0
-5730 46 0
-5730 109 0
-5730 133 0
-5731 46 0
-5731 109 0
-5731 143 0
-5731 166 0
-5732 55 0
-5732 66 0
-5732 166 0
-5732 229 0
-5733 55 0
-5733 66 0
-5734 55 0
-5734 66 0
-5734 184 0
-5734 200 0
-5735 55 0
-5735 74 0
-5735 133 0
-5735 229 0
-5736 55 0
-5736 74 0
-5736 143 0
-5737 55 0
-5737 74 0
-5737 151 0
-5737 200 0
-5738 55 0
-5738 82 0
-5738 125 0
-5738 229 0
-5739 55 0
-5739 82 0
-5739 143 0
-5739 184 0
-5740 55 0
-5740 82 0
-5740 151 0
-5741 55 0
-5741 92 0
-5741 125 0
-5742 55 0
-5742 92 0
-5742 133 0
-5742 184 0
-5743 55 0
-5743 92 0
-5743 151 0
-5743 166 0
-5744 55 0
-5744 100 0
-5744 125 0
-5744 200 0
-5745 55 0
-5745 100 0
-5745 133 0
-5746 55 0
-5746 100 0
-5746 143 0
-5746 166 0
-1 -160 -176 -208 5643 5644 5645 5646 5647 5648 5649 5650 5651 5652 5653 5654 5655 5656 5657 5658 5659 5660 5661 5662 5663 5664 5665 5666 5667 5668 5669 5670 5671 5672 5673 5674 5675 5676 5677 5678 5679 5680 5681 5682 5683 5684 5685 5686 5687 5688 5689 5690 5691 5692 5693 5694 5695 5696 5697 5698 5699 5700 5701 5702 5703 5704 5705 5706 5707 5708 5709 5710 5711 5712 5713 5714 5715 5716 5717 5718 5719 5720 5721 5722 5723 5724 5725 5726 5727 5728 5729 5730 5731 5732 5733 5734 5735 5736 5737 5738 5739 5740 5741 5742 5743 5744 5745 5746 0
-5747 122 0
-5747 202 0
-5748 122 0
-5748 212 0
-5748 236 0
-5749 122 0
-5749 221 0
-5749 227 0
-5750 131 0
-5750 175 0
-5751 131 0
-5751 185 0
-5751 236 0
-5752 131 0
-5752 194 0
-5752 227 0
-5753 185 0
-5753 221 0
-5754 194 0
-5754 212 0
-5755 149 0
-5755 236 0
-5756 149 0
-5756 175 0
-5756 221 0
-5757 149 0
-5757 194 0
-5757 202 0
-5758 158 0
-5758 227 0
-5759 158 0
-5759 175 0
-5759 212 0
-5760 158 0
-5760 185 0
-5760 202 0
-5761 11 0
-5761 74 0
-5761 202 0
-5762 11 0
-5762 74 0
-5762 212 0
-5762 236 0
-5763 11 0
-5763 74 0
-5763 221 0
-5763 227 0
-5764 11 0
-5764 83 0
-5764 175 0
-5765 11 0
-5765 83 0
-5765 185 0
-5765 236 0
-5766 11 0
-5766 83 0
-5766 194 0
-5766 227 0
-5767 11 0
-5767 91 0
-5768 11 0
-5768 91 0
-5768 185 0
-5768 221 0
-5769 11 0
-5769 91 0
-5769 194 0
-5769 212 0
-5770 11 0
-5770 101 0
-5770 236 0
-5771 11 0
-5771 101 0
-5771 175 0
-5771 221 0
-5772 11 0
-5772 101 0
-5772 194 0
-5772 202 0
-5773 11 0
-5773 110 0
-5773 227 0
-5774 11 0
-5774 110 0
-5774 175 0
-5774 212 0
-5775 11 0
-5775 110 0
-5775 185 0
-5775 202 0
-5776 20 0
-5776 65 0
-5776 202 0
-5777 20 0
-5777 65 0
-5777 212 0
-5777 236 0
-5778 20 0
-5778 65 0
-5778 221 0
-5778 227 0
-5779 20 0
-5779 83 0
-5780 20 0
-5780 83 0
-5780 149 0
-5780 236 0
-5781 20 0
-5781 83 0
-5781 158 0
-5781 227 0
-5782 20 0
-5782 91 0
-5782 131 0
-5783 20 0
-5783 91 0
-5783 149 0
-5783 221 0
-5784 20 0
-5784 91 0
-5784 158 0
-5784 212 0
-5785 20 0
-5785 101 0
-5785 131 0
-5785 236 0
-5786 20 0
-5786 101 0
-5786 221 0
-5787 20 0
-5787 101 0
-5787 158 0
-5787 202 0
-5788 20 0
-5788 110 0
-5788 131 0
-5788 227 0
-5789 20 0
-5789 110 0
-5789 212 0
-5790 20 0
-5790 110 0
-5790 149 0
-5790 202 0
-5791 29 0
-5791 65 0
-5791 175 0
-5792 29 0
-5792 65 0
-5792 185 0
-5792 236 0
-5793 29 0
-5793 65 0
-5793 194 0
-5793 227 0
-5794 29 0
-5794 74 0
-5795 29 0
-5795 74 0
-5795 149 0
-5795 236 0
-5796 29 0
-5796 74 0
-5796 158 0
-5796 227 0
-5797 29 0
-5797 91 0
-5797 122 0
-5798 29 0
-5798 91 0
-5798 149 0
-5798 194 0
-5799 29 0
-5799 91 0
-5799 158 0
-5799 185 0
-5800 29 0
-5800 101 0
-5800 122 0
-5800 236 0
-5801 29 0
-5801 101 0
-5801 194 0
-5802 29 0
-5802 101 0
-5802 158 0
-5802 175 0
-5803 29 0
-5803 110 0
-5803 122 0
-5803 227 0
-5804 29 0
-5804 110 0
-5804 185 0
-5805 29 0
-5805 110 0
-5805 149 0
-5805 175 0
-5806 37 0
-5806 65 0
-5807 37 0
-5807 65 0
-5807 185 0
-5807 221 0
-5808 37 0
-5808 65 0
-5808 194 0
-5808 212 0
-5809 37 0
-5809 74 0
-5809 131 0
-5810 37 0
-5810 74 0
-5810 149 0
-5810 221 0
-5811 37 0
-5811 74 0
-5811 158 0
-5811 212 0
-5812 37 0
-5812 83 0
-5812 122 0
-5813 37 0
-5813 83 0
-5813 149 0
-5813 194 0
-5814 37 0
-5814 83 0
-5814 158 0
-5814 185 0
-5815 37 0
-5815 101 0
-5815 122 0
-5815 221 0
-5816 37 0
-5816 101 0
-5816 131 0
-5816 194 0
-5817 37 0
-5817 101 0
-5817 158 0
-5818 37 0
-5818 110 0
-5818 122 0
-5818 212 0
-5819 37 0
-5819 110 0
-5819 131 0
-5819 185 0
-5820 37 0
-5820 110 0
-5820 149 0
-5821 47 0
-5821 65 0
-5821 236 0
-5822 47 0
-5822 65 0
-5822 175 0
-5822 221 0
-5823 47 0
-5823 65 0
-5823 194 0
-5823 202 0
-5824 47 0
-5824 74 0
-5824 131 0
-5824 236 0
-5825 47 0
-5825 74 0
-5825 221 0
-5826 47 0
-5826 74 0
-5826 158 0
-5826 202 0
-5827 47 0
-5827 83 0
-5827 122 0
-5827 236 0
-5828 47 0
-5828 83 0
-5828 194 0
-5829 47 0
-5829 83 0
-5829 158 0
-5829 175 0
-5830 47 0
-5830 91 0
-5830 122 0
-5830 221 0
-5831 47 0
-5831 91 0
-5831 131 0
-5831 194 0
-5832 47 0
-5832 91 0
-5832 158 0
-5833 47 0
-5833 110 0
-5833 122 0
-5833 202 0
-5834 47 0
-5834 110 0
-5834 131 0
-5834 175 0
-5835 47 0
-5835 110 0
-5836 56 0
-5836 65 0
-5836 227 0
-5837 56 0
-5837 65 0
-5837 175 0
-5837 212 0
-5838 56 0
-5838 65 0
-5838 185 0
-5838 202 0
-5839 56 0
-5839 74 0
-5839 131 0
-5839 227 0
-5840 56 0
-5840 74 0
-5840 212 0
-5841 56 0
-5841 74 0
-5841 149 0
-5841 202 0
-5842 56 0
-5842 83 0
-5842 122 0
-5842 227 0
-5843 56 0
-5843 83 0
-5843 185 0
-5844 56 0
-5844 83 0
-5844 149 0
-5844 175 0
-5845 56 0
-5845 91 0
-5845 122 0
-5845 212 0
-5846 56 0
-5846 91 0
-5846 131 0
-5846 185 0
-5847 56 0
-5847 91 0
-5847 149 0
-5848 56 0
-5848 101 0
-5848 122 0
-5848 202 0
-5849 56 0
-5849 101 0
-5849 131 0
-5849 175 0
-5850 56 0
-5850 101 0
-1 -139 -167 -248 5747 5748 5749 5750 5751 5752 5753 5754 5755 5756 5757 5758 5759 5760 5761 5762 5763 5764 5765 5766 5767 5768 5769 5770 5771 5772 5773 5774 5775 5776 5777 5778 5779 5780 5781 5782 5783 5784 5785 5786 5787 5788 5789 5790 5791 5792 5793 5794 5795 5796 5797 5798 5799 5800 5801 5802 5803 5804 5805 5806 5807 5808 5809 5810 5811 5812 5813 5814 5815 5816 5817 5818 5819 5820 5821 5822 5823 5824 5825 5826 5827 5828 5829 5830 5831 5832 5833 5834 5835 5836 5837 5838 5839 5840 5841 5842 5843 5844 5845 5846 5847 5848 5849 5850 0
-5851 199 0
-5851 244 0
-5852 217 0
-5852 226 0
-5853 127 0
-5853 178 0
-5853 244 0
-5854 127 0
-5854 187 0
-5855 127 0
-5855 196 0
-5855 226 0
-5856 136 0
-5856 169 0
-5856 244 0
-5857 136 0
-5857 187 0
-5857 217 0
-5858 136 0
-5858 196 0
-5859 145 0
-5859 169 0
-5860 145 0
-5860 178 0
-5860 217 0
-5861 145 0
-5861 196 0
-5861 199 0
-5862 154 0
-5862 169 0
-5862 226 0
-5863 154 0
-5863 178 0
-5864 154 0
-5864 187 0
-5864 199 0
-5865 10 0
-5865 75 0
-5865 199 0
-5865 244 0
-5866 10 0
-5866 75 0
-5867 10 0
-5867 75 0
-5867 217 0
-5867 226 0
-5868 10 0
-5868 82 0
-5868 178 0
-5868 244 0
-5869 10 0
-5869 82 0
-5869 187 0
-5870 10 0
-5870 82 0
-5870 196 0
-5870 226 0
-5871 10 0
-5871 91 0
-5871 169 0
-5871 244 0
-5872 10 0
-5872 91 0
-5872 187 0
-5872 217 0
-5873 10 0
-5873 91 0
-5873 196 0
-5874 10 0
-5874 100 0
-5874 169 0
-5875 10 0
-5875 100 0
-5875 178 0
-5875 217 0
-5876 10 0
-5876 100 0
-5876 196 0
-5876 199 0
-5877 10 0
-5877 109 0
-5877 169 0
-5877 226 0
-5878 10 0
-5878 109 0
-5878 178 0
-5879 10 0
-5879 109 0
-5879 187 0
-5879 199 0
-5880 21 0
-5880 64 0
-5880 199 0
-5880 244 0
-5881 21 0
-5881 64 0
-5882 21 0
-5882 64 0
-5882 217 0
-5882 226 0
-5883 21 0
-5883 82 0
-5883 136 0
-5883 244 0
-5884 21 0
-5884 82 0
-5884 145 0
-5885 21 0
-5885 82 0
-5885 154 0
-5885 226 0
-5886 21 0
-5886 91 0
-5886 127 0
-5886 244 0
-5887 21 0
-5887 91 0
-5887 145 0
-5887 217 0
-5888 21 0
-5888 91 0
-5888 154 0
-5889 21 0
-5889 100 0
-5889 127 0
-5890 21 0
-5890 100 0
-5890 136 0
-5890 217 0
-5891 21 0
-5891 100 0
-5891 154 0
-5891 199 0
-5892 21 0
-5892 109 0
-5892 127 0
-5892 226 0
-5893 21 0
-5893 109 0
-5893 136 0
-5894 21 0
-5894 109 0
-5894 145 0
-5894 199 0
-5895 28 0
-5895 64 0
-5895 178 0
-5895 244 0
-5896 28 0
-5896 64 0
-5896 187 0
-5897 28 0
-5897 64 0
-5897 196 0
-5897 226 0
-5898 28 0
-5898 75 0
-5898 136 0
-5898 244 0
-5899 28 0
-5899 75 0
-5899 145 0
-5900 28 0
-5900 75 0
-5900 154 0
-5900 226 0
-5901 28 0
-5901 91 0
-5901 244 0
-5902 28 0
-5902 91 0
-5902 145 0
-5902 196 0
-5903 28 0
-5903 91 0
-5903 154 0
-5903 187 0
-5904 28 0
-5904 100 0
-5905 28 0
-5905 100 0
-5905 136 0
-5905 196 0
-5906 28 0
-5906 100 0
-5906 154 0
-5906 178 0
-5907 28 0
-5907 109 0
-5907 226 0
-5908 28 0
-5908 109 0
-5908 136 0
-5908 187 0
-5909 28 0
-5909 109 0
-5909 145 0
-5909 178 0
-5910 37 0
-5910 64 0
-5910 169 0
-5910 244 0
-5911 37 0
-5911 64 0
-5911 187 0
-5911 217 0
-5912 37 0
-5912 64 0
-5912 196 0
-5913 37 0
-5913 75 0
-5913 127 0
-5913 244 0
-5914 37 0
-5914 75 0
-5914 145 0
-5914 217 0
-5915 37 0
-5915 75 0
-5915 154 0
-5916 37 0
-5916 82 0
-5916 244 0
-5917 37 0
-5917 82 0
-5917 145 0
-5917 196 0
-5918 37 0
-5918 82 0
-5918 154 0
-5918 187 0
-5919 37 0
-5919 100 0
-5919 217 0
-5920 37 0
-5920 100 0
-5920 127 0
-5920 196 0
-5921 37 0
-5921 100 0
-5921 154 0
-5921 169 0
-5922 37 0
-5922 109 0
-5923 37 0
-5923 109 0
-5923 127 0
-5923 187 0
-5924 37 0
-5924 109 0
-5924 145 0
-5924 169 0
-5925 46 0
-5925 64 0
-5925 169 0
-5926 46 0
-5926 64 0
-5926 178 0
-5926 217 0
-5927 46 0
-5927 64 0
-5927 196 0
-5927 199 0
-5928 46 0
-5928 75 0
-5928 127 0
-5929 46 0
-5929 75 0
-5929 136 0
-5929 217 0
-5930 46 0
-5930 75 0
-5930 154 0
-5930 199 0
-5931 46 0
-5931 82 0
-5932 46 0
-5932 82 0
-5932 136 0
-5932 196 0
-5933 46 0
-5933 82 0
-5933 154 0
-5933 178 0
-5934 46 0
-5934 91 0
-5934 217 0
-5935 46 0
-5935 91 0
-5935 127 0
-5935 196 0
-5936 46 0
-5936 91 0
-5936 154 0
-5936 169 0
-5937 46 0
-5937 109 0
-5937 199 0
-5938 46 0
-5938 109 0
-5938 127 0
-5938 178 0
-5939 46 0
-5939 109 0
-5939 136 0
-5939 169 0
-5940 55 0
-5940 64 0
-5940 169 0
-5940 226 0
-5941 55 0
-5941 64 0
-5941 178 0
-5942 55 0
-5942 64 0
-5942 187 0
-5942 199 0
-5943 55 0
-5943 75 0
-5943 127 0
-5943 226 0
-5944 55 0
-5944 75 0
-5944 136 0
-5945 55 0
-5945 75 0
-5945 145 0
-5945 199 0
-5946 55 0
-5946 82 0
-5946 226 0
-5947 55 0
-5947 82 0
-5947 136 0
-5947 187 0
-5948 55 0
-5948 82 0
-5948 145 0
-5948 178 0
-5949 55 0
-5949 91 0
-5950 55 0
-5950 91 0
-5950 127 0
-5950 187 0
-5951 55 0
-5951 91 0
-5951 145 0
-5951 169 0
-5952 55 0
-5952 100 0
-5952 199 0
-5953 55 0
-5953 100 0
-5953 127 0
-5953 178 0
-5954 55 0
-5954 100 0
-5954 136 0
-5954 169 0
-1 -120 -208 -235 5851 5852 5853 5854 5855 5856 5857 5858 5859 5860 5861 5862 5863 5864 5865 5866 5867 5868 5869 5870 5871 5872 5873 5874 5875 5876 5877 5878 5879 5880 5881 5882 5883 5884 5885 5886 5887 5888 5889 5890 5891 5892 5893 5894 5895 5896 5897 5898 5899 5900 5901 5902 5903 5904 5905 5906 5907 5908 5909 5910 5911 5912 5913 5914 5915 5916 5917 5918 5919 5920 5921 5922 5923 5924 5925 5926 5927 5928 5929 5930 5931 5932 5933 5934 5935 5936 5937 5938 5939 5940 5941 5942 5943 5944 5945 5946 5947 5948 5949 5950 5951 5952 5953 5954 0
-5955 119 0
-5955 202 0
-5955 250 0
-5956 119 0
-5956 213 0
-5957 119 0
-5957 220 0
-5957 228 0
-5958 128 0
-5958 175 0
-5958 250 0
-5959 128 0
-5959 186 0
-5960 128 0
-5960 193 0
-5960 228 0
-5961 136 0
-5961 250 0
-5962 136 0
-5962 186 0
-5962 220 0
-5963 136 0
-5963 193 0
-5963 213 0
-5964 175 0
-5964 220 0
-5965 193 0
-5965 202 0
-5966 154 0
-5966 228 0
-5967 154 0
-5967 175 0
-5967 213 0
-5968 154 0
-5968 186 0
-5968 202 0
-5969 10 0
-5969 74 0
-5969 202 0
-5969 250 0
-5970 10 0
-5970 74 0
-5970 213 0
-5971 10 0
-5971 74 0
-5971 220 0
-5971 228 0
-5972 10 0
-5972 83 0
-5972 175 0
-5972 250 0
-5973 10 0
-5973 83 0
-5973 186 0
-5974 10 0
-5974 83 0
-5974 193 0
-5974 228 0
-5975 10 0
-5975 91 0
-5975 250 0
-5976 10 0
-5976 91 0
-5976 186 0
-5976 220 0
-5977 10 0
-5977 91 0
-5977 193 0
-5977 213 0
-5978 10 0
-5978 102 0
-5979 10 0
-5979 102 0
-5979 175 0
-5979 220 0
-5980 10 0
-5980 102 0
-5980 193 0
-5980 202 0
-5981 10 0
-5981 109 0
-5981 228 0
-5982 10 0
-5982 109 0
-5982 175 0
-5982 213 0
-5983 10 0
-5983 109 0
-5983 186 0
-5983 202 0
-5984 20 0
-5984 64 0
-5984 202 0
-5984 250 0
-5985 20 0
-5985 64 0
-5985 213 0
-5986 20 0
-5986 64 0
-5986 220 0
-5986 228 0
-5987 20 0
-5987 83 0
-5987 136 0
-5987 250 0
-5988 20 0
-5988 83 0
-5989 20 0
-5989 83 0
-5989 154 0
-5989 228 0
-5990 20 0
-5990 91 0
-5990 128 0
-5990 250 0
-5991 20 0
-5991 91 0
-5991 220 0
-5992 20 0
-5992 91 0
-5992 154 0
-5992 213 0
-5993 20 0
-5993 102 0
-5993 128 0
-5994 20 0
-5994 102 0
-5994 136 0
-5994 220 0
-5995 20 0
-5995 102 0
-5995 154 0
-5995 202 0
-5996 20 0
-5996 109 0
-5996 128 0
-5996 228 0
-5997 20 0
-5997 109 0
-5997 136 0
-5997 213 0
-5998 20 0
-5998 109 0
-5998 202 0
-5999 29 0
-5999 64 0
-5999 175 0
-5999 250 0
-6000 29 0
-6000 64 0
-6000 186 0
-6001 29 0
-6001 64 0
-6001 193 0
-6001 228 0
-6002 29 0
-6002 74 0
-6002 136 0
-6002 250 0
-6003 29 0
-6003 74 0
-6004 29 0
-6004 74 0
-6004 154 0
-6004 228 0
-6005 29 0
-6005 91 0
-6005 119 0
-6005 250 0
-6006 29 0
-6006 91 0
-6006 193 0
-6007 29 0
-6007 91 0
-6007 154 0
-6007 186 0
-6008 29 0
-6008 102 0
-6008 119 0
-6009 29 0
-6009 102 0
-6009 136 0
-6009 193 0
-6010 29 0
-6010 102 0
-6010 154 0
-6010 175 0
-6011 29 0
-6011 109 0
-6011 119 0
-6011 228 0
-6012 29 0
-6012 109 0
-6012 136 0
-6012 186 0
-6013 29 0
-6013 109 0
-6013 175 0
-6014 37 0
-6014 64 0
-6014 250 0
-6015 37 0
-6015 64 0
-6015 186 0
-6015 220 0
-6016 37 0
-6016 64 0
-6016 193 0
-6016 213 0
-6017 37 0
-6017 74 0
-6017 128 0
-6017 250 0
-6018 37 0
-6018 74 0
-6018 220 0
-6019 37 0
-6019 74 0
-6019 154 0
-6019 213 0
-6020 37 0
-6020 83 0
-6020 119 0
-6020 250 0
-6021 37 0
-6021 83 0
-6021 193 0
-6022 37 0
-6022 83 0
-6022 154 0
-6022 186 0
-6023 37 0
-6023 102 0
-6023 119 0
-6023 220 0
-6024 37 0
-6024 102 0
-6024 128 0
-6024 193 0
-6025 37 0
-6025 102 0
-6025 154 0
-6026 37 0
-6026 109 0
-6026 119 0
-6026 213 0
-6027 37 0
-6027 109 0
-6027 128 0
-6027 186 0
-6028 37 0
-6028 109 0
-6029 48 0
-6029 64 0
-6030 48 0
-6030 64 0
-6030 175 0
-6030 220 0
-6031 48 0
-6031 64 0
-6031 193 0
-6031 202 0
-6032 48 0
-6032 74 0
-6032 128 0
-6033 48 0
-6033 74 0
-6033 136 0
-6033 220 0
-6034 48 0
-6034 74 0
-6034 154 0
-6034 202 0
-6035 48 0
-6035 83 0
-6035 119 0
-6036 48 0
-6036 83 0
-6036 136 0
-6036 193 0
-6037 48 0
-6037 83 0
-6037 154 0
-6037 175 0
-6038 48 0
-6038 91 0
-6038 119 0
-6038 220 0
-6039 48 0
-6039 91 0
-6039 128 0
-6039 193 0
-6040 48 0
-6040 91 0
-6040 154 0
-6041 48 0
-6041 109 0
-6041 119 0
-6041 202 0
-6042 48 0
-6042 109 0
-6042 128 0
-6042 175 0
-6043 48 0
-6043 109 0
-6043 136 0
-6044 55 0
-6044 64 0
-6044 228 0
-6045 55 0
-6045 64 0
-6045 175 0
-6045 213 0
-6046 55 0
-6046 64 0
-6046 186 0
-6046 202 0
-6047 55 0
-6047 74 0
-6047 128 0
-6047 228 0
-6048 55 0
-6048 74 0
-6048 136 0
-6048 213 0
-6049 55 0
-6049 74 0
-6049 202 0
-6050 55 0
-6050 83 0
-6050 119 0
-6050 228 0
-6051 55 0
-6051 83 0
-6051 136 0
-6051 186 0
-6052 55 0
-6052 83 0
-6052 175 0
-6053 55 0
-6053 91 0
-6053 119 0
-6053 213 0
-6054 55 0
-6054 91 0
-6054 128 0
-6054 186 0
-6055 55 0
-6055 91 0
-6056 55 0
-6056 102 0
-6056 119 0
-6056 202 0
-6057 55 0
-6057 102 0
-6057 128 0
-6057 175 0
-6058 55 0
-6058 102 0
-6058 136 0
-1 -147 -167 -235 5955 5956 5957 5958 5959 5960 5961 5962 5963 5964 5965 5966 5967 5968 5969 5970 5971 5972 5973 5974 5975 5976 5977 5978 5979 5980 5981 5982 5983 5984 5985 5986 5987 5988 5989 5990 5991 5992 5993 5994 5995 5996 5997 5998 5999 6000 6001 6002 6003 6004 6005 6006 6007 6008 6009 6010 6011 6012 6013 6014 6015 6016 6017 6018 6019 6020 6021 6022 6023 6024 6025 6026 6027 6028 6029 6030 6031 6032 6033 6034 6035 6036 6037 6038 6039 6040 6041 6042 6043 6044 6045 6046 6047 6048 6049 6050 6051 6052 6053 6054 6055 6056 6057 6058 0
-6059 119 0
-6059 200 0
-6059 246 0
-6060 119 0
-6060 240 0
-6061 119 0
-6061 219 0
-6061 229 0
-6062 127 0
-6062 246 0
-6063 127 0
-6063 184 0
-6063 240 0
-6064 127 0
-6064 195 0
-6064 229 0
-6065 137 0
-6065 166 0
-6065 246 0
-6066 137 0
-6066 184 0
-6066 219 0
-6067 137 0
-6067 195 0
-6068 145 0
-6068 166 0
-6068 240 0
-6069 145 0
-6069 219 0
-6070 145 0
-6070 195 0
-6070 200 0
-6071 166 0
-6071 229 0
-6072 184 0
-6072 200 0
-6073 10 0
-6073 74 0
-6073 200 0
-6073 246 0
-6074 10 0
-6074 74 0
-6074 240 0
-6075 10 0
-6075 74 0
-6075 219 0
-6075 229 0
-6076 10 0
-6076 82 0
-6076 246 0
-6077 10 0
-6077 82 0
-6077 184 0
-6077 240 0
-6078 10 0
-6078 82 0
-6078 195 0
-6078 229 0
-6079 10 0
-6079 92 0
-6079 166 0
-6079 246 0
-6080 10 0
-6080 92 0
-6080 184 0
-6080 219 0
-6081 10 0
-6081 92 0
-6081 195 0
-6082 10 0
-6082 100 0
-6082 166 0
-6082 240 0
-6083 10 0
-6083 100 0
-6083 219 0
-6084 10 0
-6084 100 0
-6084 195 0
-6084 200 0
-6085 10 0
-6085 111 0
-6085 166 0
-6085 229 0
-6086 10 0
-6086 111 0
-6087 10 0
-6087 111 0
-6087 184 0
-6087 200 0
-6088 20 0
-6088 64 0
-6088 200 0
-6088 246 0
-6089 20 0
-6089 64 0
-6089 240 0
-6090 20 0
-6090 64 0
-6090 219 0
-6090 229 0
-6091 20 0
-6091 82 0
-6091 137 0
-6091 246 0
-6092 20 0
-6092 82 0
-6092 145 0
-6092 240 0
-6093 20 0
-6093 82 0
-6093 229 0
-6094 20 0
-6094 92 0
-6094 127 0
-6094 246 0
-6095 20 0
-6095 92 0
-6095 145 0
-6095 219 0
-6096 20 0
-6096 92 0
-6097 20 0
-6097 100 0
-6097 127 0
-6097 240 0
-6098 20 0
-6098 100 0
-6098 137 0
-6098 219 0
-6099 20 0
-6099 100 0
-6099 200 0
-6100 20 0
-6100 111 0
-6100 127 0
-6100 229 0
-6101 20 0
-6101 111 0
-6101 137 0
-6102 20 0
-6102 111 0
-6102 145 0
-6102 200 0
-6103 28 0
-6103 64 0
-6103 246 0
-6104 28 0
-6104 64 0
-6104 184 0
-6104 240 0
-6105 28 0
-6105 64 0
-6105 195 0
-6105 229 0
-6106 28 0
-6106 74 0
-6106 137 0
-6106 246 0
-6107 28 0
-6107 74 0
-6107 145 0
-6107 240 0
-6108 28 0
-6108 74 0
-6108 229 0
-6109 28 0
-6109 92 0
-6109 119 0
-6109 246 0
-6110 28 0
-6110 92 0
-6110 145 0
-6110 195 0
-6111 28 0
-6111 92 0
-6111 184 0
-6112 28 0
-6112 100 0
-6112 119 0
-6112 240 0
-6113 28 0
-6113 100 0
-6113 137 0
-6113 195 0
-6114 28 0
-6114 100 0
-6115 28 0
-6115 111 0
-6115 119 0
-6115 229 0
-6116 28 0
-6116 111 0
-6116 137 0
-6116 184 0
-6117 28 0
-6117 111 0
-6117 145 0
-6118 38 0
-6118 64 0
-6118 166 0
-6118 246 0
-6119 38 0
-6119 64 0
-6119 184 0
-6119 219 0
-6120 38 0
-6120 64 0
-6120 195 0
-6121 38 0
-6121 74 0
-6121 127 0
-6121 246 0
-6122 38 0
-6122 74 0
-6122 145 0
-6122 219 0
-6123 38 0
-6123 74 0
-6124 38 0
-6124 82 0
-6124 119 0
-6124 246 0
-6125 38 0
-6125 82 0
-6125 145 0
-6125 195 0
-6126 38 0
-6126 82 0
-6126 184 0
-6127 38 0
-6127 100 0
-6127 119 0
-6127 219 0
-6128 38 0
-6128 100 0
-6128 127 0
-6128 195 0
-6129 38 0
-6129 100 0
-6129 166 0
-6130 38 0
-6130 111 0
-6130 119 0
-6131 38 0
-6131 111 0
-6131 127 0
-6131 184 0
-6132 38 0
-6132 111 0
-6132 145 0
-6132 166 0
-6133 46 0
-6133 64 0
-6133 166 0
-6133 240 0
-6134 46 0
-6134 64 0
-6134 219 0
-6135 46 0
-6135 64 0
-6135 195 0
-6135 200 0
-6136 46 0
-6136 74 0
-6136 127 0
-6136 240 0
-6137 46 0
-6137 74 0
-6137 137 0
-6137 219 0
-6138 46 0
-6138 74 0
-6138 200 0
-6139 46 0
-6139 82 0
-6139 119 0
-6139 240 0
-6140 46 0
-6140 82 0
-6140 137 0
-6140 195 0
-6141 46 0
-6141 82 0
-6142 46 0
-6142 92 0
-6142 119 0
-6142 219 0
-6143 46 0
-6143 92 0
-6143 127 0
-6143 195 0
-6144 46 0
-6144 92 0
-6144 166 0
-6145 46 0
-6145 111 0
-6145 119 0
-6145 200 0
-6146 46 0
-6146 111 0
-6146 127 0
-6147 46 0
-6147 111 0
-6147 137 0
-6147 166 0
-6148 57 0
-6148 64 0
-6148 166 0
-6148 229 0
-6149 57 0
-6149 64 0
-6150 57 0
-6150 64 0
-6150 184 0
-6150 200 0
-6151 57 0
-6151 74 0
-6151 127 0
-6151 229 0
-6152 57 0
-6152 74 0
-6152 137 0
-6153 57 0
-6153 74 0
-6153 145 0
-6153 200 0
-6154 57 0
-6154 82 0
-6154 119 0
-6154 229 0
-6155 57 0
-6155 82 0
-6155 137 0
-6155 184 0
-6156 57 0
-6156 82 0
-6156 145 0
-6157 57 0
-6157 92 0
-6157 119 0
-6158 57 0
-6158 92 0
-6158 127 0
-6158 184 0
-6159 57 0
-6159 92 0
-6159 145 0
-6159 166 0
-6160 57 0
-6160 100 0
-6160 119 0
-6160 200 0
-6161 57 0
-6161 100 0
-6161 127 0
-6162 57 0
-6162 100 0
-6162 137 0
-6162 166 0
-1 -156 -176 -208 6059 6060 6061 6062 6063 6064 6065 6066 6067 6068 6069 6070 6071 6072 6073 6074 6075 6076 6077 6078 6079 6080 6081 6082 6083 6084 6085 6086 6087 6088 6089 6090 6091 6092 6093 6094 6095 6096 6097 6098 6099 6100 6101 6102 6103 6104 6105 6106 6107 6108 6109 6110 6111 6112 6113 6114 6115 6116 6117 6118 6119 6120 6121 6122 6123 6124 6125 6126 6127 6128 6129 6130 6131 6132 6133 6134 6135 6136 6137 6138 6139 6140 6141 6142 6143 6144 6145 6146 6147 6148 6149 6150 6151 6152 6153 6154 6155 6156 6157 6158 6159 6160 6161 6162 0
-6163 9 0
-6163 125 0
-6163 199 0
-6163 244 0
-6164 9 0
-6164 125 0
-6165 9 0
-6165 125 0
-6165 217 0
-6165 226 0
-6166 9 0
-6166 133 0
-6166 175 0
-6166 244 0
-6167 9 0
-6167 133 0
-6167 184 0
-6168 9 0
-6168 133 0
-6168 193 0
-6168 226 0
-6169 9 0
-6169 142 0
-6169 166 0
-6169 244 0
-6170 9 0
-6170 142 0
-6170 184 0
-6170 217 0
-6171 9 0
-6171 142 0
-6171 193 0
-6172 9 0
-6172 151 0
-6172 166 0
-6173 9 0
-6173 151 0
-6173 175 0
-6173 217 0
-6174 9 0
-6174 151 0
-6174 193 0
-6174 199 0
-6175 9 0
-6175 160 0
-6175 166 0
-6175 226 0
-6176 9 0
-6176 160 0
-6176 175 0
-6177 9 0
-6177 160 0
-6177 184 0
-6177 199 0
-6178 18 0
-6178 80 0
-6178 199 0
-6178 244 0
-6179 18 0
-6179 80 0
-6180 18 0
-6180 80 0
-6180 217 0
-6180 226 0
-6181 18 0
-6181 88 0
-6181 175 0
-6181 244 0
-6182 18 0
-6182 88 0
-6182 184 0
-6183 18 0
-6183 88 0
-6183 193 0
-6183 226 0
-6184 18 0
-6184 97 0
-6184 166 0
-6184 244 0
-6185 18 0
-6185 97 0
-6185 184 0
-6185 217 0
-6186 18 0
-6186 97 0
-6186 193 0
-6187 18 0
-6187 106 0
-6187 166 0
-6188 18 0
-6188 106 0
-6188 175 0
-6188 217 0
-6189 18 0
-6189 106 0
-6189 193 0
-6189 199 0
-6190 18 0
-6190 115 0
-6190 166 0
-6190 226 0
-6191 18 0
-6191 115 0
-6191 175 0
-6192 18 0
-6192 115 0
-6192 184 0
-6192 199 0
-6193 199 0
-6193 244 0
-6194 217 0
-6194 226 0
-6195 88 0
-6195 142 0
-6195 244 0
-6196 88 0
-6196 151 0
-6197 88 0
-6197 160 0
-6197 226 0
-6198 97 0
-6198 133 0
-6198 244 0
-6199 97 0
-6199 151 0
-6199 217 0
-6200 97 0
-6200 160 0
-6201 106 0
-6201 133 0
-6202 106 0
-6202 142 0
-6202 217 0
-6203 106 0
-6203 160 0
-6203 199 0
-6204 115 0
-6204 133 0
-6204 226 0
-6205 115 0
-6205 142 0
-6206 115 0
-6206 151 0
-6206 199 0
-6207 34 0
-6207 175 0
-6207 244 0
-6208 34 0
-6208 184 0
-6209 34 0
-6209 193 0
-6209 226 0
-6210 34 0
-6210 80 0
-6210 142 0
-6210 244 0
-6211 34 0
-6211 80 0
-6211 151 0
-6212 34 0
-6212 80 0
-6212 160 0
-6212 226 0
-6213 34 0
-6213 97 0
-6213 125 0
-6213 244 0
-6214 34 0
-6214 97 0
-6214 151 0
-6214 193 0
-6215 34 0
-6215 97 0
-6215 160 0
-6215 184 0
-6216 34 0
-6216 106 0
-6216 125 0
-6217 34 0
-6217 106 0
-6217 142 0
-6217 193 0
-6218 34 0
-6218 106 0
-6218 160 0
-6218 175 0
-6219 34 0
-6219 115 0
-6219 125 0
-6219 226 0
-6220 34 0
-6220 115 0
-6220 142 0
-6220 184 0
-6221 34 0
-6221 115 0
-6221 151 0
-6221 175 0
-6222 43 0
-6222 166 0
-6222 244 0
-6223 43 0
-6223 184 0
-6223 217 0
-6224 43 0
-6224 193 0
-6225 43 0
-6225 80 0
-6225 133 0
-6225 244 0
-6226 43 0
-6226 80 0
-6226 151 0
-6226 217 0
-6227 43 0
-6227 80 0
-6227 160 0
-6228 43 0
-6228 88 0
-6228 125 0
-6228 244 0
-6229 43 0
-6229 88 0
-6229 151 0
-6229 193 0
-6230 43 0
-6230 88 0
-6230 160 0
-6230 184 0
-6231 43 0
-6231 106 0
-6231 125 0
-6231 217 0
-6232 43 0
-6232 106 0
-6232 133 0
-6232 193 0
-6233 43 0
-6233 106 0
-6233 160 0
-6233 166 0
-6234 43 0
-6234 115 0
-6234 125 0
-6235 43 0
-6235 115 0
-6235 133 0
-6235 184 0
-6236 43 0
-6236 115 0
-6236 151 0
-6236 166 0
-6237 52 0
-6237 166 0
-6238 52 0
-6238 175 0
-6238 217 0
-6239 52 0
-6239 193 0
-6239 199 0
-6240 52 0
-6240 80 0
-6240 133 0
-6241 52 0
-6241 80 0
-6241 142 0
-6241 217 0
-6242 52 0
-6242 80 0
-6242 160 0
-6242 199 0
-6243 52 0
-6243 88 0
-6243 125 0
-6244 52 0
-6244 88 0
-6244 142 0
-6244 193 0
-6245 52 0
-6245 88 0
-6245 160 0
-6245 175 0
-6246 52 0
-6246 97 0
-6246 125 0
-6246 217 0
-6247 52 0
-6247 97 0
-6247 133 0
-6247 193 0
-6248 52 0
-6248 97 0
-6248 160 0
-6248 166 0
-6249 52 0
-6249 115 0
-6249 125 0
-6249 199 0
-6250 52 0
-6250 115 0
-6250 133 0
-6250 175 0
-6251 52 0
-6251 115 0
-6251 142 0
-6251 166 0
-6252 61 0
-6252 166 0
-6252 226 0
-6253 61 0
-6253 175 0
-6254 61 0
-6254 184 0
-6254 199 0
-6255 61 0
-6255 80 0
-6255 133 0
-6255 226 0
-6256 61 0
-6256 80 0
-6256 142 0
-6257 61 0
-6257 80 0
-6257 151 0
-6257 199 0
-6258 61 0
-6258 88 0
-6258 125 0
-6258 226 0
-6259 61 0
-6259 88 0
-6259 142 0
-6259 184 0
-6260 61 0
-6260 88 0
-6260 151 0
-6260 175 0
-6261 61 0
-6261 97 0
-6261 125 0
-6262 61 0
-6262 97 0
-6262 133 0
-6262 184 0
-6263 61 0
-6263 97 0
-6263 151 0
-6263 166 0
-6264 61 0
-6264 106 0
-6264 125 0
-6264 199 0
-6265 61 0
-6265 106 0
-6265 133 0
-6265 175 0
-6266 61 0
-6266 106 0
-6266 142 0
-6266 166 0
-26 -72 -208 -235 6163 6164 6165 6166 6167 6168 6169 6170 6171 6172 6173 6174 6175 6176 6177 6178 6179 6180 6181 6182 6183 6184 6185 6186 6187 6188 6189 6190 6191 6192 6193 6194 6195 6196 6197 6198 6199 6200 6201 6202 6203 6204 6205 6206 6207 6208 6209 6210 6211 6212 6213 6214 6215 6216 6217 6218 6219 6220 6221 6222 6223 6224 6225 6226 6227 6228 6229 6230 6231 6232 6233 6234 6235 6236 6237 6238 6239 6240 6241 6242 6243 6244 6245 6246 6247 6248 6249 6250 6251 6252 6253 6254 6255 6256 6257 6258 6259 6260 6261 6262 6263 6264 6265 6266 0
-6267 8 0
-6267 122 0
-6267 203 0
-6268 8 0
-6268 122 0
-6268 212 0
-6268 239 0
-6269 8 0
-6269 122 0
-6269 221 0
-6269 230 0
-6270 8 0
-6270 131 0
-6271 8 0
-6271 131 0
-6271 185 0
-6271 239 0
-6272 8 0
-6272 131 0
-6272 194 0
-6272 230 0
-6273 8 0
-6273 140 0
-6273 167 0
-6274 8 0
-6274 140 0
-6274 185 0
-6274 221 0
-6275 8 0
-6275 140 0
-6275 194 0
-6275 212 0
-6276 8 0
-6276 149 0
-6276 167 0
-6276 239 0
-6277 8 0
-6277 149 0
-6277 221 0
-6278 8 0
-6278 149 0
-6278 194 0
-6278 203 0
-6279 8 0
-6279 158 0
-6279 167 0
-6279 230 0
-6280 8 0
-6280 158 0
-6280 212 0
-6281 8 0
-6281 158 0
-6281 185 0
-6281 203 0
-6282 17 0
-6282 77 0
-6282 203 0
-6283 17 0
-6283 77 0
-6283 212 0
-6283 239 0
-6284 17 0
-6284 77 0
-6284 221 0
-6284 230 0
-6285 17 0
-6285 86 0
-6286 17 0
-6286 86 0
-6286 185 0
-6286 239 0
-6287 17 0
-6287 86 0
-6287 194 0
-6287 230 0
-6288 17 0
-6288 95 0
-6288 167 0
-6289 17 0
-6289 95 0
-6289 185 0
-6289 221 0
-6290 17 0
-6290 95 0
-6290 194 0
-6290 212 0
-6291 17 0
-6291 104 0
-6291 167 0
-6291 239 0
-6292 17 0
-6292 104 0
-6292 221 0
-6293 17 0
-6293 104 0
-6293 194 0
-6293 203 0
-6294 17 0
-6294 113 0
-6294 167 0
-6294 230 0
-6295 17 0
-6295 113 0
-6295 212 0
-6296 17 0
-6296 113 0
-6296 185 0
-6296 203 0
-6297 26 0
-6297 203 0
-6298 26 0
-6298 212 0
-6298 239 0
-6299 26 0
-6299 221 0
-6299 230 0
-6300 26 0
-6300 86 0
-6300 140 0
-6301 26 0
-6301 86 0
-6301 149 0
-6301 239 0
-6302 26 0
-6302 86 0
-6302 158 0
-6302 230 0
-6303 26 0
-6303 95 0
-6303 131 0
-6304 26 0
-6304 95 0
-6304 149 0
-6304 221 0
-6305 26 0
-6305 95 0
-6305 158 0
-6305 212 0
-6306 26 0
-6306 104 0
-6306 131 0
-6306 239 0
-6307 26 0
-6307 104 0
-6307 140 0
-6307 221 0
-6308 26 0
-6308 104 0
-6308 158 0
-6308 203 0
-6309 26 0
-6309 113 0
-6309 131 0
-6309 230 0
-6310 26 0
-6310 113 0
-6310 140 0
-6310 212 0
-6311 26 0
-6311 113 0
-6311 149 0
-6311 203 0
-6312 185 0
-6312 239 0
-6313 194 0
-6313 230 0
-6314 77 0
-6314 140 0
-6315 77 0
-6315 149 0
-6315 239 0
-6316 77 0
-6316 158 0
-6316 230 0
-6317 95 0
-6317 122 0
-6318 95 0
-6318 149 0
-6318 194 0
-6319 95 0
-6319 158 0
-6319 185 0
-6320 104 0
-6320 122 0
-6320 239 0
-6321 104 0
-6321 140 0
-6321 194 0
-6322 104 0
-6322 158 0
-6323 113 0
-6323 122 0
-6323 230 0
-6324 113 0
-6324 140 0
-6324 185 0
-6325 113 0
-6325 149 0
-6326 44 0
-6326 167 0
-6327 44 0
-6327 185 0
-6327 221 0
-6328 44 0
-6328 194 0
-6328 212 0
-6329 44 0
-6329 77 0
-6329 131 0
-6330 44 0
-6330 77 0
-6330 149 0
-6330 221 0
-6331 44 0
-6331 77 0
-6331 158 0
-6331 212 0
-6332 44 0
-6332 86 0
-6332 122 0
-6333 44 0
-6333 86 0
-6333 149 0
-6333 194 0
-6334 44 0
-6334 86 0
-6334 158 0
-6334 185 0
-6335 44 0
-6335 104 0
-6335 122 0
-6335 221 0
-6336 44 0
-6336 104 0
-6336 131 0
-6336 194 0
-6337 44 0
-6337 104 0
-6337 158 0
-6337 167 0
-6338 44 0
-6338 113 0
-6338 122 0
-6338 212 0
-6339 44 0
-6339 113 0
-6339 131 0
-6339 185 0
-6340 44 0
-6340 113 0
-6340 149 0
-6340 167 0
-6341 53 0
-6341 167 0
-6341 239 0
-6342 53 0
-6342 221 0
-6343 53 0
-6343 194 0
-6343 203 0
-6344 53 0
-6344 77 0
-6344 131 0
-6344 239 0
-6345 53 0
-6345 77 0
-6345 140 0
-6345 221 0
-6346 53 0
-6346 77 0
-6346 158 0
-6346 203 0
-6347 53 0
-6347 86 0
-6347 122 0
-6347 239 0
-6348 53 0
-6348 86 0
-6348 140 0
-6348 194 0
-6349 53 0
-6349 86 0
-6349 158 0
-6350 53 0
-6350 95 0
-6350 122 0
-6350 221 0
-6351 53 0
-6351 95 0
-6351 131 0
-6351 194 0
-6352 53 0
-6352 95 0
-6352 158 0
-6352 167 0
-6353 53 0
-6353 113 0
-6353 122 0
-6353 203 0
-6354 53 0
-6354 113 0
-6354 131 0
-6355 53 0
-6355 113 0
-6355 140 0
-6355 167 0
-6356 62 0
-6356 167 0
-6356 230 0
-6357 62 0
-6357 212 0
-6358 62 0
-6358 185 0
-6358 203 0
-6359 62 0
-6359 77 0
-6359 131 0
-6359 230 0
-6360 62 0
-6360 77 0
-6360 140 0
-6360 212 0
-6361 62 0
-6361 77 0
-6361 149 0
-6361 203 0
-6362 62 0
-6362 86 0
-6362 122 0
-6362 230 0
-6363 62 0
-6363 86 0
-6363 140 0
-6363 185 0
-6364 62 0
-6364 86 0
-6364 149 0
-6365 62 0
-6365 95 0
-6365 122 0
-6365 212 0
-6366 62 0
-6366 95 0
-6366 131 0
-6366 185 0
-6367 62 0
-6367 95 0
-6367 149 0
-6367 167 0
-6368 62 0
-6368 104 0
-6368 122 0
-6368 203 0
-6369 62 0
-6369 104 0
-6369 131 0
-6370 62 0
-6370 104 0
-6370 140 0
-6370 167 0
-35 -68 -176 -248 6267 6268 6269 6270 6271 6272 6273 6274 6275 6276 6277 6278 6279 6280 6281 6282 6283 6284 6285 6286 6287 6288 6289 6290 6291 6292 6293 6294 6295 6296 6297 6298 6299 6300 6301 6302 6303 6304 6305 6306 6307 6308 6309 6310 6311 6312 6313 6314 6315 6316 6317 6318 6319 6320 6321 6322 6323 6324 6325 6326 6327 6328 6329 6330 6331 6332 6333 6334 6335 6336 6337 6338 6339 6340 6341 6342 6343 6344 6345 6346 6347 6348 6349 6350 6351 6352 6353 6354 6355 6356 6357 6358 6359 6360 6361 6362 6363 6364 6365 6366 6367 6368 6369 6370 0
-6371 8 0
-6371 122 0
-6371 202 0
-6371 247 0
-6372 8 0
-6372 122 0
-6372 212 0
-6373 8 0
-6373 122 0
-6373 220 0
-6373 227 0
-6374 8 0
-6374 131 0
-6374 175 0
-6374 247 0
-6375 8 0
-6375 131 0
-6375 185 0
-6376 8 0
-6376 131 0
-6376 193 0
-6376 227 0
-6377 8 0
-6377 139 0
-6377 247 0
-6378 8 0
-6378 139 0
-6378 185 0
-6378 220 0
-6379 8 0
-6379 139 0
-6379 193 0
-6379 212 0
-6380 8 0
-6380 149 0
-6381 8 0
-6381 149 0
-6381 175 0
-6381 220 0
-6382 8 0
-6382 149 0
-6382 193 0
-6382 202 0
-6383 8 0
-6383 157 0
-6383 227 0
-6384 8 0
-6384 157 0
-6384 175 0
-6384 212 0
-6385 8 0
-6385 157 0
-6385 185 0
-6385 202 0
-6386 17 0
-6386 77 0
-6386 202 0
-6386 247 0
-6387 17 0
-6387 77 0
-6387 212 0
-6388 17 0
-6388 77 0
-6388 220 0
-6388 227 0
-6389 17 0
-6389 86 0
-6389 175 0
-6389 247 0
-6390 17 0
-6390 86 0
-6390 185 0
-6391 17 0
-6391 86 0
-6391 193 0
-6391 227 0
-6392 17 0
-6392 94 0
-6392 247 0
-6393 17 0
-6393 94 0
-6393 185 0
-6393 220 0
-6394 17 0
-6394 94 0
-6394 193 0
-6394 212 0
-6395 17 0
-6395 104 0
-6396 17 0
-6396 104 0
-6396 175 0
-6396 220 0
-6397 17 0
-6397 104 0
-6397 193 0
-6397 202 0
-6398 17 0
-6398 112 0
-6398 227 0
-6399 17 0
-6399 112 0
-6399 175 0
-6399 212 0
-6400 17 0
-6400 112 0
-6400 185 0
-6400 202 0
-6401 26 0
-6401 202 0
-6401 247 0
-6402 26 0
-6402 212 0
-6403 26 0
-6403 220 0
-6403 227 0
-6404 26 0
-6404 86 0
-6404 139 0
-6404 247 0
-6405 26 0
-6405 86 0
-6405 149 0
-6406 26 0
-6406 86 0
-6406 157 0
-6406 227 0
-6407 26 0
-6407 94 0
-6407 131 0
-6407 247 0
-6408 26 0
-6408 94 0
-6408 149 0
-6408 220 0
-6409 26 0
-6409 94 0
-6409 157 0
-6409 212 0
-6410 26 0
-6410 104 0
-6410 131 0
-6411 26 0
-6411 104 0
-6411 139 0
-6411 220 0
-6412 26 0
-6412 104 0
-6412 157 0
-6412 202 0
-6413 26 0
-6413 112 0
-6413 131 0
-6413 227 0
-6414 26 0
-6414 112 0
-6414 139 0
-6414 212 0
-6415 26 0
-6415 112 0
-6415 149 0
-6415 202 0
-6416 35 0
-6416 175 0
-6416 247 0
-6417 35 0
-6417 185 0
-6418 35 0
-6418 193 0
-6418 227 0
-6419 35 0
-6419 77 0
-6419 139 0
-6419 247 0
-6420 35 0
-6420 77 0
-6420 149 0
-6421 35 0
-6421 77 0
-6421 157 0
-6421 227 0
-6422 35 0
-6422 94 0
-6422 122 0
-6422 247 0
-6423 35 0
-6423 94 0
-6423 149 0
-6423 193 0
-6424 35 0
-6424 94 0
-6424 157 0
-6424 185 0
-6425 35 0
-6425 104 0
-6425 122 0
-6426 35 0
-6426 104 0
-6426 139 0
-6426 193 0
-6427 35 0
-6427 104 0
-6427 157 0
-6427 175 0
-6428 35 0
-6428 112 0
-6428 122 0
-6428 227 0
-6429 35 0
-6429 112 0
-6429 139 0
-6429 185 0
-6430 35 0
-6430 112 0
-6430 149 0
-6430 175 0
-6431 43 0
-6431 247 0
-6432 43 0
-6432 185 0
-6432 220 0
-6433 43 0
-6433 193 0
-6433 212 0
-6434 43 0
-6434 77 0
-6434 131 0
-6434 247 0
-6435 43 0
-6435 77 0
-6435 149 0
-6435 220 0
-6436 43 0
-6436 77 0
-6436 157 0
-6436 212 0
-6437 43 0
-6437 86 0
-6437 122 0
-6437 247 0
-6438 43 0
-6438 86 0
-6438 149 0
-6438 193 0
-6439 43 0
-6439 86 0
-6439 157 0
-6439 185 0
-6440 43 0
-6440 104 0
-6440 122 0
-6440 220 0
-6441 43 0
-6441 104 0
-6441 131 0
-6441 193 0
-6442 43 0
-6442 104 0
-6442 157 0
-6443 43 0
-6443 112 0
-6443 122 0
-6443 212 0
-6444 43 0
-6444 112 0
-6444 131 0
-6444 185 0
-6445 43 0
-6445 112 0
-6445 149 0
-6446 175 0
-6446 220 0
-6447 193 0
-6447 202 0
-6448 77 0
-6448 131 0
-6449 77 0
-6449 139 0
-6449 220 0
-6450 77 0
-6450 157 0
-6450 202 0
-6451 86 0
-6451 122 0
-6452 86 0
-6452 139 0
-6452 193 0
-6453 86 0
-6453 157 0
-6453 175 0
-6454 94 0
-6454 122 0
-6454 220 0
-6455 94 0
-6455 131 0
-6455 193 0
-6456 94 0
-6456 157 0
-6457 112 0
-6457 122 0
-6457 202 0
-6458 112 0
-6458 131 0
-6458 175 0
-6459 112 0
-6459 139 0
-6460 61 0
-6460 227 0
-6461 61 0
-6461 175 0
-6461 212 0
-6462 61 0
-6462 185 0
-6462 202 0
-6463 61 0
-6463 77 0
-6463 131 0
-6463 227 0
-6464 61 0
-6464 77 0
-6464 139 0
-6464 212 0
-6465 61 0
-6465 77 0
-6465 149 0
-6465 202 0
-6466 61 0
-6466 86 0
-6466 122 0
-6466 227 0
-6467 61 0
-6467 86 0
-6467 139 0
-6467 185 0
-6468 61 0
-6468 86 0
-6468 149 0
-6468 175 0
-6469 61 0
-6469 94 0
-6469 122 0
-6469 212 0
-6470 61 0
-6470 94 0
-6470 131 0
-6470 185 0
-6471 61 0
-6471 94 0
-6471 149 0
-6472 61 0
-6472 104 0
-6472 122 0
-6472 202 0
-6473 61 0
-6473 104 0
-6473 131 0
-6473 175 0
-6474 61 0
-6474 104 0
-6474 139 0
-53 -68 -167 -235 6371 6372 6373 6374 6375 6376 6377 6378 6379 6380 6381 6382 6383 6384 6385 6386 6387 6388 6389 6390 6391 6392 6393 6394 6395 6396 6397 6398 6399 6400 6401 6402 6403 6404 6405 6406 6407 6408 6409 6410 6411 6412 6413 6414 6415 6416 6417 6418 6419 6420 6421 6422 6423 6424 6425 6426 6427 6428 6429 6430 6431 6432 6433 6434 6435 6436 6437 6438 6439 6440 6441 6442 6443 6444 6445 6446 6447 6448 6449 6450 6451 6452 6453 6454 6455 6456 6457 6458 6459 6460 6461 6462 6463 6464 6465 6466 6467 6468 6469 6470 6471 6472 6473 6474 0
-6475 6 0
-6475 202 0
-6476 6 0
-6476 212 0
-6476 236 0
-6477 6 0
-6477 221 0
-6477 227 0
-6478 6 0
-6478 128 0
-6478 172 0
-6479 6 0
-6479 128 0
-6479 182 0
-6479 236 0
-6480 6 0
-6480 128 0
-6480 191 0
-6480 227 0
-6481 6 0
-6481 136 0
-6481 164 0
-6482 6 0
-6482 136 0
-6482 182 0
-6482 221 0
-6483 6 0
-6483 136 0
-6483 191 0
-6483 212 0
-6484 6 0
-6484 146 0
-6484 164 0
-6484 236 0
-6485 6 0
-6485 146 0
-6485 172 0
-6485 221 0
-6486 6 0
-6486 146 0
-6486 191 0
-6486 202 0
-6487 6 0
-6487 155 0
-6487 164 0
-6487 227 0
-6488 6 0
-6488 155 0
-6488 172 0
-6488 212 0
-6489 6 0
-6489 155 0
-6489 182 0
-6489 202 0
-6490 13 0
-6490 79 0
-6490 202 0
-6491 13 0
-6491 79 0
-6491 212 0
-6491 236 0
-6492 13 0
-6492 79 0
-6492 221 0
-6492 227 0
-6493 13 0
-6493 89 0
-6493 172 0
-6494 13 0
-6494 89 0
-6494 182 0
-6494 236 0
-6495 13 0
-6495 89 0
-6495 191 0
-6495 227 0
-6496 13 0
-6496 164 0
-6497 13 0
-6497 182 0
-6497 221 0
-6498 13 0
-6498 191 0
-6498 212 0
-6499 13 0
-6499 107 0
-6499 164 0
-6499 236 0
-6500 13 0
-6500 107 0
-6500 172 0
-6500 221 0
-6501 13 0
-6501 107 0
-6501 191 0
-6501 202 0
-6502 13 0
-6502 116 0
-6502 164 0
-6502 227 0
-6503 13 0
-6503 116 0
-6503 172 0
-6503 212 0
-6504 13 0
-6504 116 0
-6504 182 0
-6504 202 0
-6505 22 0
-6505 70 0
-6505 202 0
-6506 22 0
-6506 70 0
-6506 212 0
-6506 236 0
-6507 22 0
-6507 70 0
-6507 221 0
-6507 227 0
-6508 22 0
-6508 89 0
-6508 136 0
-6509 22 0
-6509 89 0
-6509 146 0
-6509 236 0
-6510 22 0
-6510 89 0
-6510 155 0
-6510 227 0
-6511 22 0
-6511 128 0
-6512 22 0
-6512 146 0
-6512 221 0
-6513 22 0
-6513 155 0
-6513 212 0
-6514 22 0
-6514 107 0
-6514 128 0
-6514 236 0
-6515 22 0
-6515 107 0
-6515 136 0
-6515 221 0
-6516 22 0
-6516 107 0
-6516 155 0
-6516 202 0
-6517 22 0
-6517 116 0
-6517 128 0
-6517 227 0
-6518 22 0
-6518 116 0
-6518 136 0
-6518 212 0
-6519 22 0
-6519 116 0
-6519 146 0
-6519 202 0
-6520 70 0
-6520 172 0
-6521 70 0
-6521 182 0
-6521 236 0
-6522 70 0
-6522 191 0
-6522 227 0
-6523 79 0
-6523 136 0
-6524 79 0
-6524 146 0
-6524 236 0
-6525 79 0
-6525 155 0
-6525 227 0
-6526 146 0
-6526 191 0
-6527 155 0
-6527 182 0
-6528 107 0
-6528 236 0
-6529 107 0
-6529 136 0
-6529 191 0
-6530 107 0
-6530 155 0
-6530 172 0
-6531 116 0
-6531 227 0
-6532 116 0
-6532 136 0
-6532 182 0
-6533 116 0
-6533 146 0
-6533 172 0
-6534 40 0
-6534 70 0
-6534 164 0
-6535 40 0
-6535 70 0
-6535 182 0
-6535 221 0
-6536 40 0
-6536 70 0
-6536 191 0
-6536 212 0
-6537 40 0
-6537 79 0
-6537 128 0
-6538 40 0
-6538 79 0
-6538 146 0
-6538 221 0
-6539 40 0
-6539 79 0
-6539 155 0
-6539 212 0
-6540 40 0
-6540 89 0
-6541 40 0
-6541 89 0
-6541 146 0
-6541 191 0
-6542 40 0
-6542 89 0
-6542 155 0
-6542 182 0
-6543 40 0
-6543 107 0
-6543 221 0
-6544 40 0
-6544 107 0
-6544 128 0
-6544 191 0
-6545 40 0
-6545 107 0
-6545 155 0
-6545 164 0
-6546 40 0
-6546 116 0
-6546 212 0
-6547 40 0
-6547 116 0
-6547 128 0
-6547 182 0
-6548 40 0
-6548 116 0
-6548 146 0
-6548 164 0
-6549 50 0
-6549 70 0
-6549 164 0
-6549 236 0
-6550 50 0
-6550 70 0
-6550 172 0
-6550 221 0
-6551 50 0
-6551 70 0
-6551 191 0
-6551 202 0
-6552 50 0
-6552 79 0
-6552 128 0
-6552 236 0
-6553 50 0
-6553 79 0
-6553 136 0
-6553 221 0
-6554 50 0
-6554 79 0
-6554 155 0
-6554 202 0
-6555 50 0
-6555 89 0
-6555 236 0
-6556 50 0
-6556 89 0
-6556 136 0
-6556 191 0
-6557 50 0
-6557 89 0
-6557 155 0
-6557 172 0
-6558 50 0
-6558 221 0
-6559 50 0
-6559 128 0
-6559 191 0
-6560 50 0
-6560 155 0
-6560 164 0
-6561 50 0
-6561 116 0
-6561 202 0
-6562 50 0
-6562 116 0
-6562 128 0
-6562 172 0
-6563 50 0
-6563 116 0
-6563 136 0
-6563 164 0
-6564 59 0
-6564 70 0
-6564 164 0
-6564 227 0
-6565 59 0
-6565 70 0
-6565 172 0
-6565 212 0
-6566 59 0
-6566 70 0
-6566 182 0
-6566 202 0
-6567 59 0
-6567 79 0
-6567 128 0
-6567 227 0
-6568 59 0
-6568 79 0
-6568 136 0
-6568 212 0
-6569 59 0
-6569 79 0
-6569 146 0
-6569 202 0
-6570 59 0
-6570 89 0
-6570 227 0
-6571 59 0
-6571 89 0
-6571 136 0
-6571 182 0
-6572 59 0
-6572 89 0
-6572 146 0
-6572 172 0
-6573 59 0
-6573 212 0
-6574 59 0
-6574 128 0
-6574 182 0
-6575 59 0
-6575 146 0
-6575 164 0
-6576 59 0
-6576 107 0
-6576 202 0
-6577 59 0
-6577 107 0
-6577 128 0
-6577 172 0
-6578 59 0
-6578 107 0
-6578 136 0
-6578 164 0
-32 -97 -118 -248 6475 6476 6477 6478 6479 6480 6481 6482 6483 6484 6485 6486 6487 6488 6489 6490 6491 6492 6493 6494 6495 6496 6497 6498 6499 6500 6501 6502 6503 6504 6505 6506 6507 6508 6509 6510 6511 6512 6513 6514 6515 6516 6517 6518 6519 6520 6521 6522 6523 6524 6525 6526 6527 6528 6529 6530 6531 6532 6533 6534 6535 6536 6537 6538 6539 6540 6541 6542 6543 6544 6545 6546 6547 6548 6549 6550 6551 6552 6553 6554 6555 6556 6557 6558 6559 6560 6561 6562 6563 6564 6565 6566 6567 6568 6569 6570 6571 6572 6573 6574 6575 6576 6577 6578 0
-6579 4 0
-6579 120 0
-6579 199 0
-6579 244 0
-6580 4 0
-6580 120 0
-6581 4 0
-6581 120 0
-6581 217 0
-6581 226 0
-6582 4 0
-6582 127 0
-6582 178 0
-6582 244 0
-6583 4 0
-6583 127 0
-6583 187 0
-6584 4 0
-6584 127 0
-6584 196 0
-6584 226 0
-6585 4 0
-6585 136 0
-6585 169 0
-6585 244 0
-6586 4 0
-6586 136 0
-6586 187 0
-6586 217 0
-6587 4 0
-6587 136 0
-6587 196 0
-6588 4 0
-6588 145 0
-6588 169 0
-6589 4 0
-6589 145 0
-6589 178 0
-6589 217 0
-6590 4 0
-6590 145 0
-6590 196 0
-6590 199 0
-6591 4 0
-6591 154 0
-6591 169 0
-6591 226 0
-6592 4 0
-6592 154 0
-6592 178 0
-6593 4 0
-6593 154 0
-6593 187 0
-6593 199 0
-6594 199 0
-6594 244 0
-6595 217 0
-6595 226 0
-6596 82 0
-6596 178 0
-6596 244 0
-6597 82 0
-6597 187 0
-6598 82 0
-6598 196 0
-6598 226 0
-6599 91 0
-6599 169 0
-6599 244 0
-6600 91 0
-6600 187 0
-6600 217 0
-6601 91 0
-6601 196 0
-6602 100 0
-6602 169 0
-6603 100 0
-6603 178 0
-6603 217 0
-6604 100 0
-6604 196 0
-6604 199 0
-6605 109 0
-6605 169 0
-6605 226 0
-6606 109 0
-6606 178 0
-6607 109 0
-6607 187 0
-6607 199 0
-6608 24 0
-6608 64 0
-6608 199 0
-6608 244 0
-6609 24 0
-6609 64 0
-6610 24 0
-6610 64 0
-6610 217 0
-6610 226 0
-6611 24 0
-6611 82 0
-6611 136 0
-6611 244 0
-6612 24 0
-6612 82 0
-6612 145 0
-6613 24 0
-6613 82 0
-6613 154 0
-6613 226 0
-6614 24 0
-6614 91 0
-6614 127 0
-6614 244 0
-6615 24 0
-6615 91 0
-6615 145 0
-6615 217 0
-6616 24 0
-6616 91 0
-6616 154 0
-6617 24 0
-6617 100 0
-6617 127 0
-6618 24 0
-6618 100 0
-6618 136 0
-6618 217 0
-6619 24 0
-6619 100 0
-6619 154 0
-6619 199 0
-6620 24 0
-6620 109 0
-6620 127 0
-6620 226 0
-6621 24 0
-6621 109 0
-6621 136 0
-6622 24 0
-6622 109 0
-6622 145 0
-6622 199 0
-6623 31 0
-6623 64 0
-6623 178 0
-6623 244 0
-6624 31 0
-6624 64 0
-6624 187 0
-6625 31 0
-6625 64 0
-6625 196 0
-6625 226 0
-6626 31 0
-6626 136 0
-6626 244 0
-6627 31 0
-6627 145 0
-6628 31 0
-6628 154 0
-6628 226 0
-6629 31 0
-6629 91 0
-6629 120 0
-6629 244 0
-6630 31 0
-6630 91 0
-6630 145 0
-6630 196 0
-6631 31 0
-6631 91 0
-6631 154 0
-6631 187 0
-6632 31 0
-6632 100 0
-6632 120 0
-6633 31 0
-6633 100 0
-6633 136 0
-6633 196 0
-6634 31 0
-6634 100 0
-6634 154 0
-6634 178 0
-6635 31 0
-6635 109 0
-6635 120 0
-6635 226 0
-6636 31 0
-6636 109 0
-6636 136 0
-6636 187 0
-6637 31 0
-6637 109 0
-6637 145 0
-6637 178 0
-6638 40 0
-6638 64 0
-6638 169 0
-6638 244 0
-6639 40 0
-6639 64 0
-6639 187 0
-6639 217 0
-6640 40 0
-6640 64 0
-6640 196 0
-6641 40 0
-6641 127 0
-6641 244 0
-6642 40 0
-6642 145 0
-6642 217 0
-6643 40 0
-6643 154 0
-6644 40 0
-6644 82 0
-6644 120 0
-6644 244 0
-6645 40 0
-6645 82 0
-6645 145 0
-6645 196 0
-6646 40 0
-6646 82 0
-6646 154 0
-6646 187 0
-6647 40 0
-6647 100 0
-6647 120 0
-6647 217 0
-6648 40 0
-6648 100 0
-6648 127 0
-6648 196 0
-6649 40 0
-6649 100 0
-6649 154 0
-6649 169 0
-6650 40 0
-6650 109 0
-6650 120 0
-6651 40 0
-6651 109 0
-6651 127 0
-6651 187 0
-6652 40 0
-6652 109 0
-6652 145 0
-6652 169 0
-6653 49 0
-6653 64 0
-6653 169 0
-6654 49 0
-6654 64 0
-6654 178 0
-6654 217 0
-6655 49 0
-6655 64 0
-6655 196 0
-6655 199 0
-6656 49 0
-6656 127 0
-6657 49 0
-6657 136 0
-6657 217 0
-6658 49 0
-6658 154 0
-6658 199 0
-6659 49 0
-6659 82 0
-6659 120 0
-6660 49 0
-6660 82 0
-6660 136 0
-6660 196 0
-6661 49 0
-6661 82 0
-6661 154 0
-6661 178 0
-6662 49 0
-6662 91 0
-6662 120 0
-6662 217 0
-6663 49 0
-6663 91 0
-6663 127 0
-6663 196 0
-6664 49 0
-6664 91 0
-6664 154 0
-6664 169 0
-6665 49 0
-6665 109 0
-6665 120 0
-6665 199 0
-6666 49 0
-6666 109 0
-6666 127 0
-6666 178 0
-6667 49 0
-6667 109 0
-6667 136 0
-6667 169 0
-6668 58 0
-6668 64 0
-6668 169 0
-6668 226 0
-6669 58 0
-6669 64 0
-6669 178 0
-6670 58 0
-6670 64 0
-6670 187 0
-6670 199 0
-6671 58 0
-6671 127 0
-6671 226 0
-6672 58 0
-6672 136 0
-6673 58 0
-6673 145 0
-6673 199 0
-6674 58 0
-6674 82 0
-6674 120 0
-6674 226 0
-6675 58 0
-6675 82 0
-6675 136 0
-6675 187 0
-6676 58 0
-6676 82 0
-6676 145 0
-6676 178 0
-6677 58 0
-6677 91 0
-6677 120 0
-6678 58 0
-6678 91 0
-6678 127 0
-6678 187 0
-6679 58 0
-6679 91 0
-6679 145 0
-6679 169 0
-6680 58 0
-6680 100 0
-6680 120 0
-6680 199 0
-6681 58 0
-6681 100 0
-6681 127 0
-6681 178 0
-6682 58 0
-6682 100 0
-6682 136 0
-6682 169 0
-13 -75 -208 -235 6579 6580 6581 6582 6583 6584 6585 6586 6587 6588 6589 6590 6591 6592 6593 6594 6595 6596 6597 6598 6599 6600 6601 6602 6603 6604 6605 6606 6607 6608 6609 6610 6611 6612 6613 6614 6615 6616 6617 6618 6619 6620 6621 6622 6623 6624 6625 6626 6627 6628 6629 6630 6631 6632 6633 6634 6635 6636 6637 6638 6639 6640 6641 6642 6643 6644 6645 6646 6647 6648 6649 6650 6651 6652 6653 6654 6655 6656 6657 6658 6659 6660 6661 6662 6663 6664 6665 6666 6667 6668 6669 6670 6671 6672 6673 6674 6675 6676 6677 6678 6679 6680 6681 6682 0
-6683 125 0
-6683 202 0
-6683 247 0
-6684 125 0
-6684 212 0
-6685 125 0
-6685 220 0
-6685 227 0
-6686 134 0
-6686 175 0
-6686 247 0
-6687 134 0
-6687 185 0
-6688 134 0
-6688 193 0
-6688 227 0
-6689 142 0
-6689 247 0
-6690 142 0
-6690 185 0
-6690 220 0
-6691 142 0
-6691 193 0
-6691 212 0
-6692 175 0
-6692 220 0
-6693 193 0
-6693 202 0
-6694 160 0
-6694 227 0
-6695 160 0
-6695 175 0
-6695 212 0
-6696 160 0
-6696 185 0
-6696 202 0
-6697 12 0
-6697 74 0
-6697 202 0
-6697 247 0
-6698 12 0
-6698 74 0
-6698 212 0
-6699 12 0
-6699 74 0
-6699 220 0
-6699 227 0
-6700 12 0
-6700 83 0
-6700 175 0
-6700 247 0
-6701 12 0
-6701 83 0
-6701 185 0
-6702 12 0
-6702 83 0
-6702 193 0
-6702 227 0
-6703 12 0
-6703 91 0
-6703 247 0
-6704 12 0
-6704 91 0
-6704 185 0
-6704 220 0
-6705 12 0
-6705 91 0
-6705 193 0
-6705 212 0
-6706 12 0
-6706 101 0
-6707 12 0
-6707 101 0
-6707 175 0
-6707 220 0
-6708 12 0
-6708 101 0
-6708 193 0
-6708 202 0
-6709 12 0
-6709 109 0
-6709 227 0
-6710 12 0
-6710 109 0
-6710 175 0
-6710 212 0
-6711 12 0
-6711 109 0
-6711 185 0
-6711 202 0
-6712 20 0
-6712 66 0
-6712 202 0
-6712 247 0
-6713 20 0
-6713 66 0
-6713 212 0
-6714 20 0
-6714 66 0
-6714 220 0
-6714 227 0
-6715 20 0
-6715 83 0
-6715 142 0
-6715 247 0
-6716 20 0
-6716 83 0
-6717 20 0
-6717 83 0
-6717 160 0
-6717 227 0
-6718 20 0
-6718 91 0
-6718 134 0
-6718 247 0
-6719 20 0
-6719 91 0
-6719 220 0
-6720 20 0
-6720 91 0
-6720 160 0
-6720 212 0
-6721 20 0
-6721 101 0
-6721 134 0
-6722 20 0
-6722 101 0
-6722 142 0
-6722 220 0
-6723 20 0
-6723 101 0
-6723 160 0
-6723 202 0
-6724 20 0
-6724 109 0
-6724 134 0
-6724 227 0
-6725 20 0
-6725 109 0
-6725 142 0
-6725 212 0
-6726 20 0
-6726 109 0
-6726 202 0
-6727 29 0
-6727 66 0
-6727 175 0
-6727 247 0
-6728 29 0
-6728 66 0
-6728 185 0
-6729 29 0
-6729 66 0
-6729 193 0
-6729 227 0
-6730 29 0
-6730 74 0
-6730 142 0
-6730 247 0
-6731 29 0
-6731 74 0
-6732 29 0
-6732 74 0
-6732 160 0
-6732 227 0
-6733 29 0
-6733 91 0
-6733 125 0
-6733 247 0
-6734 29 0
-6734 91 0
-6734 193 0
-6735 29 0
-6735 91 0
-6735 160 0
-6735 185 0
-6736 29 0
-6736 101 0
-6736 125 0
-6737 29 0
-6737 101 0
-6737 142 0
-6737 193 0
-6738 29 0
-6738 101 0
-6738 160 0
-6738 175 0
-6739 29 0
-6739 109 0
-6739 125 0
-6739 227 0
-6740 29 0
-6740 109 0
-6740 142 0
-6740 185 0
-6741 29 0
-6741 109 0
-6741 175 0
-6742 37 0
-6742 66 0
-6742 247 0
-6743 37 0
-6743 66 0
-6743 185 0
-6743 220 0
-6744 37 0
-6744 66 0
-6744 193 0
-6744 212 0
-6745 37 0
-6745 74 0
-6745 134 0
-6745 247 0
-6746 37 0
-6746 74 0
-6746 220 0
-6747 37 0
-6747 74 0
-6747 160 0
-6747 212 0
-6748 37 0
-6748 83 0
-6748 125 0
-6748 247 0
-6749 37 0
-6749 83 0
-6749 193 0
-6750 37 0
-6750 83 0
-6750 160 0
-6750 185 0
-6751 37 0
-6751 101 0
-6751 125 0
-6751 220 0
-6752 37 0
-6752 101 0
-6752 134 0
-6752 193 0
-6753 37 0
-6753 101 0
-6753 160 0
-6754 37 0
-6754 109 0
-6754 125 0
-6754 212 0
-6755 37 0
-6755 109 0
-6755 134 0
-6755 185 0
-6756 37 0
-6756 109 0
-6757 47 0
-6757 66 0
-6758 47 0
-6758 66 0
-6758 175 0
-6758 220 0
-6759 47 0
-6759 66 0
-6759 193 0
-6759 202 0
-6760 47 0
-6760 74 0
-6760 134 0
-6761 47 0
-6761 74 0
-6761 142 0
-6761 220 0
-6762 47 0
-6762 74 0
-6762 160 0
-6762 202 0
-6763 47 0
-6763 83 0
-6763 125 0
-6764 47 0
-6764 83 0
-6764 142 0
-6764 193 0
-6765 47 0
-6765 83 0
-6765 160 0
-6765 175 0
-6766 47 0
-6766 91 0
-6766 125 0
-6766 220 0
-6767 47 0
-6767 91 0
-6767 134 0
-6767 193 0
-6768 47 0
-6768 91 0
-6768 160 0
-6769 47 0
-6769 109 0
-6769 125 0
-6769 202 0
-6770 47 0
-6770 109 0
-6770 134 0
-6770 175 0
-6771 47 0
-6771 109 0
-6771 142 0
-6772 55 0
-6772 66 0
-6772 227 0
-6773 55 0
-6773 66 0
-6773 175 0
-6773 212 0
-6774 55 0
-6774 66 0
-6774 185 0
-6774 202 0
-6775 55 0
-6775 74 0
-6775 134 0
-6775 227 0
-6776 55 0
-6776 74 0
-6776 142 0
-6776 212 0
-6777 55 0
-6777 74 0
-6777 202 0
-6778 55 0
-6778 83 0
-6778 125 0
-6778 227 0
-6779 55 0
-6779 83 0
-6779 142 0
-6779 185 0
-6780 55 0
-6780 83 0
-6780 175 0
-6781 55 0
-6781 91 0
-6781 125 0
-6781 212 0
-6782 55 0
-6782 91 0
-6782 134 0
-6782 185 0
-6783 55 0
-6783 91 0
-6784 55 0
-6784 101 0
-6784 125 0
-6784 202 0
-6785 55 0
-6785 101 0
-6785 134 0
-6785 175 0
-6786 55 0
-6786 101 0
-6786 142 0
-1 -152 -167 -235 6683 6684 6685 6686 6687 6688 6689 6690 6691 6692 6693 6694 6695 6696 6697 6698 6699 6700 6701 6702 6703 6704 6705 6706 6707 6708 6709 6710 6711 6712 6713 6714 6715 6716 6717 6718 6719 6720 6721 6722 6723 6724 6725 6726 6727 6728 6729 6730 6731 6732 6733 6734 6735 6736 6737 6738 6739 6740 6741 6742 6743 6744 6745 6746 6747 6748 6749 6750 6751 6752 6753 6754 6755 6756 6757 6758 6759 6760 6761 6762 6763 6764 6765 6766 6767 6768 6769 6770 6771 6772 6773 6774 6775 6776 6777 6778 6779 6780 6781 6782 6783 6784 6785 6786 0
-6787 125 0
-6787 202 0
-6787 244 0
-6788 125 0
-6788 211 0
-6789 125 0
-6789 220 0
-6789 226 0
-6790 134 0
-6790 175 0
-6790 244 0
-6791 134 0
-6791 184 0
-6792 134 0
-6792 193 0
-6792 226 0
-6793 142 0
-6793 244 0
-6794 142 0
-6794 184 0
-6794 220 0
-6795 142 0
-6795 193 0
-6795 211 0
-6796 175 0
-6796 220 0
-6797 193 0
-6797 202 0
-6798 160 0
-6798 226 0
-6799 160 0
-6799 175 0
-6799 211 0
-6800 160 0
-6800 184 0
-6800 202 0
-6801 12 0
-6801 74 0
-6801 202 0
-6801 244 0
-6802 12 0
-6802 74 0
-6802 211 0
-6803 12 0
-6803 74 0
-6803 220 0
-6803 226 0
-6804 12 0
-6804 83 0
-6804 175 0
-6804 244 0
-6805 12 0
-6805 83 0
-6805 184 0
-6806 12 0
-6806 83 0
-6806 193 0
-6806 226 0
-6807 12 0
-6807 91 0
-6807 244 0
-6808 12 0
-6808 91 0
-6808 184 0
-6808 220 0
-6809 12 0
-6809 91 0
-6809 193 0
-6809 211 0
-6810 12 0
-6810 100 0
-6811 12 0
-6811 100 0
-6811 175 0
-6811 220 0
-6812 12 0
-6812 100 0
-6812 193 0
-6812 202 0
-6813 12 0
-6813 109 0
-6813 226 0
-6814 12 0
-6814 109 0
-6814 175 0
-6814 211 0
-6815 12 0
-6815 109 0
-6815 184 0
-6815 202 0
-6816 20 0
-6816 66 0
-6816 202 0
-6816 244 0
-6817 20 0
-6817 66 0
-6817 211 0
-6818 20 0
-6818 66 0
-6818 220 0
-6818 226 0
-6819 20 0
-6819 83 0
-6819 142 0
-6819 244 0
-6820 20 0
-6820 83 0
-6821 20 0
-6821 83 0
-6821 160 0
-6821 226 0
-6822 20 0
-6822 91 0
-6822 134 0
-6822 244 0
-6823 20 0
-6823 91 0
-6823 220 0
-6824 20 0
-6824 91 0
-6824 160 0
-6824 211 0
-6825 20 0
-6825 100 0
-6825 134 0
-6826 20 0
-6826 100 0
-6826 142 0
-6826 220 0
-6827 20 0
-6827 100 0
-6827 160 0
-6827 202 0
-6828 20 0
-6828 109 0
-6828 134 0
-6828 226 0
-6829 20 0
-6829 109 0
-6829 142 0
-6829 211 0
-6830 20 0
-6830 109 0
-6830 202 0
-6831 29 0
-6831 66 0
-6831 175 0
-6831 244 0
-6832 29 0
-6832 66 0
-6832 184 0
-6833 29 0
-6833 66 0
-6833 193 0
-6833 226 0
-6834 29 0
-6834 74 0
-6834 142 0
-6834 244 0
-6835 29 0
-6835 74 0
-6836 29 0
-6836 74 0
-6836 160 0
-6836 226 0
-6837 29 0
-6837 91 0
-6837 125 0
-6837 244 0
-6838 29 0
-6838 91 0
-6838 193 0
-6839 29 0
-6839 91 0
-6839 160 0
-6839 184 0
-6840 29 0
-6840 100 0
-6840 125 0
-6841 29 0
-6841 100 0
-6841 142 0
-6841 193 0
-6842 29 0
-6842 100 0
-6842 160 0
-6842 175 0
-6843 29 0
-6843 109 0
-6843 125 0
-6843 226 0
-6844 29 0
-6844 109 0
-6844 142 0
-6844 184 0
-6845 29 0
-6845 109 0
-6845 175 0
-6846 37 0
-6846 66 0
-6846 244 0
-6847 37 0
-6847 66 0
-6847 184 0
-6847 220 0
-6848 37 0
-6848 66 0
-6848 193 0
-6848 211 0
-6849 37 0
-6849 74 0
-6849 134 0
-6849 244 0
-6850 37 0
-6850 74 0
-6850 220 0
-6851 37 0
-6851 74 0
-6851 160 0
-6851 211 0
-6852 37 0
-6852 83 0
-6852 125 0
-6852 244 0
-6853 37 0
-6853 83 0
-6853 193 0
-6854 37 0
-6854 83 0
-6854 160 0
-6854 184 0
-6855 37 0
-6855 100 0
-6855 125 0
-6855 220 0
-6856 37 0
-6856 100 0
-6856 134 0
-6856 193 0
-6857 37 0
-6857 100 0
-6857 160 0
-6858 37 0
-6858 109 0
-6858 125 0
-6858 211 0
-6859 37 0
-6859 109 0
-6859 134 0
-6859 184 0
-6860 37 0
-6860 109 0
-6861 46 0
-6861 66 0
-6862 46 0
-6862 66 0
-6862 175 0
-6862 220 0
-6863 46 0
-6863 66 0
-6863 193 0
-6863 202 0
-6864 46 0
-6864 74 0
-6864 134 0
-6865 46 0
-6865 74 0
-6865 142 0
-6865 220 0
-6866 46 0
-6866 74 0
-6866 160 0
-6866 202 0
-6867 46 0
-6867 83 0
-6867 125 0
-6868 46 0
-6868 83 0
-6868 142 0
-6868 193 0
-6869 46 0
-6869 83 0
-6869 160 0
-6869 175 0
-6870 46 0
-6870 91 0
-6870 125 0
-6870 220 0
-6871 46 0
-6871 91 0
-6871 134 0
-6871 193 0
-6872 46 0
-6872 91 0
-6872 160 0
-6873 46 0
-6873 109 0
-6873 125 0
-6873 202 0
-6874 46 0
-6874 109 0
-6874 134 0
-6874 175 0
-6875 46 0
-6875 109 0
-6875 142 0
-6876 55 0
-6876 66 0
-6876 226 0
-6877 55 0
-6877 66 0
-6877 175 0
-6877 211 0
-6878 55 0
-6878 66 0
-6878 184 0
-6878 202 0
-6879 55 0
-6879 74 0
-6879 134 0
-6879 226 0
-6880 55 0
-6880 74 0
-6880 142 0
-6880 211 0
-6881 55 0
-6881 74 0
-6881 202 0
-6882 55 0
-6882 83 0
-6882 125 0
-6882 226 0
-6883 55 0
-6883 83 0
-6883 142 0
-6883 184 0
-6884 55 0
-6884 83 0
-6884 175 0
-6885 55 0
-6885 91 0
-6885 125 0
-6885 211 0
-6886 55 0
-6886 91 0
-6886 134 0
-6886 184 0
-6887 55 0
-6887 91 0
-6888 55 0
-6888 100 0
-6888 125 0
-6888 202 0
-6889 55 0
-6889 100 0
-6889 134 0
-6889 175 0
-6890 55 0
-6890 100 0
-6890 142 0
-1 -151 -167 -235 6787 6788 6789 6790 6791 6792 6793 6794 6795 6796 6797 6798 6799 6800 6801 6802 6803 6804 6805 6806 6807 6808 6809 6810 6811 6812 6813 6814 6815 6816 6817 6818 6819 6820 6821 6822 6823 6824 6825 6826 6827 6828 6829 6830 6831 6832 6833 6834 6835 6836 6837 6838 6839 6840 6841 6842 6843 6844 6845 6846 6847 6848 6849 6850 6851 6852 6853 6854 6855 6856 6857 6858 6859 6860 6861 6862 6863 6864 6865 6866 6867 6868 6869 6870 6871 6872 6873 6874 6875 6876 6877 6878 6879 6880 6881 6882 6883 6884 6885 6886 6887 6888 6889 6890 0
-6891 122 0
-6891 200 0
-6892 122 0
-6892 209 0
-6892 239 0
-6893 122 0
-6893 218 0
-6893 230 0
-6894 185 0
-6894 239 0
-6895 194 0
-6895 230 0
-6896 140 0
-6896 166 0
-6897 140 0
-6897 185 0
-6897 218 0
-6898 140 0
-6898 194 0
-6898 209 0
-6899 149 0
-6899 166 0
-6899 239 0
-6900 149 0
-6900 218 0
-6901 149 0
-6901 194 0
-6901 200 0
-6902 158 0
-6902 166 0
-6902 230 0
-6903 158 0
-6903 209 0
-6904 158 0
-6904 185 0
-6904 200 0
-6905 11 0
-6905 74 0
-6905 200 0
-6906 11 0
-6906 74 0
-6906 209 0
-6906 239 0
-6907 11 0
-6907 74 0
-6907 218 0
-6907 230 0
-6908 11 0
-6908 82 0
-6909 11 0
-6909 82 0
-6909 185 0
-6909 239 0
-6910 11 0
-6910 82 0
-6910 194 0
-6910 230 0
-6911 11 0
-6911 92 0
-6911 166 0
-6912 11 0
-6912 92 0
-6912 185 0
-6912 218 0
-6913 11 0
-6913 92 0
-6913 194 0
-6913 209 0
-6914 11 0
-6914 101 0
-6914 166 0
-6914 239 0
-6915 11 0
-6915 101 0
-6915 218 0
-6916 11 0
-6916 101 0
-6916 194 0
-6916 200 0
-6917 11 0
-6917 110 0
-6917 166 0
-6917 230 0
-6918 11 0
-6918 110 0
-6918 209 0
-6919 11 0
-6919 110 0
-6919 185 0
-6919 200 0
-6920 20 0
-6920 65 0
-6920 200 0
-6921 20 0
-6921 65 0
-6921 209 0
-6921 239 0
-6922 20 0
-6922 65 0
-6922 218 0
-6922 230 0
-6923 20 0
-6923 82 0
-6923 140 0
-6924 20 0
-6924 82 0
-6924 149 0
-6924 239 0
-6925 20 0
-6925 82 0
-6925 158 0
-6925 230 0
-6926 20 0
-6926 92 0
-6927 20 0
-6927 92 0
-6927 149 0
-6927 218 0
-6928 20 0
-6928 92 0
-6928 158 0
-6928 209 0
-6929 20 0
-6929 101 0
-6929 239 0
-6930 20 0
-6930 101 0
-6930 140 0
-6930 218 0
-6931 20 0
-6931 101 0
-6931 158 0
-6931 200 0
-6932 20 0
-6932 110 0
-6932 230 0
-6933 20 0
-6933 110 0
-6933 140 0
-6933 209 0
-6934 20 0
-6934 110 0
-6934 149 0
-6934 200 0
-6935 28 0
-6935 65 0
-6936 28 0
-6936 65 0
-6936 185 0
-6936 239 0
-6937 28 0
-6937 65 0
-6937 194 0
-6937 230 0
-6938 28 0
-6938 74 0
-6938 140 0
-6939 28 0
-6939 74 0
-6939 149 0
-6939 239 0
-6940 28 0
-6940 74 0
-6940 158 0
-6940 230 0
-6941 28 0
-6941 92 0
-6941 122 0
-6942 28 0
-6942 92 0
-6942 149 0
-6942 194 0
-6943 28 0
-6943 92 0
-6943 158 0
-6943 185 0
-6944 28 0
-6944 101 0
-6944 122 0
-6944 239 0
-6945 28 0
-6945 101 0
-6945 140 0
-6945 194 0
-6946 28 0
-6946 101 0
-6946 158 0
-6947 28 0
-6947 110 0
-6947 122 0
-6947 230 0
-6948 28 0
-6948 110 0
-6948 140 0
-6948 185 0
-6949 28 0
-6949 110 0
-6949 149 0
-6950 38 0
-6950 65 0
-6950 166 0
-6951 38 0
-6951 65 0
-6951 185 0
-6951 218 0
-6952 38 0
-6952 65 0
-6952 194 0
-6952 209 0
-6953 38 0
-6953 74 0
-6954 38 0
-6954 74 0
-6954 149 0
-6954 218 0
-6955 38 0
-6955 74 0
-6955 158 0
-6955 209 0
-6956 38 0
-6956 82 0
-6956 122 0
-6957 38 0
-6957 82 0
-6957 149 0
-6957 194 0
-6958 38 0
-6958 82 0
-6958 158 0
-6958 185 0
-6959 38 0
-6959 101 0
-6959 122 0
-6959 218 0
-6960 38 0
-6960 101 0
-6960 194 0
-6961 38 0
-6961 101 0
-6961 158 0
-6961 166 0
-6962 38 0
-6962 110 0
-6962 122 0
-6962 209 0
-6963 38 0
-6963 110 0
-6963 185 0
-6964 38 0
-6964 110 0
-6964 149 0
-6964 166 0
-6965 47 0
-6965 65 0
-6965 166 0
-6965 239 0
-6966 47 0
-6966 65 0
-6966 218 0
-6967 47 0
-6967 65 0
-6967 194 0
-6967 200 0
-6968 47 0
-6968 74 0
-6968 239 0
-6969 47 0
-6969 74 0
-6969 140 0
-6969 218 0
-6970 47 0
-6970 74 0
-6970 158 0
-6970 200 0
-6971 47 0
-6971 82 0
-6971 122 0
-6971 239 0
-6972 47 0
-6972 82 0
-6972 140 0
-6972 194 0
-6973 47 0
-6973 82 0
-6973 158 0
-6974 47 0
-6974 92 0
-6974 122 0
-6974 218 0
-6975 47 0
-6975 92 0
-6975 194 0
-6976 47 0
-6976 92 0
-6976 158 0
-6976 166 0
-6977 47 0
-6977 110 0
-6977 122 0
-6977 200 0
-6978 47 0
-6978 110 0
-6979 47 0
-6979 110 0
-6979 140 0
-6979 166 0
-6980 56 0
-6980 65 0
-6980 166 0
-6980 230 0
-6981 56 0
-6981 65 0
-6981 209 0
-6982 56 0
-6982 65 0
-6982 185 0
-6982 200 0
-6983 56 0
-6983 74 0
-6983 230 0
-6984 56 0
-6984 74 0
-6984 140 0
-6984 209 0
-6985 56 0
-6985 74 0
-6985 149 0
-6985 200 0
-6986 56 0
-6986 82 0
-6986 122 0
-6986 230 0
-6987 56 0
-6987 82 0
-6987 140 0
-6987 185 0
-6988 56 0
-6988 82 0
-6988 149 0
-6989 56 0
-6989 92 0
-6989 122 0
-6989 209 0
-6990 56 0
-6990 92 0
-6990 185 0
-6991 56 0
-6991 92 0
-6991 149 0
-6991 166 0
-6992 56 0
-6992 101 0
-6992 122 0
-6992 200 0
-6993 56 0
-6993 101 0
-6994 56 0
-6994 101 0
-6994 140 0
-6994 166 0
-1 -130 -176 -248 6891 6892 6893 6894 6895 6896 6897 6898 6899 6900 6901 6902 6903 6904 6905 6906 6907 6908 6909 6910 6911 6912 6913 6914 6915 6916 6917 6918 6919 6920 6921 6922 6923 6924 6925 6926 6927 6928 6929 6930 6931 6932 6933 6934 6935 6936 6937 6938 6939 6940 6941 6942 6943 6944 6945 6946 6947 6948 6949 6950 6951 6952 6953 6954 6955 6956 6957 6958 6959 6960 6961 6962 6963 6964 6965 6966 6967 6968 6969 6970 6971 6972 6973 6974 6975 6976 6977 6978 6979 6980 6981 6982 6983 6984 6985 6986 6987 6988 6989 6990 6991 6992 6993 6994 0
-6995 215 0
-6995 239 0
-6996 224 0
-6996 230 0
-6997 129 0
-6997 173 0
-6998 129 0
-6998 182 0
-6998 239 0
-6999 129 0
-6999 191 0
-6999 230 0
-7000 137 0
-7000 165 0
-7001 137 0
-7001 182 0
-7001 224 0
-7002 137 0
-7002 191 0
-7002 215 0
-7003 146 0
-7003 165 0
-7003 239 0
-7004 146 0
-7004 173 0
-7004 224 0
-7005 146 0
-7005 191 0
-7006 155 0
-7006 165 0
-7006 230 0
-7007 155 0
-7007 173 0
-7007 215 0
-7008 155 0
-7008 182 0
-7009 10 0
-7009 73 0
-7010 10 0
-7010 73 0
-7010 215 0
-7010 239 0
-7011 10 0
-7011 73 0
-7011 224 0
-7011 230 0
-7012 10 0
-7012 84 0
-7012 173 0
-7013 10 0
-7013 84 0
-7013 182 0
-7013 239 0
-7014 10 0
-7014 84 0
-7014 191 0
-7014 230 0
-7015 10 0
-7015 92 0
-7015 165 0
-7016 10 0
-7016 92 0
-7016 182 0
-7016 224 0
-7017 10 0
-7017 92 0
-7017 191 0
-7017 215 0
-7018 10 0
-7018 101 0
-7018 165 0
-7018 239 0
-7019 10 0
-7019 101 0
-7019 173 0
-7019 224 0
-7020 10 0
-7020 101 0
-7020 191 0
-7021 10 0
-7021 110 0
-7021 165 0
-7021 230 0
-7022 10 0
-7022 110 0
-7022 173 0
-7022 215 0
-7023 10 0
-7023 110 0
-7023 182 0
-7024 19 0
-7024 64 0
-7025 19 0
-7025 64 0
-7025 215 0
-7025 239 0
-7026 19 0
-7026 64 0
-7026 224 0
-7026 230 0
-7027 19 0
-7027 84 0
-7027 137 0
-7028 19 0
-7028 84 0
-7028 146 0
-7028 239 0
-7029 19 0
-7029 84 0
-7029 155 0
-7029 230 0
-7030 19 0
-7030 92 0
-7030 129 0
-7031 19 0
-7031 92 0
-7031 146 0
-7031 224 0
-7032 19 0
-7032 92 0
-7032 155 0
-7032 215 0
-7033 19 0
-7033 101 0
-7033 129 0
-7033 239 0
-7034 19 0
-7034 101 0
-7034 137 0
-7034 224 0
-7035 19 0
-7035 101 0
-7035 155 0
-7036 19 0
-7036 110 0
-7036 129 0
-7036 230 0
-7037 19 0
-7037 110 0
-7037 137 0
-7037 215 0
-7038 19 0
-7038 110 0
-7038 146 0
-7039 30 0
-7039 64 0
-7039 173 0
-7040 30 0
-7040 64 0
-7040 182 0
-7040 239 0
-7041 30 0
-7041 64 0
-7041 191 0
-7041 230 0
-7042 30 0
-7042 73 0
-7042 137 0
-7043 30 0
-7043 73 0
-7043 146 0
-7043 239 0
-7044 30 0
-7044 73 0
-7044 155 0
-7044 230 0
-7045 30 0
-7045 92 0
-7046 30 0
-7046 92 0
-7046 146 0
-7046 191 0
-7047 30 0
-7047 92 0
-7047 155 0
-7047 182 0
-7048 30 0
-7048 101 0
-7048 239 0
-7049 30 0
-7049 101 0
-7049 137 0
-7049 191 0
-7050 30 0
-7050 101 0
-7050 155 0
-7050 173 0
-7051 30 0
-7051 110 0
-7051 230 0
-7052 30 0
-7052 110 0
-7052 137 0
-7052 182 0
-7053 30 0
-7053 110 0
-7053 146 0
-7053 173 0
-7054 38 0
-7054 64 0
-7054 165 0
-7055 38 0
-7055 64 0
-7055 182 0
-7055 224 0
-7056 38 0
-7056 64 0
-7056 191 0
-7056 215 0
-7057 38 0
-7057 73 0
-7057 129 0
-7058 38 0
-7058 73 0
-7058 146 0
-7058 224 0
-7059 38 0
-7059 73 0
-7059 155 0
-7059 215 0
-7060 38 0
-7060 84 0
-7061 38 0
-7061 84 0
-7061 146 0
-7061 191 0
-7062 38 0
-7062 84 0
-7062 155 0
-7062 182 0
-7063 38 0
-7063 101 0
-7063 224 0
-7064 38 0
-7064 101 0
-7064 129 0
-7064 191 0
-7065 38 0
-7065 101 0
-7065 155 0
-7065 165 0
-7066 38 0
-7066 110 0
-7066 215 0
-7067 38 0
-7067 110 0
-7067 129 0
-7067 182 0
-7068 38 0
-7068 110 0
-7068 146 0
-7068 165 0
-7069 47 0
-7069 64 0
-7069 165 0
-7069 239 0
-7070 47 0
-7070 64 0
-7070 173 0
-7070 224 0
-7071 47 0
-7071 64 0
-7071 191 0
-7072 47 0
-7072 73 0
-7072 129 0
-7072 239 0
-7073 47 0
-7073 73 0
-7073 137 0
-7073 224 0
-7074 47 0
-7074 73 0
-7074 155 0
-7075 47 0
-7075 84 0
-7075 239 0
-7076 47 0
-7076 84 0
-7076 137 0
-7076 191 0
-7077 47 0
-7077 84 0
-7077 155 0
-7077 173 0
-7078 47 0
-7078 92 0
-7078 224 0
-7079 47 0
-7079 92 0
-7079 129 0
-7079 191 0
-7080 47 0
-7080 92 0
-7080 155 0
-7080 165 0
-7081 47 0
-7081 110 0
-7082 47 0
-7082 110 0
-7082 129 0
-7082 173 0
-7083 47 0
-7083 110 0
-7083 137 0
-7083 165 0
-7084 56 0
-7084 64 0
-7084 165 0
-7084 230 0
-7085 56 0
-7085 64 0
-7085 173 0
-7085 215 0
-7086 56 0
-7086 64 0
-7086 182 0
-7087 56 0
-7087 73 0
-7087 129 0
-7087 230 0
-7088 56 0
-7088 73 0
-7088 137 0
-7088 215 0
-7089 56 0
-7089 73 0
-7089 146 0
-7090 56 0
-7090 84 0
-7090 230 0
-7091 56 0
-7091 84 0
-7091 137 0
-7091 182 0
-7092 56 0
-7092 84 0
-7092 146 0
-7092 173 0
-7093 56 0
-7093 92 0
-7093 215 0
-7094 56 0
-7094 92 0
-7094 129 0
-7094 182 0
-7095 56 0
-7095 92 0
-7095 146 0
-7095 165 0
-7096 56 0
-7096 101 0
-7097 56 0
-7097 101 0
-7097 129 0
-7097 173 0
-7098 56 0
-7098 101 0
-7098 137 0
-7098 165 0
-1 -118 -206 -248 6995 6996 6997 6998 6999 7000 7001 7002 7003 7004 7005 7006 7007 7008 7009 7010 7011 7012 7013 7014 7015 7016 7017 7018 7019 7020 7021 7022 7023 7024 7025 7026 7027 7028 7029 7030 7031 7032 7033 7034 7035 7036 7037 7038 7039 7040 7041 7042 7043 7044 7045 7046 7047 7048 7049 7050 7051 7052 7053 7054 7055 7056 7057 7058 7059 7060 7061 7062 7063 7064 7065 7066 7067 7068 7069 7070 7071 7072 7073 7074 7075 7076 7077 7078 7079 7080 7081 7082 7083 7084 7085 7086 7087 7088 7089 7090 7091 7092 7093 7094 7095 7096 7097 7098 0
-7099 202 0
-7099 250 0
-7100 220 0
-7100 228 0
-7101 128 0
-7101 172 0
-7101 250 0
-7102 128 0
-7102 183 0
-7103 128 0
-7103 190 0
-7103 228 0
-7104 136 0
-7104 164 0
-7104 250 0
-7105 136 0
-7105 183 0
-7105 220 0
-7106 136 0
-7106 190 0
-7107 147 0
-7107 164 0
-7108 147 0
-7108 172 0
-7108 220 0
-7109 147 0
-7109 190 0
-7109 202 0
-7110 154 0
-7110 164 0
-7110 228 0
-7111 154 0
-7111 172 0
-7112 154 0
-7112 183 0
-7112 202 0
-7113 10 0
-7113 73 0
-7113 202 0
-7113 250 0
-7114 10 0
-7114 73 0
-7115 10 0
-7115 73 0
-7115 220 0
-7115 228 0
-7116 10 0
-7116 83 0
-7116 172 0
-7116 250 0
-7117 10 0
-7117 83 0
-7117 183 0
-7118 10 0
-7118 83 0
-7118 190 0
-7118 228 0
-7119 10 0
-7119 91 0
-7119 164 0
-7119 250 0
-7120 10 0
-7120 91 0
-7120 183 0
-7120 220 0
-7121 10 0
-7121 91 0
-7121 190 0
-7122 10 0
-7122 102 0
-7122 164 0
-7123 10 0
-7123 102 0
-7123 172 0
-7123 220 0
-7124 10 0
-7124 102 0
-7124 190 0
-7124 202 0
-7125 10 0
-7125 109 0
-7125 164 0
-7125 228 0
-7126 10 0
-7126 109 0
-7126 172 0
-7127 10 0
-7127 109 0
-7127 183 0
-7127 202 0
-7128 19 0
-7128 64 0
-7128 202 0
-7128 250 0
-7129 19 0
-7129 64 0
-7130 19 0
-7130 64 0
-7130 220 0
-7130 228 0
-7131 19 0
-7131 83 0
-7131 136 0
-7131 250 0
-7132 19 0
-7132 83 0
-7132 147 0
-7133 19 0
-7133 83 0
-7133 154 0
-7133 228 0
-7134 19 0
-7134 91 0
-7134 128 0
-7134 250 0
-7135 19 0
-7135 91 0
-7135 147 0
-7135 220 0
-7136 19 0
-7136 91 0
-7136 154 0
-7137 19 0
-7137 102 0
-7137 128 0
-7138 19 0
-7138 102 0
-7138 136 0
-7138 220 0
-7139 19 0
-7139 102 0
-7139 154 0
-7139 202 0
-7140 19 0
-7140 109 0
-7140 128 0
-7140 228 0
-7141 19 0
-7141 109 0
-7141 136 0
-7142 19 0
-7142 109 0
-7142 147 0
-7142 202 0
-7143 29 0
-7143 64 0
-7143 172 0
-7143 250 0
-7144 29 0
-7144 64 0
-7144 183 0
-7145 29 0
-7145 64 0
-7145 190 0
-7145 228 0
-7146 29 0
-7146 73 0
-7146 136 0
-7146 250 0
-7147 29 0
-7147 73 0
-7147 147 0
-7148 29 0
-7148 73 0
-7148 154 0
-7148 228 0
-7149 29 0
-7149 91 0
-7149 250 0
-7150 29 0
-7150 91 0
-7150 147 0
-7150 190 0
-7151 29 0
-7151 91 0
-7151 154 0
-7151 183 0
-7152 29 0
-7152 102 0
-7153 29 0
-7153 102 0
-7153 136 0
-7153 190 0
-7154 29 0
-7154 102 0
-7154 154 0
-7154 172 0
-7155 29 0
-7155 109 0
-7155 228 0
-7156 29 0
-7156 109 0
-7156 136 0
-7156 183 0
-7157 29 0
-7157 109 0
-7157 147 0
-7157 172 0
-7158 37 0
-7158 64 0
-7158 164 0
-7158 250 0
-7159 37 0
-7159 64 0
-7159 183 0
-7159 220 0
-7160 37 0
-7160 64 0
-7160 190 0
-7161 37 0
-7161 73 0
-7161 128 0
-7161 250 0
-7162 37 0
-7162 73 0
-7162 147 0
-7162 220 0
-7163 37 0
-7163 73 0
-7163 154 0
-7164 37 0
-7164 83 0
-7164 250 0
-7165 37 0
-7165 83 0
-7165 147 0
-7165 190 0
-7166 37 0
-7166 83 0
-7166 154 0
-7166 183 0
-7167 37 0
-7167 102 0
-7167 220 0
-7168 37 0
-7168 102 0
-7168 128 0
-7168 190 0
-7169 37 0
-7169 102 0
-7169 154 0
-7169 164 0
-7170 37 0
-7170 109 0
-7171 37 0
-7171 109 0
-7171 128 0
-7171 183 0
-7172 37 0
-7172 109 0
-7172 147 0
-7172 164 0
-7173 48 0
-7173 64 0
-7173 164 0
-7174 48 0
-7174 64 0
-7174 172 0
-7174 220 0
-7175 48 0
-7175 64 0
-7175 190 0
-7175 202 0
-7176 48 0
-7176 73 0
-7176 128 0
-7177 48 0
-7177 73 0
-7177 136 0
-7177 220 0
-7178 48 0
-7178 73 0
-7178 154 0
-7178 202 0
-7179 48 0
-7179 83 0
-7180 48 0
-7180 83 0
-7180 136 0
-7180 190 0
-7181 48 0
-7181 83 0
-7181 154 0
-7181 172 0
-7182 48 0
-7182 91 0
-7182 220 0
-7183 48 0
-7183 91 0
-7183 128 0
-7183 190 0
-7184 48 0
-7184 91 0
-7184 154 0
-7184 164 0
-7185 48 0
-7185 109 0
-7185 202 0
-7186 48 0
-7186 109 0
-7186 128 0
-7186 172 0
-7187 48 0
-7187 109 0
-7187 136 0
-7187 164 0
-7188 55 0
-7188 64 0
-7188 164 0
-7188 228 0
-7189 55 0
-7189 64 0
-7189 172 0
-7190 55 0
-7190 64 0
-7190 183 0
-7190 202 0
-7191 55 0
-7191 73 0
-7191 128 0
-7191 228 0
-7192 55 0
-7192 73 0
-7192 136 0
-7193 55 0
-7193 73 0
-7193 147 0
-7193 202 0
-7194 55 0
-7194 83 0
-7194 228 0
-7195 55 0
-7195 83 0
-7195 136 0
-7195 183 0
-7196 55 0
-7196 83 0
-7196 147 0
-7196 172 0
-7197 55 0
-7197 91 0
-7198 55 0
-7198 91 0
-7198 128 0
-7198 183 0
-7199 55 0
-7199 91 0
-7199 147 0
-7199 164 0
-7200 55 0
-7200 102 0
-7200 202 0
-7201 55 0
-7201 102 0
-7201 128 0
-7201 172 0
-7202 55 0
-7202 102 0
-7202 136 0
-7202 164 0
-1 -118 -213 -235 7099 7100 7101 7102 7103 7104 7105 7106 7107 7108 7109 7110 7111 7112 7113 7114 7115 7116 7117 7118 7119 7120 7121 7122 7123 7124 7125 7126 7127 7128 7129 7130 7131 7132 7133 7134 7135 7136 7137 7138 7139 7140 7141 7142 7143 7144 7145 7146 7147 7148 7149 7150 7151 7152 7153 7154 7155 7156 7157 7158 7159 7160 7161 7162 7163 7164 7165 7166 7167 7168 7169 7170 7171 7172 7173 7174 7175 7176 7177 7178 7179 7180 7181 7182 7183 7184 7185 7186 7187 7188 7189 7190 7191 7192 7193 7194 7195 7196 7197 7198 7199 7200 7201 7202 0
-7203 199 0
-7203 250 0
-7204 217 0
-7204 228 0
-7205 127 0
-7205 172 0
-7205 250 0
-7206 127 0
-7206 183 0
-7207 127 0
-7207 190 0
-7207 228 0
-7208 136 0
-7208 163 0
-7208 250 0
-7209 136 0
-7209 183 0
-7209 217 0
-7210 136 0
-7210 190 0
-7211 147 0
-7211 163 0
-7212 147 0
-7212 172 0
-7212 217 0
-7213 147 0
-7213 190 0
-7213 199 0
-7214 154 0
-7214 163 0
-7214 228 0
-7215 154 0
-7215 172 0
-7216 154 0
-7216 183 0
-7216 199 0
-7217 10 0
-7217 73 0
-7217 199 0
-7217 250 0
-7218 10 0
-7218 73 0
-7219 10 0
-7219 73 0
-7219 217 0
-7219 228 0
-7220 10 0
-7220 82 0
-7220 172 0
-7220 250 0
-7221 10 0
-7221 82 0
-7221 183 0
-7222 10 0
-7222 82 0
-7222 190 0
-7222 228 0
-7223 10 0
-7223 91 0
-7223 163 0
-7223 250 0
-7224 10 0
-7224 91 0
-7224 183 0
-7224 217 0
-7225 10 0
-7225 91 0
-7225 190 0
-7226 10 0
-7226 102 0
-7226 163 0
-7227 10 0
-7227 102 0
-7227 172 0
-7227 217 0
-7228 10 0
-7228 102 0
-7228 190 0
-7228 199 0
-7229 10 0
-7229 109 0
-7229 163 0
-7229 228 0
-7230 10 0
-7230 109 0
-7230 172 0
-7231 10 0
-7231 109 0
-7231 183 0
-7231 199 0
-7232 19 0
-7232 64 0
-7232 199 0
-7232 250 0
-7233 19 0
-7233 64 0
-7234 19 0
-7234 64 0
-7234 217 0
-7234 228 0
-7235 19 0
-7235 82 0
-7235 136 0
-7235 250 0
-7236 19 0
-7236 82 0
-7236 147 0
-7237 19 0
-7237 82 0
-7237 154 0
-7237 228 0
-7238 19 0
-7238 91 0
-7238 127 0
-7238 250 0
-7239 19 0
-7239 91 0
-7239 147 0
-7239 217 0
-7240 19 0
-7240 91 0
-7240 154 0
-7241 19 0
-7241 102 0
-7241 127 0
-7242 19 0
-7242 102 0
-7242 136 0
-7242 217 0
-7243 19 0
-7243 102 0
-7243 154 0
-7243 199 0
-7244 19 0
-7244 109 0
-7244 127 0
-7244 228 0
-7245 19 0
-7245 109 0
-7245 136 0
-7246 19 0
-7246 109 0
-7246 147 0
-7246 199 0
-7247 28 0
-7247 64 0
-7247 172 0
-7247 250 0
-7248 28 0
-7248 64 0
-7248 183 0
-7249 28 0
-7249 64 0
-7249 190 0
-7249 228 0
-7250 28 0
-7250 73 0
-7250 136 0
-7250 250 0
-7251 28 0
-7251 73 0
-7251 147 0
-7252 28 0
-7252 73 0
-7252 154 0
-7252 228 0
-7253 28 0
-7253 91 0
-7253 250 0
-7254 28 0
-7254 91 0
-7254 147 0
-7254 190 0
-7255 28 0
-7255 91 0
-7255 154 0
-7255 183 0
-7256 28 0
-7256 102 0
-7257 28 0
-7257 102 0
-7257 136 0
-7257 190 0
-7258 28 0
-7258 102 0
-7258 154 0
-7258 172 0
-7259 28 0
-7259 109 0
-7259 228 0
-7260 28 0
-7260 109 0
-7260 136 0
-7260 183 0
-7261 28 0
-7261 109 0
-7261 147 0
-7261 172 0
-7262 37 0
-7262 64 0
-7262 163 0
-7262 250 0
-7263 37 0
-7263 64 0
-7263 183 0
-7263 217 0
-7264 37 0
-7264 64 0
-7264 190 0
-7265 37 0
-7265 73 0
-7265 127 0
-7265 250 0
-7266 37 0
-7266 73 0
-7266 147 0
-7266 217 0
-7267 37 0
-7267 73 0
-7267 154 0
-7268 37 0
-7268 82 0
-7268 250 0
-7269 37 0
-7269 82 0
-7269 147 0
-7269 190 0
-7270 37 0
-7270 82 0
-7270 154 0
-7270 183 0
-7271 37 0
-7271 102 0
-7271 217 0
-7272 37 0
-7272 102 0
-7272 127 0
-7272 190 0
-7273 37 0
-7273 102 0
-7273 154 0
-7273 163 0
-7274 37 0
-7274 109 0
-7275 37 0
-7275 109 0
-7275 127 0
-7275 183 0
-7276 37 0
-7276 109 0
-7276 147 0
-7276 163 0
-7277 48 0
-7277 64 0
-7277 163 0
-7278 48 0
-7278 64 0
-7278 172 0
-7278 217 0
-7279 48 0
-7279 64 0
-7279 190 0
-7279 199 0
-7280 48 0
-7280 73 0
-7280 127 0
-7281 48 0
-7281 73 0
-7281 136 0
-7281 217 0
-7282 48 0
-7282 73 0
-7282 154 0
-7282 199 0
-7283 48 0
-7283 82 0
-7284 48 0
-7284 82 0
-7284 136 0
-7284 190 0
-7285 48 0
-7285 82 0
-7285 154 0
-7285 172 0
-7286 48 0
-7286 91 0
-7286 217 0
-7287 48 0
-7287 91 0
-7287 127 0
-7287 190 0
-7288 48 0
-7288 91 0
-7288 154 0
-7288 163 0
-7289 48 0
-7289 109 0
-7289 199 0
-7290 48 0
-7290 109 0
-7290 127 0
-7290 172 0
-7291 48 0
-7291 109 0
-7291 136 0
-7291 163 0
-7292 55 0
-7292 64 0
-7292 163 0
-7292 228 0
-7293 55 0
-7293 64 0
-7293 172 0
-7294 55 0
-7294 64 0
-7294 183 0
-7294 199 0
-7295 55 0
-7295 73 0
-7295 127 0
-7295 228 0
-7296 55 0
-7296 73 0
-7296 136 0
-7297 55 0
-7297 73 0
-7297 147 0
-7297 199 0
-7298 55 0
-7298 82 0
-7298 228 0
-7299 55 0
-7299 82 0
-7299 136 0
-7299 183 0
-7300 55 0
-7300 82 0
-7300 147 0
-7300 172 0
-7301 55 0
-7301 91 0
-7302 55 0
-7302 91 0
-7302 127 0
-7302 183 0
-7303 55 0
-7303 91 0
-7303 147 0
-7303 163 0
-7304 55 0
-7304 102 0
-7304 199 0
-7305 55 0
-7305 102 0
-7305 127 0
-7305 172 0
-7306 55 0
-7306 102 0
-7306 136 0
-7306 163 0
-1 -118 -210 -235 7203 7204 7205 7206 7207 7208 7209 7210 7211 7212 7213 7214 7215 7216 7217 7218 7219 7220 7221 7222 7223 7224 7225 7226 7227 7228 7229 7230 7231 7232 7233 7234 7235 7236 7237 7238 7239 7240 7241 7242 7243 7244 7245 7246 7247 7248 7249 7250 7251 7252 7253 7254 7255 7256 7257 7258 7259 7260 7261 7262 7263 7264 7265 7266 7267 7268 7269 7270 7271 7272 7273 7274 7275 7276 7277 7278 7279 7280 7281 7282 7283 7284 7285 7286 7287 7288 7289 7290 7291 7292 7293 7294 7295 7296 7297 7298 7299 7300 7301 7302 7303 7304 7305 7306 0
-7307 9 0
-7307 125 0
-7307 202 0
-7308 9 0
-7308 125 0
-7308 212 0
-7308 236 0
-7309 9 0
-7309 125 0
-7309 221 0
-7309 227 0
-7310 9 0
-7310 134 0
-7310 175 0
-7311 9 0
-7311 134 0
-7311 185 0
-7311 236 0
-7312 9 0
-7312 134 0
-7312 194 0
-7312 227 0
-7313 9 0
-7313 142 0
-7314 9 0
-7314 142 0
-7314 185 0
-7314 221 0
-7315 9 0
-7315 142 0
-7315 194 0
-7315 212 0
-7316 9 0
-7316 152 0
-7316 236 0
-7317 9 0
-7317 152 0
-7317 175 0
-7317 221 0
-7318 9 0
-7318 152 0
-7318 194 0
-7318 202 0
-7319 9 0
-7319 161 0
-7319 227 0
-7320 9 0
-7320 161 0
-7320 175 0
-7320 212 0
-7321 9 0
-7321 161 0
-7321 185 0
-7321 202 0
-7322 18 0
-7322 80 0
-7322 202 0
-7323 18 0
-7323 80 0
-7323 212 0
-7323 236 0
-7324 18 0
-7324 80 0
-7324 221 0
-7324 227 0
-7325 18 0
-7325 89 0
-7325 175 0
-7326 18 0
-7326 89 0
-7326 185 0
-7326 236 0
-7327 18 0
-7327 89 0
-7327 194 0
-7327 227 0
-7328 18 0
-7328 97 0
-7329 18 0
-7329 97 0
-7329 185 0
-7329 221 0
-7330 18 0
-7330 97 0
-7330 194 0
-7330 212 0
-7331 18 0
-7331 107 0
-7331 236 0
-7332 18 0
-7332 107 0
-7332 175 0
-7332 221 0
-7333 18 0
-7333 107 0
-7333 194 0
-7333 202 0
-7334 18 0
-7334 116 0
-7334 227 0
-7335 18 0
-7335 116 0
-7335 175 0
-7335 212 0
-7336 18 0
-7336 116 0
-7336 185 0
-7336 202 0
-7337 26 0
-7337 202 0
-7338 26 0
-7338 212 0
-7338 236 0
-7339 26 0
-7339 221 0
-7339 227 0
-7340 26 0
-7340 89 0
-7340 142 0
-7341 26 0
-7341 89 0
-7341 152 0
-7341 236 0
-7342 26 0
-7342 89 0
-7342 161 0
-7342 227 0
-7343 26 0
-7343 97 0
-7343 134 0
-7344 26 0
-7344 97 0
-7344 152 0
-7344 221 0
-7345 26 0
-7345 97 0
-7345 161 0
-7345 212 0
-7346 26 0
-7346 107 0
-7346 134 0
-7346 236 0
-7347 26 0
-7347 107 0
-7347 142 0
-7347 221 0
-7348 26 0
-7348 107 0
-7348 161 0
-7348 202 0
-7349 26 0
-7349 116 0
-7349 134 0
-7349 227 0
-7350 26 0
-7350 116 0
-7350 142 0
-7350 212 0
-7351 26 0
-7351 116 0
-7351 152 0
-7351 202 0
-7352 35 0
-7352 175 0
-7353 35 0
-7353 185 0
-7353 236 0
-7354 35 0
-7354 194 0
-7354 227 0
-7355 35 0
-7355 80 0
-7355 142 0
-7356 35 0
-7356 80 0
-7356 152 0
-7356 236 0
-7357 35 0
-7357 80 0
-7357 161 0
-7357 227 0
-7358 35 0
-7358 97 0
-7358 125 0
-7359 35 0
-7359 97 0
-7359 152 0
-7359 194 0
-7360 35 0
-7360 97 0
-7360 161 0
-7360 185 0
-7361 35 0
-7361 107 0
-7361 125 0
-7361 236 0
-7362 35 0
-7362 107 0
-7362 142 0
-7362 194 0
-7363 35 0
-7363 107 0
-7363 161 0
-7363 175 0
-7364 35 0
-7364 116 0
-7364 125 0
-7364 227 0
-7365 35 0
-7365 116 0
-7365 142 0
-7365 185 0
-7366 35 0
-7366 116 0
-7366 152 0
-7366 175 0
-7367 185 0
-7367 221 0
-7368 194 0
-7368 212 0
-7369 80 0
-7369 134 0
-7370 80 0
-7370 152 0
-7370 221 0
-7371 80 0
-7371 161 0
-7371 212 0
-7372 89 0
-7372 125 0
-7373 89 0
-7373 152 0
-7373 194 0
-7374 89 0
-7374 161 0
-7374 185 0
-7375 107 0
-7375 125 0
-7375 221 0
-7376 107 0
-7376 134 0
-7376 194 0
-7377 107 0
-7377 161 0
-7378 116 0
-7378 125 0
-7378 212 0
-7379 116 0
-7379 134 0
-7379 185 0
-7380 116 0
-7380 152 0
-7381 53 0
-7381 236 0
-7382 53 0
-7382 175 0
-7382 221 0
-7383 53 0
-7383 194 0
-7383 202 0
-7384 53 0
-7384 80 0
-7384 134 0
-7384 236 0
-7385 53 0
-7385 80 0
-7385 142 0
-7385 221 0
-7386 53 0
-7386 80 0
-7386 161 0
-7386 202 0
-7387 53 0
-7387 89 0
-7387 125 0
-7387 236 0
-7388 53 0
-7388 89 0
-7388 142 0
-7388 194 0
-7389 53 0
-7389 89 0
-7389 161 0
-7389 175 0
-7390 53 0
-7390 97 0
-7390 125 0
-7390 221 0
-7391 53 0
-7391 97 0
-7391 134 0
-7391 194 0
-7392 53 0
-7392 97 0
-7392 161 0
-7393 53 0
-7393 116 0
-7393 125 0
-7393 202 0
-7394 53 0
-7394 116 0
-7394 134 0
-7394 175 0
-7395 53 0
-7395 116 0
-7395 142 0
-7396 62 0
-7396 227 0
-7397 62 0
-7397 175 0
-7397 212 0
-7398 62 0
-7398 185 0
-7398 202 0
-7399 62 0
-7399 80 0
-7399 134 0
-7399 227 0
-7400 62 0
-7400 80 0
-7400 142 0
-7400 212 0
-7401 62 0
-7401 80 0
-7401 152 0
-7401 202 0
-7402 62 0
-7402 89 0
-7402 125 0
-7402 227 0
-7403 62 0
-7403 89 0
-7403 142 0
-7403 185 0
-7404 62 0
-7404 89 0
-7404 152 0
-7404 175 0
-7405 62 0
-7405 97 0
-7405 125 0
-7405 212 0
-7406 62 0
-7406 97 0
-7406 134 0
-7406 185 0
-7407 62 0
-7407 97 0
-7407 152 0
-7408 62 0
-7408 107 0
-7408 125 0
-7408 202 0
-7409 62 0
-7409 107 0
-7409 134 0
-7409 175 0
-7410 62 0
-7410 107 0
-7410 142 0
-43 -72 -167 -248 7307 7308 7309 7310 7311 7312 7313 7314 7315 7316 7317 7318 7319 7320 7321 7322 7323 7324 7325 7326 7327 7328 7329 7330 7331 7332 7333 7334 7335 7336 7337 7338 7339 7340 7341 7342 7343 7344 7345 7346 7347 7348 7349 7350 7351 7352 7353 7354 7355 7356 7357 7358 7359 7360 7361 7362 7363 7364 7365 7366 7367 7368 7369 7370 7371 7372 7373 7374 7375 7376 7377 7378 7379 7380 7381 7382 7383 7384 7385 7386 7387 7388 7389 7390 7391 7392 7393 7394 7395 7396 7397 7398 7399 7400 7401 7402 7403 7404 7405 7406 7407 7408 7409 7410 0
-7411 8 0
-7411 122 0
-7411 202 0
-7412 8 0
-7412 122 0
-7412 213 0
-7412 237 0
-7413 8 0
-7413 122 0
-7413 222 0
-7413 228 0
-7414 8 0
-7414 131 0
-7414 175 0
-7415 8 0
-7415 131 0
-7415 186 0
-7415 237 0
-7416 8 0
-7416 131 0
-7416 195 0
-7416 228 0
-7417 8 0
-7417 139 0
-7418 8 0
-7418 139 0
-7418 186 0
-7418 222 0
-7419 8 0
-7419 139 0
-7419 195 0
-7419 213 0
-7420 8 0
-7420 150 0
-7420 237 0
-7421 8 0
-7421 150 0
-7421 175 0
-7421 222 0
-7422 8 0
-7422 150 0
-7422 195 0
-7422 202 0
-7423 8 0
-7423 159 0
-7423 228 0
-7424 8 0
-7424 159 0
-7424 175 0
-7424 213 0
-7425 8 0
-7425 159 0
-7425 186 0
-7425 202 0
-7426 17 0
-7426 77 0
-7426 202 0
-7427 17 0
-7427 77 0
-7427 213 0
-7427 237 0
-7428 17 0
-7428 77 0
-7428 222 0
-7428 228 0
-7429 17 0
-7429 86 0
-7429 175 0
-7430 17 0
-7430 86 0
-7430 186 0
-7430 237 0
-7431 17 0
-7431 86 0
-7431 195 0
-7431 228 0
-7432 17 0
-7432 94 0
-7433 17 0
-7433 94 0
-7433 186 0
-7433 222 0
-7434 17 0
-7434 94 0
-7434 195 0
-7434 213 0
-7435 17 0
-7435 105 0
-7435 237 0
-7436 17 0
-7436 105 0
-7436 175 0
-7436 222 0
-7437 17 0
-7437 105 0
-7437 195 0
-7437 202 0
-7438 17 0
-7438 114 0
-7438 228 0
-7439 17 0
-7439 114 0
-7439 175 0
-7439 213 0
-7440 17 0
-7440 114 0
-7440 186 0
-7440 202 0
-7441 26 0
-7441 202 0
-7442 26 0
-7442 213 0
-7442 237 0
-7443 26 0
-7443 222 0
-7443 228 0
-7444 26 0
-7444 86 0
-7444 139 0
-7445 26 0
-7445 86 0
-7445 150 0
-7445 237 0
-7446 26 0
-7446 86 0
-7446 159 0
-7446 228 0
-7447 26 0
-7447 94 0
-7447 131 0
-7448 26 0
-7448 94 0
-7448 150 0
-7448 222 0
-7449 26 0
-7449 94 0
-7449 159 0
-7449 213 0
-7450 26 0
-7450 105 0
-7450 131 0
-7450 237 0
-7451 26 0
-7451 105 0
-7451 139 0
-7451 222 0
-7452 26 0
-7452 105 0
-7452 159 0
-7452 202 0
-7453 26 0
-7453 114 0
-7453 131 0
-7453 228 0
-7454 26 0
-7454 114 0
-7454 139 0
-7454 213 0
-7455 26 0
-7455 114 0
-7455 150 0
-7455 202 0
-7456 35 0
-7456 175 0
-7457 35 0
-7457 186 0
-7457 237 0
-7458 35 0
-7458 195 0
-7458 228 0
-7459 35 0
-7459 77 0
-7459 139 0
-7460 35 0
-7460 77 0
-7460 150 0
-7460 237 0
-7461 35 0
-7461 77 0
-7461 159 0
-7461 228 0
-7462 35 0
-7462 94 0
-7462 122 0
-7463 35 0
-7463 94 0
-7463 150 0
-7463 195 0
-7464 35 0
-7464 94 0
-7464 159 0
-7464 186 0
-7465 35 0
-7465 105 0
-7465 122 0
-7465 237 0
-7466 35 0
-7466 105 0
-7466 139 0
-7466 195 0
-7467 35 0
-7467 105 0
-7467 159 0
-7467 175 0
-7468 35 0
-7468 114 0
-7468 122 0
-7468 228 0
-7469 35 0
-7469 114 0
-7469 139 0
-7469 186 0
-7470 35 0
-7470 114 0
-7470 150 0
-7470 175 0
-7471 186 0
-7471 222 0
-7472 195 0
-7472 213 0
-7473 77 0
-7473 131 0
-7474 77 0
-7474 150 0
-7474 222 0
-7475 77 0
-7475 159 0
-7475 213 0
-7476 86 0
-7476 122 0
-7477 86 0
-7477 150 0
-7477 195 0
-7478 86 0
-7478 159 0
-7478 186 0
-7479 105 0
-7479 122 0
-7479 222 0
-7480 105 0
-7480 131 0
-7480 195 0
-7481 105 0
-7481 159 0
-7482 114 0
-7482 122 0
-7482 213 0
-7483 114 0
-7483 131 0
-7483 186 0
-7484 114 0
-7484 150 0
-7485 54 0
-7485 237 0
-7486 54 0
-7486 175 0
-7486 222 0
-7487 54 0
-7487 195 0
-7487 202 0
-7488 54 0
-7488 77 0
-7488 131 0
-7488 237 0
-7489 54 0
-7489 77 0
-7489 139 0
-7489 222 0
-7490 54 0
-7490 77 0
-7490 159 0
-7490 202 0
-7491 54 0
-7491 86 0
-7491 122 0
-7491 237 0
-7492 54 0
-7492 86 0
-7492 139 0
-7492 195 0
-7493 54 0
-7493 86 0
-7493 159 0
-7493 175 0
-7494 54 0
-7494 94 0
-7494 122 0
-7494 222 0
-7495 54 0
-7495 94 0
-7495 131 0
-7495 195 0
-7496 54 0
-7496 94 0
-7496 159 0
-7497 54 0
-7497 114 0
-7497 122 0
-7497 202 0
-7498 54 0
-7498 114 0
-7498 131 0
-7498 175 0
-7499 54 0
-7499 114 0
-7499 139 0
-7500 63 0
-7500 228 0
-7501 63 0
-7501 175 0
-7501 213 0
-7502 63 0
-7502 186 0
-7502 202 0
-7503 63 0
-7503 77 0
-7503 131 0
-7503 228 0
-7504 63 0
-7504 77 0
-7504 139 0
-7504 213 0
-7505 63 0
-7505 77 0
-7505 150 0
-7505 202 0
-7506 63 0
-7506 86 0
-7506 122 0
-7506 228 0
-7507 63 0
-7507 86 0
-7507 139 0
-7507 186 0
-7508 63 0
-7508 86 0
-7508 150 0
-7508 175 0
-7509 63 0
-7509 94 0
-7509 122 0
-7509 213 0
-7510 63 0
-7510 94 0
-7510 131 0
-7510 186 0
-7511 63 0
-7511 94 0
-7511 150 0
-7512 63 0
-7512 105 0
-7512 122 0
-7512 202 0
-7513 63 0
-7513 105 0
-7513 131 0
-7513 175 0
-7514 63 0
-7514 105 0
-7514 139 0
-43 -68 -167 -252 7411 7412 7413 7414 7415 7416 7417 7418 7419 7420 7421 7422 7423 7424 7425 7426 7427 7428 7429 7430 7431 7432 7433 7434 7435 7436 7437 7438 7439 7440 7441 7442 7443 7444 7445 7446 7447 7448 7449 7450 7451 7452 7453 7454 7455 7456 7457 7458 7459 7460 7461 7462 7463 7464 7465 7466 7467 7468 7469 7470 7471 7472 7473 7474 7475 7476 7477 7478 7479 7480 7481 7482 7483 7484 7485 7486 7487 7488 7489 7490 7491 7492 7493 7494 7495 7496 7497 7498 7499 7500 7501 7502 7503 7504 7505 7506 7507 7508 7509 7510 7511 7512 7513 7514 0
-7515 8 0
-7515 122 0
-7515 202 0
-7516 8 0
-7516 122 0
-7516 212 0
-7516 236 0
-7517 8 0
-7517 122 0
-7517 221 0
-7517 227 0
-7518 8 0
-7518 131 0
-7518 175 0
-7519 8 0
-7519 131 0
-7519 185 0
-7519 236 0
-7520 8 0
-7520 131 0
-7520 194 0
-7520 227 0
-7521 8 0
-7521 139 0
-7522 8 0
-7522 139 0
-7522 185 0
-7522 221 0
-7523 8 0
-7523 139 0
-7523 194 0
-7523 212 0
-7524 8 0
-7524 149 0
-7524 236 0
-7525 8 0
-7525 149 0
-7525 175 0
-7525 221 0
-7526 8 0
-7526 149 0
-7526 194 0
-7526 202 0
-7527 8 0
-7527 158 0
-7527 227 0
-7528 8 0
-7528 158 0
-7528 175 0
-7528 212 0
-7529 8 0
-7529 158 0
-7529 185 0
-7529 202 0
-7530 17 0
-7530 77 0
-7530 202 0
-7531 17 0
-7531 77 0
-7531 212 0
-7531 236 0
-7532 17 0
-7532 77 0
-7532 221 0
-7532 227 0
-7533 17 0
-7533 86 0
-7533 175 0
-7534 17 0
-7534 86 0
-7534 185 0
-7534 236 0
-7535 17 0
-7535 86 0
-7535 194 0
-7535 227 0
-7536 17 0
-7536 94 0
-7537 17 0
-7537 94 0
-7537 185 0
-7537 221 0
-7538 17 0
-7538 94 0
-7538 194 0
-7538 212 0
-7539 17 0
-7539 104 0
-7539 236 0
-7540 17 0
-7540 104 0
-7540 175 0
-7540 221 0
-7541 17 0
-7541 104 0
-7541 194 0
-7541 202 0
-7542 17 0
-7542 113 0
-7542 227 0
-7543 17 0
-7543 113 0
-7543 175 0
-7543 212 0
-7544 17 0
-7544 113 0
-7544 185 0
-7544 202 0
-7545 26 0
-7545 202 0
-7546 26 0
-7546 212 0
-7546 236 0
-7547 26 0
-7547 221 0
-7547 227 0
-7548 26 0
-7548 86 0
-7548 139 0
-7549 26 0
-7549 86 0
-7549 149 0
-7549 236 0
-7550 26 0
-7550 86 0
-7550 158 0
-7550 227 0
-7551 26 0
-7551 94 0
-7551 131 0
-7552 26 0
-7552 94 0
-7552 149 0
-7552 221 0
-7553 26 0
-7553 94 0
-7553 158 0
-7553 212 0
-7554 26 0
-7554 104 0
-7554 131 0
-7554 236 0
-7555 26 0
-7555 104 0
-7555 139 0
-7555 221 0
-7556 26 0
-7556 104 0
-7556 158 0
-7556 202 0
-7557 26 0
-7557 113 0
-7557 131 0
-7557 227 0
-7558 26 0
-7558 113 0
-7558 139 0
-7558 212 0
-7559 26 0
-7559 113 0
-7559 149 0
-7559 202 0
-7560 35 0
-7560 175 0
-7561 35 0
-7561 185 0
-7561 236 0
-7562 35 0
-7562 194 0
-7562 227 0
-7563 35 0
-7563 77 0
-7563 139 0
-7564 35 0
-7564 77 0
-7564 149 0
-7564 236 0
-7565 35 0
-7565 77 0
-7565 158 0
-7565 227 0
-7566 35 0
-7566 94 0
-7566 122 0
-7567 35 0
-7567 94 0
-7567 149 0
-7567 194 0
-7568 35 0
-7568 94 0
-7568 158 0
-7568 185 0
-7569 35 0
-7569 104 0
-7569 122 0
-7569 236 0
-7570 35 0
-7570 104 0
-7570 139 0
-7570 194 0
-7571 35 0
-7571 104 0
-7571 158 0
-7571 175 0
-7572 35 0
-7572 113 0
-7572 122 0
-7572 227 0
-7573 35 0
-7573 113 0
-7573 139 0
-7573 185 0
-7574 35 0
-7574 113 0
-7574 149 0
-7574 175 0
-7575 185 0
-7575 221 0
-7576 194 0
-7576 212 0
-7577 77 0
-7577 131 0
-7578 77 0
-7578 149 0
-7578 221 0
-7579 77 0
-7579 158 0
-7579 212 0
-7580 86 0
-7580 122 0
-7581 86 0
-7581 149 0
-7581 194 0
-7582 86 0
-7582 158 0
-7582 185 0
-7583 104 0
-7583 122 0
-7583 221 0
-7584 104 0
-7584 131 0
-7584 194 0
-7585 104 0
-7585 158 0
-7586 113 0
-7586 122 0
-7586 212 0
-7587 113 0
-7587 131 0
-7587 185 0
-7588 113 0
-7588 149 0
-7589 53 0
-7589 236 0
-7590 53 0
-7590 175 0
-7590 221 0
-7591 53 0
-7591 194 0
-7591 202 0
-7592 53 0
-7592 77 0
-7592 131 0
-7592 236 0
-7593 53 0
-7593 77 0
-7593 139 0
-7593 221 0
-7594 53 0
-7594 77 0
-7594 158 0
-7594 202 0
-7595 53 0
-7595 86 0
-7595 122 0
-7595 236 0
-7596 53 0
-7596 86 0
-7596 139 0
-7596 194 0
-7597 53 0
-7597 86 0
-7597 158 0
-7597 175 0
-7598 53 0
-7598 94 0
-7598 122 0
-7598 221 0
-7599 53 0
-7599 94 0
-7599 131 0
-7599 194 0
-7600 53 0
-7600 94 0
-7600 158 0
-7601 53 0
-7601 113 0
-7601 122 0
-7601 202 0
-7602 53 0
-7602 113 0
-7602 131 0
-7602 175 0
-7603 53 0
-7603 113 0
-7603 139 0
-7604 62 0
-7604 227 0
-7605 62 0
-7605 175 0
-7605 212 0
-7606 62 0
-7606 185 0
-7606 202 0
-7607 62 0
-7607 77 0
-7607 131 0
-7607 227 0
-7608 62 0
-7608 77 0
-7608 139 0
-7608 212 0
-7609 62 0
-7609 77 0
-7609 149 0
-7609 202 0
-7610 62 0
-7610 86 0
-7610 122 0
-7610 227 0
-7611 62 0
-7611 86 0
-7611 139 0
-7611 185 0
-7612 62 0
-7612 86 0
-7612 149 0
-7612 175 0
-7613 62 0
-7613 94 0
-7613 122 0
-7613 212 0
-7614 62 0
-7614 94 0
-7614 131 0
-7614 185 0
-7615 62 0
-7615 94 0
-7615 149 0
-7616 62 0
-7616 104 0
-7616 122 0
-7616 202 0
-7617 62 0
-7617 104 0
-7617 131 0
-7617 175 0
-7618 62 0
-7618 104 0
-7618 139 0
-43 -68 -167 -248 7515 7516 7517 7518 7519 7520 7521 7522 7523 7524 7525 7526 7527 7528 7529 7530 7531 7532 7533 7534 7535 7536 7537 7538 7539 7540 7541 7542 7543 7544 7545 7546 7547 7548 7549 7550 7551 7552 7553 7554 7555 7556 7557 7558 7559 7560 7561 7562 7563 7564 7565 7566 7567 7568 7569 7570 7571 7572 7573 7574 7575 7576 7577 7578 7579 7580 7581 7582 7583 7584 7585 7586 7587 7588 7589 7590 7591 7592 7593 7594 7595 7596 7597 7598 7599 7600 7601 7602 7603 7604 7605 7606 7607 7608 7609 7610 7611 7612 7613 7614 7615 7616 7617 7618 0
-7619 8 0
-7619 122 0
-7619 202 0
-7620 8 0
-7620 122 0
-7620 211 0
-7620 237 0
-7621 8 0
-7621 122 0
-7621 222 0
-7621 226 0
-7622 8 0
-7622 131 0
-7622 175 0
-7623 8 0
-7623 131 0
-7623 184 0
-7623 237 0
-7624 8 0
-7624 131 0
-7624 195 0
-7624 226 0
-7625 8 0
-7625 139 0
-7626 8 0
-7626 139 0
-7626 184 0
-7626 222 0
-7627 8 0
-7627 139 0
-7627 195 0
-7627 211 0
-7628 8 0
-7628 148 0
-7628 237 0
-7629 8 0
-7629 148 0
-7629 175 0
-7629 222 0
-7630 8 0
-7630 148 0
-7630 195 0
-7630 202 0
-7631 8 0
-7631 159 0
-7631 226 0
-7632 8 0
-7632 159 0
-7632 175 0
-7632 211 0
-7633 8 0
-7633 159 0
-7633 184 0
-7633 202 0
-7634 17 0
-7634 77 0
-7634 202 0
-7635 17 0
-7635 77 0
-7635 211 0
-7635 237 0
-7636 17 0
-7636 77 0
-7636 222 0
-7636 226 0
-7637 17 0
-7637 86 0
-7637 175 0
-7638 17 0
-7638 86 0
-7638 184 0
-7638 237 0
-7639 17 0
-7639 86 0
-7639 195 0
-7639 226 0
-7640 17 0
-7640 94 0
-7641 17 0
-7641 94 0
-7641 184 0
-7641 222 0
-7642 17 0
-7642 94 0
-7642 195 0
-7642 211 0
-7643 17 0
-7643 103 0
-7643 237 0
-7644 17 0
-7644 103 0
-7644 175 0
-7644 222 0
-7645 17 0
-7645 103 0
-7645 195 0
-7645 202 0
-7646 17 0
-7646 114 0
-7646 226 0
-7647 17 0
-7647 114 0
-7647 175 0
-7647 211 0
-7648 17 0
-7648 114 0
-7648 184 0
-7648 202 0
-7649 26 0
-7649 202 0
-7650 26 0
-7650 211 0
-7650 237 0
-7651 26 0
-7651 222 0
-7651 226 0
-7652 26 0
-7652 86 0
-7652 139 0
-7653 26 0
-7653 86 0
-7653 148 0
-7653 237 0
-7654 26 0
-7654 86 0
-7654 159 0
-7654 226 0
-7655 26 0
-7655 94 0
-7655 131 0
-7656 26 0
-7656 94 0
-7656 148 0
-7656 222 0
-7657 26 0
-7657 94 0
-7657 159 0
-7657 211 0
-7658 26 0
-7658 103 0
-7658 131 0
-7658 237 0
-7659 26 0
-7659 103 0
-7659 139 0
-7659 222 0
-7660 26 0
-7660 103 0
-7660 159 0
-7660 202 0
-7661 26 0
-7661 114 0
-7661 131 0
-7661 226 0
-7662 26 0
-7662 114 0
-7662 139 0
-7662 211 0
-7663 26 0
-7663 114 0
-7663 148 0
-7663 202 0
-7664 35 0
-7664 175 0
-7665 35 0
-7665 184 0
-7665 237 0
-7666 35 0
-7666 195 0
-7666 226 0
-7667 35 0
-7667 77 0
-7667 139 0
-7668 35 0
-7668 77 0
-7668 148 0
-7668 237 0
-7669 35 0
-7669 77 0
-7669 159 0
-7669 226 0
-7670 35 0
-7670 94 0
-7670 122 0
-7671 35 0
-7671 94 0
-7671 148 0
-7671 195 0
-7672 35 0
-7672 94 0
-7672 159 0
-7672 184 0
-7673 35 0
-7673 103 0
-7673 122 0
-7673 237 0
-7674 35 0
-7674 103 0
-7674 139 0
-7674 195 0
-7675 35 0
-7675 103 0
-7675 159 0
-7675 175 0
-7676 35 0
-7676 114 0
-7676 122 0
-7676 226 0
-7677 35 0
-7677 114 0
-7677 139 0
-7677 184 0
-7678 35 0
-7678 114 0
-7678 148 0
-7678 175 0
-7679 184 0
-7679 222 0
-7680 195 0
-7680 211 0
-7681 77 0
-7681 131 0
-7682 77 0
-7682 148 0
-7682 222 0
-7683 77 0
-7683 159 0
-7683 211 0
-7684 86 0
-7684 122 0
-7685 86 0
-7685 148 0
-7685 195 0
-7686 86 0
-7686 159 0
-7686 184 0
-7687 103 0
-7687 122 0
-7687 222 0
-7688 103 0
-7688 131 0
-7688 195 0
-7689 103 0
-7689 159 0
-7690 114 0
-7690 122 0
-7690 211 0
-7691 114 0
-7691 131 0
-7691 184 0
-7692 114 0
-7692 148 0
-7693 52 0
-7693 237 0
-7694 52 0
-7694 175 0
-7694 222 0
-7695 52 0
-7695 195 0
-7695 202 0
-7696 52 0
-7696 77 0
-7696 131 0
-7696 237 0
-7697 52 0
-7697 77 0
-7697 139 0
-7697 222 0
-7698 52 0
-7698 77 0
-7698 159 0
-7698 202 0
-7699 52 0
-7699 86 0
-7699 122 0
-7699 237 0
-7700 52 0
-7700 86 0
-7700 139 0
-7700 195 0
-7701 52 0
-7701 86 0
-7701 159 0
-7701 175 0
-7702 52 0
-7702 94 0
-7702 122 0
-7702 222 0
-7703 52 0
-7703 94 0
-7703 131 0
-7703 195 0
-7704 52 0
-7704 94 0
-7704 159 0
-7705 52 0
-7705 114 0
-7705 122 0
-7705 202 0
-7706 52 0
-7706 114 0
-7706 131 0
-7706 175 0
-7707 52 0
-7707 114 0
-7707 139 0
-7708 63 0
-7708 226 0
-7709 63 0
-7709 175 0
-7709 211 0
-7710 63 0
-7710 184 0
-7710 202 0
-7711 63 0
-7711 77 0
-7711 131 0
-7711 226 0
-7712 63 0
-7712 77 0
-7712 139 0
-7712 211 0
-7713 63 0
-7713 77 0
-7713 148 0
-7713 202 0
-7714 63 0
-7714 86 0
-7714 122 0
-7714 226 0
-7715 63 0
-7715 86 0
-7715 139 0
-7715 184 0
-7716 63 0
-7716 86 0
-7716 148 0
-7716 175 0
-7717 63 0
-7717 94 0
-7717 122 0
-7717 211 0
-7718 63 0
-7718 94 0
-7718 131 0
-7718 184 0
-7719 63 0
-7719 94 0
-7719 148 0
-7720 63 0
-7720 103 0
-7720 122 0
-7720 202 0
-7721 63 0
-7721 103 0
-7721 131 0
-7721 175 0
-7722 63 0
-7722 103 0
-7722 139 0
-43 -68 -167 -246 7619 7620 7621 7622 7623 7624 7625 7626 7627 7628 7629 7630 7631 7632 7633 7634 7635 7636 7637 7638 7639 7640 7641 7642 7643 7644 7645 7646 7647 7648 7649 7650 7651 7652 7653 7654 7655 7656 7657 7658 7659 7660 7661 7662 7663 7664 7665 7666 7667 7668 7669 7670 7671 7672 7673 7674 7675 7676 7677 7678 7679 7680 7681 7682 7683 7684 7685 7686 7687 7688 7689 7690 7691 7692 7693 7694 7695 7696 7697 7698 7699 7700 7701 7702 7703 7704 7705 7706 7707 7708 7709 7710 7711 7712 7713 7714 7715 7716 7717 7718 7719 7720 7721 7722 0
-7723 8 0
-7723 122 0
-7723 200 0
-7724 8 0
-7724 122 0
-7724 209 0
-7724 239 0
-7725 8 0
-7725 122 0
-7725 218 0
-7725 230 0
-7726 8 0
-7726 130 0
-7727 8 0
-7727 130 0
-7727 185 0
-7727 239 0
-7728 8 0
-7728 130 0
-7728 194 0
-7728 230 0
-7729 8 0
-7729 140 0
-7729 166 0
-7730 8 0
-7730 140 0
-7730 185 0
-7730 218 0
-7731 8 0
-7731 140 0
-7731 194 0
-7731 209 0
-7732 8 0
-7732 149 0
-7732 166 0
-7732 239 0
-7733 8 0
-7733 149 0
-7733 218 0
-7734 8 0
-7734 149 0
-7734 194 0
-7734 200 0
-7735 8 0
-7735 158 0
-7735 166 0
-7735 230 0
-7736 8 0
-7736 158 0
-7736 209 0
-7737 8 0
-7737 158 0
-7737 185 0
-7737 200 0
-7738 17 0
-7738 77 0
-7738 200 0
-7739 17 0
-7739 77 0
-7739 209 0
-7739 239 0
-7740 17 0
-7740 77 0
-7740 218 0
-7740 230 0
-7741 17 0
-7741 85 0
-7742 17 0
-7742 85 0
-7742 185 0
-7742 239 0
-7743 17 0
-7743 85 0
-7743 194 0
-7743 230 0
-7744 17 0
-7744 95 0
-7744 166 0
-7745 17 0
-7745 95 0
-7745 185 0
-7745 218 0
-7746 17 0
-7746 95 0
-7746 194 0
-7746 209 0
-7747 17 0
-7747 104 0
-7747 166 0
-7747 239 0
-7748 17 0
-7748 104 0
-7748 218 0
-7749 17 0
-7749 104 0
-7749 194 0
-7749 200 0
-7750 17 0
-7750 113 0
-7750 166 0
-7750 230 0
-7751 17 0
-7751 113 0
-7751 209 0
-7752 17 0
-7752 113 0
-7752 185 0
-7752 200 0
-7753 26 0
-7753 200 0
-7754 26 0
-7754 209 0
-7754 239 0
-7755 26 0
-7755 218 0
-7755 230 0
-7756 26 0
-7756 85 0
-7756 140 0
-7757 26 0
-7757 85 0
-7757 149 0
-7757 239 0
-7758 26 0
-7758 85 0
-7758 158 0
-7758 230 0
-7759 26 0
-7759 95 0
-7759 130 0
-7760 26 0
-7760 95 0
-7760 149 0
-7760 218 0
-7761 26 0
-7761 95 0
-7761 158 0
-7761 209 0
-7762 26 0
-7762 104 0
-7762 130 0
-7762 239 0
-7763 26 0
-7763 104 0
-7763 140 0
-7763 218 0
-7764 26 0
-7764 104 0
-7764 158 0
-7764 200 0
-7765 26 0
-7765 113 0
-7765 130 0
-7765 230 0
-7766 26 0
-7766 113 0
-7766 140 0
-7766 209 0
-7767 26 0
-7767 113 0
-7767 149 0
-7767 200 0
-7768 185 0
-7768 239 0
-7769 194 0
-7769 230 0
-7770 77 0
-7770 140 0
-7771 77 0
-7771 149 0
-7771 239 0
-7772 77 0
-7772 158 0
-7772 230 0
-7773 95 0
-7773 122 0
-7774 95 0
-7774 149 0
-7774 194 0
-7775 95 0
-7775 158 0
-7775 185 0
-7776 104 0
-7776 122 0
-7776 239 0
-7777 104 0
-7777 140 0
-7777 194 0
-7778 104 0
-7778 158 0
-7779 113 0
-7779 122 0
-7779 230 0
-7780 113 0
-7780 140 0
-7780 185 0
-7781 113 0
-7781 149 0
-7782 44 0
-7782 166 0
-7783 44 0
-7783 185 0
-7783 218 0
-7784 44 0
-7784 194 0
-7784 209 0
-7785 44 0
-7785 77 0
-7785 130 0
-7786 44 0
-7786 77 0
-7786 149 0
-7786 218 0
-7787 44 0
-7787 77 0
-7787 158 0
-7787 209 0
-7788 44 0
-7788 85 0
-7788 122 0
-7789 44 0
-7789 85 0
-7789 149 0
-7789 194 0
-7790 44 0
-7790 85 0
-7790 158 0
-7790 185 0
-7791 44 0
-7791 104 0
-7791 122 0
-7791 218 0
-7792 44 0
-7792 104 0
-7792 130 0
-7792 194 0
-7793 44 0
-7793 104 0
-7793 158 0
-7793 166 0
-7794 44 0
-7794 113 0
-7794 122 0
-7794 209 0
-7795 44 0
-7795 113 0
-7795 130 0
-7795 185 0
-7796 44 0
-7796 113 0
-7796 149 0
-7796 166 0
-7797 53 0
-7797 166 0
-7797 239 0
-7798 53 0
-7798 218 0
-7799 53 0
-7799 194 0
-7799 200 0
-7800 53 0
-7800 77 0
-7800 130 0
-7800 239 0
-7801 53 0
-7801 77 0
-7801 140 0
-7801 218 0
-7802 53 0
-7802 77 0
-7802 158 0
-7802 200 0
-7803 53 0
-7803 85 0
-7803 122 0
-7803 239 0
-7804 53 0
-7804 85 0
-7804 140 0
-7804 194 0
-7805 53 0
-7805 85 0
-7805 158 0
-7806 53 0
-7806 95 0
-7806 122 0
-7806 218 0
-7807 53 0
-7807 95 0
-7807 130 0
-7807 194 0
-7808 53 0
-7808 95 0
-7808 158 0
-7808 166 0
-7809 53 0
-7809 113 0
-7809 122 0
-7809 200 0
-7810 53 0
-7810 113 0
-7810 130 0
-7811 53 0
-7811 113 0
-7811 140 0
-7811 166 0
-7812 62 0
-7812 166 0
-7812 230 0
-7813 62 0
-7813 209 0
-7814 62 0
-7814 185 0
-7814 200 0
-7815 62 0
-7815 77 0
-7815 130 0
-7815 230 0
-7816 62 0
-7816 77 0
-7816 140 0
-7816 209 0
-7817 62 0
-7817 77 0
-7817 149 0
-7817 200 0
-7818 62 0
-7818 85 0
-7818 122 0
-7818 230 0
-7819 62 0
-7819 85 0
-7819 140 0
-7819 185 0
-7820 62 0
-7820 85 0
-7820 149 0
-7821 62 0
-7821 95 0
-7821 122 0
-7821 209 0
-7822 62 0
-7822 95 0
-7822 130 0
-7822 185 0
-7823 62 0
-7823 95 0
-7823 149 0
-7823 166 0
-7824 62 0
-7824 104 0
-7824 122 0
-7824 200 0
-7825 62 0
-7825 104 0
-7825 130 0
-7826 62 0
-7826 104 0
-7826 140 0
-7826 166 0
-34 -68 -176 -248 7723 7724 7725 7726 7727 7728 7729 7730 7731 7732 7733 7734 7735 7736 7737 7738 7739 7740 7741 7742 7743 7744 7745 7746 7747 7748 7749 7750 7751 7752 7753 7754 7755 7756 7757 7758 7759 7760 7761 7762 7763 7764 7765 7766 7767 7768 7769 7770 7771 7772 7773 7774 7775 7776 7777 7778 7779 7780 7781 7782 7783 7784 7785 7786 7787 7788 7789 7790 7791 7792 7793 7794 7795 7796 7797 7798 7799 7800 7801 7802 7803 7804 7805 7806 7807 7808 7809 7810 7811 7812 7813 7814 7815 7816 7817 7818 7819 7820 7821 7822 7823 7824 7825 7826 0
-7827 5 0
-7827 123 0
-7827 202 0
-7827 244 0
-7828 5 0
-7828 123 0
-7828 211 0
-7829 5 0
-7829 123 0
-7829 220 0
-7829 226 0
-7830 5 0
-7830 131 0
-7830 178 0
-7830 244 0
-7831 5 0
-7831 131 0
-7832 5 0
-7832 131 0
-7832 196 0
-7832 226 0
-7833 5 0
-7833 139 0
-7833 170 0
-7833 244 0
-7834 5 0
-7834 139 0
-7834 220 0
-7835 5 0
-7835 139 0
-7835 196 0
-7835 211 0
-7836 5 0
-7836 148 0
-7836 170 0
-7837 5 0
-7837 148 0
-7837 178 0
-7837 220 0
-7838 5 0
-7838 148 0
-7838 196 0
-7838 202 0
-7839 5 0
-7839 157 0
-7839 170 0
-7839 226 0
-7840 5 0
-7840 157 0
-7840 178 0
-7840 211 0
-7841 5 0
-7841 157 0
-7841 202 0
-7842 14 0
-7842 78 0
-7842 202 0
-7842 244 0
-7843 14 0
-7843 78 0
-7843 211 0
-7844 14 0
-7844 78 0
-7844 220 0
-7844 226 0
-7845 14 0
-7845 86 0
-7845 178 0
-7845 244 0
-7846 14 0
-7846 86 0
-7847 14 0
-7847 86 0
-7847 196 0
-7847 226 0
-7848 14 0
-7848 94 0
-7848 170 0
-7848 244 0
-7849 14 0
-7849 94 0
-7849 220 0
-7850 14 0
-7850 94 0
-7850 196 0
-7850 211 0
-7851 14 0
-7851 103 0
-7851 170 0
-7852 14 0
-7852 103 0
-7852 178 0
-7852 220 0
-7853 14 0
-7853 103 0
-7853 196 0
-7853 202 0
-7854 14 0
-7854 112 0
-7854 170 0
-7854 226 0
-7855 14 0
-7855 112 0
-7855 178 0
-7855 211 0
-7856 14 0
-7856 112 0
-7856 202 0
-7857 24 0
-7857 202 0
-7857 244 0
-7858 24 0
-7858 211 0
-7859 24 0
-7859 220 0
-7859 226 0
-7860 24 0
-7860 86 0
-7860 139 0
-7860 244 0
-7861 24 0
-7861 86 0
-7861 148 0
-7862 24 0
-7862 86 0
-7862 157 0
-7862 226 0
-7863 24 0
-7863 94 0
-7863 131 0
-7863 244 0
-7864 24 0
-7864 94 0
-7864 148 0
-7864 220 0
-7865 24 0
-7865 94 0
-7865 157 0
-7865 211 0
-7866 24 0
-7866 103 0
-7866 131 0
-7867 24 0
-7867 103 0
-7867 139 0
-7867 220 0
-7868 24 0
-7868 103 0
-7868 157 0
-7868 202 0
-7869 24 0
-7869 112 0
-7869 131 0
-7869 226 0
-7870 24 0
-7870 112 0
-7870 139 0
-7870 211 0
-7871 24 0
-7871 112 0
-7871 148 0
-7871 202 0
-7872 178 0
-7872 244 0
-7873 196 0
-7873 226 0
-7874 78 0
-7874 139 0
-7874 244 0
-7875 78 0
-7875 148 0
-7876 78 0
-7876 157 0
-7876 226 0
-7877 94 0
-7877 123 0
-7877 244 0
-7878 94 0
-7878 148 0
-7878 196 0
-7879 94 0
-7879 157 0
-7880 103 0
-7880 123 0
-7881 103 0
-7881 139 0
-7881 196 0
-7882 103 0
-7882 157 0
-7882 178 0
-7883 112 0
-7883 123 0
-7883 226 0
-7884 112 0
-7884 139 0
-7885 112 0
-7885 148 0
-7885 178 0
-7886 40 0
-7886 170 0
-7886 244 0
-7887 40 0
-7887 220 0
-7888 40 0
-7888 196 0
-7888 211 0
-7889 40 0
-7889 78 0
-7889 131 0
-7889 244 0
-7890 40 0
-7890 78 0
-7890 148 0
-7890 220 0
-7891 40 0
-7891 78 0
-7891 157 0
-7891 211 0
-7892 40 0
-7892 86 0
-7892 123 0
-7892 244 0
-7893 40 0
-7893 86 0
-7893 148 0
-7893 196 0
-7894 40 0
-7894 86 0
-7894 157 0
-7895 40 0
-7895 103 0
-7895 123 0
-7895 220 0
-7896 40 0
-7896 103 0
-7896 131 0
-7896 196 0
-7897 40 0
-7897 103 0
-7897 157 0
-7897 170 0
-7898 40 0
-7898 112 0
-7898 123 0
-7898 211 0
-7899 40 0
-7899 112 0
-7899 131 0
-7900 40 0
-7900 112 0
-7900 148 0
-7900 170 0
-7901 49 0
-7901 170 0
-7902 49 0
-7902 178 0
-7902 220 0
-7903 49 0
-7903 196 0
-7903 202 0
-7904 49 0
-7904 78 0
-7904 131 0
-7905 49 0
-7905 78 0
-7905 139 0
-7905 220 0
-7906 49 0
-7906 78 0
-7906 157 0
-7906 202 0
-7907 49 0
-7907 86 0
-7907 123 0
-7908 49 0
-7908 86 0
-7908 139 0
-7908 196 0
-7909 49 0
-7909 86 0
-7909 157 0
-7909 178 0
-7910 49 0
-7910 94 0
-7910 123 0
-7910 220 0
-7911 49 0
-7911 94 0
-7911 131 0
-7911 196 0
-7912 49 0
-7912 94 0
-7912 157 0
-7912 170 0
-7913 49 0
-7913 112 0
-7913 123 0
-7913 202 0
-7914 49 0
-7914 112 0
-7914 131 0
-7914 178 0
-7915 49 0
-7915 112 0
-7915 139 0
-7915 170 0
-7916 58 0
-7916 170 0
-7916 226 0
-7917 58 0
-7917 178 0
-7917 211 0
-7918 58 0
-7918 202 0
-7919 58 0
-7919 78 0
-7919 131 0
-7919 226 0
-7920 58 0
-7920 78 0
-7920 139 0
-7920 211 0
-7921 58 0
-7921 78 0
-7921 148 0
-7921 202 0
-7922 58 0
-7922 86 0
-7922 123 0
-7922 226 0
-7923 58 0
-7923 86 0
-7923 139 0
-7924 58 0
-7924 86 0
-7924 148 0
-7924 178 0
-7925 58 0
-7925 94 0
-7925 123 0
-7925 211 0
-7926 58 0
-7926 94 0
-7926 131 0
-7927 58 0
-7927 94 0
-7927 148 0
-7927 170 0
-7928 58 0
-7928 103 0
-7928 123 0
-7928 202 0
-7929 58 0
-7929 103 0
-7929 131 0
-7929 178 0
-7930 58 0
-7930 103 0
-7930 139 0
-7930 170 0
-32 -68 -187 -235 7827 7828 7829 7830 7831 7832 7833 7834 7835 7836 7837 7838 7839 7840 7841 7842 7843 7844 7845 7846 7847 7848 7849 7850 7851 7852 7853 7854 7855 7856 7857 7858 7859 7860 7861 7862 7863 7864 7865 7866 7867 7868 7869 7870 7871 7872 7873 7874 7875 7876 7877 7878 7879 7880 7881 7882 7883 7884 7885 7886 7887 7888 7889 7890 7891 7892 7893 7894 7895 7896 7897 7898 7899 7900 7901 7902 7903 7904 7905 7906 7907 7908 7909 7910 7911 7912 7913 7914 7915 7916 7917 7918 7919 7920 7921 7922 7923 7924 7925 7926 7927 7928 7929 7930 0
-7931 5 0
-7931 122 0
-7931 202 0
-7931 244 0
-7932 5 0
-7932 122 0
-7932 211 0
-7933 5 0
-7933 122 0
-7933 220 0
-7933 226 0
-7934 5 0
-7934 131 0
-7934 175 0
-7934 244 0
-7935 5 0
-7935 131 0
-7935 184 0
-7936 5 0
-7936 131 0
-7936 193 0
-7936 226 0
-7937 5 0
-7937 139 0
-7937 244 0
-7938 5 0
-7938 139 0
-7938 184 0
-7938 220 0
-7939 5 0
-7939 139 0
-7939 193 0
-7939 211 0
-7940 5 0
-7940 148 0
-7941 5 0
-7941 148 0
-7941 175 0
-7941 220 0
-7942 5 0
-7942 148 0
-7942 193 0
-7942 202 0
-7943 5 0
-7943 157 0
-7943 226 0
-7944 5 0
-7944 157 0
-7944 175 0
-7944 211 0
-7945 5 0
-7945 157 0
-7945 184 0
-7945 202 0
-7946 14 0
-7946 77 0
-7946 202 0
-7946 244 0
-7947 14 0
-7947 77 0
-7947 211 0
-7948 14 0
-7948 77 0
-7948 220 0
-7948 226 0
-7949 14 0
-7949 86 0
-7949 175 0
-7949 244 0
-7950 14 0
-7950 86 0
-7950 184 0
-7951 14 0
-7951 86 0
-7951 193 0
-7951 226 0
-7952 14 0
-7952 94 0
-7952 244 0
-7953 14 0
-7953 94 0
-7953 184 0
-7953 220 0
-7954 14 0
-7954 94 0
-7954 193 0
-7954 211 0
-7955 14 0
-7955 103 0
-7956 14 0
-7956 103 0
-7956 175 0
-7956 220 0
-7957 14 0
-7957 103 0
-7957 193 0
-7957 202 0
-7958 14 0
-7958 112 0
-7958 226 0
-7959 14 0
-7959 112 0
-7959 175 0
-7959 211 0
-7960 14 0
-7960 112 0
-7960 184 0
-7960 202 0
-7961 23 0
-7961 202 0
-7961 244 0
-7962 23 0
-7962 211 0
-7963 23 0
-7963 220 0
-7963 226 0
-7964 23 0
-7964 86 0
-7964 139 0
-7964 244 0
-7965 23 0
-7965 86 0
-7965 148 0
-7966 23 0
-7966 86 0
-7966 157 0
-7966 226 0
-7967 23 0
-7967 94 0
-7967 131 0
-7967 244 0
-7968 23 0
-7968 94 0
-7968 148 0
-7968 220 0
-7969 23 0
-7969 94 0
-7969 157 0
-7969 211 0
-7970 23 0
-7970 103 0
-7970 131 0
-7971 23 0
-7971 103 0
-7971 139 0
-7971 220 0
-7972 23 0
-7972 103 0
-7972 157 0
-7972 202 0
-7973 23 0
-7973 112 0
-7973 131 0
-7973 226 0
-7974 23 0
-7974 112 0
-7974 139 0
-7974 211 0
-7975 23 0
-7975 112 0
-7975 148 0
-7975 202 0
-7976 32 0
-7976 175 0
-7976 244 0
-7977 32 0
-7977 184 0
-7978 32 0
-7978 193 0
-7978 226 0
-7979 32 0
-7979 77 0
-7979 139 0
-7979 244 0
-7980 32 0
-7980 77 0
-7980 148 0
-7981 32 0
-7981 77 0
-7981 157 0
-7981 226 0
-7982 32 0
-7982 94 0
-7982 122 0
-7982 244 0
-7983 32 0
-7983 94 0
-7983 148 0
-7983 193 0
-7984 32 0
-7984 94 0
-7984 157 0
-7984 184 0
-7985 32 0
-7985 103 0
-7985 122 0
-7986 32 0
-7986 103 0
-7986 139 0
-7986 193 0
-7987 32 0
-7987 103 0
-7987 157 0
-7987 175 0
-7988 32 0
-7988 112 0
-7988 122 0
-7988 226 0
-7989 32 0
-7989 112 0
-7989 139 0
-7989 184 0
-7990 32 0
-7990 112 0
-7990 148 0
-7990 175 0
-7991 40 0
-7991 244 0
-7992 40 0
-7992 184 0
-7992 220 0
-7993 40 0
-7993 193 0
-7993 211 0
-7994 40 0
-7994 77 0
-7994 131 0
-7994 244 0
-7995 40 0
-7995 77 0
-7995 148 0
-7995 220 0
-7996 40 0
-7996 77 0
-7996 157 0
-7996 211 0
-7997 40 0
-7997 86 0
-7997 122 0
-7997 244 0
-7998 40 0
-7998 86 0
-7998 148 0
-7998 193 0
-7999 40 0
-7999 86 0
-7999 157 0
-7999 184 0
-8000 40 0
-8000 103 0
-8000 122 0
-8000 220 0
-8001 40 0
-8001 103 0
-8001 131 0
-8001 193 0
-8002 40 0
-8002 103 0
-8002 157 0
-8003 40 0
-8003 112 0
-8003 122 0
-8003 211 0
-8004 40 0
-8004 112 0
-8004 131 0
-8004 184 0
-8005 40 0
-8005 112 0
-8005 148 0
-8006 175 0
-8006 220 0
-8007 193 0
-8007 202 0
-8008 77 0
-8008 131 0
-8009 77 0
-8009 139 0
-8009 220 0
-8010 77 0
-8010 157 0
-8010 202 0
-8011 86 0
-8011 122 0
-8012 86 0
-8012 139 0
-8012 193 0
-8013 86 0
-8013 157 0
-8013 175 0
-8014 94 0
-8014 122 0
-8014 220 0
-8015 94 0
-8015 131 0
-8015 193 0
-8016 94 0
-8016 157 0
-8017 112 0
-8017 122 0
-8017 202 0
-8018 112 0
-8018 131 0
-8018 175 0
-8019 112 0
-8019 139 0
-8020 58 0
-8020 226 0
-8021 58 0
-8021 175 0
-8021 211 0
-8022 58 0
-8022 184 0
-8022 202 0
-8023 58 0
-8023 77 0
-8023 131 0
-8023 226 0
-8024 58 0
-8024 77 0
-8024 139 0
-8024 211 0
-8025 58 0
-8025 77 0
-8025 148 0
-8025 202 0
-8026 58 0
-8026 86 0
-8026 122 0
-8026 226 0
-8027 58 0
-8027 86 0
-8027 139 0
-8027 184 0
-8028 58 0
-8028 86 0
-8028 148 0
-8028 175 0
-8029 58 0
-8029 94 0
-8029 122 0
-8029 211 0
-8030 58 0
-8030 94 0
-8030 131 0
-8030 184 0
-8031 58 0
-8031 94 0
-8031 148 0
-8032 58 0
-8032 103 0
-8032 122 0
-8032 202 0
-8033 58 0
-8033 103 0
-8033 131 0
-8033 175 0
-8034 58 0
-8034 103 0
-8034 139 0
-49 -68 -167 -235 7931 7932 7933 7934 7935 7936 7937 7938 7939 7940 7941 7942 7943 7944 7945 7946 7947 7948 7949 7950 7951 7952 7953 7954 7955 7956 7957 7958 7959 7960 7961 7962 7963 7964 7965 7966 7967 7968 7969 7970 7971 7972 7973 7974 7975 7976 7977 7978 7979 7980 7981 7982 7983 7984 7985 7986 7987 7988 7989 7990 7991 7992 7993 7994 7995 7996 7997 7998 7999 8000 8001 8002 8003 8004 8005 8006 8007 8008 8009 8010 8011 8012 8013 8014 8015 8016 8017 8018 8019 8020 8021 8022 8023 8024 8025 8026 8027 8028 8029 8030 8031 8032 8033 8034 0
-8035 5 0
-8035 121 0
-8035 202 0
-8035 250 0
-8036 5 0
-8036 121 0
-8036 213 0
-8037 5 0
-8037 121 0
-8037 220 0
-8037 228 0
-8038 5 0
-8038 131 0
-8038 172 0
-8038 250 0
-8039 5 0
-8039 131 0
-8040 5 0
-8040 131 0
-8040 190 0
-8040 228 0
-8041 5 0
-8041 139 0
-8041 164 0
-8041 250 0
-8042 5 0
-8042 139 0
-8042 220 0
-8043 5 0
-8043 139 0
-8043 190 0
-8043 213 0
-8044 5 0
-8044 150 0
-8044 164 0
-8045 5 0
-8045 150 0
-8045 172 0
-8045 220 0
-8046 5 0
-8046 150 0
-8046 190 0
-8046 202 0
-8047 5 0
-8047 157 0
-8047 164 0
-8047 228 0
-8048 5 0
-8048 157 0
-8048 172 0
-8048 213 0
-8049 5 0
-8049 157 0
-8049 202 0
-8050 14 0
-8050 76 0
-8050 202 0
-8050 250 0
-8051 14 0
-8051 76 0
-8051 213 0
-8052 14 0
-8052 76 0
-8052 220 0
-8052 228 0
-8053 14 0
-8053 86 0
-8053 172 0
-8053 250 0
-8054 14 0
-8054 86 0
-8055 14 0
-8055 86 0
-8055 190 0
-8055 228 0
-8056 14 0
-8056 94 0
-8056 164 0
-8056 250 0
-8057 14 0
-8057 94 0
-8057 220 0
-8058 14 0
-8058 94 0
-8058 190 0
-8058 213 0
-8059 14 0
-8059 105 0
-8059 164 0
-8060 14 0
-8060 105 0
-8060 172 0
-8060 220 0
-8061 14 0
-8061 105 0
-8061 190 0
-8061 202 0
-8062 14 0
-8062 112 0
-8062 164 0
-8062 228 0
-8063 14 0
-8063 112 0
-8063 172 0
-8063 213 0
-8064 14 0
-8064 112 0
-8064 202 0
-8065 22 0
-8065 202 0
-8065 250 0
-8066 22 0
-8066 213 0
-8067 22 0
-8067 220 0
-8067 228 0
-8068 22 0
-8068 86 0
-8068 139 0
-8068 250 0
-8069 22 0
-8069 86 0
-8069 150 0
-8070 22 0
-8070 86 0
-8070 157 0
-8070 228 0
-8071 22 0
-8071 94 0
-8071 131 0
-8071 250 0
-8072 22 0
-8072 94 0
-8072 150 0
-8072 220 0
-8073 22 0
-8073 94 0
-8073 157 0
-8073 213 0
-8074 22 0
-8074 105 0
-8074 131 0
-8075 22 0
-8075 105 0
-8075 139 0
-8075 220 0
-8076 22 0
-8076 105 0
-8076 157 0
-8076 202 0
-8077 22 0
-8077 112 0
-8077 131 0
-8077 228 0
-8078 22 0
-8078 112 0
-8078 139 0
-8078 213 0
-8079 22 0
-8079 112 0
-8079 150 0
-8079 202 0
-8080 172 0
-8080 250 0
-8081 190 0
-8081 228 0
-8082 76 0
-8082 139 0
-8082 250 0
-8083 76 0
-8083 150 0
-8084 76 0
-8084 157 0
-8084 228 0
-8085 94 0
-8085 121 0
-8085 250 0
-8086 94 0
-8086 150 0
-8086 190 0
-8087 94 0
-8087 157 0
-8088 105 0
-8088 121 0
-8089 105 0
-8089 139 0
-8089 190 0
-8090 105 0
-8090 157 0
-8090 172 0
-8091 112 0
-8091 121 0
-8091 228 0
-8092 112 0
-8092 139 0
-8093 112 0
-8093 150 0
-8093 172 0
-8094 40 0
-8094 164 0
-8094 250 0
-8095 40 0
-8095 220 0
-8096 40 0
-8096 190 0
-8096 213 0
-8097 40 0
-8097 76 0
-8097 131 0
-8097 250 0
-8098 40 0
-8098 76 0
-8098 150 0
-8098 220 0
-8099 40 0
-8099 76 0
-8099 157 0
-8099 213 0
-8100 40 0
-8100 86 0
-8100 121 0
-8100 250 0
-8101 40 0
-8101 86 0
-8101 150 0
-8101 190 0
-8102 40 0
-8102 86 0
-8102 157 0
-8103 40 0
-8103 105 0
-8103 121 0
-8103 220 0
-8104 40 0
-8104 105 0
-8104 131 0
-8104 190 0
-8105 40 0
-8105 105 0
-8105 157 0
-8105 164 0
-8106 40 0
-8106 112 0
-8106 121 0
-8106 213 0
-8107 40 0
-8107 112 0
-8107 131 0
-8108 40 0
-8108 112 0
-8108 150 0
-8108 164 0
-8109 51 0
-8109 164 0
-8110 51 0
-8110 172 0
-8110 220 0
-8111 51 0
-8111 190 0
-8111 202 0
-8112 51 0
-8112 76 0
-8112 131 0
-8113 51 0
-8113 76 0
-8113 139 0
-8113 220 0
-8114 51 0
-8114 76 0
-8114 157 0
-8114 202 0
-8115 51 0
-8115 86 0
-8115 121 0
-8116 51 0
-8116 86 0
-8116 139 0
-8116 190 0
-8117 51 0
-8117 86 0
-8117 157 0
-8117 172 0
-8118 51 0
-8118 94 0
-8118 121 0
-8118 220 0
-8119 51 0
-8119 94 0
-8119 131 0
-8119 190 0
-8120 51 0
-8120 94 0
-8120 157 0
-8120 164 0
-8121 51 0
-8121 112 0
-8121 121 0
-8121 202 0
-8122 51 0
-8122 112 0
-8122 131 0
-8122 172 0
-8123 51 0
-8123 112 0
-8123 139 0
-8123 164 0
-8124 58 0
-8124 164 0
-8124 228 0
-8125 58 0
-8125 172 0
-8125 213 0
-8126 58 0
-8126 202 0
-8127 58 0
-8127 76 0
-8127 131 0
-8127 228 0
-8128 58 0
-8128 76 0
-8128 139 0
-8128 213 0
-8129 58 0
-8129 76 0
-8129 150 0
-8129 202 0
-8130 58 0
-8130 86 0
-8130 121 0
-8130 228 0
-8131 58 0
-8131 86 0
-8131 139 0
-8132 58 0
-8132 86 0
-8132 150 0
-8132 172 0
-8133 58 0
-8133 94 0
-8133 121 0
-8133 213 0
-8134 58 0
-8134 94 0
-8134 131 0
-8135 58 0
-8135 94 0
-8135 150 0
-8135 164 0
-8136 58 0
-8136 105 0
-8136 121 0
-8136 202 0
-8137 58 0
-8137 105 0
-8137 131 0
-8137 172 0
-8138 58 0
-8138 105 0
-8138 139 0
-8138 164 0
-32 -68 -183 -235 8035 8036 8037 8038 8039 8040 8041 8042 8043 8044 8045 8046 8047 8048 8049 8050 8051 8052 8053 8054 8055 8056 8057 8058 8059 8060 8061 8062 8063 8064 8065 8066 8067 8068 8069 8070 8071 8072 8073 8074 8075 8076 8077 8078 8079 8080 8081 8082 8083 8084 8085 8086 8087 8088 8089 8090 8091 8092 8093 8094 8095 8096 8097 8098 8099 8100 8101 8102 8103 8104 8105 8106 8107 8108 8109 8110 8111 8112 8113 8114 8115 8116 8117 8118 8119 8120 8121 8122 8123 8124 8125 8126 8127 8128 8129 8130 8131 8132 8133 8134 8135 8136 8137 8138 0
-8139 4 0
-8139 119 0
-8139 204 0
-8140 4 0
-8140 119 0
-8140 212 0
-8140 242 0
-8141 4 0
-8141 119 0
-8141 221 0
-8141 233 0
-8142 4 0
-8142 128 0
-8142 177 0
-8143 4 0
-8143 128 0
-8143 185 0
-8143 242 0
-8144 4 0
-8144 128 0
-8144 194 0
-8144 233 0
-8145 4 0
-8145 138 0
-8146 4 0
-8146 138 0
-8146 185 0
-8146 221 0
-8147 4 0
-8147 138 0
-8147 194 0
-8147 212 0
-8148 4 0
-8148 146 0
-8148 242 0
-8149 4 0
-8149 146 0
-8149 177 0
-8149 221 0
-8150 4 0
-8150 146 0
-8150 194 0
-8150 204 0
-8151 4 0
-8151 155 0
-8151 233 0
-8152 4 0
-8152 155 0
-8152 177 0
-8152 212 0
-8153 4 0
-8153 155 0
-8153 185 0
-8153 204 0
-8154 74 0
-8154 204 0
-8155 74 0
-8155 212 0
-8155 242 0
-8156 74 0
-8156 221 0
-8156 233 0
-8157 83 0
-8157 177 0
-8158 83 0
-8158 185 0
-8158 242 0
-8159 83 0
-8159 194 0
-8159 233 0
-8160 185 0
-8160 221 0
-8161 194 0
-8161 212 0
-8162 101 0
-8162 242 0
-8163 101 0
-8163 177 0
-8163 221 0
-8164 101 0
-8164 194 0
-8164 204 0
-8165 110 0
-8165 233 0
-8166 110 0
-8166 177 0
-8166 212 0
-8167 110 0
-8167 185 0
-8167 204 0
-8168 23 0
-8168 64 0
-8168 204 0
-8169 23 0
-8169 64 0
-8169 212 0
-8169 242 0
-8170 23 0
-8170 64 0
-8170 221 0
-8170 233 0
-8171 23 0
-8171 83 0
-8171 138 0
-8172 23 0
-8172 83 0
-8172 146 0
-8172 242 0
-8173 23 0
-8173 83 0
-8173 155 0
-8173 233 0
-8174 23 0
-8174 128 0
-8175 23 0
-8175 146 0
-8175 221 0
-8176 23 0
-8176 155 0
-8176 212 0
-8177 23 0
-8177 101 0
-8177 128 0
-8177 242 0
-8178 23 0
-8178 101 0
-8178 138 0
-8178 221 0
-8179 23 0
-8179 101 0
-8179 155 0
-8179 204 0
-8180 23 0
-8180 110 0
-8180 128 0
-8180 233 0
-8181 23 0
-8181 110 0
-8181 138 0
-8181 212 0
-8182 23 0
-8182 110 0
-8182 146 0
-8182 204 0
-8183 32 0
-8183 64 0
-8183 177 0
-8184 32 0
-8184 64 0
-8184 185 0
-8184 242 0
-8185 32 0
-8185 64 0
-8185 194 0
-8185 233 0
-8186 32 0
-8186 74 0
-8186 138 0
-8187 32 0
-8187 74 0
-8187 146 0
-8187 242 0
-8188 32 0
-8188 74 0
-8188 155 0
-8188 233 0
-8189 32 0
-8189 119 0
-8190 32 0
-8190 146 0
-8190 194 0
-8191 32 0
-8191 155 0
-8191 185 0
-8192 32 0
-8192 101 0
-8192 119 0
-8192 242 0
-8193 32 0
-8193 101 0
-8193 138 0
-8193 194 0
-8194 32 0
-8194 101 0
-8194 155 0
-8194 177 0
-8195 32 0
-8195 110 0
-8195 119 0
-8195 233 0
-8196 32 0
-8196 110 0
-8196 138 0
-8196 185 0
-8197 32 0
-8197 110 0
-8197 146 0
-8197 177 0
-8198 42 0
-8198 64 0
-8199 42 0
-8199 64 0
-8199 185 0
-8199 221 0
-8200 42 0
-8200 64 0
-8200 194 0
-8200 212 0
-8201 42 0
-8201 74 0
-8201 128 0
-8202 42 0
-8202 74 0
-8202 146 0
-8202 221 0
-8203 42 0
-8203 74 0
-8203 155 0
-8203 212 0
-8204 42 0
-8204 83 0
-8204 119 0
-8205 42 0
-8205 83 0
-8205 146 0
-8205 194 0
-8206 42 0
-8206 83 0
-8206 155 0
-8206 185 0
-8207 42 0
-8207 101 0
-8207 119 0
-8207 221 0
-8208 42 0
-8208 101 0
-8208 128 0
-8208 194 0
-8209 42 0
-8209 101 0
-8209 155 0
-8210 42 0
-8210 110 0
-8210 119 0
-8210 212 0
-8211 42 0
-8211 110 0
-8211 128 0
-8211 185 0
-8212 42 0
-8212 110 0
-8212 146 0
-8213 50 0
-8213 64 0
-8213 242 0
-8214 50 0
-8214 64 0
-8214 177 0
-8214 221 0
-8215 50 0
-8215 64 0
-8215 194 0
-8215 204 0
-8216 50 0
-8216 74 0
-8216 128 0
-8216 242 0
-8217 50 0
-8217 74 0
-8217 138 0
-8217 221 0
-8218 50 0
-8218 74 0
-8218 155 0
-8218 204 0
-8219 50 0
-8219 83 0
-8219 119 0
-8219 242 0
-8220 50 0
-8220 83 0
-8220 138 0
-8220 194 0
-8221 50 0
-8221 83 0
-8221 155 0
-8221 177 0
-8222 50 0
-8222 119 0
-8222 221 0
-8223 50 0
-8223 128 0
-8223 194 0
-8224 50 0
-8224 155 0
-8225 50 0
-8225 110 0
-8225 119 0
-8225 204 0
-8226 50 0
-8226 110 0
-8226 128 0
-8226 177 0
-8227 50 0
-8227 110 0
-8227 138 0
-8228 59 0
-8228 64 0
-8228 233 0
-8229 59 0
-8229 64 0
-8229 177 0
-8229 212 0
-8230 59 0
-8230 64 0
-8230 185 0
-8230 204 0
-8231 59 0
-8231 74 0
-8231 128 0
-8231 233 0
-8232 59 0
-8232 74 0
-8232 138 0
-8232 212 0
-8233 59 0
-8233 74 0
-8233 146 0
-8233 204 0
-8234 59 0
-8234 83 0
-8234 119 0
-8234 233 0
-8235 59 0
-8235 83 0
-8235 138 0
-8235 185 0
-8236 59 0
-8236 83 0
-8236 146 0
-8236 177 0
-8237 59 0
-8237 119 0
-8237 212 0
-8238 59 0
-8238 128 0
-8238 185 0
-8239 59 0
-8239 146 0
-8240 59 0
-8240 101 0
-8240 119 0
-8240 204 0
-8241 59 0
-8241 101 0
-8241 128 0
-8241 177 0
-8242 59 0
-8242 101 0
-8242 138 0
-13 -93 -167 -248 8139 8140 8141 8142 8143 8144 8145 8146 8147 8148 8149 8150 8151 8152 8153 8154 8155 8156 8157 8158 8159 8160 8161 8162 8163 8164 8165 8166 8167 8168 8169 8170 8171 8172 8173 8174 8175 8176 8177 8178 8179 8180 8181 8182 8183 8184 8185 8186 8187 8188 8189 8190 8191 8192 8193 8194 8195 8196 8197 8198 8199 8200 8201 8202 8203 8204 8205 8206 8207 8208 8209 8210 8211 8212 8213 8214 8215 8216 8217 8218 8219 8220 8221 8222 8223 8224 8225 8226 8227 8228 8229 8230 8231 8232 8233 8234 8235 8236 8237 8238 8239 8240 8241 8242 0
-8243 2 0
-8243 122 0
-8243 202 0
-8243 250 0
-8244 2 0
-8244 122 0
-8244 213 0
-8245 2 0
-8245 122 0
-8245 220 0
-8245 228 0
-8246 2 0
-8246 131 0
-8246 175 0
-8246 250 0
-8247 2 0
-8247 131 0
-8247 186 0
-8248 2 0
-8248 131 0
-8248 193 0
-8248 228 0
-8249 2 0
-8249 139 0
-8249 250 0
-8250 2 0
-8250 139 0
-8250 186 0
-8250 220 0
-8251 2 0
-8251 139 0
-8251 193 0
-8251 213 0
-8252 2 0
-8252 150 0
-8253 2 0
-8253 150 0
-8253 175 0
-8253 220 0
-8254 2 0
-8254 150 0
-8254 193 0
-8254 202 0
-8255 2 0
-8255 157 0
-8255 228 0
-8256 2 0
-8256 157 0
-8256 175 0
-8256 213 0
-8257 2 0
-8257 157 0
-8257 186 0
-8257 202 0
-8258 11 0
-8258 77 0
-8258 202 0
-8258 250 0
-8259 11 0
-8259 77 0
-8259 213 0
-8260 11 0
-8260 77 0
-8260 220 0
-8260 228 0
-8261 11 0
-8261 86 0
-8261 175 0
-8261 250 0
-8262 11 0
-8262 86 0
-8262 186 0
-8263 11 0
-8263 86 0
-8263 193 0
-8263 228 0
-8264 11 0
-8264 94 0
-8264 250 0
-8265 11 0
-8265 94 0
-8265 186 0
-8265 220 0
-8266 11 0
-8266 94 0
-8266 193 0
-8266 213 0
-8267 11 0
-8267 105 0
-8268 11 0
-8268 105 0
-8268 175 0
-8268 220 0
-8269 11 0
-8269 105 0
-8269 193 0
-8269 202 0
-8270 11 0
-8270 112 0
-8270 228 0
-8271 11 0
-8271 112 0
-8271 175 0
-8271 213 0
-8272 11 0
-8272 112 0
-8272 186 0
-8272 202 0
-8273 20 0
-8273 202 0
-8273 250 0
-8274 20 0
-8274 213 0
-8275 20 0
-8275 220 0
-8275 228 0
-8276 20 0
-8276 86 0
-8276 139 0
-8276 250 0
-8277 20 0
-8277 86 0
-8277 150 0
-8278 20 0
-8278 86 0
-8278 157 0
-8278 228 0
-8279 20 0
-8279 94 0
-8279 131 0
-8279 250 0
-8280 20 0
-8280 94 0
-8280 150 0
-8280 220 0
-8281 20 0
-8281 94 0
-8281 157 0
-8281 213 0
-8282 20 0
-8282 105 0
-8282 131 0
-8283 20 0
-8283 105 0
-8283 139 0
-8283 220 0
-8284 20 0
-8284 105 0
-8284 157 0
-8284 202 0
-8285 20 0
-8285 112 0
-8285 131 0
-8285 228 0
-8286 20 0
-8286 112 0
-8286 139 0
-8286 213 0
-8287 20 0
-8287 112 0
-8287 150 0
-8287 202 0
-8288 29 0
-8288 175 0
-8288 250 0
-8289 29 0
-8289 186 0
-8290 29 0
-8290 193 0
-8290 228 0
-8291 29 0
-8291 77 0
-8291 139 0
-8291 250 0
-8292 29 0
-8292 77 0
-8292 150 0
-8293 29 0
-8293 77 0
-8293 157 0
-8293 228 0
-8294 29 0
-8294 94 0
-8294 122 0
-8294 250 0
-8295 29 0
-8295 94 0
-8295 150 0
-8295 193 0
-8296 29 0
-8296 94 0
-8296 157 0
-8296 186 0
-8297 29 0
-8297 105 0
-8297 122 0
-8298 29 0
-8298 105 0
-8298 139 0
-8298 193 0
-8299 29 0
-8299 105 0
-8299 157 0
-8299 175 0
-8300 29 0
-8300 112 0
-8300 122 0
-8300 228 0
-8301 29 0
-8301 112 0
-8301 139 0
-8301 186 0
-8302 29 0
-8302 112 0
-8302 150 0
-8302 175 0
-8303 37 0
-8303 250 0
-8304 37 0
-8304 186 0
-8304 220 0
-8305 37 0
-8305 193 0
-8305 213 0
-8306 37 0
-8306 77 0
-8306 131 0
-8306 250 0
-8307 37 0
-8307 77 0
-8307 150 0
-8307 220 0
-8308 37 0
-8308 77 0
-8308 157 0
-8308 213 0
-8309 37 0
-8309 86 0
-8309 122 0
-8309 250 0
-8310 37 0
-8310 86 0
-8310 150 0
-8310 193 0
-8311 37 0
-8311 86 0
-8311 157 0
-8311 186 0
-8312 37 0
-8312 105 0
-8312 122 0
-8312 220 0
-8313 37 0
-8313 105 0
-8313 131 0
-8313 193 0
-8314 37 0
-8314 105 0
-8314 157 0
-8315 37 0
-8315 112 0
-8315 122 0
-8315 213 0
-8316 37 0
-8316 112 0
-8316 131 0
-8316 186 0
-8317 37 0
-8317 112 0
-8317 150 0
-8318 175 0
-8318 220 0
-8319 193 0
-8319 202 0
-8320 77 0
-8320 131 0
-8321 77 0
-8321 139 0
-8321 220 0
-8322 77 0
-8322 157 0
-8322 202 0
-8323 86 0
-8323 122 0
-8324 86 0
-8324 139 0
-8324 193 0
-8325 86 0
-8325 157 0
-8325 175 0
-8326 94 0
-8326 122 0
-8326 220 0
-8327 94 0
-8327 131 0
-8327 193 0
-8328 94 0
-8328 157 0
-8329 112 0
-8329 122 0
-8329 202 0
-8330 112 0
-8330 131 0
-8330 175 0
-8331 112 0
-8331 139 0
-8332 55 0
-8332 228 0
-8333 55 0
-8333 175 0
-8333 213 0
-8334 55 0
-8334 186 0
-8334 202 0
-8335 55 0
-8335 77 0
-8335 131 0
-8335 228 0
-8336 55 0
-8336 77 0
-8336 139 0
-8336 213 0
-8337 55 0
-8337 77 0
-8337 150 0
-8337 202 0
-8338 55 0
-8338 86 0
-8338 122 0
-8338 228 0
-8339 55 0
-8339 86 0
-8339 139 0
-8339 186 0
-8340 55 0
-8340 86 0
-8340 150 0
-8340 175 0
-8341 55 0
-8341 94 0
-8341 122 0
-8341 213 0
-8342 55 0
-8342 94 0
-8342 131 0
-8342 186 0
-8343 55 0
-8343 94 0
-8343 150 0
-8344 55 0
-8344 105 0
-8344 122 0
-8344 202 0
-8345 55 0
-8345 105 0
-8345 131 0
-8345 175 0
-8346 55 0
-8346 105 0
-8346 139 0
-48 -68 -167 -235 8243 8244 8245 8246 8247 8248 8249 8250 8251 8252 8253 8254 8255 8256 8257 8258 8259 8260 8261 8262 8263 8264 8265 8266 8267 8268 8269 8270 8271 8272 8273 8274 8275 8276 8277 8278 8279 8280 8281 8282 8283 8284 8285 8286 8287 8288 8289 8290 8291 8292 8293 8294 8295 8296 8297 8298 8299 8300 8301 8302 8303 8304 8305 8306 8307 8308 8309 8310 8311 8312 8313 8314 8315 8316 8317 8318 8319 8320 8321 8322 8323 8324 8325 8326 8327 8328 8329 8330 8331 8332 8333 8334 8335 8336 8337 8338 8339 8340 8341 8342 8343 8344 8345 8346 0
-8347 125 0
-8347 200 0
-8348 125 0
-8348 209 0
-8348 239 0
-8349 125 0
-8349 218 0
-8349 230 0
-8350 185 0
-8350 239 0
-8351 194 0
-8351 230 0
-8352 143 0
-8352 166 0
-8353 143 0
-8353 185 0
-8353 218 0
-8354 143 0
-8354 194 0
-8354 209 0
-8355 152 0
-8355 166 0
-8355 239 0
-8356 152 0
-8356 218 0
-8357 152 0
-8357 194 0
-8357 200 0
-8358 161 0
-8358 166 0
-8358 230 0
-8359 161 0
-8359 209 0
-8360 161 0
-8360 185 0
-8360 200 0
-8361 12 0
-8361 74 0
-8361 200 0
-8362 12 0
-8362 74 0
-8362 209 0
-8362 239 0
-8363 12 0
-8363 74 0
-8363 218 0
-8363 230 0
-8364 12 0
-8364 82 0
-8365 12 0
-8365 82 0
-8365 185 0
-8365 239 0
-8366 12 0
-8366 82 0
-8366 194 0
-8366 230 0
-8367 12 0
-8367 92 0
-8367 166 0
-8368 12 0
-8368 92 0
-8368 185 0
-8368 218 0
-8369 12 0
-8369 92 0
-8369 194 0
-8369 209 0
-8370 12 0
-8370 101 0
-8370 166 0
-8370 239 0
-8371 12 0
-8371 101 0
-8371 218 0
-8372 12 0
-8372 101 0
-8372 194 0
-8372 200 0
-8373 12 0
-8373 110 0
-8373 166 0
-8373 230 0
-8374 12 0
-8374 110 0
-8374 209 0
-8375 12 0
-8375 110 0
-8375 185 0
-8375 200 0
-8376 20 0
-8376 66 0
-8376 200 0
-8377 20 0
-8377 66 0
-8377 209 0
-8377 239 0
-8378 20 0
-8378 66 0
-8378 218 0
-8378 230 0
-8379 20 0
-8379 82 0
-8379 143 0
-8380 20 0
-8380 82 0
-8380 152 0
-8380 239 0
-8381 20 0
-8381 82 0
-8381 161 0
-8381 230 0
-8382 20 0
-8382 92 0
-8383 20 0
-8383 92 0
-8383 152 0
-8383 218 0
-8384 20 0
-8384 92 0
-8384 161 0
-8384 209 0
-8385 20 0
-8385 101 0
-8385 239 0
-8386 20 0
-8386 101 0
-8386 143 0
-8386 218 0
-8387 20 0
-8387 101 0
-8387 161 0
-8387 200 0
-8388 20 0
-8388 110 0
-8388 230 0
-8389 20 0
-8389 110 0
-8389 143 0
-8389 209 0
-8390 20 0
-8390 110 0
-8390 152 0
-8390 200 0
-8391 28 0
-8391 66 0
-8392 28 0
-8392 66 0
-8392 185 0
-8392 239 0
-8393 28 0
-8393 66 0
-8393 194 0
-8393 230 0
-8394 28 0
-8394 74 0
-8394 143 0
-8395 28 0
-8395 74 0
-8395 152 0
-8395 239 0
-8396 28 0
-8396 74 0
-8396 161 0
-8396 230 0
-8397 28 0
-8397 92 0
-8397 125 0
-8398 28 0
-8398 92 0
-8398 152 0
-8398 194 0
-8399 28 0
-8399 92 0
-8399 161 0
-8399 185 0
-8400 28 0
-8400 101 0
-8400 125 0
-8400 239 0
-8401 28 0
-8401 101 0
-8401 143 0
-8401 194 0
-8402 28 0
-8402 101 0
-8402 161 0
-8403 28 0
-8403 110 0
-8403 125 0
-8403 230 0
-8404 28 0
-8404 110 0
-8404 143 0
-8404 185 0
-8405 28 0
-8405 110 0
-8405 152 0
-8406 38 0
-8406 66 0
-8406 166 0
-8407 38 0
-8407 66 0
-8407 185 0
-8407 218 0
-8408 38 0
-8408 66 0
-8408 194 0
-8408 209 0
-8409 38 0
-8409 74 0
-8410 38 0
-8410 74 0
-8410 152 0
-8410 218 0
-8411 38 0
-8411 74 0
-8411 161 0
-8411 209 0
-8412 38 0
-8412 82 0
-8412 125 0
-8413 38 0
-8413 82 0
-8413 152 0
-8413 194 0
-8414 38 0
-8414 82 0
-8414 161 0
-8414 185 0
-8415 38 0
-8415 101 0
-8415 125 0
-8415 218 0
-8416 38 0
-8416 101 0
-8416 194 0
-8417 38 0
-8417 101 0
-8417 161 0
-8417 166 0
-8418 38 0
-8418 110 0
-8418 125 0
-8418 209 0
-8419 38 0
-8419 110 0
-8419 185 0
-8420 38 0
-8420 110 0
-8420 152 0
-8420 166 0
-8421 47 0
-8421 66 0
-8421 166 0
-8421 239 0
-8422 47 0
-8422 66 0
-8422 218 0
-8423 47 0
-8423 66 0
-8423 194 0
-8423 200 0
-8424 47 0
-8424 74 0
-8424 239 0
-8425 47 0
-8425 74 0
-8425 143 0
-8425 218 0
-8426 47 0
-8426 74 0
-8426 161 0
-8426 200 0
-8427 47 0
-8427 82 0
-8427 125 0
-8427 239 0
-8428 47 0
-8428 82 0
-8428 143 0
-8428 194 0
-8429 47 0
-8429 82 0
-8429 161 0
-8430 47 0
-8430 92 0
-8430 125 0
-8430 218 0
-8431 47 0
-8431 92 0
-8431 194 0
-8432 47 0
-8432 92 0
-8432 161 0
-8432 166 0
-8433 47 0
-8433 110 0
-8433 125 0
-8433 200 0
-8434 47 0
-8434 110 0
-8435 47 0
-8435 110 0
-8435 143 0
-8435 166 0
-8436 56 0
-8436 66 0
-8436 166 0
-8436 230 0
-8437 56 0
-8437 66 0
-8437 209 0
-8438 56 0
-8438 66 0
-8438 185 0
-8438 200 0
-8439 56 0
-8439 74 0
-8439 230 0
-8440 56 0
-8440 74 0
-8440 143 0
-8440 209 0
-8441 56 0
-8441 74 0
-8441 152 0
-8441 200 0
-8442 56 0
-8442 82 0
-8442 125 0
-8442 230 0
-8443 56 0
-8443 82 0
-8443 143 0
-8443 185 0
-8444 56 0
-8444 82 0
-8444 152 0
-8445 56 0
-8445 92 0
-8445 125 0
-8445 209 0
-8446 56 0
-8446 92 0
-8446 185 0
-8447 56 0
-8447 92 0
-8447 152 0
-8447 166 0
-8448 56 0
-8448 101 0
-8448 125 0
-8448 200 0
-8449 56 0
-8449 101 0
-8450 56 0
-8450 101 0
-8450 143 0
-8450 166 0
-1 -133 -176 -248 8347 8348 8349 8350 8351 8352 8353 8354 8355 8356 8357 8358 8359 8360 8361 8362 8363 8364 8365 8366 8367 8368 8369 8370 8371 8372 8373 8374 8375 8376 8377 8378 8379 8380 8381 8382 8383 8384 8385 8386 8387 8388 8389 8390 8391 8392 8393 8394 8395 8396 8397 8398 8399 8400 8401 8402 8403 8404 8405 8406 8407 8408 8409 8410 8411 8412 8413 8414 8415 8416 8417 8418 8419 8420 8421 8422 8423 8424 8425 8426 8427 8428 8429 8430 8431 8432 8433 8434 8435 8436 8437 8438 8439 8440 8441 8442 8443 8444 8445 8446 8447 8448 8449 8450 0
-8451 212 0
-8451 242 0
-8452 221 0
-8452 233 0
-8453 128 0
-8453 174 0
-8454 128 0
-8454 182 0
-8454 242 0
-8455 128 0
-8455 191 0
-8455 233 0
-8456 138 0
-8456 164 0
-8457 138 0
-8457 182 0
-8457 221 0
-8458 138 0
-8458 191 0
-8458 212 0
-8459 146 0
-8459 164 0
-8459 242 0
-8460 146 0
-8460 174 0
-8460 221 0
-8461 146 0
-8461 191 0
-8462 155 0
-8462 164 0
-8462 233 0
-8463 155 0
-8463 174 0
-8463 212 0
-8464 155 0
-8464 182 0
-8465 10 0
-8465 73 0
-8466 10 0
-8466 73 0
-8466 212 0
-8466 242 0
-8467 10 0
-8467 73 0
-8467 221 0
-8467 233 0
-8468 10 0
-8468 83 0
-8468 174 0
-8469 10 0
-8469 83 0
-8469 182 0
-8469 242 0
-8470 10 0
-8470 83 0
-8470 191 0
-8470 233 0
-8471 10 0
-8471 93 0
-8471 164 0
-8472 10 0
-8472 93 0
-8472 182 0
-8472 221 0
-8473 10 0
-8473 93 0
-8473 191 0
-8473 212 0
-8474 10 0
-8474 101 0
-8474 164 0
-8474 242 0
-8475 10 0
-8475 101 0
-8475 174 0
-8475 221 0
-8476 10 0
-8476 101 0
-8476 191 0
-8477 10 0
-8477 110 0
-8477 164 0
-8477 233 0
-8478 10 0
-8478 110 0
-8478 174 0
-8478 212 0
-8479 10 0
-8479 110 0
-8479 182 0
-8480 19 0
-8480 64 0
-8481 19 0
-8481 64 0
-8481 212 0
-8481 242 0
-8482 19 0
-8482 64 0
-8482 221 0
-8482 233 0
-8483 19 0
-8483 83 0
-8483 138 0
-8484 19 0
-8484 83 0
-8484 146 0
-8484 242 0
-8485 19 0
-8485 83 0
-8485 155 0
-8485 233 0
-8486 19 0
-8486 93 0
-8486 128 0
-8487 19 0
-8487 93 0
-8487 146 0
-8487 221 0
-8488 19 0
-8488 93 0
-8488 155 0
-8488 212 0
-8489 19 0
-8489 101 0
-8489 128 0
-8489 242 0
-8490 19 0
-8490 101 0
-8490 138 0
-8490 221 0
-8491 19 0
-8491 101 0
-8491 155 0
-8492 19 0
-8492 110 0
-8492 128 0
-8492 233 0
-8493 19 0
-8493 110 0
-8493 138 0
-8493 212 0
-8494 19 0
-8494 110 0
-8494 146 0
-8495 29 0
-8495 64 0
-8495 174 0
-8496 29 0
-8496 64 0
-8496 182 0
-8496 242 0
-8497 29 0
-8497 64 0
-8497 191 0
-8497 233 0
-8498 29 0
-8498 73 0
-8498 138 0
-8499 29 0
-8499 73 0
-8499 146 0
-8499 242 0
-8500 29 0
-8500 73 0
-8500 155 0
-8500 233 0
-8501 29 0
-8501 93 0
-8502 29 0
-8502 93 0
-8502 146 0
-8502 191 0
-8503 29 0
-8503 93 0
-8503 155 0
-8503 182 0
-8504 29 0
-8504 101 0
-8504 242 0
-8505 29 0
-8505 101 0
-8505 138 0
-8505 191 0
-8506 29 0
-8506 101 0
-8506 155 0
-8506 174 0
-8507 29 0
-8507 110 0
-8507 233 0
-8508 29 0
-8508 110 0
-8508 138 0
-8508 182 0
-8509 29 0
-8509 110 0
-8509 146 0
-8509 174 0
-8510 39 0
-8510 64 0
-8510 164 0
-8511 39 0
-8511 64 0
-8511 182 0
-8511 221 0
-8512 39 0
-8512 64 0
-8512 191 0
-8512 212 0
-8513 39 0
-8513 73 0
-8513 128 0
-8514 39 0
-8514 73 0
-8514 146 0
-8514 221 0
-8515 39 0
-8515 73 0
-8515 155 0
-8515 212 0
-8516 39 0
-8516 83 0
-8517 39 0
-8517 83 0
-8517 146 0
-8517 191 0
-8518 39 0
-8518 83 0
-8518 155 0
-8518 182 0
-8519 39 0
-8519 101 0
-8519 221 0
-8520 39 0
-8520 101 0
-8520 128 0
-8520 191 0
-8521 39 0
-8521 101 0
-8521 155 0
-8521 164 0
-8522 39 0
-8522 110 0
-8522 212 0
-8523 39 0
-8523 110 0
-8523 128 0
-8523 182 0
-8524 39 0
-8524 110 0
-8524 146 0
-8524 164 0
-8525 47 0
-8525 64 0
-8525 164 0
-8525 242 0
-8526 47 0
-8526 64 0
-8526 174 0
-8526 221 0
-8527 47 0
-8527 64 0
-8527 191 0
-8528 47 0
-8528 73 0
-8528 128 0
-8528 242 0
-8529 47 0
-8529 73 0
-8529 138 0
-8529 221 0
-8530 47 0
-8530 73 0
-8530 155 0
-8531 47 0
-8531 83 0
-8531 242 0
-8532 47 0
-8532 83 0
-8532 138 0
-8532 191 0
-8533 47 0
-8533 83 0
-8533 155 0
-8533 174 0
-8534 47 0
-8534 93 0
-8534 221 0
-8535 47 0
-8535 93 0
-8535 128 0
-8535 191 0
-8536 47 0
-8536 93 0
-8536 155 0
-8536 164 0
-8537 47 0
-8537 110 0
-8538 47 0
-8538 110 0
-8538 128 0
-8538 174 0
-8539 47 0
-8539 110 0
-8539 138 0
-8539 164 0
-8540 56 0
-8540 64 0
-8540 164 0
-8540 233 0
-8541 56 0
-8541 64 0
-8541 174 0
-8541 212 0
-8542 56 0
-8542 64 0
-8542 182 0
-8543 56 0
-8543 73 0
-8543 128 0
-8543 233 0
-8544 56 0
-8544 73 0
-8544 138 0
-8544 212 0
-8545 56 0
-8545 73 0
-8545 146 0
-8546 56 0
-8546 83 0
-8546 233 0
-8547 56 0
-8547 83 0
-8547 138 0
-8547 182 0
-8548 56 0
-8548 83 0
-8548 146 0
-8548 174 0
-8549 56 0
-8549 93 0
-8549 212 0
-8550 56 0
-8550 93 0
-8550 128 0
-8550 182 0
-8551 56 0
-8551 93 0
-8551 146 0
-8551 164 0
-8552 56 0
-8552 101 0
-8553 56 0
-8553 101 0
-8553 128 0
-8553 174 0
-8554 56 0
-8554 101 0
-8554 138 0
-8554 164 0
-1 -118 -204 -248 8451 8452 8453 8454 8455 8456 8457 8458 8459 8460 8461 8462 8463 8464 8465 8466 8467 8468 8469 8470 8471 8472 8473 8474 8475 8476 8477 8478 8479 8480 8481 8482 8483 8484 8485 8486 8487 8488 8489 8490 8491 8492 8493 8494 8495 8496 8497 8498 8499 8500 8501 8502 8503 8504 8505 8506 8507 8508 8509 8510 8511 8512 8513 8514 8515 8516 8517 8518 8519 8520 8521 8522 8523 8524 8525 8526 8527 8528 8529 8530 8531 8532 8533 8534 8535 8536 8537 8538 8539 8540 8541 8542 8543 8544 8545 8546 8547 8548 8549 8550 8551 8552 8553 8554 0
-8555 209 0
-8555 239 0
-8556 218 0
-8556 230 0
-8557 127 0
-8557 173 0
-8558 127 0
-8558 182 0
-8558 239 0
-8559 127 0
-8559 191 0
-8559 230 0
-8560 137 0
-8560 163 0
-8561 137 0
-8561 182 0
-8561 218 0
-8562 137 0
-8562 191 0
-8562 209 0
-8563 146 0
-8563 163 0
-8563 239 0
-8564 146 0
-8564 173 0
-8564 218 0
-8565 146 0
-8565 191 0
-8566 155 0
-8566 163 0
-8566 230 0
-8567 155 0
-8567 173 0
-8567 209 0
-8568 155 0
-8568 182 0
-8569 10 0
-8569 73 0
-8570 10 0
-8570 73 0
-8570 209 0
-8570 239 0
-8571 10 0
-8571 73 0
-8571 218 0
-8571 230 0
-8572 10 0
-8572 82 0
-8572 173 0
-8573 10 0
-8573 82 0
-8573 182 0
-8573 239 0
-8574 10 0
-8574 82 0
-8574 191 0
-8574 230 0
-8575 10 0
-8575 92 0
-8575 163 0
-8576 10 0
-8576 92 0
-8576 182 0
-8576 218 0
-8577 10 0
-8577 92 0
-8577 191 0
-8577 209 0
-8578 10 0
-8578 101 0
-8578 163 0
-8578 239 0
-8579 10 0
-8579 101 0
-8579 173 0
-8579 218 0
-8580 10 0
-8580 101 0
-8580 191 0
-8581 10 0
-8581 110 0
-8581 163 0
-8581 230 0
-8582 10 0
-8582 110 0
-8582 173 0
-8582 209 0
-8583 10 0
-8583 110 0
-8583 182 0
-8584 19 0
-8584 64 0
-8585 19 0
-8585 64 0
-8585 209 0
-8585 239 0
-8586 19 0
-8586 64 0
-8586 218 0
-8586 230 0
-8587 19 0
-8587 82 0
-8587 137 0
-8588 19 0
-8588 82 0
-8588 146 0
-8588 239 0
-8589 19 0
-8589 82 0
-8589 155 0
-8589 230 0
-8590 19 0
-8590 92 0
-8590 127 0
-8591 19 0
-8591 92 0
-8591 146 0
-8591 218 0
-8592 19 0
-8592 92 0
-8592 155 0
-8592 209 0
-8593 19 0
-8593 101 0
-8593 127 0
-8593 239 0
-8594 19 0
-8594 101 0
-8594 137 0
-8594 218 0
-8595 19 0
-8595 101 0
-8595 155 0
-8596 19 0
-8596 110 0
-8596 127 0
-8596 230 0
-8597 19 0
-8597 110 0
-8597 137 0
-8597 209 0
-8598 19 0
-8598 110 0
-8598 146 0
-8599 28 0
-8599 64 0
-8599 173 0
-8600 28 0
-8600 64 0
-8600 182 0
-8600 239 0
-8601 28 0
-8601 64 0
-8601 191 0
-8601 230 0
-8602 28 0
-8602 73 0
-8602 137 0
-8603 28 0
-8603 73 0
-8603 146 0
-8603 239 0
-8604 28 0
-8604 73 0
-8604 155 0
-8604 230 0
-8605 28 0
-8605 92 0
-8606 28 0
-8606 92 0
-8606 146 0
-8606 191 0
-8607 28 0
-8607 92 0
-8607 155 0
-8607 182 0
-8608 28 0
-8608 101 0
-8608 239 0
-8609 28 0
-8609 101 0
-8609 137 0
-8609 191 0
-8610 28 0
-8610 101 0
-8610 155 0
-8610 173 0
-8611 28 0
-8611 110 0
-8611 230 0
-8612 28 0
-8612 110 0
-8612 137 0
-8612 182 0
-8613 28 0
-8613 110 0
-8613 146 0
-8613 173 0
-8614 38 0
-8614 64 0
-8614 163 0
-8615 38 0
-8615 64 0
-8615 182 0
-8615 218 0
-8616 38 0
-8616 64 0
-8616 191 0
-8616 209 0
-8617 38 0
-8617 73 0
-8617 127 0
-8618 38 0
-8618 73 0
-8618 146 0
-8618 218 0
-8619 38 0
-8619 73 0
-8619 155 0
-8619 209 0
-8620 38 0
-8620 82 0
-8621 38 0
-8621 82 0
-8621 146 0
-8621 191 0
-8622 38 0
-8622 82 0
-8622 155 0
-8622 182 0
-8623 38 0
-8623 101 0
-8623 218 0
-8624 38 0
-8624 101 0
-8624 127 0
-8624 191 0
-8625 38 0
-8625 101 0
-8625 155 0
-8625 163 0
-8626 38 0
-8626 110 0
-8626 209 0
-8627 38 0
-8627 110 0
-8627 127 0
-8627 182 0
-8628 38 0
-8628 110 0
-8628 146 0
-8628 163 0
-8629 47 0
-8629 64 0
-8629 163 0
-8629 239 0
-8630 47 0
-8630 64 0
-8630 173 0
-8630 218 0
-8631 47 0
-8631 64 0
-8631 191 0
-8632 47 0
-8632 73 0
-8632 127 0
-8632 239 0
-8633 47 0
-8633 73 0
-8633 137 0
-8633 218 0
-8634 47 0
-8634 73 0
-8634 155 0
-8635 47 0
-8635 82 0
-8635 239 0
-8636 47 0
-8636 82 0
-8636 137 0
-8636 191 0
-8637 47 0
-8637 82 0
-8637 155 0
-8637 173 0
-8638 47 0
-8638 92 0
-8638 218 0
-8639 47 0
-8639 92 0
-8639 127 0
-8639 191 0
-8640 47 0
-8640 92 0
-8640 155 0
-8640 163 0
-8641 47 0
-8641 110 0
-8642 47 0
-8642 110 0
-8642 127 0
-8642 173 0
-8643 47 0
-8643 110 0
-8643 137 0
-8643 163 0
-8644 56 0
-8644 64 0
-8644 163 0
-8644 230 0
-8645 56 0
-8645 64 0
-8645 173 0
-8645 209 0
-8646 56 0
-8646 64 0
-8646 182 0
-8647 56 0
-8647 73 0
-8647 127 0
-8647 230 0
-8648 56 0
-8648 73 0
-8648 137 0
-8648 209 0
-8649 56 0
-8649 73 0
-8649 146 0
-8650 56 0
-8650 82 0
-8650 230 0
-8651 56 0
-8651 82 0
-8651 137 0
-8651 182 0
-8652 56 0
-8652 82 0
-8652 146 0
-8652 173 0
-8653 56 0
-8653 92 0
-8653 209 0
-8654 56 0
-8654 92 0
-8654 127 0
-8654 182 0
-8655 56 0
-8655 92 0
-8655 146 0
-8655 163 0
-8656 56 0
-8656 101 0
-8657 56 0
-8657 101 0
-8657 127 0
-8657 173 0
-8658 56 0
-8658 101 0
-8658 137 0
-8658 163 0
-1 -118 -200 -248 8555 8556 8557 8558 8559 8560 8561 8562 8563 8564 8565 8566 8567 8568 8569 8570 8571 8572 8573 8574 8575 8576 8577 8578 8579 8580 8581 8582 8583 8584 8585 8586 8587 8588 8589 8590 8591 8592 8593 8594 8595 8596 8597 8598 8599 8600 8601 8602 8603 8604 8605 8606 8607 8608 8609 8610 8611 8612 8613 8614 8615 8616 8617 8618 8619 8620 8621 8622 8623 8624 8625 8626 8627 8628 8629 8630 8631 8632 8633 8634 8635 8636 8637 8638 8639 8640 8641 8642 8643 8644 8645 8646 8647 8648 8649 8650 8651 8652 8653 8654 8655 8656 8657 8658 0
-8659 8 0
-8659 122 0
-8659 202 0
-8659 244 0
-8660 8 0
-8660 122 0
-8660 211 0
-8661 8 0
-8661 122 0
-8661 220 0
-8661 226 0
-8662 8 0
-8662 131 0
-8662 175 0
-8662 244 0
-8663 8 0
-8663 131 0
-8663 184 0
-8664 8 0
-8664 131 0
-8664 193 0
-8664 226 0
-8665 8 0
-8665 139 0
-8665 244 0
-8666 8 0
-8666 139 0
-8666 184 0
-8666 220 0
-8667 8 0
-8667 139 0
-8667 193 0
-8667 211 0
-8668 8 0
-8668 148 0
-8669 8 0
-8669 148 0
-8669 175 0
-8669 220 0
-8670 8 0
-8670 148 0
-8670 193 0
-8670 202 0
-8671 8 0
-8671 157 0
-8671 226 0
-8672 8 0
-8672 157 0
-8672 175 0
-8672 211 0
-8673 8 0
-8673 157 0
-8673 184 0
-8673 202 0
-8674 17 0
-8674 77 0
-8674 202 0
-8674 244 0
-8675 17 0
-8675 77 0
-8675 211 0
-8676 17 0
-8676 77 0
-8676 220 0
-8676 226 0
-8677 17 0
-8677 86 0
-8677 175 0
-8677 244 0
-8678 17 0
-8678 86 0
-8678 184 0
-8679 17 0
-8679 86 0
-8679 193 0
-8679 226 0
-8680 17 0
-8680 94 0
-8680 244 0
-8681 17 0
-8681 94 0
-8681 184 0
-8681 220 0
-8682 17 0
-8682 94 0
-8682 193 0
-8682 211 0
-8683 17 0
-8683 103 0
-8684 17 0
-8684 103 0
-8684 175 0
-8684 220 0
-8685 17 0
-8685 103 0
-8685 193 0
-8685 202 0
-8686 17 0
-8686 112 0
-8686 226 0
-8687 17 0
-8687 112 0
-8687 175 0
-8687 211 0
-8688 17 0
-8688 112 0
-8688 184 0
-8688 202 0
-8689 26 0
-8689 202 0
-8689 244 0
-8690 26 0
-8690 211 0
-8691 26 0
-8691 220 0
-8691 226 0
-8692 26 0
-8692 86 0
-8692 139 0
-8692 244 0
-8693 26 0
-8693 86 0
-8693 148 0
-8694 26 0
-8694 86 0
-8694 157 0
-8694 226 0
-8695 26 0
-8695 94 0
-8695 131 0
-8695 244 0
-8696 26 0
-8696 94 0
-8696 148 0
-8696 220 0
-8697 26 0
-8697 94 0
-8697 157 0
-8697 211 0
-8698 26 0
-8698 103 0
-8698 131 0
-8699 26 0
-8699 103 0
-8699 139 0
-8699 220 0
-8700 26 0
-8700 103 0
-8700 157 0
-8700 202 0
-8701 26 0
-8701 112 0
-8701 131 0
-8701 226 0
-8702 26 0
-8702 112 0
-8702 139 0
-8702 211 0
-8703 26 0
-8703 112 0
-8703 148 0
-8703 202 0
-8704 35 0
-8704 175 0
-8704 244 0
-8705 35 0
-8705 184 0
-8706 35 0
-8706 193 0
-8706 226 0
-8707 35 0
-8707 77 0
-8707 139 0
-8707 244 0
-8708 35 0
-8708 77 0
-8708 148 0
-8709 35 0
-8709 77 0
-8709 157 0
-8709 226 0
-8710 35 0
-8710 94 0
-8710 122 0
-8710 244 0
-8711 35 0
-8711 94 0
-8711 148 0
-8711 193 0
-8712 35 0
-8712 94 0
-8712 157 0
-8712 184 0
-8713 35 0
-8713 103 0
-8713 122 0
-8714 35 0
-8714 103 0
-8714 139 0
-8714 193 0
-8715 35 0
-8715 103 0
-8715 157 0
-8715 175 0
-8716 35 0
-8716 112 0
-8716 122 0
-8716 226 0
-8717 35 0
-8717 112 0
-8717 139 0
-8717 184 0
-8718 35 0
-8718 112 0
-8718 148 0
-8718 175 0
-8719 43 0
-8719 244 0
-8720 43 0
-8720 184 0
-8720 220 0
-8721 43 0
-8721 193 0
-8721 211 0
-8722 43 0
-8722 77 0
-8722 131 0
-8722 244 0
-8723 43 0
-8723 77 0
-8723 148 0
-8723 220 0
-8724 43 0
-8724 77 0
-8724 157 0
-8724 211 0
-8725 43 0
-8725 86 0
-8725 122 0
-8725 244 0
-8726 43 0
-8726 86 0
-8726 148 0
-8726 193 0
-8727 43 0
-8727 86 0
-8727 157 0
-8727 184 0
-8728 43 0
-8728 103 0
-8728 122 0
-8728 220 0
-8729 43 0
-8729 103 0
-8729 131 0
-8729 193 0
-8730 43 0
-8730 103 0
-8730 157 0
-8731 43 0
-8731 112 0
-8731 122 0
-8731 211 0
-8732 43 0
-8732 112 0
-8732 131 0
-8732 184 0
-8733 43 0
-8733 112 0
-8733 148 0
-8734 175 0
-8734 220 0
-8735 193 0
-8735 202 0
-8736 77 0
-8736 131 0
-8737 77 0
-8737 139 0
-8737 220 0
-8738 77 0
-8738 157 0
-8738 202 0
-8739 86 0
-8739 122 0
-8740 86 0
-8740 139 0
-8740 193 0
-8741 86 0
-8741 157 0
-8741 175 0
-8742 94 0
-8742 122 0
-8742 220 0
-8743 94 0
-8743 131 0
-8743 193 0
-8744 94 0
-8744 157 0
-8745 112 0
-8745 122 0
-8745 202 0
-8746 112 0
-8746 131 0
-8746 175 0
-8747 112 0
-8747 139 0
-8748 61 0
-8748 226 0
-8749 61 0
-8749 175 0
-8749 211 0
-8750 61 0
-8750 184 0
-8750 202 0
-8751 61 0
-8751 77 0
-8751 131 0
-8751 226 0
-8752 61 0
-8752 77 0
-8752 139 0
-8752 211 0
-8753 61 0
-8753 77 0
-8753 148 0
-8753 202 0
-8754 61 0
-8754 86 0
-8754 122 0
-8754 226 0
-8755 61 0
-8755 86 0
-8755 139 0
-8755 184 0
-8756 61 0
-8756 86 0
-8756 148 0
-8756 175 0
-8757 61 0
-8757 94 0
-8757 122 0
-8757 211 0
-8758 61 0
-8758 94 0
-8758 131 0
-8758 184 0
-8759 61 0
-8759 94 0
-8759 148 0
-8760 61 0
-8760 103 0
-8760 122 0
-8760 202 0
-8761 61 0
-8761 103 0
-8761 131 0
-8761 175 0
-8762 61 0
-8762 103 0
-8762 139 0
-52 -68 -167 -235 8659 8660 8661 8662 8663 8664 8665 8666 8667 8668 8669 8670 8671 8672 8673 8674 8675 8676 8677 8678 8679 8680 8681 8682 8683 8684 8685 8686 8687 8688 8689 8690 8691 8692 8693 8694 8695 8696 8697 8698 8699 8700 8701 8702 8703 8704 8705 8706 8707 8708 8709 8710 8711 8712 8713 8714 8715 8716 8717 8718 8719 8720 8721 8722 8723 8724 8725 8726 8727 8728 8729 8730 8731 8732 8733 8734 8735 8736 8737 8738 8739 8740 8741 8742 8743 8744 8745 8746 8747 8748 8749 8750 8751 8752 8753 8754 8755 8756 8757 8758 8759 8760 8761 8762 0
-8763 8 0
-8763 122 0
-8763 200 0
-8763 246 0
-8764 8 0
-8764 122 0
-8764 240 0
-8765 8 0
-8765 122 0
-8765 219 0
-8765 229 0
-8766 8 0
-8766 130 0
-8766 246 0
-8767 8 0
-8767 130 0
-8767 184 0
-8767 240 0
-8768 8 0
-8768 130 0
-8768 195 0
-8768 229 0
-8769 8 0
-8769 140 0
-8769 166 0
-8769 246 0
-8770 8 0
-8770 140 0
-8770 184 0
-8770 219 0
-8771 8 0
-8771 140 0
-8771 195 0
-8772 8 0
-8772 148 0
-8772 166 0
-8772 240 0
-8773 8 0
-8773 148 0
-8773 219 0
-8774 8 0
-8774 148 0
-8774 195 0
-8774 200 0
-8775 8 0
-8775 159 0
-8775 166 0
-8775 229 0
-8776 8 0
-8776 159 0
-8777 8 0
-8777 159 0
-8777 184 0
-8777 200 0
-8778 17 0
-8778 77 0
-8778 200 0
-8778 246 0
-8779 17 0
-8779 77 0
-8779 240 0
-8780 17 0
-8780 77 0
-8780 219 0
-8780 229 0
-8781 17 0
-8781 85 0
-8781 246 0
-8782 17 0
-8782 85 0
-8782 184 0
-8782 240 0
-8783 17 0
-8783 85 0
-8783 195 0
-8783 229 0
-8784 17 0
-8784 95 0
-8784 166 0
-8784 246 0
-8785 17 0
-8785 95 0
-8785 184 0
-8785 219 0
-8786 17 0
-8786 95 0
-8786 195 0
-8787 17 0
-8787 103 0
-8787 166 0
-8787 240 0
-8788 17 0
-8788 103 0
-8788 219 0
-8789 17 0
-8789 103 0
-8789 195 0
-8789 200 0
-8790 17 0
-8790 114 0
-8790 166 0
-8790 229 0
-8791 17 0
-8791 114 0
-8792 17 0
-8792 114 0
-8792 184 0
-8792 200 0
-8793 26 0
-8793 200 0
-8793 246 0
-8794 26 0
-8794 240 0
-8795 26 0
-8795 219 0
-8795 229 0
-8796 26 0
-8796 85 0
-8796 140 0
-8796 246 0
-8797 26 0
-8797 85 0
-8797 148 0
-8797 240 0
-8798 26 0
-8798 85 0
-8798 159 0
-8798 229 0
-8799 26 0
-8799 95 0
-8799 130 0
-8799 246 0
-8800 26 0
-8800 95 0
-8800 148 0
-8800 219 0
-8801 26 0
-8801 95 0
-8801 159 0
-8802 26 0
-8802 103 0
-8802 130 0
-8802 240 0
-8803 26 0
-8803 103 0
-8803 140 0
-8803 219 0
-8804 26 0
-8804 103 0
-8804 159 0
-8804 200 0
-8805 26 0
-8805 114 0
-8805 130 0
-8805 229 0
-8806 26 0
-8806 114 0
-8806 140 0
-8807 26 0
-8807 114 0
-8807 148 0
-8807 200 0
-8808 34 0
-8808 246 0
-8809 34 0
-8809 184 0
-8809 240 0
-8810 34 0
-8810 195 0
-8810 229 0
-8811 34 0
-8811 77 0
-8811 140 0
-8811 246 0
-8812 34 0
-8812 77 0
-8812 148 0
-8812 240 0
-8813 34 0
-8813 77 0
-8813 159 0
-8813 229 0
-8814 34 0
-8814 95 0
-8814 122 0
-8814 246 0
-8815 34 0
-8815 95 0
-8815 148 0
-8815 195 0
-8816 34 0
-8816 95 0
-8816 159 0
-8816 184 0
-8817 34 0
-8817 103 0
-8817 122 0
-8817 240 0
-8818 34 0
-8818 103 0
-8818 140 0
-8818 195 0
-8819 34 0
-8819 103 0
-8819 159 0
-8820 34 0
-8820 114 0
-8820 122 0
-8820 229 0
-8821 34 0
-8821 114 0
-8821 140 0
-8821 184 0
-8822 34 0
-8822 114 0
-8822 148 0
-8823 44 0
-8823 166 0
-8823 246 0
-8824 44 0
-8824 184 0
-8824 219 0
-8825 44 0
-8825 195 0
-8826 44 0
-8826 77 0
-8826 130 0
-8826 246 0
-8827 44 0
-8827 77 0
-8827 148 0
-8827 219 0
-8828 44 0
-8828 77 0
-8828 159 0
-8829 44 0
-8829 85 0
-8829 122 0
-8829 246 0
-8830 44 0
-8830 85 0
-8830 148 0
-8830 195 0
-8831 44 0
-8831 85 0
-8831 159 0
-8831 184 0
-8832 44 0
-8832 103 0
-8832 122 0
-8832 219 0
-8833 44 0
-8833 103 0
-8833 130 0
-8833 195 0
-8834 44 0
-8834 103 0
-8834 159 0
-8834 166 0
-8835 44 0
-8835 114 0
-8835 122 0
-8836 44 0
-8836 114 0
-8836 130 0
-8836 184 0
-8837 44 0
-8837 114 0
-8837 148 0
-8837 166 0
-8838 52 0
-8838 166 0
-8838 240 0
-8839 52 0
-8839 219 0
-8840 52 0
-8840 195 0
-8840 200 0
-8841 52 0
-8841 77 0
-8841 130 0
-8841 240 0
-8842 52 0
-8842 77 0
-8842 140 0
-8842 219 0
-8843 52 0
-8843 77 0
-8843 159 0
-8843 200 0
-8844 52 0
-8844 85 0
-8844 122 0
-8844 240 0
-8845 52 0
-8845 85 0
-8845 140 0
-8845 195 0
-8846 52 0
-8846 85 0
-8846 159 0
-8847 52 0
-8847 95 0
-8847 122 0
-8847 219 0
-8848 52 0
-8848 95 0
-8848 130 0
-8848 195 0
-8849 52 0
-8849 95 0
-8849 159 0
-8849 166 0
-8850 52 0
-8850 114 0
-8850 122 0
-8850 200 0
-8851 52 0
-8851 114 0
-8851 130 0
-8852 52 0
-8852 114 0
-8852 140 0
-8852 166 0
-8853 166 0
-8853 229 0
-8854 184 0
-8854 200 0
-8855 77 0
-8855 130 0
-8855 229 0
-8856 77 0
-8856 140 0
-8857 77 0
-8857 148 0
-8857 200 0
-8858 85 0
-8858 122 0
-8858 229 0
-8859 85 0
-8859 140 0
-8859 184 0
-8860 85 0
-8860 148 0
-8861 95 0
-8861 122 0
-8862 95 0
-8862 130 0
-8862 184 0
-8863 95 0
-8863 148 0
-8863 166 0
-8864 103 0
-8864 122 0
-8864 200 0
-8865 103 0
-8865 130 0
-8866 103 0
-8866 140 0
-8866 166 0
-63 -68 -176 -208 8763 8764 8765 8766 8767 8768 8769 8770 8771 8772 8773 8774 8775 8776 8777 8778 8779 8780 8781 8782 8783 8784 8785 8786 8787 8788 8789 8790 8791 8792 8793 8794 8795 8796 8797 8798 8799 8800 8801 8802 8803 8804 8805 8806 8807 8808 8809 8810 8811 8812 8813 8814 8815 8816 8817 8818 8819 8820 8821 8822 8823 8824 8825 8826 8827 8828 8829 8830 8831 8832 8833 8834 8835 8836 8837 8838 8839 8840 8841 8842 8843 8844 8845 8846 8847 8848 8849 8850 8851 8852 8853 8854 8855 8856 8857 8858 8859 8860 8861 8862 8863 8864 8865 8866 0
-8867 5 0
-8867 123 0
-8867 202 0
-8868 5 0
-8868 123 0
-8868 213 0
-8868 237 0
-8869 5 0
-8869 123 0
-8869 222 0
-8869 228 0
-8870 5 0
-8870 131 0
-8871 5 0
-8871 131 0
-8871 189 0
-8871 237 0
-8872 5 0
-8872 131 0
-8872 198 0
-8872 228 0
-8873 5 0
-8873 139 0
-8873 170 0
-8874 5 0
-8874 139 0
-8874 189 0
-8874 222 0
-8875 5 0
-8875 139 0
-8875 198 0
-8875 213 0
-8876 5 0
-8876 150 0
-8876 170 0
-8876 237 0
-8877 5 0
-8877 150 0
-8877 222 0
-8878 5 0
-8878 150 0
-8878 198 0
-8878 202 0
-8879 5 0
-8879 159 0
-8879 170 0
-8879 228 0
-8880 5 0
-8880 159 0
-8880 213 0
-8881 5 0
-8881 159 0
-8881 189 0
-8881 202 0
-8882 14 0
-8882 78 0
-8882 202 0
-8883 14 0
-8883 78 0
-8883 213 0
-8883 237 0
-8884 14 0
-8884 78 0
-8884 222 0
-8884 228 0
-8885 14 0
-8885 86 0
-8886 14 0
-8886 86 0
-8886 189 0
-8886 237 0
-8887 14 0
-8887 86 0
-8887 198 0
-8887 228 0
-8888 14 0
-8888 94 0
-8888 170 0
-8889 14 0
-8889 94 0
-8889 189 0
-8889 222 0
-8890 14 0
-8890 94 0
-8890 198 0
-8890 213 0
-8891 14 0
-8891 105 0
-8891 170 0
-8891 237 0
-8892 14 0
-8892 105 0
-8892 222 0
-8893 14 0
-8893 105 0
-8893 198 0
-8893 202 0
-8894 14 0
-8894 114 0
-8894 170 0
-8894 228 0
-8895 14 0
-8895 114 0
-8895 213 0
-8896 14 0
-8896 114 0
-8896 189 0
-8896 202 0
-8897 24 0
-8897 202 0
-8898 24 0
-8898 213 0
-8898 237 0
-8899 24 0
-8899 222 0
-8899 228 0
-8900 24 0
-8900 86 0
-8900 139 0
-8901 24 0
-8901 86 0
-8901 150 0
-8901 237 0
-8902 24 0
-8902 86 0
-8902 159 0
-8902 228 0
-8903 24 0
-8903 94 0
-8903 131 0
-8904 24 0
-8904 94 0
-8904 150 0
-8904 222 0
-8905 24 0
-8905 94 0
-8905 159 0
-8905 213 0
-8906 24 0
-8906 105 0
-8906 131 0
-8906 237 0
-8907 24 0
-8907 105 0
-8907 139 0
-8907 222 0
-8908 24 0
-8908 105 0
-8908 159 0
-8908 202 0
-8909 24 0
-8909 114 0
-8909 131 0
-8909 228 0
-8910 24 0
-8910 114 0
-8910 139 0
-8910 213 0
-8911 24 0
-8911 114 0
-8911 150 0
-8911 202 0
-8912 189 0
-8912 237 0
-8913 198 0
-8913 228 0
-8914 78 0
-8914 139 0
-8915 78 0
-8915 150 0
-8915 237 0
-8916 78 0
-8916 159 0
-8916 228 0
-8917 94 0
-8917 123 0
-8918 94 0
-8918 150 0
-8918 198 0
-8919 94 0
-8919 159 0
-8919 189 0
-8920 105 0
-8920 123 0
-8920 237 0
-8921 105 0
-8921 139 0
-8921 198 0
-8922 105 0
-8922 159 0
-8923 114 0
-8923 123 0
-8923 228 0
-8924 114 0
-8924 139 0
-8924 189 0
-8925 114 0
-8925 150 0
-8926 40 0
-8926 170 0
-8927 40 0
-8927 189 0
-8927 222 0
-8928 40 0
-8928 198 0
-8928 213 0
-8929 40 0
-8929 78 0
-8929 131 0
-8930 40 0
-8930 78 0
-8930 150 0
-8930 222 0
-8931 40 0
-8931 78 0
-8931 159 0
-8931 213 0
-8932 40 0
-8932 86 0
-8932 123 0
-8933 40 0
-8933 86 0
-8933 150 0
-8933 198 0
-8934 40 0
-8934 86 0
-8934 159 0
-8934 189 0
-8935 40 0
-8935 105 0
-8935 123 0
-8935 222 0
-8936 40 0
-8936 105 0
-8936 131 0
-8936 198 0
-8937 40 0
-8937 105 0
-8937 159 0
-8937 170 0
-8938 40 0
-8938 114 0
-8938 123 0
-8938 213 0
-8939 40 0
-8939 114 0
-8939 131 0
-8939 189 0
-8940 40 0
-8940 114 0
-8940 150 0
-8940 170 0
-8941 51 0
-8941 170 0
-8941 237 0
-8942 51 0
-8942 222 0
-8943 51 0
-8943 198 0
-8943 202 0
-8944 51 0
-8944 78 0
-8944 131 0
-8944 237 0
-8945 51 0
-8945 78 0
-8945 139 0
-8945 222 0
-8946 51 0
-8946 78 0
-8946 159 0
-8946 202 0
-8947 51 0
-8947 86 0
-8947 123 0
-8947 237 0
-8948 51 0
-8948 86 0
-8948 139 0
-8948 198 0
-8949 51 0
-8949 86 0
-8949 159 0
-8950 51 0
-8950 94 0
-8950 123 0
-8950 222 0
-8951 51 0
-8951 94 0
-8951 131 0
-8951 198 0
-8952 51 0
-8952 94 0
-8952 159 0
-8952 170 0
-8953 51 0
-8953 114 0
-8953 123 0
-8953 202 0
-8954 51 0
-8954 114 0
-8954 131 0
-8955 51 0
-8955 114 0
-8955 139 0
-8955 170 0
-8956 60 0
-8956 170 0
-8956 228 0
-8957 60 0
-8957 213 0
-8958 60 0
-8958 189 0
-8958 202 0
-8959 60 0
-8959 78 0
-8959 131 0
-8959 228 0
-8960 60 0
-8960 78 0
-8960 139 0
-8960 213 0
-8961 60 0
-8961 78 0
-8961 150 0
-8961 202 0
-8962 60 0
-8962 86 0
-8962 123 0
-8962 228 0
-8963 60 0
-8963 86 0
-8963 139 0
-8963 189 0
-8964 60 0
-8964 86 0
-8964 150 0
-8965 60 0
-8965 94 0
-8965 123 0
-8965 213 0
-8966 60 0
-8966 94 0
-8966 131 0
-8966 189 0
-8967 60 0
-8967 94 0
-8967 150 0
-8967 170 0
-8968 60 0
-8968 105 0
-8968 123 0
-8968 202 0
-8969 60 0
-8969 105 0
-8969 131 0
-8970 60 0
-8970 105 0
-8970 139 0
-8970 170 0
-32 -68 -178 -252 8867 8868 8869 8870 8871 8872 8873 8874 8875 8876 8877 8878 8879 8880 8881 8882 8883 8884 8885 8886 8887 8888 8889 8890 8891 8892 8893 8894 8895 8896 8897 8898 8899 8900 8901 8902 8903 8904 8905 8906 8907 8908 8909 8910 8911 8912 8913 8914 8915 8916 8917 8918 8919 8920 8921 8922 8923 8924 8925 8926 8927 8928 8929 8930 8931 8932 8933 8934 8935 8936 8937 8938 8939 8940 8941 8942 8943 8944 8945 8946 8947 8948 8949 8950 8951 8952 8953 8954 8955 8956 8957 8958 8959 8960 8961 8962 8963 8964 8965 8966 8967 8968 8969 8970 0
-8971 5 0
-8971 123 0
-8971 202 0
-8972 5 0
-8972 123 0
-8972 212 0
-8972 236 0
-8973 5 0
-8973 123 0
-8973 221 0
-8973 227 0
-8974 5 0
-8974 131 0
-8975 5 0
-8975 131 0
-8975 188 0
-8975 236 0
-8976 5 0
-8976 131 0
-8976 197 0
-8976 227 0
-8977 5 0
-8977 139 0
-8977 170 0
-8978 5 0
-8978 139 0
-8978 188 0
-8978 221 0
-8979 5 0
-8979 139 0
-8979 197 0
-8979 212 0
-8980 5 0
-8980 149 0
-8980 170 0
-8980 236 0
-8981 5 0
-8981 149 0
-8981 221 0
-8982 5 0
-8982 149 0
-8982 197 0
-8982 202 0
-8983 5 0
-8983 158 0
-8983 170 0
-8983 227 0
-8984 5 0
-8984 158 0
-8984 212 0
-8985 5 0
-8985 158 0
-8985 188 0
-8985 202 0
-8986 14 0
-8986 78 0
-8986 202 0
-8987 14 0
-8987 78 0
-8987 212 0
-8987 236 0
-8988 14 0
-8988 78 0
-8988 221 0
-8988 227 0
-8989 14 0
-8989 86 0
-8990 14 0
-8990 86 0
-8990 188 0
-8990 236 0
-8991 14 0
-8991 86 0
-8991 197 0
-8991 227 0
-8992 14 0
-8992 94 0
-8992 170 0
-8993 14 0
-8993 94 0
-8993 188 0
-8993 221 0
-8994 14 0
-8994 94 0
-8994 197 0
-8994 212 0
-8995 14 0
-8995 104 0
-8995 170 0
-8995 236 0
-8996 14 0
-8996 104 0
-8996 221 0
-8997 14 0
-8997 104 0
-8997 197 0
-8997 202 0
-8998 14 0
-8998 113 0
-8998 170 0
-8998 227 0
-8999 14 0
-8999 113 0
-8999 212 0
-9000 14 0
-9000 113 0
-9000 188 0
-9000 202 0
-9001 24 0
-9001 202 0
-9002 24 0
-9002 212 0
-9002 236 0
-9003 24 0
-9003 221 0
-9003 227 0
-9004 24 0
-9004 86 0
-9004 139 0
-9005 24 0
-9005 86 0
-9005 149 0
-9005 236 0
-9006 24 0
-9006 86 0
-9006 158 0
-9006 227 0
-9007 24 0
-9007 94 0
-9007 131 0
-9008 24 0
-9008 94 0
-9008 149 0
-9008 221 0
-9009 24 0
-9009 94 0
-9009 158 0
-9009 212 0
-9010 24 0
-9010 104 0
-9010 131 0
-9010 236 0
-9011 24 0
-9011 104 0
-9011 139 0
-9011 221 0
-9012 24 0
-9012 104 0
-9012 158 0
-9012 202 0
-9013 24 0
-9013 113 0
-9013 131 0
-9013 227 0
-9014 24 0
-9014 113 0
-9014 139 0
-9014 212 0
-9015 24 0
-9015 113 0
-9015 149 0
-9015 202 0
-9016 188 0
-9016 236 0
-9017 197 0
-9017 227 0
-9018 78 0
-9018 139 0
-9019 78 0
-9019 149 0
-9019 236 0
-9020 78 0
-9020 158 0
-9020 227 0
-9021 94 0
-9021 123 0
-9022 94 0
-9022 149 0
-9022 197 0
-9023 94 0
-9023 158 0
-9023 188 0
-9024 104 0
-9024 123 0
-9024 236 0
-9025 104 0
-9025 139 0
-9025 197 0
-9026 104 0
-9026 158 0
-9027 113 0
-9027 123 0
-9027 227 0
-9028 113 0
-9028 139 0
-9028 188 0
-9029 113 0
-9029 149 0
-9030 40 0
-9030 170 0
-9031 40 0
-9031 188 0
-9031 221 0
-9032 40 0
-9032 197 0
-9032 212 0
-9033 40 0
-9033 78 0
-9033 131 0
-9034 40 0
-9034 78 0
-9034 149 0
-9034 221 0
-9035 40 0
-9035 78 0
-9035 158 0
-9035 212 0
-9036 40 0
-9036 86 0
-9036 123 0
-9037 40 0
-9037 86 0
-9037 149 0
-9037 197 0
-9038 40 0
-9038 86 0
-9038 158 0
-9038 188 0
-9039 40 0
-9039 104 0
-9039 123 0
-9039 221 0
-9040 40 0
-9040 104 0
-9040 131 0
-9040 197 0
-9041 40 0
-9041 104 0
-9041 158 0
-9041 170 0
-9042 40 0
-9042 113 0
-9042 123 0
-9042 212 0
-9043 40 0
-9043 113 0
-9043 131 0
-9043 188 0
-9044 40 0
-9044 113 0
-9044 149 0
-9044 170 0
-9045 50 0
-9045 170 0
-9045 236 0
-9046 50 0
-9046 221 0
-9047 50 0
-9047 197 0
-9047 202 0
-9048 50 0
-9048 78 0
-9048 131 0
-9048 236 0
-9049 50 0
-9049 78 0
-9049 139 0
-9049 221 0
-9050 50 0
-9050 78 0
-9050 158 0
-9050 202 0
-9051 50 0
-9051 86 0
-9051 123 0
-9051 236 0
-9052 50 0
-9052 86 0
-9052 139 0
-9052 197 0
-9053 50 0
-9053 86 0
-9053 158 0
-9054 50 0
-9054 94 0
-9054 123 0
-9054 221 0
-9055 50 0
-9055 94 0
-9055 131 0
-9055 197 0
-9056 50 0
-9056 94 0
-9056 158 0
-9056 170 0
-9057 50 0
-9057 113 0
-9057 123 0
-9057 202 0
-9058 50 0
-9058 113 0
-9058 131 0
-9059 50 0
-9059 113 0
-9059 139 0
-9059 170 0
-9060 59 0
-9060 170 0
-9060 227 0
-9061 59 0
-9061 212 0
-9062 59 0
-9062 188 0
-9062 202 0
-9063 59 0
-9063 78 0
-9063 131 0
-9063 227 0
-9064 59 0
-9064 78 0
-9064 139 0
-9064 212 0
-9065 59 0
-9065 78 0
-9065 149 0
-9065 202 0
-9066 59 0
-9066 86 0
-9066 123 0
-9066 227 0
-9067 59 0
-9067 86 0
-9067 139 0
-9067 188 0
-9068 59 0
-9068 86 0
-9068 149 0
-9069 59 0
-9069 94 0
-9069 123 0
-9069 212 0
-9070 59 0
-9070 94 0
-9070 131 0
-9070 188 0
-9071 59 0
-9071 94 0
-9071 149 0
-9071 170 0
-9072 59 0
-9072 104 0
-9072 123 0
-9072 202 0
-9073 59 0
-9073 104 0
-9073 131 0
-9074 59 0
-9074 104 0
-9074 139 0
-9074 170 0
-32 -68 -178 -248 8971 8972 8973 8974 8975 8976 8977 8978 8979 8980 8981 8982 8983 8984 8985 8986 8987 8988 8989 8990 8991 8992 8993 8994 8995 8996 8997 8998 8999 9000 9001 9002 9003 9004 9005 9006 9007 9008 9009 9010 9011 9012 9013 9014 9015 9016 9017 9018 9019 9020 9021 9022 9023 9024 9025 9026 9027 9028 9029 9030 9031 9032 9033 9034 9035 9036 9037 9038 9039 9040 9041 9042 9043 9044 9045 9046 9047 9048 9049 9050 9051 9052 9053 9054 9055 9056 9057 9058 9059 9060 9061 9062 9063 9064 9065 9066 9067 9068 9069 9070 9071 9072 9073 9074 0
-9075 5 0
-9075 123 0
-9075 202 0
-9076 5 0
-9076 123 0
-9076 211 0
-9076 237 0
-9077 5 0
-9077 123 0
-9077 222 0
-9077 226 0
-9078 5 0
-9078 131 0
-9079 5 0
-9079 131 0
-9079 187 0
-9079 237 0
-9080 5 0
-9080 131 0
-9080 198 0
-9080 226 0
-9081 5 0
-9081 139 0
-9081 170 0
-9082 5 0
-9082 139 0
-9082 187 0
-9082 222 0
-9083 5 0
-9083 139 0
-9083 198 0
-9083 211 0
-9084 5 0
-9084 148 0
-9084 170 0
-9084 237 0
-9085 5 0
-9085 148 0
-9085 222 0
-9086 5 0
-9086 148 0
-9086 198 0
-9086 202 0
-9087 5 0
-9087 159 0
-9087 170 0
-9087 226 0
-9088 5 0
-9088 159 0
-9088 211 0
-9089 5 0
-9089 159 0
-9089 187 0
-9089 202 0
-9090 14 0
-9090 78 0
-9090 202 0
-9091 14 0
-9091 78 0
-9091 211 0
-9091 237 0
-9092 14 0
-9092 78 0
-9092 222 0
-9092 226 0
-9093 14 0
-9093 86 0
-9094 14 0
-9094 86 0
-9094 187 0
-9094 237 0
-9095 14 0
-9095 86 0
-9095 198 0
-9095 226 0
-9096 14 0
-9096 94 0
-9096 170 0
-9097 14 0
-9097 94 0
-9097 187 0
-9097 222 0
-9098 14 0
-9098 94 0
-9098 198 0
-9098 211 0
-9099 14 0
-9099 103 0
-9099 170 0
-9099 237 0
-9100 14 0
-9100 103 0
-9100 222 0
-9101 14 0
-9101 103 0
-9101 198 0
-9101 202 0
-9102 14 0
-9102 114 0
-9102 170 0
-9102 226 0
-9103 14 0
-9103 114 0
-9103 211 0
-9104 14 0
-9104 114 0
-9104 187 0
-9104 202 0
-9105 24 0
-9105 202 0
-9106 24 0
-9106 211 0
-9106 237 0
-9107 24 0
-9107 222 0
-9107 226 0
-9108 24 0
-9108 86 0
-9108 139 0
-9109 24 0
-9109 86 0
-9109 148 0
-9109 237 0
-9110 24 0
-9110 86 0
-9110 159 0
-9110 226 0
-9111 24 0
-9111 94 0
-9111 131 0
-9112 24 0
-9112 94 0
-9112 148 0
-9112 222 0
-9113 24 0
-9113 94 0
-9113 159 0
-9113 211 0
-9114 24 0
-9114 103 0
-9114 131 0
-9114 237 0
-9115 24 0
-9115 103 0
-9115 139 0
-9115 222 0
-9116 24 0
-9116 103 0
-9116 159 0
-9116 202 0
-9117 24 0
-9117 114 0
-9117 131 0
-9117 226 0
-9118 24 0
-9118 114 0
-9118 139 0
-9118 211 0
-9119 24 0
-9119 114 0
-9119 148 0
-9119 202 0
-9120 187 0
-9120 237 0
-9121 198 0
-9121 226 0
-9122 78 0
-9122 139 0
-9123 78 0
-9123 148 0
-9123 237 0
-9124 78 0
-9124 159 0
-9124 226 0
-9125 94 0
-9125 123 0
-9126 94 0
-9126 148 0
-9126 198 0
-9127 94 0
-9127 159 0
-9127 187 0
-9128 103 0
-9128 123 0
-9128 237 0
-9129 103 0
-9129 139 0
-9129 198 0
-9130 103 0
-9130 159 0
-9131 114 0
-9131 123 0
-9131 226 0
-9132 114 0
-9132 139 0
-9132 187 0
-9133 114 0
-9133 148 0
-9134 40 0
-9134 170 0
-9135 40 0
-9135 187 0
-9135 222 0
-9136 40 0
-9136 198 0
-9136 211 0
-9137 40 0
-9137 78 0
-9137 131 0
-9138 40 0
-9138 78 0
-9138 148 0
-9138 222 0
-9139 40 0
-9139 78 0
-9139 159 0
-9139 211 0
-9140 40 0
-9140 86 0
-9140 123 0
-9141 40 0
-9141 86 0
-9141 148 0
-9141 198 0
-9142 40 0
-9142 86 0
-9142 159 0
-9142 187 0
-9143 40 0
-9143 103 0
-9143 123 0
-9143 222 0
-9144 40 0
-9144 103 0
-9144 131 0
-9144 198 0
-9145 40 0
-9145 103 0
-9145 159 0
-9145 170 0
-9146 40 0
-9146 114 0
-9146 123 0
-9146 211 0
-9147 40 0
-9147 114 0
-9147 131 0
-9147 187 0
-9148 40 0
-9148 114 0
-9148 148 0
-9148 170 0
-9149 49 0
-9149 170 0
-9149 237 0
-9150 49 0
-9150 222 0
-9151 49 0
-9151 198 0
-9151 202 0
-9152 49 0
-9152 78 0
-9152 131 0
-9152 237 0
-9153 49 0
-9153 78 0
-9153 139 0
-9153 222 0
-9154 49 0
-9154 78 0
-9154 159 0
-9154 202 0
-9155 49 0
-9155 86 0
-9155 123 0
-9155 237 0
-9156 49 0
-9156 86 0
-9156 139 0
-9156 198 0
-9157 49 0
-9157 86 0
-9157 159 0
-9158 49 0
-9158 94 0
-9158 123 0
-9158 222 0
-9159 49 0
-9159 94 0
-9159 131 0
-9159 198 0
-9160 49 0
-9160 94 0
-9160 159 0
-9160 170 0
-9161 49 0
-9161 114 0
-9161 123 0
-9161 202 0
-9162 49 0
-9162 114 0
-9162 131 0
-9163 49 0
-9163 114 0
-9163 139 0
-9163 170 0
-9164 60 0
-9164 170 0
-9164 226 0
-9165 60 0
-9165 211 0
-9166 60 0
-9166 187 0
-9166 202 0
-9167 60 0
-9167 78 0
-9167 131 0
-9167 226 0
-9168 60 0
-9168 78 0
-9168 139 0
-9168 211 0
-9169 60 0
-9169 78 0
-9169 148 0
-9169 202 0
-9170 60 0
-9170 86 0
-9170 123 0
-9170 226 0
-9171 60 0
-9171 86 0
-9171 139 0
-9171 187 0
-9172 60 0
-9172 86 0
-9172 148 0
-9173 60 0
-9173 94 0
-9173 123 0
-9173 211 0
-9174 60 0
-9174 94 0
-9174 131 0
-9174 187 0
-9175 60 0
-9175 94 0
-9175 148 0
-9175 170 0
-9176 60 0
-9176 103 0
-9176 123 0
-9176 202 0
-9177 60 0
-9177 103 0
-9177 131 0
-9178 60 0
-9178 103 0
-9178 139 0
-9178 170 0
-32 -68 -178 -246 9075 9076 9077 9078 9079 9080 9081 9082 9083 9084 9085 9086 9087 9088 9089 9090 9091 9092 9093 9094 9095 9096 9097 9098 9099 9100 9101 9102 9103 9104 9105 9106 9107 9108 9109 9110 9111 9112 9113 9114 9115 9116 9117 9118 9119 9120 9121 9122 9123 9124 9125 9126 9127 9128 9129 9130 9131 9132 9133 9134 9135 9136 9137 9138 9139 9140 9141 9142 9143 9144 9145 9146 9147 9148 9149 9150 9151 9152 9153 9154 9155 9156 9157 9158 9159 9160 9161 9162 9163 9164 9165 9166 9167 9168 9169 9170 9171 9172 9173 9174 9175 9176 9177 9178 0
-9179 5 0
-9179 123 0
-9179 200 0
-9180 5 0
-9180 123 0
-9180 210 0
-9180 240 0
-9181 5 0
-9181 123 0
-9181 219 0
-9181 231 0
-9182 5 0
-9182 130 0
-9182 179 0
-9183 5 0
-9183 130 0
-9183 189 0
-9183 240 0
-9184 5 0
-9184 130 0
-9184 198 0
-9184 231 0
-9185 5 0
-9185 140 0
-9186 5 0
-9186 140 0
-9186 189 0
-9186 219 0
-9187 5 0
-9187 140 0
-9187 198 0
-9187 210 0
-9188 5 0
-9188 150 0
-9188 240 0
-9189 5 0
-9189 150 0
-9189 179 0
-9189 219 0
-9190 5 0
-9190 150 0
-9190 198 0
-9190 200 0
-9191 5 0
-9191 159 0
-9191 231 0
-9192 5 0
-9192 159 0
-9192 179 0
-9192 210 0
-9193 5 0
-9193 159 0
-9193 189 0
-9193 200 0
-9194 14 0
-9194 78 0
-9194 200 0
-9195 14 0
-9195 78 0
-9195 210 0
-9195 240 0
-9196 14 0
-9196 78 0
-9196 219 0
-9196 231 0
-9197 14 0
-9197 85 0
-9197 179 0
-9198 14 0
-9198 85 0
-9198 189 0
-9198 240 0
-9199 14 0
-9199 85 0
-9199 198 0
-9199 231 0
-9200 14 0
-9200 95 0
-9201 14 0
-9201 95 0
-9201 189 0
-9201 219 0
-9202 14 0
-9202 95 0
-9202 198 0
-9202 210 0
-9203 14 0
-9203 105 0
-9203 240 0
-9204 14 0
-9204 105 0
-9204 179 0
-9204 219 0
-9205 14 0
-9205 105 0
-9205 198 0
-9205 200 0
-9206 14 0
-9206 114 0
-9206 231 0
-9207 14 0
-9207 114 0
-9207 179 0
-9207 210 0
-9208 14 0
-9208 114 0
-9208 189 0
-9208 200 0
-9209 24 0
-9209 200 0
-9210 24 0
-9210 210 0
-9210 240 0
-9211 24 0
-9211 219 0
-9211 231 0
-9212 24 0
-9212 85 0
-9212 140 0
-9213 24 0
-9213 85 0
-9213 150 0
-9213 240 0
-9214 24 0
-9214 85 0
-9214 159 0
-9214 231 0
-9215 24 0
-9215 95 0
-9215 130 0
-9216 24 0
-9216 95 0
-9216 150 0
-9216 219 0
-9217 24 0
-9217 95 0
-9217 159 0
-9217 210 0
-9218 24 0
-9218 105 0
-9218 130 0
-9218 240 0
-9219 24 0
-9219 105 0
-9219 140 0
-9219 219 0
-9220 24 0
-9220 105 0
-9220 159 0
-9220 200 0
-9221 24 0
-9221 114 0
-9221 130 0
-9221 231 0
-9222 24 0
-9222 114 0
-9222 140 0
-9222 210 0
-9223 24 0
-9223 114 0
-9223 150 0
-9223 200 0
-9224 31 0
-9224 179 0
-9225 31 0
-9225 189 0
-9225 240 0
-9226 31 0
-9226 198 0
-9226 231 0
-9227 31 0
-9227 78 0
-9227 140 0
-9228 31 0
-9228 78 0
-9228 150 0
-9228 240 0
-9229 31 0
-9229 78 0
-9229 159 0
-9229 231 0
-9230 31 0
-9230 95 0
-9230 123 0
-9231 31 0
-9231 95 0
-9231 150 0
-9231 198 0
-9232 31 0
-9232 95 0
-9232 159 0
-9232 189 0
-9233 31 0
-9233 105 0
-9233 123 0
-9233 240 0
-9234 31 0
-9234 105 0
-9234 140 0
-9234 198 0
-9235 31 0
-9235 105 0
-9235 159 0
-9235 179 0
-9236 31 0
-9236 114 0
-9236 123 0
-9236 231 0
-9237 31 0
-9237 114 0
-9237 140 0
-9237 189 0
-9238 31 0
-9238 114 0
-9238 150 0
-9238 179 0
-9239 189 0
-9239 219 0
-9240 198 0
-9240 210 0
-9241 78 0
-9241 130 0
-9242 78 0
-9242 150 0
-9242 219 0
-9243 78 0
-9243 159 0
-9243 210 0
-9244 85 0
-9244 123 0
-9245 85 0
-9245 150 0
-9245 198 0
-9246 85 0
-9246 159 0
-9246 189 0
-9247 105 0
-9247 123 0
-9247 219 0
-9248 105 0
-9248 130 0
-9248 198 0
-9249 105 0
-9249 159 0
-9250 114 0
-9250 123 0
-9250 210 0
-9251 114 0
-9251 130 0
-9251 189 0
-9252 114 0
-9252 150 0
-9253 51 0
-9253 240 0
-9254 51 0
-9254 179 0
-9254 219 0
-9255 51 0
-9255 198 0
-9255 200 0
-9256 51 0
-9256 78 0
-9256 130 0
-9256 240 0
-9257 51 0
-9257 78 0
-9257 140 0
-9257 219 0
-9258 51 0
-9258 78 0
-9258 159 0
-9258 200 0
-9259 51 0
-9259 85 0
-9259 123 0
-9259 240 0
-9260 51 0
-9260 85 0
-9260 140 0
-9260 198 0
-9261 51 0
-9261 85 0
-9261 159 0
-9261 179 0
-9262 51 0
-9262 95 0
-9262 123 0
-9262 219 0
-9263 51 0
-9263 95 0
-9263 130 0
-9263 198 0
-9264 51 0
-9264 95 0
-9264 159 0
-9265 51 0
-9265 114 0
-9265 123 0
-9265 200 0
-9266 51 0
-9266 114 0
-9266 130 0
-9266 179 0
-9267 51 0
-9267 114 0
-9267 140 0
-9268 60 0
-9268 231 0
-9269 60 0
-9269 179 0
-9269 210 0
-9270 60 0
-9270 189 0
-9270 200 0
-9271 60 0
-9271 78 0
-9271 130 0
-9271 231 0
-9272 60 0
-9272 78 0
-9272 140 0
-9272 210 0
-9273 60 0
-9273 78 0
-9273 150 0
-9273 200 0
-9274 60 0
-9274 85 0
-9274 123 0
-9274 231 0
-9275 60 0
-9275 85 0
-9275 140 0
-9275 189 0
-9276 60 0
-9276 85 0
-9276 150 0
-9276 179 0
-9277 60 0
-9277 95 0
-9277 123 0
-9277 210 0
-9278 60 0
-9278 95 0
-9278 130 0
-9278 189 0
-9279 60 0
-9279 95 0
-9279 150 0
-9280 60 0
-9280 105 0
-9280 123 0
-9280 200 0
-9281 60 0
-9281 105 0
-9281 130 0
-9281 179 0
-9282 60 0
-9282 105 0
-9282 140 0
-41 -68 -169 -252 9179 9180 9181 9182 9183 9184 9185 9186 9187 9188 9189 9190 9191 9192 9193 9194 9195 9196 9197 9198 9199 9200 9201 9202 9203 9204 9205 9206 9207 9208 9209 9210 9211 9212 9213 9214 9215 9216 9217 9218 9219 9220 9221 9222 9223 9224 9225 9226 9227 9228 9229 9230 9231 9232 9233 9234 9235 9236 9237 9238 9239 9240 9241 9242 9243 9244 9245 9246 9247 9248 9249 9250 9251 9252 9253 9254 9255 9256 9257 9258 9259 9260 9261 9262 9263 9264 9265 9266 9267 9268 9269 9270 9271 9272 9273 9274 9275 9276 9277 9278 9279 9280 9281 9282 0
-9283 5 0
-9283 123 0
-9283 200 0
-9284 5 0
-9284 123 0
-9284 209 0
-9284 239 0
-9285 5 0
-9285 123 0
-9285 218 0
-9285 230 0
-9286 5 0
-9286 130 0
-9286 179 0
-9287 5 0
-9287 130 0
-9287 188 0
-9287 239 0
-9288 5 0
-9288 130 0
-9288 197 0
-9288 230 0
-9289 5 0
-9289 140 0
-9290 5 0
-9290 140 0
-9290 188 0
-9290 218 0
-9291 5 0
-9291 140 0
-9291 197 0
-9291 209 0
-9292 5 0
-9292 149 0
-9292 239 0
-9293 5 0
-9293 149 0
-9293 179 0
-9293 218 0
-9294 5 0
-9294 149 0
-9294 197 0
-9294 200 0
-9295 5 0
-9295 158 0
-9295 230 0
-9296 5 0
-9296 158 0
-9296 179 0
-9296 209 0
-9297 5 0
-9297 158 0
-9297 188 0
-9297 200 0
-9298 14 0
-9298 78 0
-9298 200 0
-9299 14 0
-9299 78 0
-9299 209 0
-9299 239 0
-9300 14 0
-9300 78 0
-9300 218 0
-9300 230 0
-9301 14 0
-9301 85 0
-9301 179 0
-9302 14 0
-9302 85 0
-9302 188 0
-9302 239 0
-9303 14 0
-9303 85 0
-9303 197 0
-9303 230 0
-9304 14 0
-9304 95 0
-9305 14 0
-9305 95 0
-9305 188 0
-9305 218 0
-9306 14 0
-9306 95 0
-9306 197 0
-9306 209 0
-9307 14 0
-9307 104 0
-9307 239 0
-9308 14 0
-9308 104 0
-9308 179 0
-9308 218 0
-9309 14 0
-9309 104 0
-9309 197 0
-9309 200 0
-9310 14 0
-9310 113 0
-9310 230 0
-9311 14 0
-9311 113 0
-9311 179 0
-9311 209 0
-9312 14 0
-9312 113 0
-9312 188 0
-9312 200 0
-9313 24 0
-9313 200 0
-9314 24 0
-9314 209 0
-9314 239 0
-9315 24 0
-9315 218 0
-9315 230 0
-9316 24 0
-9316 85 0
-9316 140 0
-9317 24 0
-9317 85 0
-9317 149 0
-9317 239 0
-9318 24 0
-9318 85 0
-9318 158 0
-9318 230 0
-9319 24 0
-9319 95 0
-9319 130 0
-9320 24 0
-9320 95 0
-9320 149 0
-9320 218 0
-9321 24 0
-9321 95 0
-9321 158 0
-9321 209 0
-9322 24 0
-9322 104 0
-9322 130 0
-9322 239 0
-9323 24 0
-9323 104 0
-9323 140 0
-9323 218 0
-9324 24 0
-9324 104 0
-9324 158 0
-9324 200 0
-9325 24 0
-9325 113 0
-9325 130 0
-9325 230 0
-9326 24 0
-9326 113 0
-9326 140 0
-9326 209 0
-9327 24 0
-9327 113 0
-9327 149 0
-9327 200 0
-9328 31 0
-9328 179 0
-9329 31 0
-9329 188 0
-9329 239 0
-9330 31 0
-9330 197 0
-9330 230 0
-9331 31 0
-9331 78 0
-9331 140 0
-9332 31 0
-9332 78 0
-9332 149 0
-9332 239 0
-9333 31 0
-9333 78 0
-9333 158 0
-9333 230 0
-9334 31 0
-9334 95 0
-9334 123 0
-9335 31 0
-9335 95 0
-9335 149 0
-9335 197 0
-9336 31 0
-9336 95 0
-9336 158 0
-9336 188 0
-9337 31 0
-9337 104 0
-9337 123 0
-9337 239 0
-9338 31 0
-9338 104 0
-9338 140 0
-9338 197 0
-9339 31 0
-9339 104 0
-9339 158 0
-9339 179 0
-9340 31 0
-9340 113 0
-9340 123 0
-9340 230 0
-9341 31 0
-9341 113 0
-9341 140 0
-9341 188 0
-9342 31 0
-9342 113 0
-9342 149 0
-9342 179 0
-9343 188 0
-9343 218 0
-9344 197 0
-9344 209 0
-9345 78 0
-9345 130 0
-9346 78 0
-9346 149 0
-9346 218 0
-9347 78 0
-9347 158 0
-9347 209 0
-9348 85 0
-9348 123 0
-9349 85 0
-9349 149 0
-9349 197 0
-9350 85 0
-9350 158 0
-9350 188 0
-9351 104 0
-9351 123 0
-9351 218 0
-9352 104 0
-9352 130 0
-9352 197 0
-9353 104 0
-9353 158 0
-9354 113 0
-9354 123 0
-9354 209 0
-9355 113 0
-9355 130 0
-9355 188 0
-9356 113 0
-9356 149 0
-9357 50 0
-9357 239 0
-9358 50 0
-9358 179 0
-9358 218 0
-9359 50 0
-9359 197 0
-9359 200 0
-9360 50 0
-9360 78 0
-9360 130 0
-9360 239 0
-9361 50 0
-9361 78 0
-9361 140 0
-9361 218 0
-9362 50 0
-9362 78 0
-9362 158 0
-9362 200 0
-9363 50 0
-9363 85 0
-9363 123 0
-9363 239 0
-9364 50 0
-9364 85 0
-9364 140 0
-9364 197 0
-9365 50 0
-9365 85 0
-9365 158 0
-9365 179 0
-9366 50 0
-9366 95 0
-9366 123 0
-9366 218 0
-9367 50 0
-9367 95 0
-9367 130 0
-9367 197 0
-9368 50 0
-9368 95 0
-9368 158 0
-9369 50 0
-9369 113 0
-9369 123 0
-9369 200 0
-9370 50 0
-9370 113 0
-9370 130 0
-9370 179 0
-9371 50 0
-9371 113 0
-9371 140 0
-9372 59 0
-9372 230 0
-9373 59 0
-9373 179 0
-9373 209 0
-9374 59 0
-9374 188 0
-9374 200 0
-9375 59 0
-9375 78 0
-9375 130 0
-9375 230 0
-9376 59 0
-9376 78 0
-9376 140 0
-9376 209 0
-9377 59 0
-9377 78 0
-9377 149 0
-9377 200 0
-9378 59 0
-9378 85 0
-9378 123 0
-9378 230 0
-9379 59 0
-9379 85 0
-9379 140 0
-9379 188 0
-9380 59 0
-9380 85 0
-9380 149 0
-9380 179 0
-9381 59 0
-9381 95 0
-9381 123 0
-9381 209 0
-9382 59 0
-9382 95 0
-9382 130 0
-9382 188 0
-9383 59 0
-9383 95 0
-9383 149 0
-9384 59 0
-9384 104 0
-9384 123 0
-9384 200 0
-9385 59 0
-9385 104 0
-9385 130 0
-9385 179 0
-9386 59 0
-9386 104 0
-9386 140 0
-41 -68 -169 -248 9283 9284 9285 9286 9287 9288 9289 9290 9291 9292 9293 9294 9295 9296 9297 9298 9299 9300 9301 9302 9303 9304 9305 9306 9307 9308 9309 9310 9311 9312 9313 9314 9315 9316 9317 9318 9319 9320 9321 9322 9323 9324 9325 9326 9327 9328 9329 9330 9331 9332 9333 9334 9335 9336 9337 9338 9339 9340 9341 9342 9343 9344 9345 9346 9347 9348 9349 9350 9351 9352 9353 9354 9355 9356 9357 9358 9359 9360 9361 9362 9363 9364 9365 9366 9367 9368 9369 9370 9371 9372 9373 9374 9375 9376 9377 9378 9379 9380 9381 9382 9383 9384 9385 9386 0
-9387 2 0
-9387 122 0
-9387 204 0
-9388 2 0
-9388 122 0
-9388 212 0
-9388 242 0
-9389 2 0
-9389 122 0
-9389 221 0
-9389 233 0
-9390 2 0
-9390 131 0
-9390 177 0
-9391 2 0
-9391 131 0
-9391 185 0
-9391 242 0
-9392 2 0
-9392 131 0
-9392 194 0
-9392 233 0
-9393 2 0
-9393 141 0
-9394 2 0
-9394 141 0
-9394 185 0
-9394 221 0
-9395 2 0
-9395 141 0
-9395 194 0
-9395 212 0
-9396 2 0
-9396 149 0
-9396 242 0
-9397 2 0
-9397 149 0
-9397 177 0
-9397 221 0
-9398 2 0
-9398 149 0
-9398 194 0
-9398 204 0
-9399 2 0
-9399 158 0
-9399 233 0
-9400 2 0
-9400 158 0
-9400 177 0
-9400 212 0
-9401 2 0
-9401 158 0
-9401 185 0
-9401 204 0
-9402 11 0
-9402 77 0
-9402 204 0
-9403 11 0
-9403 77 0
-9403 212 0
-9403 242 0
-9404 11 0
-9404 77 0
-9404 221 0
-9404 233 0
-9405 11 0
-9405 86 0
-9405 177 0
-9406 11 0
-9406 86 0
-9406 185 0
-9406 242 0
-9407 11 0
-9407 86 0
-9407 194 0
-9407 233 0
-9408 11 0
-9408 96 0
-9409 11 0
-9409 96 0
-9409 185 0
-9409 221 0
-9410 11 0
-9410 96 0
-9410 194 0
-9410 212 0
-9411 11 0
-9411 104 0
-9411 242 0
-9412 11 0
-9412 104 0
-9412 177 0
-9412 221 0
-9413 11 0
-9413 104 0
-9413 194 0
-9413 204 0
-9414 11 0
-9414 113 0
-9414 233 0
-9415 11 0
-9415 113 0
-9415 177 0
-9415 212 0
-9416 11 0
-9416 113 0
-9416 185 0
-9416 204 0
-9417 20 0
-9417 204 0
-9418 20 0
-9418 212 0
-9418 242 0
-9419 20 0
-9419 221 0
-9419 233 0
-9420 20 0
-9420 86 0
-9420 141 0
-9421 20 0
-9421 86 0
-9421 149 0
-9421 242 0
-9422 20 0
-9422 86 0
-9422 158 0
-9422 233 0
-9423 20 0
-9423 96 0
-9423 131 0
-9424 20 0
-9424 96 0
-9424 149 0
-9424 221 0
-9425 20 0
-9425 96 0
-9425 158 0
-9425 212 0
-9426 20 0
-9426 104 0
-9426 131 0
-9426 242 0
-9427 20 0
-9427 104 0
-9427 141 0
-9427 221 0
-9428 20 0
-9428 104 0
-9428 158 0
-9428 204 0
-9429 20 0
-9429 113 0
-9429 131 0
-9429 233 0
-9430 20 0
-9430 113 0
-9430 141 0
-9430 212 0
-9431 20 0
-9431 113 0
-9431 149 0
-9431 204 0
-9432 29 0
-9432 177 0
-9433 29 0
-9433 185 0
-9433 242 0
-9434 29 0
-9434 194 0
-9434 233 0
-9435 29 0
-9435 77 0
-9435 141 0
-9436 29 0
-9436 77 0
-9436 149 0
-9436 242 0
-9437 29 0
-9437 77 0
-9437 158 0
-9437 233 0
-9438 29 0
-9438 96 0
-9438 122 0
-9439 29 0
-9439 96 0
-9439 149 0
-9439 194 0
-9440 29 0
-9440 96 0
-9440 158 0
-9440 185 0
-9441 29 0
-9441 104 0
-9441 122 0
-9441 242 0
-9442 29 0
-9442 104 0
-9442 141 0
-9442 194 0
-9443 29 0
-9443 104 0
-9443 158 0
-9443 177 0
-9444 29 0
-9444 113 0
-9444 122 0
-9444 233 0
-9445 29 0
-9445 113 0
-9445 141 0
-9445 185 0
-9446 29 0
-9446 113 0
-9446 149 0
-9446 177 0
-9447 185 0
-9447 221 0
-9448 194 0
-9448 212 0
-9449 77 0
-9449 131 0
-9450 77 0
-9450 149 0
-9450 221 0
-9451 77 0
-9451 158 0
-9451 212 0
-9452 86 0
-9452 122 0
-9453 86 0
-9453 149 0
-9453 194 0
-9454 86 0
-9454 158 0
-9454 185 0
-9455 104 0
-9455 122 0
-9455 221 0
-9456 104 0
-9456 131 0
-9456 194 0
-9457 104 0
-9457 158 0
-9458 113 0
-9458 122 0
-9458 212 0
-9459 113 0
-9459 131 0
-9459 185 0
-9460 113 0
-9460 149 0
-9461 47 0
-9461 242 0
-9462 47 0
-9462 177 0
-9462 221 0
-9463 47 0
-9463 194 0
-9463 204 0
-9464 47 0
-9464 77 0
-9464 131 0
-9464 242 0
-9465 47 0
-9465 77 0
-9465 141 0
-9465 221 0
-9466 47 0
-9466 77 0
-9466 158 0
-9466 204 0
-9467 47 0
-9467 86 0
-9467 122 0
-9467 242 0
-9468 47 0
-9468 86 0
-9468 141 0
-9468 194 0
-9469 47 0
-9469 86 0
-9469 158 0
-9469 177 0
-9470 47 0
-9470 96 0
-9470 122 0
-9470 221 0
-9471 47 0
-9471 96 0
-9471 131 0
-9471 194 0
-9472 47 0
-9472 96 0
-9472 158 0
-9473 47 0
-9473 113 0
-9473 122 0
-9473 204 0
-9474 47 0
-9474 113 0
-9474 131 0
-9474 177 0
-9475 47 0
-9475 113 0
-9475 141 0
-9476 56 0
-9476 233 0
-9477 56 0
-9477 177 0
-9477 212 0
-9478 56 0
-9478 185 0
-9478 204 0
-9479 56 0
-9479 77 0
-9479 131 0
-9479 233 0
-9480 56 0
-9480 77 0
-9480 141 0
-9480 212 0
-9481 56 0
-9481 77 0
-9481 149 0
-9481 204 0
-9482 56 0
-9482 86 0
-9482 122 0
-9482 233 0
-9483 56 0
-9483 86 0
-9483 141 0
-9483 185 0
-9484 56 0
-9484 86 0
-9484 149 0
-9484 177 0
-9485 56 0
-9485 96 0
-9485 122 0
-9485 212 0
-9486 56 0
-9486 96 0
-9486 131 0
-9486 185 0
-9487 56 0
-9487 96 0
-9487 149 0
-9488 56 0
-9488 104 0
-9488 122 0
-9488 204 0
-9489 56 0
-9489 104 0
-9489 131 0
-9489 177 0
-9490 56 0
-9490 104 0
-9490 141 0
-39 -68 -167 -248 9387 9388 9389 9390 9391 9392 9393 9394 9395 9396 9397 9398 9399 9400 9401 9402 9403 9404 9405 9406 9407 9408 9409 9410 9411 9412 9413 9414 9415 9416 9417 9418 9419 9420 9421 9422 9423 9424 9425 9426 9427 9428 9429 9430 9431 9432 9433 9434 9435 9436 9437 9438 9439 9440 9441 9442 9443 9444 9445 9446 9447 9448 9449 9450 9451 9452 9453 9454 9455 9456 9457 9458 9459 9460 9461 9462 9463 9464 9465 9466 9467 9468 9469 9470 9471 9472 9473 9474 9475 9476 9477 9478 9479 9480 9481 9482 9483 9484 9485 9486 9487 9488 9489 9490 0
-9491 125 0
-9491 202 0
-9492 125 0
-9492 212 0
-9492 236 0
-9493 125 0
-9493 221 0
-9493 227 0
-9494 134 0
-9494 175 0
-9495 134 0
-9495 185 0
-9495 236 0
-9496 134 0
-9496 194 0
-9496 227 0
-9497 185 0
-9497 221 0
-9498 194 0
-9498 212 0
-9499 152 0
-9499 236 0
-9500 152 0
-9500 175 0
-9500 221 0
-9501 152 0
-9501 194 0
-9501 202 0
-9502 161 0
-9502 227 0
-9503 161 0
-9503 175 0
-9503 212 0
-9504 161 0
-9504 185 0
-9504 202 0
-9505 12 0
-9505 74 0
-9505 202 0
-9506 12 0
-9506 74 0
-9506 212 0
-9506 236 0
-9507 12 0
-9507 74 0
-9507 221 0
-9507 227 0
-9508 12 0
-9508 83 0
-9508 175 0
-9509 12 0
-9509 83 0
-9509 185 0
-9509 236 0
-9510 12 0
-9510 83 0
-9510 194 0
-9510 227 0
-9511 12 0
-9511 91 0
-9512 12 0
-9512 91 0
-9512 185 0
-9512 221 0
-9513 12 0
-9513 91 0
-9513 194 0
-9513 212 0
-9514 12 0
-9514 101 0
-9514 236 0
-9515 12 0
-9515 101 0
-9515 175 0
-9515 221 0
-9516 12 0
-9516 101 0
-9516 194 0
-9516 202 0
-9517 12 0
-9517 110 0
-9517 227 0
-9518 12 0
-9518 110 0
-9518 175 0
-9518 212 0
-9519 12 0
-9519 110 0
-9519 185 0
-9519 202 0
-9520 20 0
-9520 66 0
-9520 202 0
-9521 20 0
-9521 66 0
-9521 212 0
-9521 236 0
-9522 20 0
-9522 66 0
-9522 221 0
-9522 227 0
-9523 20 0
-9523 83 0
-9524 20 0
-9524 83 0
-9524 152 0
-9524 236 0
-9525 20 0
-9525 83 0
-9525 161 0
-9525 227 0
-9526 20 0
-9526 91 0
-9526 134 0
-9527 20 0
-9527 91 0
-9527 152 0
-9527 221 0
-9528 20 0
-9528 91 0
-9528 161 0
-9528 212 0
-9529 20 0
-9529 101 0
-9529 134 0
-9529 236 0
-9530 20 0
-9530 101 0
-9530 221 0
-9531 20 0
-9531 101 0
-9531 161 0
-9531 202 0
-9532 20 0
-9532 110 0
-9532 134 0
-9532 227 0
-9533 20 0
-9533 110 0
-9533 212 0
-9534 20 0
-9534 110 0
-9534 152 0
-9534 202 0
-9535 29 0
-9535 66 0
-9535 175 0
-9536 29 0
-9536 66 0
-9536 185 0
-9536 236 0
-9537 29 0
-9537 66 0
-9537 194 0
-9537 227 0
-9538 29 0
-9538 74 0
-9539 29 0
-9539 74 0
-9539 152 0
-9539 236 0
-9540 29 0
-9540 74 0
-9540 161 0
-9540 227 0
-9541 29 0
-9541 91 0
-9541 125 0
-9542 29 0
-9542 91 0
-9542 152 0
-9542 194 0
-9543 29 0
-9543 91 0
-9543 161 0
-9543 185 0
-9544 29 0
-9544 101 0
-9544 125 0
-9544 236 0
-9545 29 0
-9545 101 0
-9545 194 0
-9546 29 0
-9546 101 0
-9546 161 0
-9546 175 0
-9547 29 0
-9547 110 0
-9547 125 0
-9547 227 0
-9548 29 0
-9548 110 0
-9548 185 0
-9549 29 0
-9549 110 0
-9549 152 0
-9549 175 0
-9550 37 0
-9550 66 0
-9551 37 0
-9551 66 0
-9551 185 0
-9551 221 0
-9552 37 0
-9552 66 0
-9552 194 0
-9552 212 0
-9553 37 0
-9553 74 0
-9553 134 0
-9554 37 0
-9554 74 0
-9554 152 0
-9554 221 0
-9555 37 0
-9555 74 0
-9555 161 0
-9555 212 0
-9556 37 0
-9556 83 0
-9556 125 0
-9557 37 0
-9557 83 0
-9557 152 0
-9557 194 0
-9558 37 0
-9558 83 0
-9558 161 0
-9558 185 0
-9559 37 0
-9559 101 0
-9559 125 0
-9559 221 0
-9560 37 0
-9560 101 0
-9560 134 0
-9560 194 0
-9561 37 0
-9561 101 0
-9561 161 0
-9562 37 0
-9562 110 0
-9562 125 0
-9562 212 0
-9563 37 0
-9563 110 0
-9563 134 0
-9563 185 0
-9564 37 0
-9564 110 0
-9564 152 0
-9565 47 0
-9565 66 0
-9565 236 0
-9566 47 0
-9566 66 0
-9566 175 0
-9566 221 0
-9567 47 0
-9567 66 0
-9567 194 0
-9567 202 0
-9568 47 0
-9568 74 0
-9568 134 0
-9568 236 0
-9569 47 0
-9569 74 0
-9569 221 0
-9570 47 0
-9570 74 0
-9570 161 0
-9570 202 0
-9571 47 0
-9571 83 0
-9571 125 0
-9571 236 0
-9572 47 0
-9572 83 0
-9572 194 0
-9573 47 0
-9573 83 0
-9573 161 0
-9573 175 0
-9574 47 0
-9574 91 0
-9574 125 0
-9574 221 0
-9575 47 0
-9575 91 0
-9575 134 0
-9575 194 0
-9576 47 0
-9576 91 0
-9576 161 0
-9577 47 0
-9577 110 0
-9577 125 0
-9577 202 0
-9578 47 0
-9578 110 0
-9578 134 0
-9578 175 0
-9579 47 0
-9579 110 0
-9580 56 0
-9580 66 0
-9580 227 0
-9581 56 0
-9581 66 0
-9581 175 0
-9581 212 0
-9582 56 0
-9582 66 0
-9582 185 0
-9582 202 0
-9583 56 0
-9583 74 0
-9583 134 0
-9583 227 0
-9584 56 0
-9584 74 0
-9584 212 0
-9585 56 0
-9585 74 0
-9585 152 0
-9585 202 0
-9586 56 0
-9586 83 0
-9586 125 0
-9586 227 0
-9587 56 0
-9587 83 0
-9587 185 0
-9588 56 0
-9588 83 0
-9588 152 0
-9588 175 0
-9589 56 0
-9589 91 0
-9589 125 0
-9589 212 0
-9590 56 0
-9590 91 0
-9590 134 0
-9590 185 0
-9591 56 0
-9591 91 0
-9591 152 0
-9592 56 0
-9592 101 0
-9592 125 0
-9592 202 0
-9593 56 0
-9593 101 0
-9593 134 0
-9593 175 0
-9594 56 0
-9594 101 0
-1 -142 -167 -248 9491 9492 9493 9494 9495 9496 9497 9498 9499 9500 9501 9502 9503 9504 9505 9506 9507 9508 9509 9510 9511 9512 9513 9514 9515 9516 9517 9518 9519 9520 9521 9522 9523 9524 9525 9526 9527 9528 9529 9530 9531 9532 9533 9534 9535 9536 9537 9538 9539 9540 9541 9542 9543 9544 9545 9546 9547 9548 9549 9550 9551 9552 9553 9554 9555 9556 9557 9558 9559 9560 9561 9562 9563 9564 9565 9566 9567 9568 9569 9570 9571 9572 9573 9574 9575 9576 9577 9578 9579 9580 9581 9582 9583 9584 9585 9586 9587 9588 9589 9590 9591 9592 9593 9594 0
-9595 119 0
-9595 204 0
-9596 119 0
-9596 212 0
-9596 242 0
-9597 119 0
-9597 221 0
-9597 233 0
-9598 128 0
-9598 177 0
-9599 128 0
-9599 185 0
-9599 242 0
-9600 128 0
-9600 194 0
-9600 233 0
-9601 185 0
-9601 221 0
-9602 194 0
-9602 212 0
-9603 146 0
-9603 242 0
-9604 146 0
-9604 177 0
-9604 221 0
-9605 146 0
-9605 194 0
-9605 204 0
-9606 155 0
-9606 233 0
-9607 155 0
-9607 177 0
-9607 212 0
-9608 155 0
-9608 185 0
-9608 204 0
-9609 10 0
-9609 74 0
-9609 204 0
-9610 10 0
-9610 74 0
-9610 212 0
-9610 242 0
-9611 10 0
-9611 74 0
-9611 221 0
-9611 233 0
-9612 10 0
-9612 83 0
-9612 177 0
-9613 10 0
-9613 83 0
-9613 185 0
-9613 242 0
-9614 10 0
-9614 83 0
-9614 194 0
-9614 233 0
-9615 10 0
-9615 93 0
-9616 10 0
-9616 93 0
-9616 185 0
-9616 221 0
-9617 10 0
-9617 93 0
-9617 194 0
-9617 212 0
-9618 10 0
-9618 101 0
-9618 242 0
-9619 10 0
-9619 101 0
-9619 177 0
-9619 221 0
-9620 10 0
-9620 101 0
-9620 194 0
-9620 204 0
-9621 10 0
-9621 110 0
-9621 233 0
-9622 10 0
-9622 110 0
-9622 177 0
-9622 212 0
-9623 10 0
-9623 110 0
-9623 185 0
-9623 204 0
-9624 20 0
-9624 64 0
-9624 204 0
-9625 20 0
-9625 64 0
-9625 212 0
-9625 242 0
-9626 20 0
-9626 64 0
-9626 221 0
-9626 233 0
-9627 20 0
-9627 83 0
-9628 20 0
-9628 83 0
-9628 146 0
-9628 242 0
-9629 20 0
-9629 83 0
-9629 155 0
-9629 233 0
-9630 20 0
-9630 93 0
-9630 128 0
-9631 20 0
-9631 93 0
-9631 146 0
-9631 221 0
-9632 20 0
-9632 93 0
-9632 155 0
-9632 212 0
-9633 20 0
-9633 101 0
-9633 128 0
-9633 242 0
-9634 20 0
-9634 101 0
-9634 221 0
-9635 20 0
-9635 101 0
-9635 155 0
-9635 204 0
-9636 20 0
-9636 110 0
-9636 128 0
-9636 233 0
-9637 20 0
-9637 110 0
-9637 212 0
-9638 20 0
-9638 110 0
-9638 146 0
-9638 204 0
-9639 29 0
-9639 64 0
-9639 177 0
-9640 29 0
-9640 64 0
-9640 185 0
-9640 242 0
-9641 29 0
-9641 64 0
-9641 194 0
-9641 233 0
-9642 29 0
-9642 74 0
-9643 29 0
-9643 74 0
-9643 146 0
-9643 242 0
-9644 29 0
-9644 74 0
-9644 155 0
-9644 233 0
-9645 29 0
-9645 93 0
-9645 119 0
-9646 29 0
-9646 93 0
-9646 146 0
-9646 194 0
-9647 29 0
-9647 93 0
-9647 155 0
-9647 185 0
-9648 29 0
-9648 101 0
-9648 119 0
-9648 242 0
-9649 29 0
-9649 101 0
-9649 194 0
-9650 29 0
-9650 101 0
-9650 155 0
-9650 177 0
-9651 29 0
-9651 110 0
-9651 119 0
-9651 233 0
-9652 29 0
-9652 110 0
-9652 185 0
-9653 29 0
-9653 110 0
-9653 146 0
-9653 177 0
-9654 39 0
-9654 64 0
-9655 39 0
-9655 64 0
-9655 185 0
-9655 221 0
-9656 39 0
-9656 64 0
-9656 194 0
-9656 212 0
-9657 39 0
-9657 74 0
-9657 128 0
-9658 39 0
-9658 74 0
-9658 146 0
-9658 221 0
-9659 39 0
-9659 74 0
-9659 155 0
-9659 212 0
-9660 39 0
-9660 83 0
-9660 119 0
-9661 39 0
-9661 83 0
-9661 146 0
-9661 194 0
-9662 39 0
-9662 83 0
-9662 155 0
-9662 185 0
-9663 39 0
-9663 101 0
-9663 119 0
-9663 221 0
-9664 39 0
-9664 101 0
-9664 128 0
-9664 194 0
-9665 39 0
-9665 101 0
-9665 155 0
-9666 39 0
-9666 110 0
-9666 119 0
-9666 212 0
-9667 39 0
-9667 110 0
-9667 128 0
-9667 185 0
-9668 39 0
-9668 110 0
-9668 146 0
-9669 47 0
-9669 64 0
-9669 242 0
-9670 47 0
-9670 64 0
-9670 177 0
-9670 221 0
-9671 47 0
-9671 64 0
-9671 194 0
-9671 204 0
-9672 47 0
-9672 74 0
-9672 128 0
-9672 242 0
-9673 47 0
-9673 74 0
-9673 221 0
-9674 47 0
-9674 74 0
-9674 155 0
-9674 204 0
-9675 47 0
-9675 83 0
-9675 119 0
-9675 242 0
-9676 47 0
-9676 83 0
-9676 194 0
-9677 47 0
-9677 83 0
-9677 155 0
-9677 177 0
-9678 47 0
-9678 93 0
-9678 119 0
-9678 221 0
-9679 47 0
-9679 93 0
-9679 128 0
-9679 194 0
-9680 47 0
-9680 93 0
-9680 155 0
-9681 47 0
-9681 110 0
-9681 119 0
-9681 204 0
-9682 47 0
-9682 110 0
-9682 128 0
-9682 177 0
-9683 47 0
-9683 110 0
-9684 56 0
-9684 64 0
-9684 233 0
-9685 56 0
-9685 64 0
-9685 177 0
-9685 212 0
-9686 56 0
-9686 64 0
-9686 185 0
-9686 204 0
-9687 56 0
-9687 74 0
-9687 128 0
-9687 233 0
-9688 56 0
-9688 74 0
-9688 212 0
-9689 56 0
-9689 74 0
-9689 146 0
-9689 204 0
-9690 56 0
-9690 83 0
-9690 119 0
-9690 233 0
-9691 56 0
-9691 83 0
-9691 185 0
-9692 56 0
-9692 83 0
-9692 146 0
-9692 177 0
-9693 56 0
-9693 93 0
-9693 119 0
-9693 212 0
-9694 56 0
-9694 93 0
-9694 128 0
-9694 185 0
-9695 56 0
-9695 93 0
-9695 146 0
-9696 56 0
-9696 101 0
-9696 119 0
-9696 204 0
-9697 56 0
-9697 101 0
-9697 128 0
-9697 177 0
-9698 56 0
-9698 101 0
-1 -138 -167 -248 9595 9596 9597 9598 9599 9600 9601 9602 9603 9604 9605 9606 9607 9608 9609 9610 9611 9612 9613 9614 9615 9616 9617 9618 9619 9620 9621 9622 9623 9624 9625 9626 9627 9628 9629 9630 9631 9632 9633 9634 9635 9636 9637 9638 9639 9640 9641 9642 9643 9644 9645 9646 9647 9648 9649 9650 9651 9652 9653 9654 9655 9656 9657 9658 9659 9660 9661 9662 9663 9664 9665 9666 9667 9668 9669 9670 9671 9672 9673 9674 9675 9676 9677 9678 9679 9680 9681 9682 9683 9684 9685 9686 9687 9688 9689 9690 9691 9692 9693 9694 9695 9696 9697 9698 0
-9699 7 0
-9699 121 0
-9699 199 0
-9699 244 0
-9700 7 0
-9700 121 0
-9701 7 0
-9701 121 0
-9701 217 0
-9701 226 0
-9702 7 0
-9702 130 0
-9702 172 0
-9702 244 0
-9703 7 0
-9703 130 0
-9703 181 0
-9704 7 0
-9704 130 0
-9704 190 0
-9704 226 0
-9705 7 0
-9705 139 0
-9705 163 0
-9705 244 0
-9706 7 0
-9706 139 0
-9706 181 0
-9706 217 0
-9707 7 0
-9707 139 0
-9707 190 0
-9708 7 0
-9708 148 0
-9708 163 0
-9709 7 0
-9709 148 0
-9709 172 0
-9709 217 0
-9710 7 0
-9710 148 0
-9710 190 0
-9710 199 0
-9711 7 0
-9711 157 0
-9711 163 0
-9711 226 0
-9712 7 0
-9712 157 0
-9712 172 0
-9713 7 0
-9713 157 0
-9713 181 0
-9713 199 0
-9714 199 0
-9714 244 0
-9715 217 0
-9715 226 0
-9716 82 0
-9716 172 0
-9716 244 0
-9717 82 0
-9717 181 0
-9718 82 0
-9718 190 0
-9718 226 0
-9719 91 0
-9719 163 0
-9719 244 0
-9720 91 0
-9720 181 0
-9720 217 0
-9721 91 0
-9721 190 0
-9722 100 0
-9722 163 0
-9723 100 0
-9723 172 0
-9723 217 0
-9724 100 0
-9724 190 0
-9724 199 0
-9725 109 0
-9725 163 0
-9725 226 0
-9726 109 0
-9726 172 0
-9727 109 0
-9727 181 0
-9727 199 0
-9728 25 0
-9728 65 0
-9728 199 0
-9728 244 0
-9729 25 0
-9729 65 0
-9730 25 0
-9730 65 0
-9730 217 0
-9730 226 0
-9731 25 0
-9731 82 0
-9731 139 0
-9731 244 0
-9732 25 0
-9732 82 0
-9732 148 0
-9733 25 0
-9733 82 0
-9733 157 0
-9733 226 0
-9734 25 0
-9734 91 0
-9734 130 0
-9734 244 0
-9735 25 0
-9735 91 0
-9735 148 0
-9735 217 0
-9736 25 0
-9736 91 0
-9736 157 0
-9737 25 0
-9737 100 0
-9737 130 0
-9738 25 0
-9738 100 0
-9738 139 0
-9738 217 0
-9739 25 0
-9739 100 0
-9739 157 0
-9739 199 0
-9740 25 0
-9740 109 0
-9740 130 0
-9740 226 0
-9741 25 0
-9741 109 0
-9741 139 0
-9742 25 0
-9742 109 0
-9742 148 0
-9742 199 0
-9743 34 0
-9743 65 0
-9743 172 0
-9743 244 0
-9744 34 0
-9744 65 0
-9744 181 0
-9745 34 0
-9745 65 0
-9745 190 0
-9745 226 0
-9746 34 0
-9746 139 0
-9746 244 0
-9747 34 0
-9747 148 0
-9748 34 0
-9748 157 0
-9748 226 0
-9749 34 0
-9749 91 0
-9749 121 0
-9749 244 0
-9750 34 0
-9750 91 0
-9750 148 0
-9750 190 0
-9751 34 0
-9751 91 0
-9751 157 0
-9751 181 0
-9752 34 0
-9752 100 0
-9752 121 0
-9753 34 0
-9753 100 0
-9753 139 0
-9753 190 0
-9754 34 0
-9754 100 0
-9754 157 0
-9754 172 0
-9755 34 0
-9755 109 0
-9755 121 0
-9755 226 0
-9756 34 0
-9756 109 0
-9756 139 0
-9756 181 0
-9757 34 0
-9757 109 0
-9757 148 0
-9757 172 0
-9758 43 0
-9758 65 0
-9758 163 0
-9758 244 0
-9759 43 0
-9759 65 0
-9759 181 0
-9759 217 0
-9760 43 0
-9760 65 0
-9760 190 0
-9761 43 0
-9761 130 0
-9761 244 0
-9762 43 0
-9762 148 0
-9762 217 0
-9763 43 0
-9763 157 0
-9764 43 0
-9764 82 0
-9764 121 0
-9764 244 0
-9765 43 0
-9765 82 0
-9765 148 0
-9765 190 0
-9766 43 0
-9766 82 0
-9766 157 0
-9766 181 0
-9767 43 0
-9767 100 0
-9767 121 0
-9767 217 0
-9768 43 0
-9768 100 0
-9768 130 0
-9768 190 0
-9769 43 0
-9769 100 0
-9769 157 0
-9769 163 0
-9770 43 0
-9770 109 0
-9770 121 0
-9771 43 0
-9771 109 0
-9771 130 0
-9771 181 0
-9772 43 0
-9772 109 0
-9772 148 0
-9772 163 0
-9773 52 0
-9773 65 0
-9773 163 0
-9774 52 0
-9774 65 0
-9774 172 0
-9774 217 0
-9775 52 0
-9775 65 0
-9775 190 0
-9775 199 0
-9776 52 0
-9776 130 0
-9777 52 0
-9777 139 0
-9777 217 0
-9778 52 0
-9778 157 0
-9778 199 0
-9779 52 0
-9779 82 0
-9779 121 0
-9780 52 0
-9780 82 0
-9780 139 0
-9780 190 0
-9781 52 0
-9781 82 0
-9781 157 0
-9781 172 0
-9782 52 0
-9782 91 0
-9782 121 0
-9782 217 0
-9783 52 0
-9783 91 0
-9783 130 0
-9783 190 0
-9784 52 0
-9784 91 0
-9784 157 0
-9784 163 0
-9785 52 0
-9785 109 0
-9785 121 0
-9785 199 0
-9786 52 0
-9786 109 0
-9786 130 0
-9786 172 0
-9787 52 0
-9787 109 0
-9787 139 0
-9787 163 0
-9788 61 0
-9788 65 0
-9788 163 0
-9788 226 0
-9789 61 0
-9789 65 0
-9789 172 0
-9790 61 0
-9790 65 0
-9790 181 0
-9790 199 0
-9791 61 0
-9791 130 0
-9791 226 0
-9792 61 0
-9792 139 0
-9793 61 0
-9793 148 0
-9793 199 0
-9794 61 0
-9794 82 0
-9794 121 0
-9794 226 0
-9795 61 0
-9795 82 0
-9795 139 0
-9795 181 0
-9796 61 0
-9796 82 0
-9796 148 0
-9796 172 0
-9797 61 0
-9797 91 0
-9797 121 0
-9798 61 0
-9798 91 0
-9798 130 0
-9798 181 0
-9799 61 0
-9799 91 0
-9799 148 0
-9799 163 0
-9800 61 0
-9800 100 0
-9800 121 0
-9800 199 0
-9801 61 0
-9801 100 0
-9801 130 0
-9801 172 0
-9802 61 0
-9802 100 0
-9802 139 0
-9802 163 0
-17 -73 -208 -235 9699 9700 9701 9702 9703 9704 9705 9706 9707 9708 9709 9710 9711 9712 9713 9714 9715 9716 9717 9718 9719 9720 9721 9722 9723 9724 9725 9726 9727 9728 9729 9730 9731 9732 9733 9734 9735 9736 9737 9738 9739 9740 9741 9742 9743 9744 9745 9746 9747 9748 9749 9750 9751 9752 9753 9754 9755 9756 9757 9758 9759 9760 9761 9762 9763 9764 9765 9766 9767 9768 9769 9770 9771 9772 9773 9774 9775 9776 9777 9778 9779 9780 9781 9782 9783 9784 9785 9786 9787 9788 9789 9790 9791 9792 9793 9794 9795 9796 9797 9798 9799 9800 9801 9802 0
-9803 5 0
-9803 121 0
-9803 204 0
-9804 5 0
-9804 121 0
-9804 212 0
-9804 242 0
-9805 5 0
-9805 121 0
-9805 221 0
-9805 233 0
-9806 5 0
-9806 131 0
-9807 5 0
-9807 131 0
-9807 182 0
-9807 242 0
-9808 5 0
-9808 131 0
-9808 191 0
-9808 233 0
-9809 5 0
-9809 141 0
-9809 164 0
-9810 5 0
-9810 141 0
-9810 182 0
-9810 221 0
-9811 5 0
-9811 141 0
-9811 191 0
-9811 212 0
-9812 5 0
-9812 149 0
-9812 164 0
-9812 242 0
-9813 5 0
-9813 149 0
-9813 221 0
-9814 5 0
-9814 149 0
-9814 191 0
-9814 204 0
-9815 5 0
-9815 158 0
-9815 164 0
-9815 233 0
-9816 5 0
-9816 158 0
-9816 212 0
-9817 5 0
-9817 158 0
-9817 182 0
-9817 204 0
-9818 14 0
-9818 76 0
-9818 204 0
-9819 14 0
-9819 76 0
-9819 212 0
-9819 242 0
-9820 14 0
-9820 76 0
-9820 221 0
-9820 233 0
-9821 14 0
-9821 86 0
-9822 14 0
-9822 86 0
-9822 182 0
-9822 242 0
-9823 14 0
-9823 86 0
-9823 191 0
-9823 233 0
-9824 14 0
-9824 96 0
-9824 164 0
-9825 14 0
-9825 96 0
-9825 182 0
-9825 221 0
-9826 14 0
-9826 96 0
-9826 191 0
-9826 212 0
-9827 14 0
-9827 104 0
-9827 164 0
-9827 242 0
-9828 14 0
-9828 104 0
-9828 221 0
-9829 14 0
-9829 104 0
-9829 191 0
-9829 204 0
-9830 14 0
-9830 113 0
-9830 164 0
-9830 233 0
-9831 14 0
-9831 113 0
-9831 212 0
-9832 14 0
-9832 113 0
-9832 182 0
-9832 204 0
-9833 22 0
-9833 204 0
-9834 22 0
-9834 212 0
-9834 242 0
-9835 22 0
-9835 221 0
-9835 233 0
-9836 22 0
-9836 86 0
-9836 141 0
-9837 22 0
-9837 86 0
-9837 149 0
-9837 242 0
-9838 22 0
-9838 86 0
-9838 158 0
-9838 233 0
-9839 22 0
-9839 96 0
-9839 131 0
-9840 22 0
-9840 96 0
-9840 149 0
-9840 221 0
-9841 22 0
-9841 96 0
-9841 158 0
-9841 212 0
-9842 22 0
-9842 104 0
-9842 131 0
-9842 242 0
-9843 22 0
-9843 104 0
-9843 141 0
-9843 221 0
-9844 22 0
-9844 104 0
-9844 158 0
-9844 204 0
-9845 22 0
-9845 113 0
-9845 131 0
-9845 233 0
-9846 22 0
-9846 113 0
-9846 141 0
-9846 212 0
-9847 22 0
-9847 113 0
-9847 149 0
-9847 204 0
-9848 182 0
-9848 242 0
-9849 191 0
-9849 233 0
-9850 76 0
-9850 141 0
-9851 76 0
-9851 149 0
-9851 242 0
-9852 76 0
-9852 158 0
-9852 233 0
-9853 96 0
-9853 121 0
-9854 96 0
-9854 149 0
-9854 191 0
-9855 96 0
-9855 158 0
-9855 182 0
-9856 104 0
-9856 121 0
-9856 242 0
-9857 104 0
-9857 141 0
-9857 191 0
-9858 104 0
-9858 158 0
-9859 113 0
-9859 121 0
-9859 233 0
-9860 113 0
-9860 141 0
-9860 182 0
-9861 113 0
-9861 149 0
-9862 42 0
-9862 164 0
-9863 42 0
-9863 182 0
-9863 221 0
-9864 42 0
-9864 191 0
-9864 212 0
-9865 42 0
-9865 76 0
-9865 131 0
-9866 42 0
-9866 76 0
-9866 149 0
-9866 221 0
-9867 42 0
-9867 76 0
-9867 158 0
-9867 212 0
-9868 42 0
-9868 86 0
-9868 121 0
-9869 42 0
-9869 86 0
-9869 149 0
-9869 191 0
-9870 42 0
-9870 86 0
-9870 158 0
-9870 182 0
-9871 42 0
-9871 104 0
-9871 121 0
-9871 221 0
-9872 42 0
-9872 104 0
-9872 131 0
-9872 191 0
-9873 42 0
-9873 104 0
-9873 158 0
-9873 164 0
-9874 42 0
-9874 113 0
-9874 121 0
-9874 212 0
-9875 42 0
-9875 113 0
-9875 131 0
-9875 182 0
-9876 42 0
-9876 113 0
-9876 149 0
-9876 164 0
-9877 50 0
-9877 164 0
-9877 242 0
-9878 50 0
-9878 221 0
-9879 50 0
-9879 191 0
-9879 204 0
-9880 50 0
-9880 76 0
-9880 131 0
-9880 242 0
-9881 50 0
-9881 76 0
-9881 141 0
-9881 221 0
-9882 50 0
-9882 76 0
-9882 158 0
-9882 204 0
-9883 50 0
-9883 86 0
-9883 121 0
-9883 242 0
-9884 50 0
-9884 86 0
-9884 141 0
-9884 191 0
-9885 50 0
-9885 86 0
-9885 158 0
-9886 50 0
-9886 96 0
-9886 121 0
-9886 221 0
-9887 50 0
-9887 96 0
-9887 131 0
-9887 191 0
-9888 50 0
-9888 96 0
-9888 158 0
-9888 164 0
-9889 50 0
-9889 113 0
-9889 121 0
-9889 204 0
-9890 50 0
-9890 113 0
-9890 131 0
-9891 50 0
-9891 113 0
-9891 141 0
-9891 164 0
-9892 59 0
-9892 164 0
-9892 233 0
-9893 59 0
-9893 212 0
-9894 59 0
-9894 182 0
-9894 204 0
-9895 59 0
-9895 76 0
-9895 131 0
-9895 233 0
-9896 59 0
-9896 76 0
-9896 141 0
-9896 212 0
-9897 59 0
-9897 76 0
-9897 149 0
-9897 204 0
-9898 59 0
-9898 86 0
-9898 121 0
-9898 233 0
-9899 59 0
-9899 86 0
-9899 141 0
-9899 182 0
-9900 59 0
-9900 86 0
-9900 149 0
-9901 59 0
-9901 96 0
-9901 121 0
-9901 212 0
-9902 59 0
-9902 96 0
-9902 131 0
-9902 182 0
-9903 59 0
-9903 96 0
-9903 149 0
-9903 164 0
-9904 59 0
-9904 104 0
-9904 121 0
-9904 204 0
-9905 59 0
-9905 104 0
-9905 131 0
-9906 59 0
-9906 104 0
-9906 141 0
-9906 164 0
-32 -68 -174 -248 9803 9804 9805 9806 9807 9808 9809 9810 9811 9812 9813 9814 9815 9816 9817 9818 9819 9820 9821 9822 9823 9824 9825 9826 9827 9828 9829 9830 9831 9832 9833 9834 9835 9836 9837 9838 9839 9840 9841 9842 9843 9844 9845 9846 9847 9848 9849 9850 9851 9852 9853 9854 9855 9856 9857 9858 9859 9860 9861 9862 9863 9864 9865 9866 9867 9868 9869 9870 9871 9872 9873 9874 9875 9876 9877 9878 9879 9880 9881 9882 9883 9884 9885 9886 9887 9888 9889 9890 9891 9892 9893 9894 9895 9896 9897 9898 9899 9900 9901 9902 9903 9904 9905 9906 0
-9907 5 0
-9907 120 0
-9907 199 0
-9907 244 0
-9908 5 0
-9908 120 0
-9909 5 0
-9909 120 0
-9909 217 0
-9909 226 0
-9910 5 0
-9910 127 0
-9910 178 0
-9910 244 0
-9911 5 0
-9911 127 0
-9911 187 0
-9912 5 0
-9912 127 0
-9912 196 0
-9912 226 0
-9913 5 0
-9913 136 0
-9913 169 0
-9913 244 0
-9914 5 0
-9914 136 0
-9914 187 0
-9914 217 0
-9915 5 0
-9915 136 0
-9915 196 0
-9916 5 0
-9916 145 0
-9916 169 0
-9917 5 0
-9917 145 0
-9917 178 0
-9917 217 0
-9918 5 0
-9918 145 0
-9918 196 0
-9918 199 0
-9919 5 0
-9919 154 0
-9919 169 0
-9919 226 0
-9920 5 0
-9920 154 0
-9920 178 0
-9921 5 0
-9921 154 0
-9921 187 0
-9921 199 0
-9922 199 0
-9922 244 0
-9923 217 0
-9923 226 0
-9924 85 0
-9924 178 0
-9924 244 0
-9925 85 0
-9925 187 0
-9926 85 0
-9926 196 0
-9926 226 0
-9927 94 0
-9927 169 0
-9927 244 0
-9928 94 0
-9928 187 0
-9928 217 0
-9929 94 0
-9929 196 0
-9930 103 0
-9930 169 0
-9931 103 0
-9931 178 0
-9931 217 0
-9932 103 0
-9932 196 0
-9932 199 0
-9933 112 0
-9933 169 0
-9933 226 0
-9934 112 0
-9934 178 0
-9935 112 0
-9935 187 0
-9935 199 0
-9936 24 0
-9936 67 0
-9936 199 0
-9936 244 0
-9937 24 0
-9937 67 0
-9938 24 0
-9938 67 0
-9938 217 0
-9938 226 0
-9939 24 0
-9939 85 0
-9939 136 0
-9939 244 0
-9940 24 0
-9940 85 0
-9940 145 0
-9941 24 0
-9941 85 0
-9941 154 0
-9941 226 0
-9942 24 0
-9942 94 0
-9942 127 0
-9942 244 0
-9943 24 0
-9943 94 0
-9943 145 0
-9943 217 0
-9944 24 0
-9944 94 0
-9944 154 0
-9945 24 0
-9945 103 0
-9945 127 0
-9946 24 0
-9946 103 0
-9946 136 0
-9946 217 0
-9947 24 0
-9947 103 0
-9947 154 0
-9947 199 0
-9948 24 0
-9948 112 0
-9948 127 0
-9948 226 0
-9949 24 0
-9949 112 0
-9949 136 0
-9950 24 0
-9950 112 0
-9950 145 0
-9950 199 0
-9951 31 0
-9951 67 0
-9951 178 0
-9951 244 0
-9952 31 0
-9952 67 0
-9952 187 0
-9953 31 0
-9953 67 0
-9953 196 0
-9953 226 0
-9954 31 0
-9954 136 0
-9954 244 0
-9955 31 0
-9955 145 0
-9956 31 0
-9956 154 0
-9956 226 0
-9957 31 0
-9957 94 0
-9957 120 0
-9957 244 0
-9958 31 0
-9958 94 0
-9958 145 0
-9958 196 0
-9959 31 0
-9959 94 0
-9959 154 0
-9959 187 0
-9960 31 0
-9960 103 0
-9960 120 0
-9961 31 0
-9961 103 0
-9961 136 0
-9961 196 0
-9962 31 0
-9962 103 0
-9962 154 0
-9962 178 0
-9963 31 0
-9963 112 0
-9963 120 0
-9963 226 0
-9964 31 0
-9964 112 0
-9964 136 0
-9964 187 0
-9965 31 0
-9965 112 0
-9965 145 0
-9965 178 0
-9966 40 0
-9966 67 0
-9966 169 0
-9966 244 0
-9967 40 0
-9967 67 0
-9967 187 0
-9967 217 0
-9968 40 0
-9968 67 0
-9968 196 0
-9969 40 0
-9969 127 0
-9969 244 0
-9970 40 0
-9970 145 0
-9970 217 0
-9971 40 0
-9971 154 0
-9972 40 0
-9972 85 0
-9972 120 0
-9972 244 0
-9973 40 0
-9973 85 0
-9973 145 0
-9973 196 0
-9974 40 0
-9974 85 0
-9974 154 0
-9974 187 0
-9975 40 0
-9975 103 0
-9975 120 0
-9975 217 0
-9976 40 0
-9976 103 0
-9976 127 0
-9976 196 0
-9977 40 0
-9977 103 0
-9977 154 0
-9977 169 0
-9978 40 0
-9978 112 0
-9978 120 0
-9979 40 0
-9979 112 0
-9979 127 0
-9979 187 0
-9980 40 0
-9980 112 0
-9980 145 0
-9980 169 0
-9981 49 0
-9981 67 0
-9981 169 0
-9982 49 0
-9982 67 0
-9982 178 0
-9982 217 0
-9983 49 0
-9983 67 0
-9983 196 0
-9983 199 0
-9984 49 0
-9984 127 0
-9985 49 0
-9985 136 0
-9985 217 0
-9986 49 0
-9986 154 0
-9986 199 0
-9987 49 0
-9987 85 0
-9987 120 0
-9988 49 0
-9988 85 0
-9988 136 0
-9988 196 0
-9989 49 0
-9989 85 0
-9989 154 0
-9989 178 0
-9990 49 0
-9990 94 0
-9990 120 0
-9990 217 0
-9991 49 0
-9991 94 0
-9991 127 0
-9991 196 0
-9992 49 0
-9992 94 0
-9992 154 0
-9992 169 0
-9993 49 0
-9993 112 0
-9993 120 0
-9993 199 0
-9994 49 0
-9994 112 0
-9994 127 0
-9994 178 0
-9995 49 0
-9995 112 0
-9995 136 0
-9995 169 0
-9996 58 0
-9996 67 0
-9996 169 0
-9996 226 0
-9997 58 0
-9997 67 0
-9997 178 0
-9998 58 0
-9998 67 0
-9998 187 0
-9998 199 0
-9999 58 0
-9999 127 0
-9999 226 0
-10000 58 0
-10000 136 0
-10001 58 0
-10001 145 0
-10001 199 0
-10002 58 0
-10002 85 0
-10002 120 0
-10002 226 0
-10003 58 0
-10003 85 0
-10003 136 0
-10003 187 0
-10004 58 0
-10004 85 0
-10004 145 0
-10004 178 0
-10005 58 0
-10005 94 0
-10005 120 0
-10006 58 0
-10006 94 0
-10006 127 0
-10006 187 0
-10007 58 0
-10007 94 0
-10007 145 0
-10007 169 0
-10008 58 0
-10008 103 0
-10008 120 0
-10008 199 0
-10009 58 0
-10009 103 0
-10009 127 0
-10009 178 0
-10010 58 0
-10010 103 0
-10010 136 0
-10010 169 0
-13 -78 -208 -235 9907 9908 9909 9910 9911 9912 9913 9914 9915 9916 9917 9918 9919 9920 9921 9922 9923 9924 9925 9926 9927 9928 9929 9930 9931 9932 9933 9934 9935 9936 9937 9938 9939 9940 9941 9942 9943 9944 9945 9946 9947 9948 9949 9950 9951 9952 9953 9954 9955 9956 9957 9958 9959 9960 9961 9962 9963 9964 9965 9966 9967 9968 9969 9970 9971 9972 9973 9974 9975 9976 9977 9978 9979 9980 9981 9982 9983 9984 9985 9986 9987 9988 9989 9990 9991 9992 9993 9994 9995 9996 9997 9998 9999 10000 10001 10002 10003 10004 10005 10006 10007 10008 10009 10010 0
-10011 199 0
-10011 244 0
-10012 217 0
-10012 226 0
-10013 127 0
-10013 172 0
-10013 244 0
-10014 127 0
-10014 181 0
-10015 127 0
-10015 190 0
-10015 226 0
-10016 136 0
-10016 163 0
-10016 244 0
-10017 136 0
-10017 181 0
-10017 217 0
-10018 136 0
-10018 190 0
-10019 145 0
-10019 163 0
-10020 145 0
-10020 172 0
-10020 217 0
-10021 145 0
-10021 190 0
-10021 199 0
-10022 154 0
-10022 163 0
-10022 226 0
-10023 154 0
-10023 172 0
-10024 154 0
-10024 181 0
-10024 199 0
-10025 16 0
-10025 76 0
-10025 199 0
-10025 244 0
-10026 16 0
-10026 76 0
-10027 16 0
-10027 76 0
-10027 217 0
-10027 226 0
-10028 16 0
-10028 85 0
-10028 172 0
-10028 244 0
-10029 16 0
-10029 85 0
-10029 181 0
-10030 16 0
-10030 85 0
-10030 190 0
-10030 226 0
-10031 16 0
-10031 94 0
-10031 163 0
-10031 244 0
-10032 16 0
-10032 94 0
-10032 181 0
-10032 217 0
-10033 16 0
-10033 94 0
-10033 190 0
-10034 16 0
-10034 103 0
-10034 163 0
-10035 16 0
-10035 103 0
-10035 172 0
-10035 217 0
-10036 16 0
-10036 103 0
-10036 190 0
-10036 199 0
-10037 16 0
-10037 112 0
-10037 163 0
-10037 226 0
-10038 16 0
-10038 112 0
-10038 172 0
-10039 16 0
-10039 112 0
-10039 181 0
-10039 199 0
-10040 25 0
-10040 67 0
-10040 199 0
-10040 244 0
-10041 25 0
-10041 67 0
-10042 25 0
-10042 67 0
-10042 217 0
-10042 226 0
-10043 25 0
-10043 85 0
-10043 136 0
-10043 244 0
-10044 25 0
-10044 85 0
-10044 145 0
-10045 25 0
-10045 85 0
-10045 154 0
-10045 226 0
-10046 25 0
-10046 94 0
-10046 127 0
-10046 244 0
-10047 25 0
-10047 94 0
-10047 145 0
-10047 217 0
-10048 25 0
-10048 94 0
-10048 154 0
-10049 25 0
-10049 103 0
-10049 127 0
-10050 25 0
-10050 103 0
-10050 136 0
-10050 217 0
-10051 25 0
-10051 103 0
-10051 154 0
-10051 199 0
-10052 25 0
-10052 112 0
-10052 127 0
-10052 226 0
-10053 25 0
-10053 112 0
-10053 136 0
-10054 25 0
-10054 112 0
-10054 145 0
-10054 199 0
-10055 34 0
-10055 67 0
-10055 172 0
-10055 244 0
-10056 34 0
-10056 67 0
-10056 181 0
-10057 34 0
-10057 67 0
-10057 190 0
-10057 226 0
-10058 34 0
-10058 76 0
-10058 136 0
-10058 244 0
-10059 34 0
-10059 76 0
-10059 145 0
-10060 34 0
-10060 76 0
-10060 154 0
-10060 226 0
-10061 34 0
-10061 94 0
-10061 244 0
-10062 34 0
-10062 94 0
-10062 145 0
-10062 190 0
-10063 34 0
-10063 94 0
-10063 154 0
-10063 181 0
-10064 34 0
-10064 103 0
-10065 34 0
-10065 103 0
-10065 136 0
-10065 190 0
-10066 34 0
-10066 103 0
-10066 154 0
-10066 172 0
-10067 34 0
-10067 112 0
-10067 226 0
-10068 34 0
-10068 112 0
-10068 136 0
-10068 181 0
-10069 34 0
-10069 112 0
-10069 145 0
-10069 172 0
-10070 43 0
-10070 67 0
-10070 163 0
-10070 244 0
-10071 43 0
-10071 67 0
-10071 181 0
-10071 217 0
-10072 43 0
-10072 67 0
-10072 190 0
-10073 43 0
-10073 76 0
-10073 127 0
-10073 244 0
-10074 43 0
-10074 76 0
-10074 145 0
-10074 217 0
-10075 43 0
-10075 76 0
-10075 154 0
-10076 43 0
-10076 85 0
-10076 244 0
-10077 43 0
-10077 85 0
-10077 145 0
-10077 190 0
-10078 43 0
-10078 85 0
-10078 154 0
-10078 181 0
-10079 43 0
-10079 103 0
-10079 217 0
-10080 43 0
-10080 103 0
-10080 127 0
-10080 190 0
-10081 43 0
-10081 103 0
-10081 154 0
-10081 163 0
-10082 43 0
-10082 112 0
-10083 43 0
-10083 112 0
-10083 127 0
-10083 181 0
-10084 43 0
-10084 112 0
-10084 145 0
-10084 163 0
-10085 52 0
-10085 67 0
-10085 163 0
-10086 52 0
-10086 67 0
-10086 172 0
-10086 217 0
-10087 52 0
-10087 67 0
-10087 190 0
-10087 199 0
-10088 52 0
-10088 76 0
-10088 127 0
-10089 52 0
-10089 76 0
-10089 136 0
-10089 217 0
-10090 52 0
-10090 76 0
-10090 154 0
-10090 199 0
-10091 52 0
-10091 85 0
-10092 52 0
-10092 85 0
-10092 136 0
-10092 190 0
-10093 52 0
-10093 85 0
-10093 154 0
-10093 172 0
-10094 52 0
-10094 94 0
-10094 217 0
-10095 52 0
-10095 94 0
-10095 127 0
-10095 190 0
-10096 52 0
-10096 94 0
-10096 154 0
-10096 163 0
-10097 52 0
-10097 112 0
-10097 199 0
-10098 52 0
-10098 112 0
-10098 127 0
-10098 172 0
-10099 52 0
-10099 112 0
-10099 136 0
-10099 163 0
-10100 61 0
-10100 67 0
-10100 163 0
-10100 226 0
-10101 61 0
-10101 67 0
-10101 172 0
-10102 61 0
-10102 67 0
-10102 181 0
-10102 199 0
-10103 61 0
-10103 76 0
-10103 127 0
-10103 226 0
-10104 61 0
-10104 76 0
-10104 136 0
-10105 61 0
-10105 76 0
-10105 145 0
-10105 199 0
-10106 61 0
-10106 85 0
-10106 226 0
-10107 61 0
-10107 85 0
-10107 136 0
-10107 181 0
-10108 61 0
-10108 85 0
-10108 145 0
-10108 172 0
-10109 61 0
-10109 94 0
-10110 61 0
-10110 94 0
-10110 127 0
-10110 181 0
-10111 61 0
-10111 94 0
-10111 145 0
-10111 163 0
-10112 61 0
-10112 103 0
-10112 199 0
-10113 61 0
-10113 103 0
-10113 127 0
-10113 172 0
-10114 61 0
-10114 103 0
-10114 136 0
-10114 163 0
-8 -118 -208 -235 10011 10012 10013 10014 10015 10016 10017 10018 10019 10020 10021 10022 10023 10024 10025 10026 10027 10028 10029 10030 10031 10032 10033 10034 10035 10036 10037 10038 10039 10040 10041 10042 10043 10044 10045 10046 10047 10048 10049 10050 10051 10052 10053 10054 10055 10056 10057 10058 10059 10060 10061 10062 10063 10064 10065 10066 10067 10068 10069 10070 10071 10072 10073 10074 10075 10076 10077 10078 10079 10080 10081 10082 10083 10084 10085 10086 10087 10088 10089 10090 10091 10092 10093 10094 10095 10096 10097 10098 10099 10100 10101 10102 10103 10104 10105 10106 10107 10108 10109 10110 10111 10112 10113 10114 0
-10115 199 0
-10115 244 0
-10116 217 0
-10116 226 0
-10117 130 0
-10117 178 0
-10117 244 0
-10118 130 0
-10118 187 0
-10119 130 0
-10119 196 0
-10119 226 0
-10120 139 0
-10120 169 0
-10120 244 0
-10121 139 0
-10121 187 0
-10121 217 0
-10122 139 0
-10122 196 0
-10123 148 0
-10123 169 0
-10124 148 0
-10124 178 0
-10124 217 0
-10125 148 0
-10125 196 0
-10125 199 0
-10126 157 0
-10126 169 0
-10126 226 0
-10127 157 0
-10127 178 0
-10128 157 0
-10128 187 0
-10128 199 0
-10129 14 0
-10129 75 0
-10129 199 0
-10129 244 0
-10130 14 0
-10130 75 0
-10131 14 0
-10131 75 0
-10131 217 0
-10131 226 0
-10132 14 0
-10132 82 0
-10132 178 0
-10132 244 0
-10133 14 0
-10133 82 0
-10133 187 0
-10134 14 0
-10134 82 0
-10134 196 0
-10134 226 0
-10135 14 0
-10135 91 0
-10135 169 0
-10135 244 0
-10136 14 0
-10136 91 0
-10136 187 0
-10136 217 0
-10137 14 0
-10137 91 0
-10137 196 0
-10138 14 0
-10138 100 0
-10138 169 0
-10139 14 0
-10139 100 0
-10139 178 0
-10139 217 0
-10140 14 0
-10140 100 0
-10140 196 0
-10140 199 0
-10141 14 0
-10141 109 0
-10141 169 0
-10141 226 0
-10142 14 0
-10142 109 0
-10142 178 0
-10143 14 0
-10143 109 0
-10143 187 0
-10143 199 0
-10144 24 0
-10144 65 0
-10144 199 0
-10144 244 0
-10145 24 0
-10145 65 0
-10146 24 0
-10146 65 0
-10146 217 0
-10146 226 0
-10147 24 0
-10147 82 0
-10147 139 0
-10147 244 0
-10148 24 0
-10148 82 0
-10148 148 0
-10149 24 0
-10149 82 0
-10149 157 0
-10149 226 0
-10150 24 0
-10150 91 0
-10150 130 0
-10150 244 0
-10151 24 0
-10151 91 0
-10151 148 0
-10151 217 0
-10152 24 0
-10152 91 0
-10152 157 0
-10153 24 0
-10153 100 0
-10153 130 0
-10154 24 0
-10154 100 0
-10154 139 0
-10154 217 0
-10155 24 0
-10155 100 0
-10155 157 0
-10155 199 0
-10156 24 0
-10156 109 0
-10156 130 0
-10156 226 0
-10157 24 0
-10157 109 0
-10157 139 0
-10158 24 0
-10158 109 0
-10158 148 0
-10158 199 0
-10159 31 0
-10159 65 0
-10159 178 0
-10159 244 0
-10160 31 0
-10160 65 0
-10160 187 0
-10161 31 0
-10161 65 0
-10161 196 0
-10161 226 0
-10162 31 0
-10162 75 0
-10162 139 0
-10162 244 0
-10163 31 0
-10163 75 0
-10163 148 0
-10164 31 0
-10164 75 0
-10164 157 0
-10164 226 0
-10165 31 0
-10165 91 0
-10165 244 0
-10166 31 0
-10166 91 0
-10166 148 0
-10166 196 0
-10167 31 0
-10167 91 0
-10167 157 0
-10167 187 0
-10168 31 0
-10168 100 0
-10169 31 0
-10169 100 0
-10169 139 0
-10169 196 0
-10170 31 0
-10170 100 0
-10170 157 0
-10170 178 0
-10171 31 0
-10171 109 0
-10171 226 0
-10172 31 0
-10172 109 0
-10172 139 0
-10172 187 0
-10173 31 0
-10173 109 0
-10173 148 0
-10173 178 0
-10174 40 0
-10174 65 0
-10174 169 0
-10174 244 0
-10175 40 0
-10175 65 0
-10175 187 0
-10175 217 0
-10176 40 0
-10176 65 0
-10176 196 0
-10177 40 0
-10177 75 0
-10177 130 0
-10177 244 0
-10178 40 0
-10178 75 0
-10178 148 0
-10178 217 0
-10179 40 0
-10179 75 0
-10179 157 0
-10180 40 0
-10180 82 0
-10180 244 0
-10181 40 0
-10181 82 0
-10181 148 0
-10181 196 0
-10182 40 0
-10182 82 0
-10182 157 0
-10182 187 0
-10183 40 0
-10183 100 0
-10183 217 0
-10184 40 0
-10184 100 0
-10184 130 0
-10184 196 0
-10185 40 0
-10185 100 0
-10185 157 0
-10185 169 0
-10186 40 0
-10186 109 0
-10187 40 0
-10187 109 0
-10187 130 0
-10187 187 0
-10188 40 0
-10188 109 0
-10188 148 0
-10188 169 0
-10189 49 0
-10189 65 0
-10189 169 0
-10190 49 0
-10190 65 0
-10190 178 0
-10190 217 0
-10191 49 0
-10191 65 0
-10191 196 0
-10191 199 0
-10192 49 0
-10192 75 0
-10192 130 0
-10193 49 0
-10193 75 0
-10193 139 0
-10193 217 0
-10194 49 0
-10194 75 0
-10194 157 0
-10194 199 0
-10195 49 0
-10195 82 0
-10196 49 0
-10196 82 0
-10196 139 0
-10196 196 0
-10197 49 0
-10197 82 0
-10197 157 0
-10197 178 0
-10198 49 0
-10198 91 0
-10198 217 0
-10199 49 0
-10199 91 0
-10199 130 0
-10199 196 0
-10200 49 0
-10200 91 0
-10200 157 0
-10200 169 0
-10201 49 0
-10201 109 0
-10201 199 0
-10202 49 0
-10202 109 0
-10202 130 0
-10202 178 0
-10203 49 0
-10203 109 0
-10203 139 0
-10203 169 0
-10204 58 0
-10204 65 0
-10204 169 0
-10204 226 0
-10205 58 0
-10205 65 0
-10205 178 0
-10206 58 0
-10206 65 0
-10206 187 0
-10206 199 0
-10207 58 0
-10207 75 0
-10207 130 0
-10207 226 0
-10208 58 0
-10208 75 0
-10208 139 0
-10209 58 0
-10209 75 0
-10209 148 0
-10209 199 0
-10210 58 0
-10210 82 0
-10210 226 0
-10211 58 0
-10211 82 0
-10211 139 0
-10211 187 0
-10212 58 0
-10212 82 0
-10212 148 0
-10212 178 0
-10213 58 0
-10213 91 0
-10214 58 0
-10214 91 0
-10214 130 0
-10214 187 0
-10215 58 0
-10215 91 0
-10215 148 0
-10215 169 0
-10216 58 0
-10216 100 0
-10216 199 0
-10217 58 0
-10217 100 0
-10217 130 0
-10217 178 0
-10218 58 0
-10218 100 0
-10218 139 0
-10218 169 0
-4 -123 -208 -235 10115 10116 10117 10118 10119 10120 10121 10122 10123 10124 10125 10126 10127 10128 10129 10130 10131 10132 10133 10134 10135 10136 10137 10138 10139 10140 10141 10142 10143 10144 10145 10146 10147 10148 10149 10150 10151 10152 10153 10154 10155 10156 10157 10158 10159 10160 10161 10162 10163 10164 10165 10166 10167 10168 10169 10170 10171 10172 10173 10174 10175 10176 10177 10178 10179 10180 10181 10182 10183 10184 10185 10186 10187 10188 10189 10190 10191 10192 10193 10194 10195 10196 10197 10198 10199 10200 10201 10202 10203 10204 10205 10206 10207 10208 10209 10210 10211 10212 10213 10214 10215 10216 10217 10218 0
-10219 199 0
-10219 244 0
-10220 217 0
-10220 226 0
-10221 130 0
-10221 178 0
-10221 244 0
-10222 130 0
-10222 187 0
-10223 130 0
-10223 196 0
-10223 226 0
-10224 139 0
-10224 169 0
-10224 244 0
-10225 139 0
-10225 187 0
-10225 217 0
-10226 139 0
-10226 196 0
-10227 148 0
-10227 169 0
-10228 148 0
-10228 178 0
-10228 217 0
-10229 148 0
-10229 196 0
-10229 199 0
-10230 157 0
-10230 169 0
-10230 226 0
-10231 157 0
-10231 178 0
-10232 157 0
-10232 187 0
-10232 199 0
-10233 11 0
-10233 75 0
-10233 199 0
-10233 244 0
-10234 11 0
-10234 75 0
-10235 11 0
-10235 75 0
-10235 217 0
-10235 226 0
-10236 11 0
-10236 82 0
-10236 178 0
-10236 244 0
-10237 11 0
-10237 82 0
-10237 187 0
-10238 11 0
-10238 82 0
-10238 196 0
-10238 226 0
-10239 11 0
-10239 91 0
-10239 169 0
-10239 244 0
-10240 11 0
-10240 91 0
-10240 187 0
-10240 217 0
-10241 11 0
-10241 91 0
-10241 196 0
-10242 11 0
-10242 100 0
-10242 169 0
-10243 11 0
-10243 100 0
-10243 178 0
-10243 217 0
-10244 11 0
-10244 100 0
-10244 196 0
-10244 199 0
-10245 11 0
-10245 109 0
-10245 169 0
-10245 226 0
-10246 11 0
-10246 109 0
-10246 178 0
-10247 11 0
-10247 109 0
-10247 187 0
-10247 199 0
-10248 21 0
-10248 65 0
-10248 199 0
-10248 244 0
-10249 21 0
-10249 65 0
-10250 21 0
-10250 65 0
-10250 217 0
-10250 226 0
-10251 21 0
-10251 82 0
-10251 139 0
-10251 244 0
-10252 21 0
-10252 82 0
-10252 148 0
-10253 21 0
-10253 82 0
-10253 157 0
-10253 226 0
-10254 21 0
-10254 91 0
-10254 130 0
-10254 244 0
-10255 21 0
-10255 91 0
-10255 148 0
-10255 217 0
-10256 21 0
-10256 91 0
-10256 157 0
-10257 21 0
-10257 100 0
-10257 130 0
-10258 21 0
-10258 100 0
-10258 139 0
-10258 217 0
-10259 21 0
-10259 100 0
-10259 157 0
-10259 199 0
-10260 21 0
-10260 109 0
-10260 130 0
-10260 226 0
-10261 21 0
-10261 109 0
-10261 139 0
-10262 21 0
-10262 109 0
-10262 148 0
-10262 199 0
-10263 28 0
-10263 65 0
-10263 178 0
-10263 244 0
-10264 28 0
-10264 65 0
-10264 187 0
-10265 28 0
-10265 65 0
-10265 196 0
-10265 226 0
-10266 28 0
-10266 75 0
-10266 139 0
-10266 244 0
-10267 28 0
-10267 75 0
-10267 148 0
-10268 28 0
-10268 75 0
-10268 157 0
-10268 226 0
-10269 28 0
-10269 91 0
-10269 244 0
-10270 28 0
-10270 91 0
-10270 148 0
-10270 196 0
-10271 28 0
-10271 91 0
-10271 157 0
-10271 187 0
-10272 28 0
-10272 100 0
-10273 28 0
-10273 100 0
-10273 139 0
-10273 196 0
-10274 28 0
-10274 100 0
-10274 157 0
-10274 178 0
-10275 28 0
-10275 109 0
-10275 226 0
-10276 28 0
-10276 109 0
-10276 139 0
-10276 187 0
-10277 28 0
-10277 109 0
-10277 148 0
-10277 178 0
-10278 37 0
-10278 65 0
-10278 169 0
-10278 244 0
-10279 37 0
-10279 65 0
-10279 187 0
-10279 217 0
-10280 37 0
-10280 65 0
-10280 196 0
-10281 37 0
-10281 75 0
-10281 130 0
-10281 244 0
-10282 37 0
-10282 75 0
-10282 148 0
-10282 217 0
-10283 37 0
-10283 75 0
-10283 157 0
-10284 37 0
-10284 82 0
-10284 244 0
-10285 37 0
-10285 82 0
-10285 148 0
-10285 196 0
-10286 37 0
-10286 82 0
-10286 157 0
-10286 187 0
-10287 37 0
-10287 100 0
-10287 217 0
-10288 37 0
-10288 100 0
-10288 130 0
-10288 196 0
-10289 37 0
-10289 100 0
-10289 157 0
-10289 169 0
-10290 37 0
-10290 109 0
-10291 37 0
-10291 109 0
-10291 130 0
-10291 187 0
-10292 37 0
-10292 109 0
-10292 148 0
-10292 169 0
-10293 46 0
-10293 65 0
-10293 169 0
-10294 46 0
-10294 65 0
-10294 178 0
-10294 217 0
-10295 46 0
-10295 65 0
-10295 196 0
-10295 199 0
-10296 46 0
-10296 75 0
-10296 130 0
-10297 46 0
-10297 75 0
-10297 139 0
-10297 217 0
-10298 46 0
-10298 75 0
-10298 157 0
-10298 199 0
-10299 46 0
-10299 82 0
-10300 46 0
-10300 82 0
-10300 139 0
-10300 196 0
-10301 46 0
-10301 82 0
-10301 157 0
-10301 178 0
-10302 46 0
-10302 91 0
-10302 217 0
-10303 46 0
-10303 91 0
-10303 130 0
-10303 196 0
-10304 46 0
-10304 91 0
-10304 157 0
-10304 169 0
-10305 46 0
-10305 109 0
-10305 199 0
-10306 46 0
-10306 109 0
-10306 130 0
-10306 178 0
-10307 46 0
-10307 109 0
-10307 139 0
-10307 169 0
-10308 55 0
-10308 65 0
-10308 169 0
-10308 226 0
-10309 55 0
-10309 65 0
-10309 178 0
-10310 55 0
-10310 65 0
-10310 187 0
-10310 199 0
-10311 55 0
-10311 75 0
-10311 130 0
-10311 226 0
-10312 55 0
-10312 75 0
-10312 139 0
-10313 55 0
-10313 75 0
-10313 148 0
-10313 199 0
-10314 55 0
-10314 82 0
-10314 226 0
-10315 55 0
-10315 82 0
-10315 139 0
-10315 187 0
-10316 55 0
-10316 82 0
-10316 148 0
-10316 178 0
-10317 55 0
-10317 91 0
-10318 55 0
-10318 91 0
-10318 130 0
-10318 187 0
-10319 55 0
-10319 91 0
-10319 148 0
-10319 169 0
-10320 55 0
-10320 100 0
-10320 199 0
-10321 55 0
-10321 100 0
-10321 130 0
-10321 178 0
-10322 55 0
-10322 100 0
-10322 139 0
-10322 169 0
-1 -123 -208 -235 10219 10220 10221 10222 10223 10224 10225 10226 10227 10228 10229 10230 10231 10232 10233 10234 10235 10236 10237 10238 10239 10240 10241 10242 10243 10244 10245 10246 10247 10248 10249 10250 10251 10252 10253 10254 10255 10256 10257 10258 10259 10260 10261 10262 10263 10264 10265 10266 10267 10268 10269 10270 10271 10272 10273 10274 10275 10276 10277 10278 10279 10280 10281 10282 10283 10284 10285 10286 10287 10288 10289 10290 10291 10292 10293 10294 10295 10296 10297 10298 10299 10300 10301 10302 10303 10304 10305 10306 10307 10308 10309 10310 10311 10312 10313 10314 10315 10316 10317 10318 10319 10320 10321 10322 0
-10323 201 0
-10323 246 0
-10324 219 0
-10324 232 0
-10325 127 0
-10325 174 0
-10325 246 0
-10326 127 0
-10326 181 0
-10327 127 0
-10327 192 0
-10327 232 0
-10328 138 0
-10328 163 0
-10328 246 0
-10329 138 0
-10329 181 0
-10329 219 0
-10330 138 0
-10330 192 0
-10331 145 0
-10331 163 0
-10332 145 0
-10332 174 0
-10332 219 0
-10333 145 0
-10333 192 0
-10333 201 0
-10334 156 0
-10334 163 0
-10334 232 0
-10335 156 0
-10335 174 0
-10336 156 0
-10336 181 0
-10336 201 0
-10337 10 0
-10337 73 0
-10337 201 0
-10337 246 0
-10338 10 0
-10338 73 0
-10339 10 0
-10339 73 0
-10339 219 0
-10339 232 0
-10340 10 0
-10340 82 0
-10340 174 0
-10340 246 0
-10341 10 0
-10341 82 0
-10341 181 0
-10342 10 0
-10342 82 0
-10342 192 0
-10342 232 0
-10343 10 0
-10343 93 0
-10343 163 0
-10343 246 0
-10344 10 0
-10344 93 0
-10344 181 0
-10344 219 0
-10345 10 0
-10345 93 0
-10345 192 0
-10346 10 0
-10346 100 0
-10346 163 0
-10347 10 0
-10347 100 0
-10347 174 0
-10347 219 0
-10348 10 0
-10348 100 0
-10348 192 0
-10348 201 0
-10349 10 0
-10349 111 0
-10349 163 0
-10349 232 0
-10350 10 0
-10350 111 0
-10350 174 0
-10351 10 0
-10351 111 0
-10351 181 0
-10351 201 0
-10352 19 0
-10352 64 0
-10352 201 0
-10352 246 0
-10353 19 0
-10353 64 0
-10354 19 0
-10354 64 0
-10354 219 0
-10354 232 0
-10355 19 0
-10355 82 0
-10355 138 0
-10355 246 0
-10356 19 0
-10356 82 0
-10356 145 0
-10357 19 0
-10357 82 0
-10357 156 0
-10357 232 0
-10358 19 0
-10358 93 0
-10358 127 0
-10358 246 0
-10359 19 0
-10359 93 0
-10359 145 0
-10359 219 0
-10360 19 0
-10360 93 0
-10360 156 0
-10361 19 0
-10361 100 0
-10361 127 0
-10362 19 0
-10362 100 0
-10362 138 0
-10362 219 0
-10363 19 0
-10363 100 0
-10363 156 0
-10363 201 0
-10364 19 0
-10364 111 0
-10364 127 0
-10364 232 0
-10365 19 0
-10365 111 0
-10365 138 0
-10366 19 0
-10366 111 0
-10366 145 0
-10366 201 0
-10367 28 0
-10367 64 0
-10367 174 0
-10367 246 0
-10368 28 0
-10368 64 0
-10368 181 0
-10369 28 0
-10369 64 0
-10369 192 0
-10369 232 0
-10370 28 0
-10370 73 0
-10370 138 0
-10370 246 0
-10371 28 0
-10371 73 0
-10371 145 0
-10372 28 0
-10372 73 0
-10372 156 0
-10372 232 0
-10373 28 0
-10373 93 0
-10373 246 0
-10374 28 0
-10374 93 0
-10374 145 0
-10374 192 0
-10375 28 0
-10375 93 0
-10375 156 0
-10375 181 0
-10376 28 0
-10376 100 0
-10377 28 0
-10377 100 0
-10377 138 0
-10377 192 0
-10378 28 0
-10378 100 0
-10378 156 0
-10378 174 0
-10379 28 0
-10379 111 0
-10379 232 0
-10380 28 0
-10380 111 0
-10380 138 0
-10380 181 0
-10381 28 0
-10381 111 0
-10381 145 0
-10381 174 0
-10382 39 0
-10382 64 0
-10382 163 0
-10382 246 0
-10383 39 0
-10383 64 0
-10383 181 0
-10383 219 0
-10384 39 0
-10384 64 0
-10384 192 0
-10385 39 0
-10385 73 0
-10385 127 0
-10385 246 0
-10386 39 0
-10386 73 0
-10386 145 0
-10386 219 0
-10387 39 0
-10387 73 0
-10387 156 0
-10388 39 0
-10388 82 0
-10388 246 0
-10389 39 0
-10389 82 0
-10389 145 0
-10389 192 0
-10390 39 0
-10390 82 0
-10390 156 0
-10390 181 0
-10391 39 0
-10391 100 0
-10391 219 0
-10392 39 0
-10392 100 0
-10392 127 0
-10392 192 0
-10393 39 0
-10393 100 0
-10393 156 0
-10393 163 0
-10394 39 0
-10394 111 0
-10395 39 0
-10395 111 0
-10395 127 0
-10395 181 0
-10396 39 0
-10396 111 0
-10396 145 0
-10396 163 0
-10397 46 0
-10397 64 0
-10397 163 0
-10398 46 0
-10398 64 0
-10398 174 0
-10398 219 0
-10399 46 0
-10399 64 0
-10399 192 0
-10399 201 0
-10400 46 0
-10400 73 0
-10400 127 0
-10401 46 0
-10401 73 0
-10401 138 0
-10401 219 0
-10402 46 0
-10402 73 0
-10402 156 0
-10402 201 0
-10403 46 0
-10403 82 0
-10404 46 0
-10404 82 0
-10404 138 0
-10404 192 0
-10405 46 0
-10405 82 0
-10405 156 0
-10405 174 0
-10406 46 0
-10406 93 0
-10406 219 0
-10407 46 0
-10407 93 0
-10407 127 0
-10407 192 0
-10408 46 0
-10408 93 0
-10408 156 0
-10408 163 0
-10409 46 0
-10409 111 0
-10409 201 0
-10410 46 0
-10410 111 0
-10410 127 0
-10410 174 0
-10411 46 0
-10411 111 0
-10411 138 0
-10411 163 0
-10412 57 0
-10412 64 0
-10412 163 0
-10412 232 0
-10413 57 0
-10413 64 0
-10413 174 0
-10414 57 0
-10414 64 0
-10414 181 0
-10414 201 0
-10415 57 0
-10415 73 0
-10415 127 0
-10415 232 0
-10416 57 0
-10416 73 0
-10416 138 0
-10417 57 0
-10417 73 0
-10417 145 0
-10417 201 0
-10418 57 0
-10418 82 0
-10418 232 0
-10419 57 0
-10419 82 0
-10419 138 0
-10419 181 0
-10420 57 0
-10420 82 0
-10420 145 0
-10420 174 0
-10421 57 0
-10421 93 0
-10422 57 0
-10422 93 0
-10422 127 0
-10422 181 0
-10423 57 0
-10423 93 0
-10423 145 0
-10423 163 0
-10424 57 0
-10424 100 0
-10424 201 0
-10425 57 0
-10425 100 0
-10425 127 0
-10425 174 0
-10426 57 0
-10426 100 0
-10426 138 0
-10426 163 0
-1 -118 -208 -243 10323 10324 10325 10326 10327 10328 10329 10330 10331 10332 10333 10334 10335 10336 10337 10338 10339 10340 10341 10342 10343 10344 10345 10346 10347 10348 10349 10350 10351 10352 10353 10354 10355 10356 10357 10358 10359 10360 10361 10362 10363 10364 10365 10366 10367 10368 10369 10370 10371 10372 10373 10374 10375 10376 10377 10378 10379 10380 10381 10382 10383 10384 10385 10386 10387 10388 10389 10390 10391 10392 10393 10394 10395 10396 10397 10398 10399 10400 10401 10402 10403 10404 10405 10406 10407 10408 10409 10410 10411 10412 10413 10414 10415 10416 10417 10418 10419 10420 10421 10422 10423 10424 10425 10426 0
-10427 209 0
-10427 236 0
-10428 218 0
-10428 227 0
-10429 127 0
-10429 172 0
-10430 127 0
-10430 182 0
-10430 236 0
-10431 127 0
-10431 191 0
-10431 227 0
-10432 136 0
-10432 163 0
-10433 136 0
-10433 182 0
-10433 218 0
-10434 136 0
-10434 191 0
-10434 209 0
-10435 146 0
-10435 163 0
-10435 236 0
-10436 146 0
-10436 172 0
-10436 218 0
-10437 146 0
-10437 191 0
-10438 155 0
-10438 163 0
-10438 227 0
-10439 155 0
-10439 172 0
-10439 209 0
-10440 155 0
-10440 182 0
-10441 16 0
-10441 76 0
-10442 16 0
-10442 76 0
-10442 209 0
-10442 236 0
-10443 16 0
-10443 76 0
-10443 218 0
-10443 227 0
-10444 16 0
-10444 85 0
-10444 172 0
-10445 16 0
-10445 85 0
-10445 182 0
-10445 236 0
-10446 16 0
-10446 85 0
-10446 191 0
-10446 227 0
-10447 16 0
-10447 94 0
-10447 163 0
-10448 16 0
-10448 94 0
-10448 182 0
-10448 218 0
-10449 16 0
-10449 94 0
-10449 191 0
-10449 209 0
-10450 16 0
-10450 104 0
-10450 163 0
-10450 236 0
-10451 16 0
-10451 104 0
-10451 172 0
-10451 218 0
-10452 16 0
-10452 104 0
-10452 191 0
-10453 16 0
-10453 113 0
-10453 163 0
-10453 227 0
-10454 16 0
-10454 113 0
-10454 172 0
-10454 209 0
-10455 16 0
-10455 113 0
-10455 182 0
-10456 25 0
-10456 67 0
-10457 25 0
-10457 67 0
-10457 209 0
-10457 236 0
-10458 25 0
-10458 67 0
-10458 218 0
-10458 227 0
-10459 25 0
-10459 85 0
-10459 136 0
-10460 25 0
-10460 85 0
-10460 146 0
-10460 236 0
-10461 25 0
-10461 85 0
-10461 155 0
-10461 227 0
-10462 25 0
-10462 94 0
-10462 127 0
-10463 25 0
-10463 94 0
-10463 146 0
-10463 218 0
-10464 25 0
-10464 94 0
-10464 155 0
-10464 209 0
-10465 25 0
-10465 104 0
-10465 127 0
-10465 236 0
-10466 25 0
-10466 104 0
-10466 136 0
-10466 218 0
-10467 25 0
-10467 104 0
-10467 155 0
-10468 25 0
-10468 113 0
-10468 127 0
-10468 227 0
-10469 25 0
-10469 113 0
-10469 136 0
-10469 209 0
-10470 25 0
-10470 113 0
-10470 146 0
-10471 34 0
-10471 67 0
-10471 172 0
-10472 34 0
-10472 67 0
-10472 182 0
-10472 236 0
-10473 34 0
-10473 67 0
-10473 191 0
-10473 227 0
-10474 34 0
-10474 76 0
-10474 136 0
-10475 34 0
-10475 76 0
-10475 146 0
-10475 236 0
-10476 34 0
-10476 76 0
-10476 155 0
-10476 227 0
-10477 34 0
-10477 94 0
-10478 34 0
-10478 94 0
-10478 146 0
-10478 191 0
-10479 34 0
-10479 94 0
-10479 155 0
-10479 182 0
-10480 34 0
-10480 104 0
-10480 236 0
-10481 34 0
-10481 104 0
-10481 136 0
-10481 191 0
-10482 34 0
-10482 104 0
-10482 155 0
-10482 172 0
-10483 34 0
-10483 113 0
-10483 227 0
-10484 34 0
-10484 113 0
-10484 136 0
-10484 182 0
-10485 34 0
-10485 113 0
-10485 146 0
-10485 172 0
-10486 43 0
-10486 67 0
-10486 163 0
-10487 43 0
-10487 67 0
-10487 182 0
-10487 218 0
-10488 43 0
-10488 67 0
-10488 191 0
-10488 209 0
-10489 43 0
-10489 76 0
-10489 127 0
-10490 43 0
-10490 76 0
-10490 146 0
-10490 218 0
-10491 43 0
-10491 76 0
-10491 155 0
-10491 209 0
-10492 43 0
-10492 85 0
-10493 43 0
-10493 85 0
-10493 146 0
-10493 191 0
-10494 43 0
-10494 85 0
-10494 155 0
-10494 182 0
-10495 43 0
-10495 104 0
-10495 218 0
-10496 43 0
-10496 104 0
-10496 127 0
-10496 191 0
-10497 43 0
-10497 104 0
-10497 155 0
-10497 163 0
-10498 43 0
-10498 113 0
-10498 209 0
-10499 43 0
-10499 113 0
-10499 127 0
-10499 182 0
-10500 43 0
-10500 113 0
-10500 146 0
-10500 163 0
-10501 53 0
-10501 67 0
-10501 163 0
-10501 236 0
-10502 53 0
-10502 67 0
-10502 172 0
-10502 218 0
-10503 53 0
-10503 67 0
-10503 191 0
-10504 53 0
-10504 76 0
-10504 127 0
-10504 236 0
-10505 53 0
-10505 76 0
-10505 136 0
-10505 218 0
-10506 53 0
-10506 76 0
-10506 155 0
-10507 53 0
-10507 85 0
-10507 236 0
-10508 53 0
-10508 85 0
-10508 136 0
-10508 191 0
-10509 53 0
-10509 85 0
-10509 155 0
-10509 172 0
-10510 53 0
-10510 94 0
-10510 218 0
-10511 53 0
-10511 94 0
-10511 127 0
-10511 191 0
-10512 53 0
-10512 94 0
-10512 155 0
-10512 163 0
-10513 53 0
-10513 113 0
-10514 53 0
-10514 113 0
-10514 127 0
-10514 172 0
-10515 53 0
-10515 113 0
-10515 136 0
-10515 163 0
-10516 62 0
-10516 67 0
-10516 163 0
-10516 227 0
-10517 62 0
-10517 67 0
-10517 172 0
-10517 209 0
-10518 62 0
-10518 67 0
-10518 182 0
-10519 62 0
-10519 76 0
-10519 127 0
-10519 227 0
-10520 62 0
-10520 76 0
-10520 136 0
-10520 209 0
-10521 62 0
-10521 76 0
-10521 146 0
-10522 62 0
-10522 85 0
-10522 227 0
-10523 62 0
-10523 85 0
-10523 136 0
-10523 182 0
-10524 62 0
-10524 85 0
-10524 146 0
-10524 172 0
-10525 62 0
-10525 94 0
-10525 209 0
-10526 62 0
-10526 94 0
-10526 127 0
-10526 182 0
-10527 62 0
-10527 94 0
-10527 146 0
-10527 163 0
-10528 62 0
-10528 104 0
-10529 62 0
-10529 104 0
-10529 127 0
-10529 172 0
-10530 62 0
-10530 104 0
-10530 136 0
-10530 163 0
-8 -118 -199 -248 10427 10428 10429 10430 10431 10432 10433 10434 10435 10436 10437 10438 10439 10440 10441 10442 10443 10444 10445 10446 10447 10448 10449 10450 10451 10452 10453 10454 10455 10456 10457 10458 10459 10460 10461 10462 10463 10464 10465 10466 10467 10468 10469 10470 10471 10472 10473 10474 10475 10476 10477 10478 10479 10480 10481 10482 10483 10484 10485 10486 10487 10488 10489 10490 10491 10492 10493 10494 10495 10496 10497 10498 10499 10500 10501 10502 10503 10504 10505 10506 10507 10508 10509 10510 10511 10512 10513 10514 10515 10516 10517 10518 10519 10520 10521 10522 10523 10524 10525 10526 10527 10528 10529 10530 0
-10531 209 0
-10531 236 0
-10532 218 0
-10532 227 0
-10533 130 0
-10533 178 0
-10534 130 0
-10534 188 0
-10534 236 0
-10535 130 0
-10535 197 0
-10535 227 0
-10536 139 0
-10536 169 0
-10537 139 0
-10537 188 0
-10537 218 0
-10538 139 0
-10538 197 0
-10538 209 0
-10539 149 0
-10539 169 0
-10539 236 0
-10540 149 0
-10540 178 0
-10540 218 0
-10541 149 0
-10541 197 0
-10542 158 0
-10542 169 0
-10542 227 0
-10543 158 0
-10543 178 0
-10543 209 0
-10544 158 0
-10544 188 0
-10545 14 0
-10545 75 0
-10546 14 0
-10546 75 0
-10546 209 0
-10546 236 0
-10547 14 0
-10547 75 0
-10547 218 0
-10547 227 0
-10548 14 0
-10548 82 0
-10548 178 0
-10549 14 0
-10549 82 0
-10549 188 0
-10549 236 0
-10550 14 0
-10550 82 0
-10550 197 0
-10550 227 0
-10551 14 0
-10551 91 0
-10551 169 0
-10552 14 0
-10552 91 0
-10552 188 0
-10552 218 0
-10553 14 0
-10553 91 0
-10553 197 0
-10553 209 0
-10554 14 0
-10554 101 0
-10554 169 0
-10554 236 0
-10555 14 0
-10555 101 0
-10555 178 0
-10555 218 0
-10556 14 0
-10556 101 0
-10556 197 0
-10557 14 0
-10557 110 0
-10557 169 0
-10557 227 0
-10558 14 0
-10558 110 0
-10558 178 0
-10558 209 0
-10559 14 0
-10559 110 0
-10559 188 0
-10560 24 0
-10560 65 0
-10561 24 0
-10561 65 0
-10561 209 0
-10561 236 0
-10562 24 0
-10562 65 0
-10562 218 0
-10562 227 0
-10563 24 0
-10563 82 0
-10563 139 0
-10564 24 0
-10564 82 0
-10564 149 0
-10564 236 0
-10565 24 0
-10565 82 0
-10565 158 0
-10565 227 0
-10566 24 0
-10566 91 0
-10566 130 0
-10567 24 0
-10567 91 0
-10567 149 0
-10567 218 0
-10568 24 0
-10568 91 0
-10568 158 0
-10568 209 0
-10569 24 0
-10569 101 0
-10569 130 0
-10569 236 0
-10570 24 0
-10570 101 0
-10570 139 0
-10570 218 0
-10571 24 0
-10571 101 0
-10571 158 0
-10572 24 0
-10572 110 0
-10572 130 0
-10572 227 0
-10573 24 0
-10573 110 0
-10573 139 0
-10573 209 0
-10574 24 0
-10574 110 0
-10574 149 0
-10575 31 0
-10575 65 0
-10575 178 0
-10576 31 0
-10576 65 0
-10576 188 0
-10576 236 0
-10577 31 0
-10577 65 0
-10577 197 0
-10577 227 0
-10578 31 0
-10578 75 0
-10578 139 0
-10579 31 0
-10579 75 0
-10579 149 0
-10579 236 0
-10580 31 0
-10580 75 0
-10580 158 0
-10580 227 0
-10581 31 0
-10581 91 0
-10582 31 0
-10582 91 0
-10582 149 0
-10582 197 0
-10583 31 0
-10583 91 0
-10583 158 0
-10583 188 0
-10584 31 0
-10584 101 0
-10584 236 0
-10585 31 0
-10585 101 0
-10585 139 0
-10585 197 0
-10586 31 0
-10586 101 0
-10586 158 0
-10586 178 0
-10587 31 0
-10587 110 0
-10587 227 0
-10588 31 0
-10588 110 0
-10588 139 0
-10588 188 0
-10589 31 0
-10589 110 0
-10589 149 0
-10589 178 0
-10590 40 0
-10590 65 0
-10590 169 0
-10591 40 0
-10591 65 0
-10591 188 0
-10591 218 0
-10592 40 0
-10592 65 0
-10592 197 0
-10592 209 0
-10593 40 0
-10593 75 0
-10593 130 0
-10594 40 0
-10594 75 0
-10594 149 0
-10594 218 0
-10595 40 0
-10595 75 0
-10595 158 0
-10595 209 0
-10596 40 0
-10596 82 0
-10597 40 0
-10597 82 0
-10597 149 0
-10597 197 0
-10598 40 0
-10598 82 0
-10598 158 0
-10598 188 0
-10599 40 0
-10599 101 0
-10599 218 0
-10600 40 0
-10600 101 0
-10600 130 0
-10600 197 0
-10601 40 0
-10601 101 0
-10601 158 0
-10601 169 0
-10602 40 0
-10602 110 0
-10602 209 0
-10603 40 0
-10603 110 0
-10603 130 0
-10603 188 0
-10604 40 0
-10604 110 0
-10604 149 0
-10604 169 0
-10605 50 0
-10605 65 0
-10605 169 0
-10605 236 0
-10606 50 0
-10606 65 0
-10606 178 0
-10606 218 0
-10607 50 0
-10607 65 0
-10607 197 0
-10608 50 0
-10608 75 0
-10608 130 0
-10608 236 0
-10609 50 0
-10609 75 0
-10609 139 0
-10609 218 0
-10610 50 0
-10610 75 0
-10610 158 0
-10611 50 0
-10611 82 0
-10611 236 0
-10612 50 0
-10612 82 0
-10612 139 0
-10612 197 0
-10613 50 0
-10613 82 0
-10613 158 0
-10613 178 0
-10614 50 0
-10614 91 0
-10614 218 0
-10615 50 0
-10615 91 0
-10615 130 0
-10615 197 0
-10616 50 0
-10616 91 0
-10616 158 0
-10616 169 0
-10617 50 0
-10617 110 0
-10618 50 0
-10618 110 0
-10618 130 0
-10618 178 0
-10619 50 0
-10619 110 0
-10619 139 0
-10619 169 0
-10620 59 0
-10620 65 0
-10620 169 0
-10620 227 0
-10621 59 0
-10621 65 0
-10621 178 0
-10621 209 0
-10622 59 0
-10622 65 0
-10622 188 0
-10623 59 0
-10623 75 0
-10623 130 0
-10623 227 0
-10624 59 0
-10624 75 0
-10624 139 0
-10624 209 0
-10625 59 0
-10625 75 0
-10625 149 0
-10626 59 0
-10626 82 0
-10626 227 0
-10627 59 0
-10627 82 0
-10627 139 0
-10627 188 0
-10628 59 0
-10628 82 0
-10628 149 0
-10628 178 0
-10629 59 0
-10629 91 0
-10629 209 0
-10630 59 0
-10630 91 0
-10630 130 0
-10630 188 0
-10631 59 0
-10631 91 0
-10631 149 0
-10631 169 0
-10632 59 0
-10632 101 0
-10633 59 0
-10633 101 0
-10633 130 0
-10633 178 0
-10634 59 0
-10634 101 0
-10634 139 0
-10634 169 0
-4 -123 -199 -248 10531 10532 10533 10534 10535 10536 10537 10538 10539 10540 10541 10542 10543 10544 10545 10546 10547 10548 10549 10550 10551 10552 10553 10554 10555 10556 10557 10558 10559 10560 10561 10562 10563 10564 10565 10566 10567 10568 10569 10570 10571 10572 10573 10574 10575 10576 10577 10578 10579 10580 10581 10582 10583 10584 10585 10586 10587 10588 10589 10590 10591 10592 10593 10594 10595 10596 10597 10598 10599 10600 10601 10602 10603 10604 10605 10606 10607 10608 10609 10610 10611 10612 10613 10614 10615 10616 10617 10618 10619 10620 10621 10622 10623 10624 10625 10626 10627 10628 10629 10630 10631 10632 10633 10634 0
-10635 215 0
-10635 242 0
-10636 224 0
-10636 233 0
-10637 129 0
-10637 174 0
-10638 129 0
-10638 182 0
-10638 242 0
-10639 129 0
-10639 191 0
-10639 233 0
-10640 138 0
-10640 165 0
-10641 138 0
-10641 182 0
-10641 224 0
-10642 138 0
-10642 191 0
-10642 215 0
-10643 146 0
-10643 165 0
-10643 242 0
-10644 146 0
-10644 174 0
-10644 224 0
-10645 146 0
-10645 191 0
-10646 155 0
-10646 165 0
-10646 233 0
-10647 155 0
-10647 174 0
-10647 215 0
-10648 155 0
-10648 182 0
-10649 10 0
-10649 73 0
-10650 10 0
-10650 73 0
-10650 215 0
-10650 242 0
-10651 10 0
-10651 73 0
-10651 224 0
-10651 233 0
-10652 10 0
-10652 84 0
-10652 174 0
-10653 10 0
-10653 84 0
-10653 182 0
-10653 242 0
-10654 10 0
-10654 84 0
-10654 191 0
-10654 233 0
-10655 10 0
-10655 93 0
-10655 165 0
-10656 10 0
-10656 93 0
-10656 182 0
-10656 224 0
-10657 10 0
-10657 93 0
-10657 191 0
-10657 215 0
-10658 10 0
-10658 101 0
-10658 165 0
-10658 242 0
-10659 10 0
-10659 101 0
-10659 174 0
-10659 224 0
-10660 10 0
-10660 101 0
-10660 191 0
-10661 10 0
-10661 110 0
-10661 165 0
-10661 233 0
-10662 10 0
-10662 110 0
-10662 174 0
-10662 215 0
-10663 10 0
-10663 110 0
-10663 182 0
-10664 19 0
-10664 64 0
-10665 19 0
-10665 64 0
-10665 215 0
-10665 242 0
-10666 19 0
-10666 64 0
-10666 224 0
-10666 233 0
-10667 19 0
-10667 84 0
-10667 138 0
-10668 19 0
-10668 84 0
-10668 146 0
-10668 242 0
-10669 19 0
-10669 84 0
-10669 155 0
-10669 233 0
-10670 19 0
-10670 93 0
-10670 129 0
-10671 19 0
-10671 93 0
-10671 146 0
-10671 224 0
-10672 19 0
-10672 93 0
-10672 155 0
-10672 215 0
-10673 19 0
-10673 101 0
-10673 129 0
-10673 242 0
-10674 19 0
-10674 101 0
-10674 138 0
-10674 224 0
-10675 19 0
-10675 101 0
-10675 155 0
-10676 19 0
-10676 110 0
-10676 129 0
-10676 233 0
-10677 19 0
-10677 110 0
-10677 138 0
-10677 215 0
-10678 19 0
-10678 110 0
-10678 146 0
-10679 30 0
-10679 64 0
-10679 174 0
-10680 30 0
-10680 64 0
-10680 182 0
-10680 242 0
-10681 30 0
-10681 64 0
-10681 191 0
-10681 233 0
-10682 30 0
-10682 73 0
-10682 138 0
-10683 30 0
-10683 73 0
-10683 146 0
-10683 242 0
-10684 30 0
-10684 73 0
-10684 155 0
-10684 233 0
-10685 30 0
-10685 93 0
-10686 30 0
-10686 93 0
-10686 146 0
-10686 191 0
-10687 30 0
-10687 93 0
-10687 155 0
-10687 182 0
-10688 30 0
-10688 101 0
-10688 242 0
-10689 30 0
-10689 101 0
-10689 138 0
-10689 191 0
-10690 30 0
-10690 101 0
-10690 155 0
-10690 174 0
-10691 30 0
-10691 110 0
-10691 233 0
-10692 30 0
-10692 110 0
-10692 138 0
-10692 182 0
-10693 30 0
-10693 110 0
-10693 146 0
-10693 174 0
-10694 39 0
-10694 64 0
-10694 165 0
-10695 39 0
-10695 64 0
-10695 182 0
-10695 224 0
-10696 39 0
-10696 64 0
-10696 191 0
-10696 215 0
-10697 39 0
-10697 73 0
-10697 129 0
-10698 39 0
-10698 73 0
-10698 146 0
-10698 224 0
-10699 39 0
-10699 73 0
-10699 155 0
-10699 215 0
-10700 39 0
-10700 84 0
-10701 39 0
-10701 84 0
-10701 146 0
-10701 191 0
-10702 39 0
-10702 84 0
-10702 155 0
-10702 182 0
-10703 39 0
-10703 101 0
-10703 224 0
-10704 39 0
-10704 101 0
-10704 129 0
-10704 191 0
-10705 39 0
-10705 101 0
-10705 155 0
-10705 165 0
-10706 39 0
-10706 110 0
-10706 215 0
-10707 39 0
-10707 110 0
-10707 129 0
-10707 182 0
-10708 39 0
-10708 110 0
-10708 146 0
-10708 165 0
-10709 47 0
-10709 64 0
-10709 165 0
-10709 242 0
-10710 47 0
-10710 64 0
-10710 174 0
-10710 224 0
-10711 47 0
-10711 64 0
-10711 191 0
-10712 47 0
-10712 73 0
-10712 129 0
-10712 242 0
-10713 47 0
-10713 73 0
-10713 138 0
-10713 224 0
-10714 47 0
-10714 73 0
-10714 155 0
-10715 47 0
-10715 84 0
-10715 242 0
-10716 47 0
-10716 84 0
-10716 138 0
-10716 191 0
-10717 47 0
-10717 84 0
-10717 155 0
-10717 174 0
-10718 47 0
-10718 93 0
-10718 224 0
-10719 47 0
-10719 93 0
-10719 129 0
-10719 191 0
-10720 47 0
-10720 93 0
-10720 155 0
-10720 165 0
-10721 47 0
-10721 110 0
-10722 47 0
-10722 110 0
-10722 129 0
-10722 174 0
-10723 47 0
-10723 110 0
-10723 138 0
-10723 165 0
-10724 56 0
-10724 64 0
-10724 165 0
-10724 233 0
-10725 56 0
-10725 64 0
-10725 174 0
-10725 215 0
-10726 56 0
-10726 64 0
-10726 182 0
-10727 56 0
-10727 73 0
-10727 129 0
-10727 233 0
-10728 56 0
-10728 73 0
-10728 138 0
-10728 215 0
-10729 56 0
-10729 73 0
-10729 146 0
-10730 56 0
-10730 84 0
-10730 233 0
-10731 56 0
-10731 84 0
-10731 138 0
-10731 182 0
-10732 56 0
-10732 84 0
-10732 146 0
-10732 174 0
-10733 56 0
-10733 93 0
-10733 215 0
-10734 56 0
-10734 93 0
-10734 129 0
-10734 182 0
-10735 56 0
-10735 93 0
-10735 146 0
-10735 165 0
-10736 56 0
-10736 101 0
-10737 56 0
-10737 101 0
-10737 129 0
-10737 174 0
-10738 56 0
-10738 101 0
-10738 138 0
-10738 165 0
-1 -118 -207 -248 10635 10636 10637 10638 10639 10640 10641 10642 10643 10644 10645 10646 10647 10648 10649 10650 10651 10652 10653 10654 10655 10656 10657 10658 10659 10660 10661 10662 10663 10664 10665 10666 10667 10668 10669 10670 10671 10672 10673 10674 10675 10676 10677 10678 10679 10680 10681 10682 10683 10684 10685 10686 10687 10688 10689 10690 10691 10692 10693 10694 10695 10696 10697 10698 10699 10700 10701 10702 10703 10704 10705 10706 10707 10708 10709 10710 10711 10712 10713 10714 10715 10716 10717 10718 10719 10720 10721 10722 10723 10724 10725 10726 10727 10728 10729 10730 10731 10732 10733 10734 10735 10736 10737 10738 0
-10739 8 0
-10739 123 0
-10739 199 0
-10739 244 0
-10740 8 0
-10740 123 0
-10741 8 0
-10741 123 0
-10741 217 0
-10741 226 0
-10742 8 0
-10742 130 0
-10742 178 0
-10742 244 0
-10743 8 0
-10743 130 0
-10743 187 0
-10744 8 0
-10744 130 0
-10744 196 0
-10744 226 0
-10745 8 0
-10745 139 0
-10745 169 0
-10745 244 0
-10746 8 0
-10746 139 0
-10746 187 0
-10746 217 0
-10747 8 0
-10747 139 0
-10747 196 0
-10748 8 0
-10748 148 0
-10748 169 0
-10749 8 0
-10749 148 0
-10749 178 0
-10749 217 0
-10750 8 0
-10750 148 0
-10750 196 0
-10750 199 0
-10751 8 0
-10751 157 0
-10751 169 0
-10751 226 0
-10752 8 0
-10752 157 0
-10752 178 0
-10753 8 0
-10753 157 0
-10753 187 0
-10753 199 0
-10754 17 0
-10754 78 0
-10754 199 0
-10754 244 0
-10755 17 0
-10755 78 0
-10756 17 0
-10756 78 0
-10756 217 0
-10756 226 0
-10757 17 0
-10757 85 0
-10757 178 0
-10757 244 0
-10758 17 0
-10758 85 0
-10758 187 0
-10759 17 0
-10759 85 0
-10759 196 0
-10759 226 0
-10760 17 0
-10760 94 0
-10760 169 0
-10760 244 0
-10761 17 0
-10761 94 0
-10761 187 0
-10761 217 0
-10762 17 0
-10762 94 0
-10762 196 0
-10763 17 0
-10763 103 0
-10763 169 0
-10764 17 0
-10764 103 0
-10764 178 0
-10764 217 0
-10765 17 0
-10765 103 0
-10765 196 0
-10765 199 0
-10766 17 0
-10766 112 0
-10766 169 0
-10766 226 0
-10767 17 0
-10767 112 0
-10767 178 0
-10768 17 0
-10768 112 0
-10768 187 0
-10768 199 0
-10769 199 0
-10769 244 0
-10770 217 0
-10770 226 0
-10771 85 0
-10771 139 0
-10771 244 0
-10772 85 0
-10772 148 0
-10773 85 0
-10773 157 0
-10773 226 0
-10774 94 0
-10774 130 0
-10774 244 0
-10775 94 0
-10775 148 0
-10775 217 0
-10776 94 0
-10776 157 0
-10777 103 0
-10777 130 0
-10778 103 0
-10778 139 0
-10778 217 0
-10779 103 0
-10779 157 0
-10779 199 0
-10780 112 0
-10780 130 0
-10780 226 0
-10781 112 0
-10781 139 0
-10782 112 0
-10782 148 0
-10782 199 0
-10783 34 0
-10783 178 0
-10783 244 0
-10784 34 0
-10784 187 0
-10785 34 0
-10785 196 0
-10785 226 0
-10786 34 0
-10786 78 0
-10786 139 0
-10786 244 0
-10787 34 0
-10787 78 0
-10787 148 0
-10788 34 0
-10788 78 0
-10788 157 0
-10788 226 0
-10789 34 0
-10789 94 0
-10789 123 0
-10789 244 0
-10790 34 0
-10790 94 0
-10790 148 0
-10790 196 0
-10791 34 0
-10791 94 0
-10791 157 0
-10791 187 0
-10792 34 0
-10792 103 0
-10792 123 0
-10793 34 0
-10793 103 0
-10793 139 0
-10793 196 0
-10794 34 0
-10794 103 0
-10794 157 0
-10794 178 0
-10795 34 0
-10795 112 0
-10795 123 0
-10795 226 0
-10796 34 0
-10796 112 0
-10796 139 0
-10796 187 0
-10797 34 0
-10797 112 0
-10797 148 0
-10797 178 0
-10798 43 0
-10798 169 0
-10798 244 0
-10799 43 0
-10799 187 0
-10799 217 0
-10800 43 0
-10800 196 0
-10801 43 0
-10801 78 0
-10801 130 0
-10801 244 0
-10802 43 0
-10802 78 0
-10802 148 0
-10802 217 0
-10803 43 0
-10803 78 0
-10803 157 0
-10804 43 0
-10804 85 0
-10804 123 0
-10804 244 0
-10805 43 0
-10805 85 0
-10805 148 0
-10805 196 0
-10806 43 0
-10806 85 0
-10806 157 0
-10806 187 0
-10807 43 0
-10807 103 0
-10807 123 0
-10807 217 0
-10808 43 0
-10808 103 0
-10808 130 0
-10808 196 0
-10809 43 0
-10809 103 0
-10809 157 0
-10809 169 0
-10810 43 0
-10810 112 0
-10810 123 0
-10811 43 0
-10811 112 0
-10811 130 0
-10811 187 0
-10812 43 0
-10812 112 0
-10812 148 0
-10812 169 0
-10813 52 0
-10813 169 0
-10814 52 0
-10814 178 0
-10814 217 0
-10815 52 0
-10815 196 0
-10815 199 0
-10816 52 0
-10816 78 0
-10816 130 0
-10817 52 0
-10817 78 0
-10817 139 0
-10817 217 0
-10818 52 0
-10818 78 0
-10818 157 0
-10818 199 0
-10819 52 0
-10819 85 0
-10819 123 0
-10820 52 0
-10820 85 0
-10820 139 0
-10820 196 0
-10821 52 0
-10821 85 0
-10821 157 0
-10821 178 0
-10822 52 0
-10822 94 0
-10822 123 0
-10822 217 0
-10823 52 0
-10823 94 0
-10823 130 0
-10823 196 0
-10824 52 0
-10824 94 0
-10824 157 0
-10824 169 0
-10825 52 0
-10825 112 0
-10825 123 0
-10825 199 0
-10826 52 0
-10826 112 0
-10826 130 0
-10826 178 0
-10827 52 0
-10827 112 0
-10827 139 0
-10827 169 0
-10828 61 0
-10828 169 0
-10828 226 0
-10829 61 0
-10829 178 0
-10830 61 0
-10830 187 0
-10830 199 0
-10831 61 0
-10831 78 0
-10831 130 0
-10831 226 0
-10832 61 0
-10832 78 0
-10832 139 0
-10833 61 0
-10833 78 0
-10833 148 0
-10833 199 0
-10834 61 0
-10834 85 0
-10834 123 0
-10834 226 0
-10835 61 0
-10835 85 0
-10835 139 0
-10835 187 0
-10836 61 0
-10836 85 0
-10836 148 0
-10836 178 0
-10837 61 0
-10837 94 0
-10837 123 0
-10838 61 0
-10838 94 0
-10838 130 0
-10838 187 0
-10839 61 0
-10839 94 0
-10839 148 0
-10839 169 0
-10840 61 0
-10840 103 0
-10840 123 0
-10840 199 0
-10841 61 0
-10841 103 0
-10841 130 0
-10841 178 0
-10842 61 0
-10842 103 0
-10842 139 0
-10842 169 0
-27 -68 -208 -235 10739 10740 10741 10742 10743 10744 10745 10746 10747 10748 10749 10750 10751 10752 10753 10754 10755 10756 10757 10758 10759 10760 10761 10762 10763 10764 10765 10766 10767 10768 10769 10770 10771 10772 10773 10774 10775 10776 10777 10778 10779 10780 10781 10782 10783 10784 10785 10786 10787 10788 10789 10790 10791 10792 10793 10794 10795 10796 10797 10798 10799 10800 10801 10802 10803 10804 10805 10806 10807 10808 10809 10810 10811 10812 10813 10814 10815 10816 10817 10818 10819 10820 10821 10822 10823 10824 10825 10826 10827 10828 10829 10830 10831 10832 10833 10834 10835 10836 10837 10838 10839 10840 10841 10842 0
-10843 207 0
-10843 252 0
-10844 216 0
-10844 243 0
-10845 129 0
-10845 174 0
-10845 252 0
-10846 129 0
-10846 183 0
-10846 243 0
-10847 129 0
-10847 192 0
-10848 138 0
-10848 165 0
-10848 252 0
-10849 138 0
-10849 183 0
-10850 138 0
-10850 192 0
-10850 216 0
-10851 147 0
-10851 165 0
-10851 243 0
-10852 147 0
-10852 174 0
-10853 147 0
-10853 192 0
-10853 207 0
-10854 156 0
-10854 165 0
-10855 156 0
-10855 174 0
-10855 216 0
-10856 156 0
-10856 183 0
-10856 207 0
-10857 10 0
-10857 73 0
-10857 207 0
-10857 252 0
-10858 10 0
-10858 73 0
-10858 216 0
-10858 243 0
-10859 10 0
-10859 73 0
-10860 10 0
-10860 84 0
-10860 174 0
-10860 252 0
-10861 10 0
-10861 84 0
-10861 183 0
-10861 243 0
-10862 10 0
-10862 84 0
-10862 192 0
-10863 10 0
-10863 93 0
-10863 165 0
-10863 252 0
-10864 10 0
-10864 93 0
-10864 183 0
-10865 10 0
-10865 93 0
-10865 192 0
-10865 216 0
-10866 10 0
-10866 102 0
-10866 165 0
-10866 243 0
-10867 10 0
-10867 102 0
-10867 174 0
-10868 10 0
-10868 102 0
-10868 192 0
-10868 207 0
-10869 10 0
-10869 111 0
-10869 165 0
-10870 10 0
-10870 111 0
-10870 174 0
-10870 216 0
-10871 10 0
-10871 111 0
-10871 183 0
-10871 207 0
-10872 19 0
-10872 64 0
-10872 207 0
-10872 252 0
-10873 19 0
-10873 64 0
-10873 216 0
-10873 243 0
-10874 19 0
-10874 64 0
-10875 19 0
-10875 84 0
-10875 138 0
-10875 252 0
-10876 19 0
-10876 84 0
-10876 147 0
-10876 243 0
-10877 19 0
-10877 84 0
-10877 156 0
-10878 19 0
-10878 93 0
-10878 129 0
-10878 252 0
-10879 19 0
-10879 93 0
-10879 147 0
-10880 19 0
-10880 93 0
-10880 156 0
-10880 216 0
-10881 19 0
-10881 102 0
-10881 129 0
-10881 243 0
-10882 19 0
-10882 102 0
-10882 138 0
-10883 19 0
-10883 102 0
-10883 156 0
-10883 207 0
-10884 19 0
-10884 111 0
-10884 129 0
-10885 19 0
-10885 111 0
-10885 138 0
-10885 216 0
-10886 19 0
-10886 111 0
-10886 147 0
-10886 207 0
-10887 30 0
-10887 64 0
-10887 174 0
-10887 252 0
-10888 30 0
-10888 64 0
-10888 183 0
-10888 243 0
-10889 30 0
-10889 64 0
-10889 192 0
-10890 30 0
-10890 73 0
-10890 138 0
-10890 252 0
-10891 30 0
-10891 73 0
-10891 147 0
-10891 243 0
-10892 30 0
-10892 73 0
-10892 156 0
-10893 30 0
-10893 93 0
-10893 252 0
-10894 30 0
-10894 93 0
-10894 147 0
-10894 192 0
-10895 30 0
-10895 93 0
-10895 156 0
-10895 183 0
-10896 30 0
-10896 102 0
-10896 243 0
-10897 30 0
-10897 102 0
-10897 138 0
-10897 192 0
-10898 30 0
-10898 102 0
-10898 156 0
-10898 174 0
-10899 30 0
-10899 111 0
-10900 30 0
-10900 111 0
-10900 138 0
-10900 183 0
-10901 30 0
-10901 111 0
-10901 147 0
-10901 174 0
-10902 39 0
-10902 64 0
-10902 165 0
-10902 252 0
-10903 39 0
-10903 64 0
-10903 183 0
-10904 39 0
-10904 64 0
-10904 192 0
-10904 216 0
-10905 39 0
-10905 73 0
-10905 129 0
-10905 252 0
-10906 39 0
-10906 73 0
-10906 147 0
-10907 39 0
-10907 73 0
-10907 156 0
-10907 216 0
-10908 39 0
-10908 84 0
-10908 252 0
-10909 39 0
-10909 84 0
-10909 147 0
-10909 192 0
-10910 39 0
-10910 84 0
-10910 156 0
-10910 183 0
-10911 39 0
-10911 102 0
-10912 39 0
-10912 102 0
-10912 129 0
-10912 192 0
-10913 39 0
-10913 102 0
-10913 156 0
-10913 165 0
-10914 39 0
-10914 111 0
-10914 216 0
-10915 39 0
-10915 111 0
-10915 129 0
-10915 183 0
-10916 39 0
-10916 111 0
-10916 147 0
-10916 165 0
-10917 48 0
-10917 64 0
-10917 165 0
-10917 243 0
-10918 48 0
-10918 64 0
-10918 174 0
-10919 48 0
-10919 64 0
-10919 192 0
-10919 207 0
-10920 48 0
-10920 73 0
-10920 129 0
-10920 243 0
-10921 48 0
-10921 73 0
-10921 138 0
-10922 48 0
-10922 73 0
-10922 156 0
-10922 207 0
-10923 48 0
-10923 84 0
-10923 243 0
-10924 48 0
-10924 84 0
-10924 138 0
-10924 192 0
-10925 48 0
-10925 84 0
-10925 156 0
-10925 174 0
-10926 48 0
-10926 93 0
-10927 48 0
-10927 93 0
-10927 129 0
-10927 192 0
-10928 48 0
-10928 93 0
-10928 156 0
-10928 165 0
-10929 48 0
-10929 111 0
-10929 207 0
-10930 48 0
-10930 111 0
-10930 129 0
-10930 174 0
-10931 48 0
-10931 111 0
-10931 138 0
-10931 165 0
-10932 57 0
-10932 64 0
-10932 165 0
-10933 57 0
-10933 64 0
-10933 174 0
-10933 216 0
-10934 57 0
-10934 64 0
-10934 183 0
-10934 207 0
-10935 57 0
-10935 73 0
-10935 129 0
-10936 57 0
-10936 73 0
-10936 138 0
-10936 216 0
-10937 57 0
-10937 73 0
-10937 147 0
-10937 207 0
-10938 57 0
-10938 84 0
-10939 57 0
-10939 84 0
-10939 138 0
-10939 183 0
-10940 57 0
-10940 84 0
-10940 147 0
-10940 174 0
-10941 57 0
-10941 93 0
-10941 216 0
-10942 57 0
-10942 93 0
-10942 129 0
-10942 183 0
-10943 57 0
-10943 93 0
-10943 147 0
-10943 165 0
-10944 57 0
-10944 102 0
-10944 207 0
-10945 57 0
-10945 102 0
-10945 129 0
-10945 174 0
-10946 57 0
-10946 102 0
-10946 138 0
-10946 165 0
-1 -118 -225 -234 10843 10844 10845 10846 10847 10848 10849 10850 10851 10852 10853 10854 10855 10856 10857 10858 10859 10860 10861 10862 10863 10864 10865 10866 10867 10868 10869 10870 10871 10872 10873 10874 10875 10876 10877 10878 10879 10880 10881 10882 10883 10884 10885 10886 10887 10888 10889 10890 10891 10892 10893 10894 10895 10896 10897 10898 10899 10900 10901 10902 10903 10904 10905 10906 10907 10908 10909 10910 10911 10912 10913 10914 10915 10916 10917 10918 10919 10920 10921 10922 10923 10924 10925 10926 10927 10928 10929 10930 10931 10932 10933 10934 10935 10936 10937 10938 10939 10940 10941 10942 10943 10944 10945 10946 0
-10947 8 0
-10947 123 0
-10947 199 0
-10947 244 0
10947 -8 -123 -199 -244 0
-10948 8 0
-10948 123 0
-10948 208 0
-10948 235 0
10948 -8 -123 -208 -235 0
-10949 8 0
-10949 123 0
-10949 217 0
-10949 226 0
10949 -8 -123 -217 -226 0
-10950 8 0
-10950 130 0
-10950 178 0
-10950 244 0
10950 -8 -130 -178 -244 0
-10951 8 0
-10951 130 0
-10951 187 0
-10951 235 0
10951 -8 -130 -187 -235 0
-10952 8 0
-10952 130 0
-10952 196 0
-10952 226 0
10952 -8 -130 -196 -226 0
-10953 8 0
-10953 139 0
-10953 169 0
-10953 244 0
10953 -8 -139 -169 -244 0
-10954 8 0
-10954 139 0
-10954 187 0
-10954 217 0
10954 -8 -139 -187 -217 0
-10955 8 0
-10955 139 0
-10955 196 0
-10955 208 0
10955 -8 -139 -196 -208 0
-10956 8 0
-10956 148 0
-10956 169 0
-10956 235 0
10956 -8 -148 -169 -235 0
-10957 8 0
-10957 148 0
-10957 178 0
-10957 217 0
10957 -8 -148 -178 -217 0
-10958 8 0
-10958 148 0
-10958 196 0
-10958 199 0
10958 -8 -148 -196 -199 0
-10959 8 0
-10959 157 0
-10959 169 0
-10959 226 0
10959 -8 -157 -169 -226 0
-10960 8 0
-10960 157 0
-10960 178 0
-10960 208 0
10960 -8 -157 -178 -208 0
-10961 8 0
-10961 157 0
-10961 187 0
-10961 199 0
10961 -8 -157 -187 -199 0
-10962 17 0
-10962 78 0
-10962 199 0
-10962 244 0
10962 -17 -78 -199 -244 0
-10963 17 0
-10963 78 0
-10963 208 0
-10963 235 0
10963 -17 -78 -208 -235 0
-10964 17 0
-10964 78 0
-10964 217 0
-10964 226 0
10964 -17 -78 -217 -226 0
-10965 17 0
-10965 85 0
-10965 178 0
-10965 244 0
10965 -17 -85 -178 -244 0
-10966 17 0
-10966 85 0
-10966 187 0
-10966 235 0
10966 -17 -85 -187 -235 0
-10967 17 0
-10967 85 0
-10967 196 0
-10967 226 0
10967 -17 -85 -196 -226 0
-10968 17 0
-10968 94 0
-10968 169 0
-10968 244 0
10968 -17 -94 -169 -244 0
-10969 17 0
-10969 94 0
-10969 187 0
-10969 217 0
10969 -17 -94 -187 -217 0
-10970 17 0
-10970 94 0
-10970 196 0
-10970 208 0
10970 -17 -94 -196 -208 0
-10971 17 0
-10971 103 0
-10971 169 0
-10971 235 0
10971 -17 -103 -169 -235 0
-10972 17 0
-10972 103 0
-10972 178 0
-10972 217 0
10972 -17 -103 -178 -217 0
-10973 17 0
-10973 103 0
-10973 196 0
-10973 199 0
10973 -17 -103 -196 -199 0
-10974 17 0
-10974 112 0
-10974 169 0
-10974 226 0
10974 -17 -112 -169 -226 0
-10975 17 0
-10975 112 0
-10975 178 0
-10975 208 0
10975 -17 -112 -178 -208 0
-10976 17 0
-10976 112 0
-10976 187 0
-10976 199 0
10976 -17 -112 -187 -199 0
-10977 27 0
-10977 68 0
-10977 199 0
-10977 244 0
10977 -27 -68 -199 -244 0
-10978 27 0
-10978 68 0
-10978 208 0
-10978 235 0
10978 -27 -68 -208 -235 0
-10979 27 0
-10979 68 0
-10979 217 0
-10979 226 0
10979 -27 -68 -217 -226 0
-10980 27 0
-10980 85 0
-10980 139 0
-10980 244 0
10980 -27 -85 -139 -244 0
-10981 27 0
-10981 85 0
-10981 148 0
-10981 235 0
10981 -27 -85 -148 -235 0
-10982 27 0
-10982 85 0
-10982 157 0
-10982 226 0
10982 -27 -85 -157 -226 0
-10983 27 0
-10983 94 0
-10983 130 0
-10983 244 0
10983 -27 -94 -130 -244 0
-10984 27 0
-10984 94 0
-10984 148 0
-10984 217 0
10984 -27 -94 -148 -217 0
-10985 27 0
-10985 94 0
-10985 157 0
-10985 208 0
10985 -27 -94 -157 -208 0
-10986 27 0
-10986 103 0
-10986 130 0
-10986 235 0
10986 -27 -103 -130 -235 0
-10987 27 0
-10987 103 0
-10987 139 0
-10987 217 0
10987 -27 -103 -139 -217 0
-10988 27 0
-10988 103 0
-10988 157 0
-10988 199 0
10988 -27 -103 -157 -199 0
-10989 27 0
-10989 112 0
-10989 130 0
-10989 226 0
10989 -27 -112 -130 -226 0
-10990 27 0
-10990 112 0
-10990 139 0
-10990 208 0
10990 -27 -112 -139 -208 0
-10991 27 0
-10991 112 0
-10991 148 0
-10991 199 0
10991 -27 -112 -148 -199 0
-10992 34 0
-10992 68 0
-10992 178 0
-10992 244 0
10992 -34 -68 -178 -244 0
-10993 34 0
-10993 68 0
-10993 187 0
-10993 235 0
10993 -34 -68 -187 -235 0
-10994 34 0
-10994 68 0
-10994 196 0
-10994 226 0
10994 -34 -68 -196 -226 0
-10995 34 0
-10995 78 0
-10995 139 0
-10995 244 0
10995 -34 -78 -139 -244 0
-10996 34 0
-10996 78 0
-10996 148 0
-10996 235 0
10996 -34 -78 -148 -235 0
-10997 34 0
-10997 78 0
-10997 157 0
-10997 226 0
10997 -34 -78 -157 -226 0
-10998 34 0
-10998 94 0
-10998 123 0
-10998 244 0
10998 -34 -94 -123 -244 0
-10999 34 0
-10999 94 0
-10999 148 0
-10999 196 0
10999 -34 -94 -148 -196 0
-11000 34 0
-11000 94 0
-11000 157 0
-11000 187 0
11000 -34 -94 -157 -187 0
-11001 34 0
-11001 103 0
-11001 123 0
-11001 235 0
11001 -34 -103 -123 -235 0
-11002 34 0
-11002 103 0
-11002 139 0
-11002 196 0
11002 -34 -103 -139 -196 0
-11003 34 0
-11003 103 0
-11003 157 0
-11003 178 0
11003 -34 -103 -157 -178 0
-11004 34 0
-11004 112 0
-11004 123 0
-11004 226 0
11004 -34 -112 -123 -226 0
-11005 34 0
-11005 112 0
-11005 139 0
-11005 187 0
11005 -34 -112 -139 -187 0
-11006 34 0
-11006 112 0
-11006 148 0
-11006 178 0
11006 -34 -112 -148 -178 0
-11007 43 0
-11007 68 0
-11007 169 0
-11007 244 0
11007 -43 -68 -169 -244 0
-11008 43 0
-11008 68 0
-11008 187 0
-11008 217 0
11008 -43 -68 -187 -217 0
-11009 43 0
-11009 68 0
-11009 196 0
-11009 208 0
11009 -43 -68 -196 -208 0
-11010 43 0
-11010 78 0
-11010 130 0
-11010 244 0
11010 -43 -78 -130 -244 0
-11011 43 0
-11011 78 0
-11011 148 0
-11011 217 0
11011 -43 -78 -148 -217 0
-11012 43 0
-11012 78 0
-11012 157 0
-11012 208 0
11012 -43 -78 -157 -208 0
-11013 43 0
-11013 85 0
-11013 123 0
-11013 244 0
11013 -43 -85 -123 -244 0
-11014 43 0
-11014 85 0
-11014 148 0
-11014 196 0
11014 -43 -85 -148 -196 0
-11015 43 0
-11015 85 0
-11015 157 0
-11015 187 0
11015 -43 -85 -157 -187 0
-11016 43 0
-11016 103 0
-11016 123 0
-11016 217 0
11016 -43 -103 -123 -217 0
-11017 43 0
-11017 103 0
-11017 130 0
-11017 196 0
11017 -43 -103 -130 -196 0
-11018 43 0
-11018 103 0
-11018 157 0
-11018 169 0
11018 -43 -103 -157 -169 0
-11019 43 0
-11019 112 0
-11019 123 0
-11019 208 0
11019 -43 -112 -123 -208 0
-11020 43 0
-11020 112 0
-11020 130 0
-11020 187 0
11020 -43 -112 -130 -187 0
-11021 43 0
-11021 112 0
-11021 148 0
-11021 169 0
11021 -43 -112 -148 -169 0
-11022 52 0
-11022 68 0
-11022 169 0
-11022 235 0
11022 -52 -68 -169 -235 0
-11023 52 0
-11023 68 0
-11023 178 0
-11023 217 0
11023 -52 -68 -178 -217 0
-11024 52 0
-11024 68 0
-11024 196 0
-11024 199 0
11024 -52 -68 -196 -199 0
-11025 52 0
-11025 78 0
-11025 130 0
-11025 235 0
11025 -52 -78 -130 -235 0
-11026 52 0
-11026 78 0
-11026 139 0
-11026 217 0
11026 -52 -78 -139 -217 0
-11027 52 0
-11027 78 0
-11027 157 0
-11027 199 0
11027 -52 -78 -157 -199 0
-11028 52 0
-11028 85 0
-11028 123 0
-11028 235 0
11028 -52 -85 -123 -235 0
-11029 52 0
-11029 85 0
-11029 139 0
-11029 196 0
11029 -52 -85 -139 -196 0
-11030 52 0
-11030 85 0
-11030 157 0
-11030 178 0
11030 -52 -85 -157 -178 0
-11031 52 0
-11031 94 0
-11031 123 0
-11031 217 0
11031 -52 -94 -123 -217 0
-11032 52 0
-11032 94 0
-11032 130 0
-11032 196 0
11032 -52 -94 -130 -196 0
-11033 52 0
-11033 94 0
-11033 157 0
-11033 169 0
11033 -52 -94 -157 -169 0
-11034 52 0
-11034 112 0
-11034 123 0
-11034 199 0
11034 -52 -112 -123 -199 0
-11035 52 0
-11035 112 0
-11035 130 0
-11035 178 0
11035 -52 -112 -130 -178 0
-11036 52 0
-11036 112 0
-11036 139 0
-11036 169 0
11036 -52 -112 -139 -169 0
-11037 61 0
-11037 68 0
-11037 169 0
-11037 226 0
11037 -61 -68 -169 -226 0
-11038 61 0
-11038 68 0
-11038 178 0
-11038 208 0
11038 -61 -68 -178 -208 0
-11039 61 0
-11039 68 0
-11039 187 0
-11039 199 0
11039 -61 -68 -187 -199 0
-11040 61 0
-11040 78 0
-11040 130 0
-11040 226 0
11040 -61 -78 -130 -226 0
-11041 61 0
-11041 78 0
-11041 139 0
-11041 208 0
11041 -61 -78 -139 -208 0
-11042 61 0
-11042 78 0
-11042 148 0
-11042 199 0
11042 -61 -78 -148 -199 0
-11043 61 0
-11043 85 0
-11043 123 0
-11043 226 0
11043 -61 -85 -123 -226 0
-11044 61 0
-11044 85 0
-11044 139 0
-11044 187 0
11044 -61 -85 -139 -187 0
-11045 61 0
-11045 85 0
-11045 148 0
-11045 178 0
11045 -61 -85 -148 -178 0
-11046 61 0
-11046 94 0
-11046 123 0
-11046 208 0
11046 -61 -94 -123 -208 0
-11047 61 0
-11047 94 0
-11047 130 0
-11047 187 0
11047 -61 -94 -130 -187 0
-11048 61 0
-11048 94 0
-11048 148 0
-11048 169 0
11048 -61 -94 -148 -169 0
-11049 61 0
-11049 103 0
-11049 123 0
-11049 199 0
11049 -61 -103 -123 -199 0
-11050 61 0
-11050 103 0
-11050 130 0
-11050 178 0
11050 -61 -103 -130 -178 0
-11051 61 0
-11051 103 0
-11051 139 0
-11051 169 0
11051 -61 -103 -139 -169 0
-11052 1 0
-11052 118 0
-11052 199 0
-11052 244 0
11052 -1 -118 -199 -244 0
-11053 1 0
-11053 118 0
-11053 208 0
-11053 235 0
11053 -1 -118 -208 -235 0
-11054 1 0
-11054 118 0
-11054 217 0
-11054 226 0
11054 -1 -118 -217 -226 0
-11055 1 0
-11055 127 0
-11055 172 0
-11055 244 0
11055 -1 -127 -172 -244 0
-11056 1 0
-11056 127 0
-11056 181 0
-11056 235 0
11056 -1 -127 -181 -235 0
-11057 1 0
-11057 127 0
-11057 190 0
-11057 226 0
11057 -1 -127 -190 -226 0
-11058 1 0
-11058 136 0
-11058 163 0
-11058 244 0
11058 -1 -136 -163 -244 0
-11059 1 0
-11059 136 0
-11059 181 0
-11059 217 0
11059 -1 -136 -181 -217 0
-11060 1 0
-11060 136 0
-11060 190 0
-11060 208 0
11060 -1 -136 -190 -208 0
-11061 1 0
-11061 145 0
-11061 163 0
-11061 235 0
11061 -1 -145 -163 -235 0
-11062 1 0
-11062 145 0
-11062 172 0
-11062 217 0
11062 -1 -145 -172 -217 0
-11063 1 0
-11063 145 0
-11063 190 0
-11063 199 0
11063 -1 -145 -190 -199 0
-11064 1 0
-11064 154 0
-11064 163 0
-11064 226 0
11064 -1 -154 -163 -226 0
-11065 1 0
-11065 154 0
-11065 172 0
-11065 208 0
11065 -1 -154 -172 -208 0
-11066 1 0
-11066 154 0
-11066 181 0
-11066 199 0
11066 -1 -154 -181 -199 0
-11067 10 0
-11067 73 0
-11067 199 0
-11067 244 0
11067 -10 -73 -199 -244 0
-11068 10 0
-11068 73 0
-11068 208 0
-11068 235 0
11068 -10 -73 -208 -235 0
-11069 10 0
-11069 73 0
-11069 217 0
-11069 226 0
11069 -10 -73 -217 -226 0
-11070 10 0
-11070 82 0
-11070 172 0
-11070 244 0
11070 -10 -82 -172 -244 0
-11071 10 0
-11071 82 0
-11071 181 0
-11071 235 0
11071 -10 -82 -181 -235 0
-11072 10 0
-11072 82 0
-11072 190 0
-11072 226 0
11072 -10 -82 -190 -226 0
-11073 10 0
-11073 91 0
-11073 163 0
-11073 244 0
11073 -10 -91 -163 -244 0
-11074 10 0
-11074 91 0
-11074 181 0
-11074 217 0
11074 -10 -91 -181 -217 0
-11075 10 0
-11075 91 0
-11075 190 0
-11075 208 0
11075 -10 -91 -190 -208 0
-11076 10 0
-11076 100 0
-11076 163 0
-11076 235 0
11076 -10 -100 -163 -235 0
-11077 10 0
-11077 100 0
-11077 172 0
-11077 217 0
11077 -10 -100 -172 -217 0
-11078 10 0
-11078 100 0
-11078 190 0
-11078 199 0
11078 -10 -100 -190 -199 0
-11079 10 0
-11079 109 0
-11079 163 0
-11079 226 0
11079 -10 -109 -163 -226 0
-11080 10 0
-11080 109 0
-11080 172 0
-11080 208 0
11080 -10 -109 -172 -208 0
-11081 10 0
-11081 109 0
-11081 181 0
-11081 199 0
11081 -10 -109 -181 -199 0
-11082 19 0
-11082 64 0
-11082 199 0
-11082 244 0
11082 -19 -64 -199 -244 0
-11083 19 0
-11083 64 0
-11083 208 0
-11083 235 0
11083 -19 -64 -208 -235 0
-11084 19 0
-11084 64 0
-11084 217 0
-11084 226 0
11084 -19 -64 -217 -226 0
-11085 19 0
-11085 82 0
-11085 136 0
-11085 244 0
11085 -19 -82 -136 -244 0
-11086 19 0
-11086 82 0
-11086 145 0
-11086 235 0
11086 -19 -82 -145 -235 0
-11087 19 0
-11087 82 0
-11087 154 0
-11087 226 0
11087 -19 -82 -154 -226 0
-11088 19 0
-11088 91 0
-11088 127 0
-11088 244 0
11088 -19 -91 -127 -244 0
-11089 19 0
-11089 91 0
-11089 145 0
-11089 217 0
11089 -19 -91 -145 -217 0
-11090 19 0
-11090 91 0
-11090 154 0
-11090 208 0
11090 -19 -91 -154 -208 0
-11091 19 0
-11091 100 0
-11091 127 0
-11091 235 0
11091 -19 -100 -127 -235 0
-11092 19 0
-11092 100 0
-11092 136 0
-11092 217 0
11092 -19 -100 -136 -217 0
-11093 19 0
-11093 100 0
-11093 154 0
-11093 199 0
11093 -19 -100 -154 -199 0
-11094 19 0
-11094 109 0
-11094 127 0
-11094 226 0
11094 -19 -109 -127 -226 0
-11095 19 0
-11095 109 0
-11095 136 0
-11095 208 0
11095 -19 -109 -136 -208 0
-11096 19 0
-11096 109 0
-11096 145 0
-11096 199 0
11096 -19 -109 -145 -199 0
-11097 28 0
-11097 64 0
-11097 172 0
-11097 244 0
11097 -28 -64 -172 -244 0
-11098 28 0
-11098 64 0
-11098 181 0
-11098 235 0
11098 -28 -64 -181 -235 0
-11099 28 0
-11099 64 0
-11099 190 0
-11099 226 0
11099 -28 -64 -190 -226 0
-11100 28 0
-11100 73 0
-11100 136 0
-11100 244 0
11100 -28 -73 -136 -244 0
-11101 28 0
-11101 73 0
-11101 145 0
-11101 235 0
11101 -28 -73 -145 -235 0
-11102 28 0
-11102 73 0
-11102 154 0
-11102 226 0
11102 -28 -73 -154 -226 0
-11103 28 0
-11103 91 0
-11103 118 0
-11103 244 0
11103 -28 -91 -118 -244 0
-11104 28 0
-11104 91 0
-11104 145 0
-11104 190 0
11104 -28 -91 -145 -190 0
-11105 28 0
-11105 91 0
-11105 154 0
-11105 181 0
11105 -28 -91 -154 -181 0
-11106 28 0
-11106 100 0
-11106 118 0
-11106 235 0
11106 -28 -100 -118 -235 0
-11107 28 0
-11107 100 0
-11107 136 0
-11107 190 0
11107 -28 -100 -136 -190 0
-11108 28 0
-11108 100 0
-11108 154 0
-11108 172 0
11108 -28 -100 -154 -172 0
-11109 28 0
-11109 109 0
-11109 118 0
-11109 226 0
11109 -28 -109 -118 -226 0
-11110 28 0
-11110 109 0
-11110 136 0
-11110 181 0
11110 -28 -109 -136 -181 0
-11111 28 0
-11111 109 0
-11111 145 0
-11111 172 0
11111 -28 -109 -145 -172 0
-11112 37 0
-11112 64 0
-11112 163 0
-11112 244 0
11112 -37 -64 -163 -244 0
-11113 37 0
-11113 64 0
-11113 181 0
-11113 217 0
11113 -37 -64 -181 -217 0
-11114 37 0
-11114 64 0
-11114 190 0
-11114 208 0
11114 -37 -64 -190 -208 0
-11115 37 0
-11115 73 0
-11115 127 0
-11115 244 0
11115 -37 -73 -127 -244 0
-11116 37 0
-11116 73 0
-11116 145 0
-11116 217 0
11116 -37 -73 -145 -217 0
-11117 37 0
-11117 73 0
-11117 154 0
-11117 208 0
11117 -37 -73 -154 -208 0
-11118 37 0
-11118 82 0
-11118 118 0
-11118 244 0
11118 -37 -82 -118 -244 0
-11119 37 0
-11119 82 0
-11119 145 0
-11119 190 0
11119 -37 -82 -145 -190 0
-11120 37 0
-11120 82 0
-11120 154 0
-11120 181 0
11120 -37 -82 -154 -181 0
-11121 37 0
-11121 100 0
-11121 118 0
-11121 217 0
11121 -37 -100 -118 -217 0
-11122 37 0
-11122 100 0
-11122 127 0
-11122 190 0
11122 -37 -100 -127 -190 0
-11123 37 0
-11123 100 0
-11123 154 0
-11123 163 0
11123 -37 -100 -154 -163 0
-11124 37 0
-11124 109 0
-11124 118 0
-11124 208 0
11124 -37 -109 -118 -208 0
-11125 37 0
-11125 109 0
-11125 127 0
-11125 181 0
11125 -37 -109 -127 -181 0
-11126 37 0
-11126 109 0
-11126 145 0
-11126 163 0
11126 -37 -109 -145 -163 0
-11127 46 0
-11127 64 0
-11127 163 0
-11127 235 0
11127 -46 -64 -163 -235 0
-11128 46 0
-11128 64 0
-11128 172 0
-11128 217 0
11128 -46 -64 -172 -217 0
-11129 46 0
-11129 64 0
-11129 190 0
-11129 199 0
11129 -46 -64 -190 -199 0
-11130 46 0
-11130 73 0
-11130 127 0
-11130 235 0
11130 -46 -73 -127 -235 0
-11131 46 0
-11131 73 0
-11131 136 0
-11131 217 0
11131 -46 -73 -136 -217 0
-11132 46 0
-11132 73 0
-11132 154 0
-11132 199 0
11132 -46 -73 -154 -199 0
-11133 46 0
-11133 82 0
-11133 118 0
-11133 235 0
11133 -46 -82 -118 -235 0
-11134 46 0
-11134 82 0
-11134 136 0
-11134 190 0
11134 -46 -82 -136 -190 0
-11135 46 0
-11135 82 0
-11135 154 0
-11135 172 0
11135 -46 -82 -154 -172 0
-11136 46 0
-11136 91 0
-11136 118 0
-11136 217 0
11136 -46 -91 -118 -217 0
-11137 46 0
-11137 91 0
-11137 127 0
-11137 190 0
11137 -46 -91 -127 -190 0
-11138 46 0
-11138 91 0
-11138 154 0
-11138 163 0
11138 -46 -91 -154 -163 0
-11139 46 0
-11139 109 0
-11139 118 0
-11139 199 0
11139 -46 -109 -118 -199 0
-11140 46 0
-11140 109 0
-11140 127 0
-11140 172 0
11140 -46 -109 -127 -172 0
-11141 46 0
-11141 109 0
-11141 136 0
-11141 163 0
11141 -46 -109 -136 -163 0
-11142 55 0
-11142 64 0
-11142 163 0
-11142 226 0
11142 -55 -64 -163 -226 0
-11143 55 0
-11143 64 0
-11143 172 0
-11143 208 0
11143 -55 -64 -172 -208 0
-11144 55 0
-11144 64 0
-11144 181 0
-11144 199 0
11144 -55 -64 -181 -199 0
-11145 55 0
-11145 73 0
-11145 127 0
-11145 226 0
11145 -55 -73 -127 -226 0
-11146 55 0
-11146 73 0
-11146 136 0
-11146 208 0
11146 -55 -73 -136 -208 0
-11147 55 0
-11147 73 0
-11147 145 0
-11147 199 0
11147 -55 -73 -145 -199 0
-11148 55 0
-11148 82 0
-11148 118 0
-11148 226 0
11148 -55 -82 -118 -226 0
-11149 55 0
-11149 82 0
-11149 136 0
-11149 181 0
11149 -55 -82 -136 -181 0
-11150 55 0
-11150 82 0
-11150 145 0
-11150 172 0
11150 -55 -82 -145 -172 0
-11151 55 0
-11151 91 0
-11151 118 0
-11151 208 0
11151 -55 -91 -118 -208 0
-11152 55 0
-11152 91 0
-11152 127 0
-11152 181 0
11152 -55 -91 -127 -181 0
-11153 55 0
-11153 91 0
-11153 145 0
-11153 163 0
11153 -55 -91 -145 -163 0
-11154 55 0
-11154 100 0
-11154 118 0
-11154 199 0
11154 -55 -100 -118 -199 0
-11155 55 0
-11155 100 0
-11155 127 0
-11155 172 0
11155 -55 -100 -127 -172 0
-11156 55 0
-11156 100 0
-11156 136 0
-11156 163 0
11156 -55 -100 -136 -163 0
10947 10948 10949 10950 10951 10952 10953 10954 10955 10956 10957 10958 10959 10960 10961 10962 10963 10964 10965 10966 10967 10968 10969 10970 10971 10972 10973 10974 10975 10976 10977 -10978 -10979 10980 10981 10982 10983 10984 10985 10986 10987 10988 10989 10990 10991 10992 10993 10994 10995 10996 10997 10998 10999 11000 11001 11002 11003 11004 11005 11006 11007 11008 11009 11010 11011 11012 11013 11014 11015 11016 11017 11018 11019 11020 11021 11022 11023 11024 11025 11026 11027 11028 11029 11030 11031 11032 11033 11034 11035 11036 11037 11038 11039 11040 11041 11042 11043 11044 11045 11046 11047 11048 11049 11050 11051 11052 -11053 -11054 11055 11056 11057 11058 11059 11060 11061 11062 11063 11064 11065 11066 11067 -11068 -11069 11070 11071 11072 11073 11074 11075 11076 11077 11078 11079 11080 11081 11082 11083 11084 11085 11086 11087 11088 11089 11090 11091 11092 11093 11094 11095 11096 11097 11098 11099 11100 11101 11102 11103 11104 11105 11106 11107 11108 11109 11110 11111 11112 11113 11114 11115 11116 11117 11118 11119 11120 11121 11122 11123 11124 11125 11126 11127 11128 11129 11130 11131 11132 11133 11134 11135 11136 11137 11138 11139 11140 11141 11142 11143 11144 11145 11146 11147 11148 11149 11150 11151 11152 11153 11154 11155 11156 0
-11157 1 0
-11157 123 0
-11157 199 0
-11157 244 0
11157 -1 -123 -199 -244 0
-11158 1 0
-11158 123 0
-11158 208 0
-11158 235 0
11158 -1 -123 -208 -235 0
-11159 1 0
-11159 123 0
-11159 217 0
-11159 226 0
11159 -1 -123 -217 -226 0
-11160 1 0
-11160 130 0
-11160 178 0
-11160 244 0
11160 -1 -130 -178 -244 0
-11161 1 0
-11161 130 0
-11161 187 0
-11161 235 0
11161 -1 -130 -187 -235 0
-11162 1 0
-11162 130 0
-11162 196 0
-11162 226 0
11162 -1 -130 -196 -226 0
-11163 1 0
-11163 139 0
-11163 169 0
-11163 244 0
11163 -1 -139 -169 -244 0
-11164 1 0
-11164 139 0
-11164 187 0
-11164 217 0
11164 -1 -139 -187 -217 0
-11165 1 0
-11165 139 0
-11165 196 0
-11165 208 0
11165 -1 -139 -196 -208 0
-11166 1 0
-11166 148 0
-11166 169 0
-11166 235 0
11166 -1 -148 -169 -235 0
-11167 1 0
-11167 148 0
-11167 178 0
-11167 217 0
11167 -1 -148 -178 -217 0
-11168 1 0
-11168 148 0
-11168 196 0
-11168 199 0
11168 -1 -148 -196 -199 0
-11169 1 0
-11169 157 0
-11169 169 0
-11169 226 0
11169 -1 -157 -169 -226 0
-11170 1 0
-11170 157 0
-11170 178 0
-11170 208 0
11170 -1 -157 -178 -208 0
-11171 1 0
-11171 157 0
-11171 187 0
-11171 199 0
11171 -1 -157 -187 -199 0
-11172 11 0
-11172 75 0
-11172 199 0
-11172 244 0
11172 -11 -75 -199 -244 0
-11173 11 0
-11173 75 0
-11173 208 0
-11173 235 0
11173 -11 -75 -208 -235 0
-11174 11 0
-11174 75 0
-11174 217 0
-11174 226 0
11174 -11 -75 -217 -226 0
-11175 11 0
-11175 82 0
-11175 178 0
-11175 244 0
11175 -11 -82 -178 -244 0
-11176 11 0
-11176 82 0
-11176 187 0
-11176 235 0
11176 -11 -82 -187 -235 0
-11177 11 0
-11177 82 0
-11177 196 0
-11177 226 0
11177 -11 -82 -196 -226 0
-11178 11 0
-11178 91 0
-11178 169 0
-11178 244 0
11178 -11 -91 -169 -244 0
-11179 11 0
-11179 91 0
-11179 187 0
-11179 217 0
11179 -11 -91 -187 -217 0
-11180 11 0
-11180 91 0
-11180 196 0
-11180 208 0
11180 -11 -91 -196 -208 0
-11181 11 0
-11181 100 0
-11181 169 0
-11181 235 0
11181 -11 -100 -169 -235 0
-11182 11 0
-11182 100 0
-11182 178 0
-11182 217 0
11182 -11 -100 -178 -217 0
-11183 11 0
-11183 100 0
-11183 196 0
-11183 199 0
11183 -11 -100 -196 -199 0
-11184 11 0
-11184 109 0
-11184 169 0
-11184 226 0
11184 -11 -109 -169 -226 0
-11185 11 0
-11185 109 0
-11185 178 0
-11185 208 0
11185 -11 -109 -178 -208 0
-11186 11 0
-11186 109 0
-11186 187 0
-11186 199 0
11186 -11 -109 -187 -199 0
-11187 21 0
-11187 65 0
-11187 199 0
-11187 244 0
11187 -21 -65 -199 -244 0
-11188 21 0
-11188 65 0
-11188 208 0
-11188 235 0
11188 -21 -65 -208 -235 0
-11189 21 0
-11189 65 0
-11189 217 0
-11189 226 0
11189 -21 -65 -217 -226 0
-11190 21 0
-11190 82 0
-11190 139 0
-11190 244 0
11190 -21 -82 -139 -244 0
-11191 21 0
-11191 82 0
-11191 148 0
-11191 235 0
11191 -21 -82 -148 -235 0
-11192 21 0
-11192 82 0
-11192 157 0
-11192 226 0
11192 -21 -82 -157 -226 0
-11193 21 0
-11193 91 0
-11193 130 0
-11193 244 0
11193 -21 -91 -130 -244 0
-11194 21 0
-11194 91 0
-11194 148 0
-11194 217 0
11194 -21 -91 -148 -217 0
-11195 21 0
-11195 91 0
-11195 157 0
-11195 208 0
11195 -21 -91 -157 -208 0
-11196 21 0
-11196 100 0
-11196 130 0
-11196 235 0
11196 -21 -100 -130 -235 0
-11197 21 0
-11197 100 0
-11197 139 0
-11197 217 0
11197 -21 -100 -139 -217 0
-11198 21 0
-11198 100 0
-11198 157 0
-11198 199 0
11198 -21 -100 -157 -199 0
-11199 21 0
-11199 109 0
-11199 130 0
-11199 226 0
11199 -21 -109 -130 -226 0
-11200 21 0
-11200 109 0
-11200 139 0
-11200 208 0
11200 -21 -109 -139 -208 0
-11201 21 0
-11201 109 0
-11201 148 0
-11201 199 0
11201 -21 -109 -148 -199 0
-11202 28 0
-11202 65 0
-11202 178 0
-11202 244 0
11202 -28 -65 -178 -244 0
-11203 28 0
-11203 65 0
-11203 187 0
-11203 235 0
11203 -28 -65 -187 -235 0
-11204 28 0
-11204 65 0
-11204 196 0
-11204 226 0
11204 -28 -65 -196 -226 0
-11205 28 0
-11205 75 0
-11205 139 0
-11205 244 0
11205 -28 -75 -139 -244 0
-11206 28 0
-11206 75 0
-11206 148 0
-11206 235 0
11206 -28 -75 -148 -235 0
-11207 28 0
-11207 75 0
-11207 157 0
-11207 226 0
11207 -28 -75 -157 -226 0
-11208 28 0
-11208 91 0
-11208 123 0
-11208 244 0
11208 -28 -91 -123 -244 0
-11209 28 0
-11209 91 0
-11209 148 0
-11209 196 0
11209 -28 -91 -148 -196 0
-11210 28 0
-11210 91 0
-11210 157 0
-11210 187 0
11210 -28 -91 -157 -187 0
-11211 28 0
-11211 100 0
-11211 123 0
-11211 235 0
11211 -28 -100 -123 -235 0
-11212 28 0
-11212 100 0
-11212 139 0
-11212 196 0
11212 -28 -100 -139 -196 0
-11213 28 0
-11213 100 0
-11213 157 0
-11213 178 0
11213 -28 -100 -157 -178 0
-11214 28 0
-11214 109 0
-11214 123 0
-11214 226 0
11214 -28 -109 -123 -226 0
-11215 28 0
-11215 109 0
-11215 139 0
-11215 187 0
11215 -28 -109 -139 -187 0
-11216 28 0
-11216 109 0
-11216 148 0
-11216 178 0
11216 -28 -109 -148 -178 0
-11217 37 0
-11217 65 0
-11217 169 0
-11217 244 0
11217 -37 -65 -169 -244 0
-11218 37 0
-11218 65 0
-11218 187 0
-11218 217 0
11218 -37 -65 -187 -217 0
-11219 37 0
-11219 65 0
-11219 196 0
-11219 208 0
11219 -37 -65 -196 -208 0
-11220 37 0
-11220 75 0
-11220 130 0
-11220 244 0
11220 -37 -75 -130 -244 0
-11221 37 0
-11221 75 0
-11221 148 0
-11221 217 0
11221 -37 -75 -148 -217 0
-11222 37 0
-11222 75 0
-11222 157 0
-11222 208 0
11222 -37 -75 -157 -208 0
-11223 37 0
-11223 82 0
-11223 123 0
-11223 244 0
11223 -37 -82 -123 -244 0
-11224 37 0
-11224 82 0
-11224 148 0
-11224 196 0
11224 -37 -82 -148 -196 0
-11225 37 0
-11225 82 0
-11225 157 0
-11225 187 0
11225 -37 -82 -157 -187 0
-11226 37 0
-11226 100 0
-11226 123 0
-11226 217 0
11226 -37 -100 -123 -217 0
-11227 37 0
-11227 100 0
-11227 130 0
-11227 196 0
11227 -37 -100 -130 -196 0
-11228 37 0
-11228 100 0
-11228 157 0
-11228 169 0
11228 -37 -100 -157 -169 0
-11229 37 0
-11229 109 0
-11229 123 0
-11229 208 0
11229 -37 -109 -123 -208 0
-11230 37 0
-11230 109 0
-11230 130 0
-11230 187 0
11230 -37 -109 -130 -187 0
-11231 37 0
-11231 109 0
-11231 148 0
-11231 169 0
11231 -37 -109 -148 -169 0
-11232 46 0
-11232 65 0
-11232 169 0
-11232 235 0
11232 -46 -65 -169 -235 0
-11233 46 0
-11233 65 0
-11233 178 0
-11233 217 0
11233 -46 -65 -178 -217 0
-11234 46 0
-11234 65 0
-11234 196 0
-11234 199 0
11234 -46 -65 -196 -199 0
-11235 46 0
-11235 75 0
-11235 130 0
-11235 235 0
11235 -46 -75 -130 -235 0
-11236 46 0
-11236 75 0
-11236 139 0
-11236 217 0
11236 -46 -75 -139 -217 0
-11237 46 0
-11237 75 0
-11237 157 0
-11237 199 0
11237 -46 -75 -157 -199 0
-11238 46 0
-11238 82 0
-11238 123 0
-11238 235 0
11238 -46 -82 -123 -235 0
-11239 46 0
-11239 82 0
-11239 139 0
-11239 196 0
11239 -46 -82 -139 -196 0
-11240 46 0
-11240 82 0
-11240 157 0
-11240 178 0
11240 -46 -82 -157 -178 0
-11241 46 0
-11241 91 0
-11241 123 0
-11241 217 0
11241 -46 -91 -123 -217 0
-11242 46 0
-11242 91 0
-11242 130 0
-11242 196 0
11242 -46 -91 -130 -196 0
-11243 46 0
-11243 91 0
-11243 157 0
-11243 169 0
11243 -46 -91 -157 -169 0
-11244 46 0
-11244 109 0
-11244 123 0
-11244 199 0
11244 -46 -109 -123 -199 0
-11245 46 0
-11245 109 0
-11245 130 0
-11245 178 0
11245 -46 -109 -130 -178 0
-11246 46 0
-11246 109 0
-11246 139 0
-11246 169 0
11246 -46 -109 -139 -169 0
-11247 55 0
-11247 65 0
-11247 169 0
-11247 226 0
11247 -55 -65 -169 -226 0
-11248 55 0
-11248 65 0
-11248 178 0
-11248 208 0
11248 -55 -65 -178 -208 0
-11249 55 0
-11249 65 0
-11249 187 0
-11249 199 0
11249 -55 -65 -187 -199 0
-11250 55 0
-11250 75 0
-11250 130 0
-11250 226 0
11250 -55 -75 -130 -226 0
-11251 55 0
-11251 75 0
-11251 139 0
-11251 208 0
11251 -55 -75 -139 -208 0
-11252 55 0
-11252 75 0
-11252 148 0
-11252 199 0
11252 -55 -75 -148 -199 0
-11253 55 0
-11253 82 0
-11253 123 0
-11253 226 0
11253 -55 -82 -123 -226 0
-11254 55 0
-11254 82 0
-11254 139 0
-11254 187 0
11254 -55 -82 -139 -187 0
-11255 55 0
-11255 82 0
-11255 148 0
-11255 178 0
11255 -55 -82 -148 -178 0
-11256 55 0
-11256 91 0
-11256 123 0
-11256 208 0
11256 -55 -91 -123 -208 0
-11257 55 0
-11257 91 0
-11257 130 0
-11257 187 0
11257 -55 -91 -130 -187 0
-11258 55 0
-11258 91 0
-11258 148 0
-11258 169 0
11258 -55 -91 -148 -169 0
-11259 55 0
-11259 100 0
-11259 123 0
-11259 199 0
11259 -55 -100 -123 -199 0
-11260 55 0
-11260 100 0
-11260 130 0
-11260 178 0
11260 -55 -100 -130 -178 0
-11261 55 0
-11261 100 0
-11261 139 0
-11261 169 0
11261 -55 -100 -139 -169 0
11157 -11158 -11159 11160 11161 11162 11163 11164 11165 11166 11167 11168 11169 11170 11171 11172 11173 11174 11175 11176 11177 11178 11179 11180 11181 11182 11183 11184 11185 11186 11187 11188 11189 11190 11191 11192 11193 11194 11195 11196 11197 11198 11199 11200 11201 11202 11203 11204 11205 11206 11207 11208 11209 11210 11211 11212 11213 11214 11215 11216 11217 11218 11219 11220 11221 11222 11223 11224 11225 11226 11227 11228 11229 11230 11231 11232 11233 11234 11235 11236 11237 11238 11239 11240 11241 11242 11243 11244 11245 11246 11247 11248 11249 11250 11251 11252 11253 11254 11255 11256 11257 11258 11259 11260 11261 11052 -11053 -11054 11055 11056 11057 11058 11059 11060 11061 11062 11063 11064 11065 11066 11067 -11068 -11069 11070 11071 11072 11073 11074 11075 11076 11077 11078 11079 11080 11081 11082 11083 11084 11085 11086 11087 11088 11089 11090 11091 11092 11093 11094 11095 11096 11097 11098 11099 11100 11101 11102 11103 11104 11105 11106 11107 11108 11109 11110 11111 11112 11113 11114 11115 11116 11117 11118 11119 11120 11121 11122 11123 11124 11125 11126 11127 11128 11129 11130 11131 11132 11133 11134 11135 11136 11137 11138 11139 11140 11141 11142 11143 11144 11145 11146 11147 11148 11149 11150 11151 11152 11153 11154 11155 11156 0
-11262 2 0
-11262 120 0
-11262 199 0
-11262 244 0
11262 -2 -120 -199 -244 0
-11263 2 0
-11263 120 0
-11263 208 0
-11263 235 0
11263 -2 -120 -208 -235 0
-11264 2 0
-11264 120 0
-11264 217 0
-11264 226 0
11264 -2 -120 -217 -226 0
-11265 2 0
-11265 127 0
-11265 178 0
-11265 244 0
11265 -2 -127 -178 -244 0
-11266 2 0
-11266 127 0
-11266 187 0
-11266 235 0
11266 -2 -127 -187 -235 0
-11267 2 0
-11267 127 0
-11267 196 0
-11267 226 0
11267 -2 -127 -196 -226 0
-11268 2 0
-11268 136 0
-11268 169 0
-11268 244 0
11268 -2 -136 -169 -244 0
-11269 2 0
-11269 136 0
-11269 187 0
-11269 217 0
11269 -2 -136 -187 -217 0
-11270 2 0
-11270 136 0
-11270 196 0
-11270 208 0
11270 -2 -136 -196 -208 0
-11271 2 0
-11271 145 0
-11271 169 0
-11271 235 0
11271 -2 -145 -169 -235 0
-11272 2 0
-11272 145 0
-11272 178 0
-11272 217 0
11272 -2 -145 -178 -217 0
-11273 2 0
-11273 145 0
-11273 196 0
-11273 199 0
11273 -2 -145 -196 -199 0
-11274 2 0
-11274 154 0
-11274 169 0
-11274 226 0
11274 -2 -154 -169 -226 0
-11275 2 0
-11275 154 0
-11275 178 0
-11275 208 0
11275 -2 -154 -178 -208 0
-11276 2 0
-11276 154 0
-11276 187 0
-11276 199 0
11276 -2 -154 -187 -199 0
-11277 10 0
-11277 78 0
-11277 199 0
-11277 244 0
11277 -10 -78 -199 -244 0
-11278 10 0
-11278 78 0
-11278 208 0
-11278 235 0
11278 -10 -78 -208 -235 0
-11279 10 0
-11279 78 0
-11279 217 0
-11279 226 0
11279 -10 -78 -217 -226 0
-11280 10 0
-11280 85 0
-11280 178 0
-11280 244 0
11280 -10 -85 -178 -244 0
-11281 10 0
-11281 85 0
-11281 187 0
-11281 235 0
11281 -10 -85 -187 -235 0
-11282 10 0
-11282 85 0
-11282 196 0
-11282 226 0
11282 -10 -85 -196 -226 0
-11283 10 0
-11283 94 0
-11283 169 0
-11283 244 0
11283 -10 -94 -169 -244 0
-11284 10 0
-11284 94 0
-11284 187 0
-11284 217 0
11284 -10 -94 -187 -217 0
-11285 10 0
-11285 94 0
-11285 196 0
-11285 208 0
11285 -10 -94 -196 -208 0
-11286 10 0
-11286 103 0
-11286 169 0
-11286 235 0
11286 -10 -103 -169 -235 0
-11287 10 0
-11287 103 0
-11287 178 0
-11287 217 0
11287 -10 -103 -178 -217 0
-11288 10 0
-11288 103 0
-11288 196 0
-11288 199 0
11288 -10 -103 -196 -199 0
-11289 10 0
-11289 112 0
-11289 169 0
-11289 226 0
11289 -10 -112 -169 -226 0
-11290 10 0
-11290 112 0
-11290 178 0
-11290 208 0
11290 -10 -112 -178 -208 0
-11291 10 0
-11291 112 0
-11291 187 0
-11291 199 0
11291 -10 -112 -187 -199 0
-11292 21 0
-11292 67 0
-11292 199 0
-11292 244 0
11292 -21 -67 -199 -244 0
-11293 21 0
-11293 67 0
-11293 208 0
-11293 235 0
11293 -21 -67 -208 -235 0
-11294 21 0
-11294 67 0
-11294 217 0
-11294 226 0
11294 -21 -67 -217 -226 0
-11295 21 0
-11295 85 0
-11295 136 0
-11295 244 0
11295 -21 -85 -136 -244 0
-11296 21 0
-11296 85 0
-11296 145 0
-11296 235 0
11296 -21 -85 -145 -235 0
-11297 21 0
-11297 85 0
-11297 154 0
-11297 226 0
11297 -21 -85 -154 -226 0
-11298 21 0
-11298 94 0
-11298 127 0
-11298 244 0
11298 -21 -94 -127 -244 0
-11299 21 0
-11299 94 0
-11299 145 0
-11299 217 0
11299 -21 -94 -145 -217 0
-11300 21 0
-11300 94 0
-11300 154 0
-11300 208 0
11300 -21 -94 -154 -208 0
-11301 21 0
-11301 103 0
-11301 127 0
-11301 235 0
11301 -21 -103 -127 -235 0
-11302 21 0
-11302 103 0
-11302 136 0
-11302 217 0
11302 -21 -103 -136 -217 0
-11303 21 0
-11303 103 0
-11303 154 0
-11303 199 0
11303 -21 -103 -154 -199 0
-11304 21 0
-11304 112 0
-11304 127 0
-11304 226 0
11304 -21 -112 -127 -226 0
-11305 21 0
-11305 112 0
-11305 136 0
-11305 208 0
11305 -21 -112 -136 -208 0
-11306 21 0
-11306 112 0
-11306 145 0
-11306 199 0
11306 -21 -112 -145 -199 0
-11307 28 0
-11307 67 0
-11307 178 0
-11307 244 0
11307 -28 -67 -178 -244 0
-11308 28 0
-11308 67 0
-11308 187 0
-11308 235 0
11308 -28 -67 -187 -235 0
-11309 28 0
-11309 67 0
-11309 196 0
-11309 226 0
11309 -28 -67 -196 -226 0
-11310 28 0
-11310 78 0
-11310 136 0
-11310 244 0
11310 -28 -78 -136 -244 0
-11311 28 0
-11311 78 0
-11311 145 0
-11311 235 0
11311 -28 -78 -145 -235 0
-11312 28 0
-11312 78 0
-11312 154 0
-11312 226 0
11312 -28 -78 -154 -226 0
-11313 28 0
-11313 94 0
-11313 120 0
-11313 244 0
11313 -28 -94 -120 -244 0
-11314 28 0
-11314 94 0
-11314 145 0
-11314 196 0
11314 -28 -94 -145 -196 0
-11315 28 0
-11315 94 0
-11315 154 0
-11315 187 0
11315 -28 -94 -154 -187 0
-11316 28 0
-11316 103 0
-11316 120 0
-11316 235 0
11316 -28 -103 -120 -235 0
-11317 28 0
-11317 103 0
-11317 136 0
-11317 196 0
11317 -28 -103 -136 -196 0
-11318 28 0
-11318 103 0
-11318 154 0
-11318 178 0
11318 -28 -103 -154 -178 0
-11319 28 0
-11319 112 0
-11319 120 0
-11319 226 0
11319 -28 -112 -120 -226 0
-11320 28 0
-11320 112 0
-11320 136 0
-11320 187 0
11320 -28 -112 -136 -187 0
-11321 28 0
-11321 112 0
-11321 145 0
-11321 178 0
11321 -28 -112 -145 -178 0
-11322 37 0
-11322 67 0
-11322 169 0
-11322 244 0
11322 -37 -67 -169 -244 0
-11323 37 0
-11323 67 0
-11323 187 0
-11323 217 0
11323 -37 -67 -187 -217 0
-11324 37 0
-11324 67 0
-11324 196 0
-11324 208 0
11324 -37 -67 -196 -208 0
-11325 37 0
-11325 78 0
-11325 127 0
-11325 244 0
11325 -37 -78 -127 -244 0
-11326 37 0
-11326 78 0
-11326 145 0
-11326 217 0
11326 -37 -78 -145 -217 0
-11327 37 0
-11327 78 0
-11327 154 0
-11327 208 0
11327 -37 -78 -154 -208 0
-11328 37 0
-11328 85 0
-11328 120 0
-11328 244 0
11328 -37 -85 -120 -244 0
-11329 37 0
-11329 85 0
-11329 145 0
-11329 196 0
11329 -37 -85 -145 -196 0
-11330 37 0
-11330 85 0
-11330 154 0
-11330 187 0
11330 -37 -85 -154 -187 0
-11331 37 0
-11331 103 0
-11331 120 0
-11331 217 0
11331 -37 -103 -120 -217 0
-11332 37 0
-11332 103 0
-11332 127 0
-11332 196 0
11332 -37 -103 -127 -196 0
-11333 37 0
-11333 103 0
-11333 154 0
-11333 169 0
11333 -37 -103 -154 -169 0
-11334 37 0
-11334 112 0
-11334 120 0
-11334 208 0
11334 -37 -112 -120 -208 0
-11335 37 0
-11335 112 0
-11335 127 0
-11335 187 0
11335 -37 -112 -127 -187 0
-11336 37 0
-11336 112 0
-11336 145 0
-11336 169 0
11336 -37 -112 -145 -169 0
-11337 46 0
-11337 67 0
-11337 169 0
-11337 235 0
11337 -46 -67 -169 -235 0
-11338 46 0
-11338 67 0
-11338 178 0
-11338 217 0
11338 -46 -67 -178 -217 0
-11339 46 0
-11339 67 0
-11339 196 0
-11339 199 0
11339 -46 -67 -196 -199 0
-11340 46 0
-11340 78 0
-11340 127 0
-11340 235 0
11340 -46 -78 -127 -235 0
-11341 46 0
-11341 78 0
-11341 136 0
-11341 217 0
11341 -46 -78 -136 -217 0
-11342 46 0
-11342 78 0
-11342 154 0
-11342 199 0
11342 -46 -78 -154 -199 0
-11343 46 0
-11343 85 0
-11343 120 0
-11343 235 0
11343 -46 -85 -120 -235 0
-11344 46 0
-11344 85 0
-11344 136 0
-11344 196 0
11344 -46 -85 -136 -196 0
-11345 46 0
-11345 85 0
-11345 154 0
-11345 178 0
11345 -46 -85 -154 -178 0
-11346 46 0
-11346 94 0
-11346 120 0
-11346 217 0
11346 -46 -94 -120 -217 0
-11347 46 0
-11347 94 0
-11347 127 0
-11347 196 0
11347 -46 -94 -127 -196 0
-11348 46 0
-11348 94 0
-11348 154 0
-11348 169 0
11348 -46 -94 -154 -169 0
-11349 46 0
-11349 112 0
-11349 120 0
-11349 199 0
11349 -46 -112 -120 -199 0
-11350 46 0
-11350 112 0
-11350 127 0
-11350 178 0
11350 -46 -112 -127 -178 0
-11351 46 0
-11351 112 0
-11351 136 0
-11351 169 0
11351 -46 -112 -136 -169 0
-11352 55 0
-11352 67 0
-11352 169 0
-11352 226 0
11352 -55 -67 -169 -226 0
-11353 55 0
-11353 67 0
-11353 178 0
-11353 208 0
11353 -55 -67 -178 -208 0
-11354 55 0
-11354 67 0
-11354 187 0
-11354 199 0
11354 -55 -67 -187 -199 0
-11355 55 0
-11355 78 0
-11355 127 0
-11355 226 0
11355 -55 -78 -127 -226 0
-11356 55 0
-11356 78 0
-11356 136 0
-11356 208 0
11356 -55 -78 -136 -208 0
-11357 55 0
-11357 78 0
-11357 145 0
-11357 199 0
11357 -55 -78 -145 -199 0
-11358 55 0
-11358 85 0
-11358 120 0
-11358 226 0
11358 -55 -85 -120 -226 0
-11359 55 0
-11359 85 0
-11359 136 0
-11359 187 0
11359 -55 -85 -136 -187 0
-11360 55 0
-11360 85 0
-11360 145 0
-11360 178 0
11360 -55 -85 -145 -178 0
-11361 55 0
-11361 94 0
-11361 120 0
-11361 208 0
11361 -55 -94 -120 -208 0
-11362 55 0
-11362 94 0
-11362 127 0
-11362 187 0
11362 -55 -94 -127 -187 0
-11363 55 0
-11363 94 0
-11363 145 0
-11363 169 0
11363 -55 -94 -145 -169 0
-11364 55 0
-11364 103 0
-11364 120 0
-11364 199 0
11364 -55 -103 -120 -199 0
-11365 55 0
-11365 103 0
-11365 127 0
-11365 178 0
11365 -55 -103 -127 -178 0
-11366 55 0
-11366 103 0
-11366 136 0
-11366 169 0
11366 -55 -103 -136 -169 0
11262 11263 11264 11265 11266 11267 11268 11269 11270 11271 11272 11273 11274 11275 11276 11277 -11278 -11279 11280 11281 11282 11283 11284 11285 11286 11287 11288 11289 11290 11291 11292 11293 11294 11295 11296 11297 11298 11299 11300 11301 11302 11303 11304 11305 11306 11307 11308 11309 11310 11311 11312 11313 11314 11315 11316 11317 11318 11319 11320 11321 11322 11323 11324 11325 11326 11327 11328 11329 11330 11331 11332 11333 11334 11335 11336 11337 11338 11339 11340 11341 11342 11343 11344 11345 11346 11347 11348 11349 11350 11351 11352 11353 11354 11355 11356 11357 11358 11359 11360 11361 11362 11363 11364 11365 11366 11052 -11053 -11054 11055 11056 11057 11058 11059 11060 11061 11062 11063 11064 11065 11066 11067 -11068 -11069 11070 11071 11072 11073 11074 11075 11076 11077 11078 11079 11080 11081 11082 11083 11084 11085 11086 11087 11088 11089 11090 11091 11092 11093 11094 11095 11096 11097 11098 11099 11100 11101 11102 11103 11104 11105 11106 11107 11108 11109 11110 11111 11112 11113 11114 11115 11116 11117 11118 11119 11120 11121 11122 11123 11124 11125 11126 11127 11128 11129 11130 11131 11132 11133 11134 11135 11136 11137 11138 11139 11140 11141 11142 11143 11144 11145 11146 11147 11148 11149 11150 11151 11152 11153 11154 11155 11156 0
-11367 2 0
-11367 123 0
-11367 199 0
-11367 244 0
11367 -2 -123 -199 -244 0
-11368 2 0
-11368 123 0
-11368 208 0
-11368 235 0
11368 -2 -123 -208 -235 0
-11369 2 0
-11369 123 0
-11369 217 0
-11369 226 0
11369 -2 -123 -217 -226 0
-11370 2 0
-11370 130 0
-11370 178 0
-11370 244 0
11370 -2 -130 -178 -244 0
-11371 2 0
-11371 130 0
-11371 187 0
-11371 235 0
11371 -2 -130 -187 -235 0
-11372 2 0
-11372 130 0
-11372 196 0
-11372 226 0
11372 -2 -130 -196 -226 0
-11373 2 0
-11373 139 0
-11373 169 0
-11373 244 0
11373 -2 -139 -169 -244 0
-11374 2 0
-11374 139 0
-11374 187 0
-11374 217 0
11374 -2 -139 -187 -217 0
-11375 2 0
-11375 139 0
-11375 196 0
-11375 208 0
11375 -2 -139 -196 -208 0
-11376 2 0
-11376 148 0
-11376 169 0
-11376 235 0
11376 -2 -148 -169 -235 0
-11377 2 0
-11377 148 0
-11377 178 0
-11377 217 0
11377 -2 -148 -178 -217 0
-11378 2 0
-11378 148 0
-11378 196 0
-11378 199 0
11378 -2 -148 -196 -199 0
-11379 2 0
-11379 157 0
-11379 169 0
-11379 226 0
11379 -2 -157 -169 -226 0
-11380 2 0
-11380 157 0
-11380 178 0
-11380 208 0
11380 -2 -157 -178 -208 0
-11381 2 0
-11381 157 0
-11381 187 0
-11381 199 0
11381 -2 -157 -187 -199 0
-11382 11 0
-11382 78 0
-11382 199 0
-11382 244 0
11382 -11 -78 -199 -244 0
-11383 11 0
-11383 78 0
-11383 208 0
-11383 235 0
11383 -11 -78 -208 -235 0
-11384 11 0
-11384 78 0
-11384 217 0
-11384 226 0
11384 -11 -78 -217 -226 0
-11385 11 0
-11385 85 0
-11385 178 0
-11385 244 0
11385 -11 -85 -178 -244 0
-11386 11 0
-11386 85 0
-11386 187 0
-11386 235 0
11386 -11 -85 -187 -235 0
-11387 11 0
-11387 85 0
-11387 196 0
-11387 226 0
11387 -11 -85 -196 -226 0
-11388 11 0
-11388 94 0
-11388 169 0
-11388 244 0
11388 -11 -94 -169 -244 0
-11389 11 0
-11389 94 0
-11389 187 0
-11389 217 0
11389 -11 -94 -187 -217 0
-11390 11 0
-11390 94 0
-11390 196 0
-11390 208 0
11390 -11 -94 -196 -208 0
-11391 11 0
-11391 103 0
-11391 169 0
-11391 235 0
11391 -11 -103 -169 -235 0
-11392 11 0
-11392 103 0
-11392 178 0
-11392 217 0
11392 -11 -103 -178 -217 0
-11393 11 0
-11393 103 0
-11393 196 0
-11393 199 0
11393 -11 -103 -196 -199 0
-11394 11 0
-11394 112 0
-11394 169 0
-11394 226 0
11394 -11 -112 -169 -226 0
-11395 11 0
-11395 112 0
-11395 178 0
-11395 208 0
11395 -11 -112 -178 -208 0
-11396 11 0
-11396 112 0
-11396 187 0
-11396 199 0
11396 -11 -112 -187 -199 0
-11397 21 0
-11397 68 0
-11397 199 0
-11397 244 0
11397 -21 -68 -199 -244 0
-11398 21 0
-11398 68 0
-11398 208 0
-11398 235 0
11398 -21 -68 -208 -235 0
-11399 21 0
-11399 68 0
-11399 217 0
-11399 226 0
11399 -21 -68 -217 -226 0
-11400 21 0
-11400 85 0
-11400 139 0
-11400 244 0
11400 -21 -85 -139 -244 0
-11401 21 0
-11401 85 0
-11401 148 0
-11401 235 0
11401 -21 -85 -148 -235 0
-11402 21 0
-11402 85 0
-11402 157 0
-11402 226 0
11402 -21 -85 -157 -226 0
-11403 21 0
-11403 94 0
-11403 130 0
-11403 244 0
11403 -21 -94 -130 -244 0
-11404 21 0
-11404 94 0
-11404 148 0
-11404 217 0
11404 -21 -94 -148 -217 0
-11405 21 0
-11405 94 0
-11405 157 0
-11405 208 0
11405 -21 -94 -157 -208 0
-11406 21 0
-11406 103 0
-11406 130 0
-11406 235 0
11406 -21 -103 -130 -235 0
-11407 21 0
-11407 103 0
-11407 139 0
-11407 217 0
11407 -21 -103 -139 -217 0
-11408 21 0
-11408 103 0
-11408 157 0
-11408 199 0
11408 -21 -103 -157 -199 0
-11409 21 0
-11409 112 0
-11409 130 0
-11409 226 0
11409 -21 -112 -130 -226 0
-11410 21 0
-11410 112 0
-11410 139 0
-11410 208 0
11410 -21 -112 -139 -208 0
-11411 21 0
-11411 112 0
-11411 148 0
-11411 199 0
11411 -21 -112 -148 -199 0
-11412 28 0
-11412 68 0
-11412 178 0
-11412 244 0
11412 -28 -68 -178 -244 0
-11413 28 0
-11413 68 0
-11413 187 0
-11413 235 0
11413 -28 -68 -187 -235 0
-11414 28 0
-11414 68 0
-11414 196 0
-11414 226 0
11414 -28 -68 -196 -226 0
-11415 28 0
-11415 78 0
-11415 139 0
-11415 244 0
11415 -28 -78 -139 -244 0
-11416 28 0
-11416 78 0
-11416 148 0
-11416 235 0
11416 -28 -78 -148 -235 0
-11417 28 0
-11417 78 0
-11417 157 0
-11417 226 0
11417 -28 -78 -157 -226 0
-11418 28 0
-11418 94 0
-11418 123 0
-11418 244 0
11418 -28 -94 -123 -244 0
-11419 28 0
-11419 94 0
-11419 148 0
-11419 196 0
11419 -28 -94 -148 -196 0
-11420 28 0
-11420 94 0
-11420 157 0
-11420 187 0
11420 -28 -94 -157 -187 0
-11421 28 0
-11421 103 0
-11421 123 0
-11421 235 0
11421 -28 -103 -123 -235 0
-11422 28 0
-11422 103 0
-11422 139 0
-11422 196 0
11422 -28 -103 -139 -196 0
-11423 28 0
-11423 103 0
-11423 157 0
-11423 178 0
11423 -28 -103 -157 -178 0
-11424 28 0
-11424 112 0
-11424 123 0
-11424 226 0
11424 -28 -112 -123 -226 0
-11425 28 0
-11425 112 0
-11425 139 0
-11425 187 0
11425 -28 -112 -139 -187 0
-11426 28 0
-11426 112 0
-11426 148 0
-11426 178 0
11426 -28 -112 -148 -178 0
-11427 37 0
-11427 68 0
-11427 169 0
-11427 244 0
11427 -37 -68 -169 -244 0
-11428 37 0
-11428 68 0
-11428 187 0
-11428 217 0
11428 -37 -68 -187 -217 0
-11429 37 0
-11429 68 0
-11429 196 0
-11429 208 0
11429 -37 -68 -196 -208 0
-11430 37 0
-11430 78 0
-11430 130 0
-11430 244 0
11430 -37 -78 -130 -244 0
-11431 37 0
-11431 78 0
-11431 148 0
-11431 217 0
11431 -37 -78 -148 -217 0
-11432 37 0
-11432 78 0
-11432 157 0
-11432 208 0
11432 -37 -78 -157 -208 0
-11433 37 0
-11433 85 0
-11433 123 0
-11433 244 0
11433 -37 -85 -123 -244 0
-11434 37 0
-11434 85 0
-11434 148 0
-11434 196 0
11434 -37 -85 -148 -196 0
-11435 37 0
-11435 85 0
-11435 157 0
-11435 187 0
11435 -37 -85 -157 -187 0
-11436 37 0
-11436 103 0
-11436 123 0
-11436 217 0
11436 -37 -103 -123 -217 0
-11437 37 0
-11437 103 0
-11437 130 0
-11437 196 0
11437 -37 -103 -130 -196 0
-11438 37 0
-11438 103 0
-11438 157 0
-11438 169 0
11438 -37 -103 -157 -169 0
-11439 37 0
-11439 112 0
-11439 123 0
-11439 208 0
11439 -37 -112 -123 -208 0
-11440 37 0
-11440 112 0
-11440 130 0
-11440 187 0
11440 -37 -112 -130 -187 0
-11441 37 0
-11441 112 0
-11441 148 0
-11441 169 0
11441 -37 -112 -148 -169 0
-11442 46 0
-11442 68 0
-11442 169 0
-11442 235 0
11442 -46 -68 -169 -235 0
-11443 46 0
-11443 68 0
-11443 178 0
-11443 217 0
11443 -46 -68 -178 -217 0
-11444 46 0
-11444 68 0
-11444 196 0
-11444 199 0
11444 -46 -68 -196 -199 0
-11445 46 0
-11445 78 0
-11445 130 0
-11445 235 0
11445 -46 -78 -130 -235 0
-11446 46 0
-11446 78 0
-11446 139 0
-11446 217 0
11446 -46 -78 -139 -217 0
-11447 46 0
-11447 78 0
-11447 157 0
-11447 199 0
11447 -46 -78 -157 -199 0
-11448 46 0
-11448 85 0
-11448 123 0
-11448 235 0
11448 -46 -85 -123 -235 0
-11449 46 0
-11449 85 0
-11449 139 0
-11449 196 0
11449 -46 -85 -139 -196 0
-11450 46 0
-11450 85 0
-11450 157 0
-11450 178 0
11450 -46 -85 -157 -178 0
-11451 46 0
-11451 94 0
-11451 123 0
-11451 217 0
11451 -46 -94 -123 -217 0
-11452 46 0
-11452 94 0
-11452 130 0
-11452 196 0
11452 -46 -94 -130 -196 0
-11453 46 0
-11453 94 0
-11453 157 0
-11453 169 0
11453 -46 -94 -157 -169 0
-11454 46 0
-11454 112 0
-11454 123 0
-11454 199 0
11454 -46 -112 -123 -199 0
-11455 46 0
-11455 112 0
-11455 130 0
-11455 178 0
11455 -46 -112 -130 -178 0
-11456 46 0
-11456 112 0
-11456 139 0
-11456 169 0
11456 -46 -112 -139 -169 0
-11457 55 0
-11457 68 0
-11457 169 0
-11457 226 0
11457 -55 -68 -169 -226 0
-11458 55 0
-11458 68 0
-11458 178 0
-11458 208 0
11458 -55 -68 -178 -208 0
-11459 55 0
-11459 68 0
-11459 187 0
-11459 199 0
11459 -55 -68 -187 -199 0
-11460 55 0
-11460 78 0
-11460 130 0
-11460 226 0
11460 -55 -78 -130 -226 0
-11461 55 0
-11461 78 0
-11461 139 0
-11461 208 0
11461 -55 -78 -139 -208 0
-11462 55 0
-11462 78 0
-11462 148 0
-11462 199 0
11462 -55 -78 -148 -199 0
-11463 55 0
-11463 85 0
-11463 123 0
-11463 226 0
11463 -55 -85 -123 -226 0
-11464 55 0
-11464 85 0
-11464 139 0
-11464 187 0
11464 -55 -85 -139 -187 0
-11465 55 0
-11465 85 0
-11465 148 0
-11465 178 0
11465 -55 -85 -148 -178 0
-11466 55 0
-11466 94 0
-11466 123 0
-11466 208 0
11466 -55 -94 -123 -208 0
-11467 55 0
-11467 94 0
-11467 130 0
-11467 187 0
11467 -55 -94 -130 -187 0
-11468 55 0
-11468 94 0
-11468 148 0
-11468 169 0
11468 -55 -94 -148 -169 0
-11469 55 0
-11469 103 0
-11469 123 0
-11469 199 0
11469 -55 -103 -123 -199 0
-11470 55 0
-11470 103 0
-11470 130 0
-11470 178 0
11470 -55 -103 -130 -178 0
-11471 55 0
-11471 103 0
-11471 139 0
-11471 169 0
11471 -55 -103 -139 -169 0
11367 11368 11369 11370 11371 11372 11373 11374 11375 11376 11377 11378 11379 11380 11381 11382 11383 11384 11385 11386 11387 11388 11389 11390 11391 11392 11393 11394 11395 11396 11397 -11398 -11399 11400 11401 11402 11403 11404 11405 11406 11407 11408 11409 11410 11411 11412 11413 11414 11415 11416 11417 11418 11419 11420 11421 11422 11423 11424 11425 11426 11427 11428 11429 11430 11431 11432 11433 11434 11435 11436 11437 11438 11439 11440 11441 11442 11443 11444 11445 11446 11447 11448 11449 11450 11451 11452 11453 11454 11455 11456 11457 11458 11459 11460 11461 11462 11463 11464 11465 11466 11467 11468 11469 11470 11471 11052 -11053 -11054 11055 11056 11057 11058 11059 11060 11061 11062 11063 11064 11065 11066 11067 11068 11069 11070 11071 11072 11073 11074 11075 11076 11077 11078 11079 11080 11081 11082 11083 11084 11085 11086 11087 11088 11089 11090 11091 11092 11093 11094 11095 11096 11097 11098 11099 11100 11101 11102 11103 11104 11105 11106 11107 11108 11109 11110 11111 11112 11113 11114 11115 11116 11117 11118 11119 11120 11121 11122 11123 11124 11125 11126 11127 11128 11129 11130 11131 11132 11133 11134 11135 11136 11137 11138 11139 11140 11141 11142 11143 11144 11145 11146 11147 11148 11149 11150 11151 11152 11153 11154 11155 11156 0
11157 -11158 -11159 11160 11161 11162 11163 11164 11165 11166 11167 11168 11169 11170 11171 11172 11173 11174 11175 11176 11177 11178 11179 11180 11181 11182 11183 11184 11185 11186 11187 11188 11189 11190 11191 11192 11193 11194 11195 11196 11197 11198 11199 11200 11201 11202 11203 11204 11205 11206 11207 11208 11209 11210 11211 11212 11213 11214 11215 11216 11217 11218 11219 11220 11221 11222 11223 11224 11225 11226 11227 11228 11229 11230 11231 11232 11233 11234 11235 11236 11237 11238 11239 11240 11241 11242 11243 11244 11245 11246 11247 11248 11249 11250 11251 11252 11253 11254 11255 11256 11257 11258 11259 11260 11261 11052 -11053 -11054 11055 11056 11057 11058 11059 11060 11061 11062 11063 11064 11065 11066 11067 11068 11069 11070 11071 11072 11073 11074 11075 11076 11077 11078 11079 11080 11081 11082 11083 11084 11085 11086 11087 11088 11089 11090 11091 11092 11093 11094 11095 11096 11097 11098 11099 11100 11101 11102 11103 11104 11105 11106 11107 11108 11109 11110 11111 11112 11113 11114 11115 11116 11117 11118 11119 11120 11121 11122 11123 11124 11125 11126 11127 11128 11129 11130 11131 11132 11133 11134 11135 11136 11137 11138 11139 11140 11141 11142 11143 11144 11145 11146 11147 11148 11149 11150 11151 11152 11153 11154 11155 11156 0
-11472 5 0
-11472 123 0
-11472 199 0
-11472 244 0
11472 -5 -123 -199 -244 0
-11473 5 0
-11473 123 0
-11473 208 0
-11473 235 0
11473 -5 -123 -208 -235 0
-11474 5 0
-11474 123 0
-11474 217 0
-11474 226 0
11474 -5 -123 -217 -226 0
-11475 5 0
-11475 130 0
-11475 178 0
-11475 244 0
11475 -5 -130 -178 -244 0
-11476 5 0
-11476 130 0
-11476 187 0
-11476 235 0
11476 -5 -130 -187 -235 0
-11477 5 0
-11477 130 0
-11477 196 0
-11477 226 0
11477 -5 -130 -196 -226 0
-11478 5 0
-11478 139 0
-11478 169 0
-11478 244 0
11478 -5 -139 -169 -244 0
-11479 5 0
-11479 139 0
-11479 187 0
-11479 217 0
11479 -5 -139 -187 -217 0
-11480 5 0
-11480 139 0
-11480 196 0
-11480 208 0
11480 -5 -139 -196 -208 0
-11481 5 0
-11481 148 0
-11481 169 0
-11481 235 0
11481 -5 -148 -169 -235 0
-11482 5 0
-11482 148 0
-11482 178 0
-11482 217 0
11482 -5 -148 -178 -217 0
-11483 5 0
-11483 148 0
-11483 196 0
-11483 199 0
11483 -5 -148 -196 -199 0
-11484 5 0
-11484 157 0
-11484 169 0
-11484 226 0
11484 -5 -157 -169 -226 0
-11485 5 0
-11485 157 0
-11485 178 0
-11485 208 0
11485 -5 -157 -178 -208 0
-11486 5 0
-11486 157 0
-11486 187 0
-11486 199 0
11486 -5 -157 -187 -199 0
-11487 14 0
-11487 78 0
-11487 199 0
-11487 244 0
11487 -14 -78 -199 -244 0
-11488 14 0
-11488 78 0
-11488 208 0
-11488 235 0
11488 -14 -78 -208 -235 0
-11489 14 0
-11489 78 0
-11489 217 0
-11489 226 0
11489 -14 -78 -217 -226 0
-11490 14 0
-11490 85 0
-11490 178 0
-11490 244 0
11490 -14 -85 -178 -244 0
-11491 14 0
-11491 85 0
-11491 187 0
-11491 235 0
11491 -14 -85 -187 -235 0
-11492 14 0
-11492 85 0
-11492 196 0
-11492 226 0
11492 -14 -85 -196 -226 0
-11493 14 0
-11493 94 0
-11493 169 0
-11493 244 0
11493 -14 -94 -169 -244 0
-11494 14 0
-11494 94 0
-11494 187 0
-11494 217 0
11494 -14 -94 -187 -217 0
-11495 14 0
-11495 94 0
-11495 196 0
-11495 208 0
11495 -14 -94 -196 -208 0
-11496 14 0
-11496 103 0
-11496 169 0
-11496 235 0
11496 -14 -103 -169 -235 0
-11497 14 0
-11497 103 0
-11497 178 0
-11497 217 0
11497 -14 -103 -178 -217 0
-11498 14 0
-11498 103 0
-11498 196 0
-11498 199 0
11498 -14 -103 -196 -199 0
-11499 14 0
-11499 112 0
-11499 169 0
-11499 226 0
11499 -14 -112 -169 -226 0
-11500 14 0
-11500 112 0
-11500 178 0
-11500 208 0
11500 -14 -112 -178 -208 0
-11501 14 0
-11501 112 0
-11501 187 0
-11501 199 0
11501 -14 -112 -187 -199 0
-11502 24 0
-11502 68 0
-11502 199 0
-11502 244 0
11502 -24 -68 -199 -244 0
-11503 24 0
-11503 68 0
-11503 208 0
-11503 235 0
11503 -24 -68 -208 -235 0
-11504 24 0
-11504 68 0
-11504 217 0
-11504 226 0
11504 -24 -68 -217 -226 0
-11505 24 0
-11505 85 0
-11505 139 0
-11505 244 0
11505 -24 -85 -139 -244 0
-11506 24 0
-11506 85 0
-11506 148 0
-11506 235 0
11506 -24 -85 -148 -235 0
-11507 24 0
-11507 85 0
-11507 157 0
-11507 226 0
11507 -24 -85 -157 -226 0
-11508 24 0
-11508 94 0
-11508 130 0
-11508 244 0
11508 -24 -94 -130 -244 0
-11509 24 0
-11509 94 0
-11509 148 0
-11509 217 0
11509 -24 -94 -148 -217 0
-11510 24 0
-11510 94 0
-11510 157 0
-11510 208 0
11510 -24 -94 -157 -208 0
-11511 24 0
-11511 103 0
-11511 130 0
-11511 235 0
11511 -24 -103 -130 -235 0
-11512 24 0
-11512 103 0
-11512 139 0
-11512 217 0
11512 -24 -103 -139 -217 0
-11513 24 0
-11513 103 0
-11513 157 0
-11513 199 0
11513 -24 -103 -157 -199 0
-11514 24 0
-11514 112 0
-11514 130 0
-11514 226 0
11514 -24 -112 -130 -226 0
-11515 24 0
-11515 112 0
-11515 139 0
-11515 208 0
11515 -24 -112 -139 -208 0
-11516 24 0
-11516 112 0
-11516 148 0
-11516 199 0
11516 -24 -112 -148 -199 0
-11517 31 0
-11517 68 0
-11517 178 0
-11517 244 0
11517 -31 -68 -178 -244 0
-11518 31 0
-11518 68 0
-11518 187 0
-11518 235 0
11518 -31 -68 -187 -235 0
-11519 31 0
-11519 68 0
-11519 196 0
-11519 226 0
11519 -31 -68 -196 -226 0
-11520 31 0
-11520 78 0
-11520 139 0
-11520 244 0
11520 -31 -78 -139 -244 0
-11521 31 0
-11521 78 0
-11521 148 0
-11521 235 0
11521 -31 -78 -148 -235 0
-11522 31 0
-11522 78 0
-11522 157 0
-11522 226 0
11522 -31 -78 -157 -226 0
-11523 31 0
-11523 94 0
-11523 123 0
-11523 244 0
11523 -31 -94 -123 -244 0
-11524 31 0
-11524 94 0
-11524 148 0
-11524 196 0
11524 -31 -94 -148 -196 0
-11525 31 0
-11525 94 0
-11525 157 0
-11525 187 0
11525 -31 -94 -157 -187 0
-11526 31 0
-11526 103 0
-11526 123 0
-11526 235 0
11526 -31 -103 -123 -235 0
-11527 31 0
-11527 103 0
-11527 139 0
-11527 196 0
11527 -31 -103 -139 -196 0
-11528 31 0
-11528 103 0
-11528 157 0
-11528 178 0
11528 -31 -103 -157 -178 0
-11529 31 0
-11529 112 0
-11529 123 0
-11529 226 0
11529 -31 -112 -123 -226 0
-11530 31 0
-11530 112 0
-11530 139 0
-11530 187 0
11530 -31 -112 -139 -187 0
-11531 31 0
-11531 112 0
-11531 148 0
-11531 178 0
11531 -31 -112 -148 -178 0
-11532 40 0
-11532 68 0
-11532 169 0
-11532 244 0
11532 -40 -68 -169 -244 0
-11533 40 0
-11533 68 0
-11533 187 0
-11533 217 0
11533 -40 -68 -187 -217 0
-11534 40 0
-11534 68 0
-11534 196 0
-11534 208 0
11534 -40 -68 -196 -208 0
-11535 40 0
-11535 78 0
-11535 130 0
-11535 244 0
11535 -40 -78 -130 -244 0
-11536 40 0
-11536 78 0
-11536 148 0
-11536 217 0
11536 -40 -78 -148 -217 0
-11537 40 0
-11537 78 0
-11537 157 0
-11537 208 0
11537 -40 -78 -157 -208 0
-11538 40 0
-11538 85 0
-11538 123 0
-11538 244 0
11538 -40 -85 -123 -244 0
-11539 40 0
-11539 85 0
-11539 148 0
-11539 196 0
11539 -40 -85 -148 -196 0
-11540 40 0
-11540 85 0
-11540 157 0
-11540 187 0
11540 -40 -85 -157 -187 0
-11541 40 0
-11541 103 0
-11541 123 0
-11541 217 0
11541 -40 -103 -123 -217 0
-11542 40 0
-11542 103 0
-11542 130 0
-11542 196 0
11542 -40 -103 -130 -196 0
-11543 40 0
-11543 103 0
-11543 157 0
-11543 169 0
11543 -40 -103 -157 -169 0
-11544 40 0
-11544 112 0
-11544 123 0
-11544 208 0
11544 -40 -112 -123 -208 0
-11545 40 0
-11545 112 0
-11545 130 0
-11545 187 0
11545 -40 -112 -130 -187 0
-11546 40 0
-11546 112 0
-11546 148 0
-11546 169 0
11546 -40 -112 -148 -169 0
-11547 49 0
-11547 68 0
-11547 169 0
-11547 235 0
11547 -49 -68 -169 -235 0
-11548 49 0
-11548 68 0
-11548 178 0
-11548 217 0
11548 -49 -68 -178 -217 0
-11549 49 0
-11549 68 0
-11549 196 0
-11549 199 0
11549 -49 -68 -196 -199 0
-11550 49 0
-11550 78 0
-11550 130 0
-11550 235 0
11550 -49 -78 -130 -235 0
-11551 49 0
-11551 78 0
-11551 139 0
-11551 217 0
11551 -49 -78 -139 -217 0
-11552 49 0
-11552 78 0
-11552 157 0
-11552 199 0
11552 -49 -78 -157 -199 0
-11553 49 0
-11553 85 0
-11553 123 0
-11553 235 0
11553 -49 -85 -123 -235 0
-11554 49 0
-11554 85 0
-11554 139 0
-11554 196 0
11554 -49 -85 -139 -196 0
-11555 49 0
-11555 85 0
-11555 157 0
-11555 178 0
11555 -49 -85 -157 -178 0
-11556 49 0
-11556 94 0
-11556 123 0
-11556 217 0
11556 -49 -94 -123 -217 0
-11557 49 0
-11557 94 0
-11557 130 0
-11557 196 0
11557 -49 -94 -130 -196 0
-11558 49 0
-11558 94 0
-11558 157 0
-11558 169 0
11558 -49 -94 -157 -169 0
-11559 49 0
-11559 112 0
-11559 123 0
-11559 199 0
11559 -49 -112 -123 -199 0
-11560 49 0
-11560 112 0
-11560 130 0
-11560 178 0
11560 -49 -112 -130 -178 0
-11561 49 0
-11561 112 0
-11561 139 0
-11561 169 0
11561 -49 -112 -139 -169 0
-11562 58 0
-11562 68 0
-11562 169 0
-11562 226 0
11562 -58 -68 -169 -226 0
-11563 58 0
-11563 68 0
-11563 178 0
-11563 208 0
11563 -58 -68 -178 -208 0
-11564 58 0
-11564 68 0
-11564 187 0
-11564 199 0
11564 -58 -68 -187 -199 0
-11565 58 0
-11565 78 0
-11565 130 0
-11565 226 0
11565 -58 -78 -130 -226 0
-11566 58 0
-11566 78 0
-11566 139 0
-11566 208 0
11566 -58 -78 -139 -208 0
-11567 58 0
-11567 78 0
-11567 148 0
-11567 199 0
11567 -58 -78 -148 -199 0
-11568 58 0
-11568 85 0
-11568 123 0
-11568 226 0
11568 -58 -85 -123 -226 0
-11569 58 0
-11569 85 0
-11569 139 0
-11569 187 0
11569 -58 -85 -139 -187 0
-11570 58 0
-11570 85 0
-11570 148 0
-11570 178 0
11570 -58 -85 -148 -178 0
-11571 58 0
-11571 94 0
-11571 123 0
-11571 208 0
11571 -58 -94 -123 -208 0
-11572 58 0
-11572 94 0
-11572 130 0
-11572 187 0
11572 -58 -94 -130 -187 0
-11573 58 0
-11573 94 0
-11573 148 0
-11573 169 0
11573 -58 -94 -148 -169 0
-11574 58 0
-11574 103 0
-11574 123 0
-11574 199 0
11574 -58 -103 -123 -199 0
-11575 58 0
-11575 103 0
-11575 130 0
-11575 178 0
11575 -58 -103 -130 -178 0
-11576 58 0
-11576 103 0
-11576 139 0
-11576 169 0
11576 -58 -103 -139 -169 0
11472 11473 11474 11475 11476 11477 11478 11479 11480 11481 11482 11483 11484 11485 11486 11487 11488 11489 11490 11491 11492 11493 11494 11495 11496 11497 11498 11499 11500 11501 11502 -11503 -11504 11505 11506 11507 11508 11509 11510 11511 11512 11513 11514 11515 11516 11517 11518 11519 11520 11521 11522 11523 11524 11525 11526 11527 11528 11529 11530 11531 11532 11533 11534 11535 11536 11537 11538 11539 11540 11541 11542 11543 11544 11545 11546 11547 11548 11549 11550 11551 11552 11553 11554 11555 11556 11557 11558 11559 11560 11561 11562 11563 11564 11565 11566 11567 11568 11569 11570 11571 11572 11573 11574 11575 11576 11052 -11053 -11054 11055 11056 11057 11058 11059 11060 11061 11062 11063 11064 11065 11066 11067 11068 11069 11070 11071 11072 11073 11074 11075 11076 11077 11078 11079 11080 11081 11082 11083 11084 11085 11086 11087 11088 11089 11090 11091 11092 11093 11094 11095 11096 11097 11098 11099 11100 11101 11102 11103 11104 11105 11106 11107 11108 11109 11110 11111 11112 11113 11114 11115 11116 11117 11118 11119 11120 11121 11122 11123 11124 11125 11126 11127 11128 11129 11130 11131 11132 11133 11134 11135 11136 11137 11138 11139 11140 11141 11142 11143 11144 11145 11146 11147 11148 11149 11150 11151 11152 11153 11154 11155 11156 0
-11577 5 0
-11577 120 0
-11577 199 0
-11577 244 0
11577 -5 -120 -199 -244 0
-11578 5 0
-11578 120 0
-11578 208 0
-11578 235 0
11578 -5 -120 -208 -235 0
-11579 5 0
-11579 120 0
-11579 217 0
-11579 226 0
11579 -5 -120 -217 -226 0
-11580 5 0
-11580 127 0
-11580 178 0
-11580 244 0
11580 -5 -127 -178 -244 0
-11581 5 0
-11581 127 0
-11581 187 0
-11581 235 0
11581 -5 -127 -187 -235 0
-11582 5 0
-11582 127 0
-11582 196 0
-11582 226 0
11582 -5 -127 -196 -226 0
-11583 5 0
-11583 136 0
-11583 169 0
-11583 244 0
11583 -5 -136 -169 -244 0
-11584 5 0
-11584 136 0
-11584 187 0
-11584 217 0
11584 -5 -136 -187 -217 0
-11585 5 0
-11585 136 0
-11585 196 0
-11585 208 0
11585 -5 -136 -196 -208 0
-11586 5 0
-11586 145 0
-11586 169 0
-11586 235 0
11586 -5 -145 -169 -235 0
-11587 5 0
-11587 145 0
-11587 178 0
-11587 217 0
11587 -5 -145 -178 -217 0
-11588 5 0
-11588 145 0
-11588 196 0
-11588 199 0
11588 -5 -145 -196 -199 0
-11589 5 0
-11589 154 0
-11589 169 0
-11589 226 0
11589 -5 -154 -169 -226 0
-11590 5 0
-11590 154 0
-11590 178 0
-11590 208 0
11590 -5 -154 -178 -208 0
-11591 5 0
-11591 154 0
-11591 187 0
-11591 199 0
11591 -5 -154 -187 -199 0
-11592 13 0
-11592 78 0
-11592 199 0
-11592 244 0
11592 -13 -78 -199 -244 0
-11593 13 0
-11593 78 0
-11593 208 0
-11593 235 0
11593 -13 -78 -208 -235 0
-11594 13 0
-11594 78 0
-11594 217 0
-11594 226 0
11594 -13 -78 -217 -226 0
-11595 13 0
-11595 85 0
-11595 178 0
-11595 244 0
11595 -13 -85 -178 -244 0
-11596 13 0
-11596 85 0
-11596 187 0
-11596 235 0
11596 -13 -85 -187 -235 0
-11597 13 0
-11597 85 0
-11597 196 0
-11597 226 0
11597 -13 -85 -196 -226 0
-11598 13 0
-11598 94 0
-11598 169 0
-11598 244 0
11598 -13 -94 -169 -244 0
-11599 13 0
-11599 94 0
-11599 187 0
-11599 217 0
11599 -13 -94 -187 -217 0
-11600 13 0
-11600 94 0
-11600 196 0
-11600 208 0
11600 -13 -94 -196 -208 0
-11601 13 0
-11601 103 0
-11601 169 0
-11601 235 0
11601 -13 -103 -169 -235 0
-11602 13 0
-11602 103 0
-11602 178 0
-11602 217 0
11602 -13 -103 -178 -217 0
-11603 13 0
-11603 103 0
-11603 196 0
-11603 199 0
11603 -13 -103 -196 -199 0
-11604 13 0
-11604 112 0
-11604 169 0
-11604 226 0
11604 -13 -112 -169 -226 0
-11605 13 0
-11605 112 0
-11605 178 0
-11605 208 0
11605 -13 -112 -178 -208 0
-11606 13 0
-11606 112 0
-11606 187 0
-11606 199 0
11606 -13 -112 -187 -199 0
-11607 24 0
-11607 67 0
-11607 199 0
-11607 244 0
11607 -24 -67 -199 -244 0
-11608 24 0
-11608 67 0
-11608 208 0
-11608 235 0
11608 -24 -67 -208 -235 0
-11609 24 0
-11609 67 0
-11609 217 0
-11609 226 0
11609 -24 -67 -217 -226 0
-11610 24 0
-11610 85 0
-11610 136 0
-11610 244 0
11610 -24 -85 -136 -244 0
-11611 24 0
-11611 85 0
-11611 145 0
-11611 235 0
11611 -24 -85 -145 -235 0
-11612 24 0
-11612 85 0
-11612 154 0
-11612 226 0
11612 -24 -85 -154 -226 0
-11613 24 0
-11613 94 0
-11613 127 0
-11613 244 0
11613 -24 -94 -127 -244 0
-11614 24 0
-11614 94 0
-11614 145 0
-11614 217 0
11614 -24 -94 -145 -217 0
-11615 24 0
-11615 94 0
-11615 154 0
-11615 208 0
11615 -24 -94 -154 -208 0
-11616 24 0
-11616 103 0
-11616 127 0
-11616 235 0
11616 -24 -103 -127 -235 0
-11617 24 0
-11617 103 0
-11617 136 0
-11617 217 0
11617 -24 -103 -136 -217 0
-11618 24 0
-11618 103 0
-11618 154 0
-11618 199 0
11618 -24 -103 -154 -199 0
-11619 24 0
-11619 112 0
-11619 127 0
-11619 226 0
11619 -24 -112 -127 -226 0
-11620 24 0
-11620 112 0
-11620 136 0
-11620 208 0
11620 -24 -112 -136 -208 0
-11621 24 0
-11621 112 0
-11621 145 0
-11621 199 0
11621 -24 -112 -145 -199 0
-11622 31 0
-11622 67 0
-11622 178 0
-11622 244 0
11622 -31 -67 -178 -244 0
-11623 31 0
-11623 67 0
-11623 187 0
-11623 235 0
11623 -31 -67 -187 -235 0
-11624 31 0
-11624 67 0
-11624 196 0
-11624 226 0
11624 -31 -67 -196 -226 0
-11625 31 0
-11625 78 0
-11625 136 0
-11625 244 0
11625 -31 -78 -136 -244 0
-11626 31 0
-11626 78 0
-11626 145 0
-11626 235 0
11626 -31 -78 -145 -235 0
-11627 31 0
-11627 78 0
-11627 154 0
-11627 226 0
11627 -31 -78 -154 -226 0
-11628 31 0
-11628 94 0
-11628 120 0
-11628 244 0
11628 -31 -94 -120 -244 0
-11629 31 0
-11629 94 0
-11629 145 0
-11629 196 0
11629 -31 -94 -145 -196 0
-11630 31 0
-11630 94 0
-11630 154 0
-11630 187 0
11630 -31 -94 -154 -187 0
-11631 31 0
-11631 103 0
-11631 120 0
-11631 235 0
11631 -31 -103 -120 -235 0
-11632 31 0
-11632 103 0
-11632 136 0
-11632 196 0
11632 -31 -103 -136 -196 0
-11633 31 0
-11633 103 0
-11633 154 0
-11633 178 0
11633 -31 -103 -154 -178 0
-11634 31 0
-11634 112 0
-11634 120 0
-11634 226 0
11634 -31 -112 -120 -226 0
-11635 31 0
-11635 112 0
-11635 136 0
-11635 187 0
11635 -31 -112 -136 -187 0
-11636 31 0
-11636 112 0
-11636 145 0
-11636 178 0
11636 -31 -112 -145 -178 0
-11637 40 0
-11637 67 0
-11637 169 0
-11637 244 0
11637 -40 -67 -169 -244 0
-11638 40 0
-11638 67 0
-11638 187 0
-11638 217 0
11638 -40 -67 -187 -217 0
-11639 40 0
-11639 67 0
-11639 196 0
-11639 208 0
11639 -40 -67 -196 -208 0
-11640 40 0
-11640 78 0
-11640 127 0
-11640 244 0
11640 -40 -78 -127 -244 0
-11641 40 0
-11641 78 0
-11641 145 0
-11641 217 0
11641 -40 -78 -145 -217 0
-11642 40 0
-11642 78 0
-11642 154 0
-11642 208 0
11642 -40 -78 -154 -208 0
-11643 40 0
-11643 85 0
-11643 120 0
-11643 244 0
11643 -40 -85 -120 -244 0
-11644 40 0
-11644 85 0
-11644 145 0
-11644 196 0
11644 -40 -85 -145 -196 0
-11645 40 0
-11645 85 0
-11645 154 0
-11645 187 0
11645 -40 -85 -154 -187 0
-11646 40 0
-11646 103 0
-11646 120 0
-11646 217 0
11646 -40 -103 -120 -217 0
-11647 40 0
-11647 103 0
-11647 127 0
-11647 196 0
11647 -40 -103 -127 -196 0
-11648 40 0
-11648 103 0
-11648 154 0
-11648 169 0
11648 -40 -103 -154 -169 0
-11649 40 0
-11649 112 0
-11649 120 0
-11649 208 0
11649 -40 -112 -120 -208 0
-11650 40 0
-11650 112 0
-11650 127 0
-11650 187 0
11650 -40 -112 -127 -187 0
-11651 40 0
-11651 112 0
-11651 145 0
-11651 169 0
11651 -40 -112 -145 -169 0
-11652 49 0
-11652 67 0
-11652 169 0
-11652 235 0
11652 -49 -67 -169 -235 0
-11653 49 0
-11653 67 0
-11653 178 0
-11653 217 0
11653 -49 -67 -178 -217 0
-11654 49 0
-11654 67 0
-11654 196 0
-11654 199 0
11654 -49 -67 -196 -199 0
-11655 49 0
-11655 78 0
-11655 127 0
-11655 235 0
11655 -49 -78 -127 -235 0
-11656 49 0
-11656 78 0
-11656 136 0
-11656 217 0
11656 -49 -78 -136 -217 0
-11657 49 0
-11657 78 0
-11657 154 0
-11657 199 0
11657 -49 -78 -154 -199 0
-11658 49 0
-11658 85 0
-11658 120 0
-11658 235 0
11658 -49 -85 -120 -235 0
-11659 49 0
-11659 85 0
-11659 136 0
-11659 196 0
11659 -49 -85 -136 -196 0
-11660 49 0
-11660 85 0
-11660 154 0
-11660 178 0
11660 -49 -85 -154 -178 0
-11661 49 0
-11661 94 0
-11661 120 0
-11661 217 0
11661 -49 -94 -120 -217 0
-11662 49 0
-11662 94 0
-11662 127 0
-11662 196 0
11662 -49 -94 -127 -196 0
-11663 49 0
-11663 94 0
-11663 154 0
-11663 169 0
11663 -49 -94 -154 -169 0
-11664 49 0
-11664 112 0
-11664 120 0
-11664 199 0
11664 -49 -112 -120 -199 0
-11665 49 0
-11665 112 0
-11665 127 0
-11665 178 0
11665 -49 -112 -127 -178 0
-11666 49 0
-11666 112 0
-11666 136 0
-11666 169 0
11666 -49 -112 -136 -169 0
-11667 58 0
-11667 67 0
-11667 169 0
-11667 226 0
11667 -58 -67 -169 -226 0
-11668 58 0
-11668 67 0
-11668 178 0
-11668 208 0
11668 -58 -67 -178 -208 0
-11669 58 0
-11669 67 0
-11669 187 0
-11669 199 0
11669 -58 -67 -187 -199 0
-11670 58 0
-11670 78 0
-11670 127 0
-11670 226 0
11670 -58 -78 -127 -226 0
-11671 58 0
-11671 78 0
-11671 136 0
-11671 208 0
11671 -58 -78 -136 -208 0
-11672 58 0
-11672 78 0
-11672 145 0
-11672 199 0
11672 -58 -78 -145 -199 0
-11673 58 0
-11673 85 0
-11673 120 0
-11673 226 0
11673 -58 -85 -120 -226 0
-11674 58 0
-11674 85 0
-11674 136 0
-11674 187 0
11674 -58 -85 -136 -187 0
-11675 58 0
-11675 85 0
-11675 145 0
-11675 178 0
11675 -58 -85 -145 -178 0
-11676 58 0
-11676 94 0
-11676 120 0
-11676 208 0
11676 -58 -94 -120 -208 0
-11677 58 0
-11677 94 0
-11677 127 0
-11677 187 0
11677 -58 -94 -127 -187 0
-11678 58 0
-11678 94 0
-11678 145 0
-11678 169 0
11678 -58 -94 -145 -169 0
-11679 58 0
-11679 103 0
-11679 120 0
-11679 199 0
11679 -58 -103 -120 -199 0
-11680 58 0
-11680 103 0
-11680 127 0
-11680 178 0
11680 -58 -103 -127 -178 0
-11681 58 0
-11681 103 0
-11681 136 0
-11681 169 0
11681 -58 -103 -136 -169 0
11577 11578 11579 11580 11581 11582 11583 11584 11585 11586 11587 11588 11589 11590 11591 11592 -11593 -11594 11595 11596 11597 11598 11599 11600 11601 11602 11603 11604 11605 11606 11607 11608 11609 11610 11611 11612 11613 11614 11615 11616 11617 11618 11619 11620 11621 11622 11623 11624 11625 11626 11627 11628 11629 11630 11631 11632 11633 11634 11635 11636 11637 11638 11639 11640 11641 11642 11643 11644 11645 11646 11647 11648 11649 11650 11651 11652 11653 11654 11655 11656 11657 11658 11659 11660 11661 11662 11663 11664 11665 11666 11667 11668 11669 11670 11671 11672 11673 11674 11675 11676 11677 11678 11679 11680 11681 11052 -11053 -11054 11055 11056 11057 11058 11059 11060 11061 11062 11063 11064 11065 11066 11067 11068 11069 11070 11071 11072 11073 11074 11075 11076 11077 11078 11079 11080 11081 11082 11083 11084 11085 11086 11087 11088 11089 11090 11091 11092 11093 11094 11095 11096 11097 11098 11099 11100 11101 11102 11103 11104 11105 11106 11107 11108 11109 11110 11111 11112 11113 11114 11115 11116 11117 11118 11119 11120 11121 11122 11123 11124 11125 11126 11127 11128 11129 11130 11131 11132 11133 11134 11135 11136 11137 11138 11139 11140 11141 11142 11143 11144 11145 11146 11147 11148 11149 11150 11151 11152 11153 11154 11155 11156 0
10947 10948 10949 10950 10951 10952 10953 10954 10955 10956 10957 10958 10959 10960 10961 10962 10963 10964 10965 10966 10967 10968 10969 10970 10971 10972 10973 10974 10975 10976 10977 -10978 -10979 10980 10981 10982 10983 10984 10985 10986 10987 10988 10989 10990 10991 10992 10993 10994 10995 10996 10997 10998 10999 11000 11001 11002 11003 11004 11005 11006 11007 11008 11009 11010 11011 11012 11013 11014 11015 11016 11017 11018 11019 11020 11021 11022 11023 11024 11025 11026 11027 11028 11029 11030 11031 11032 11033 11034 11035 11036 11037 11038 11039 11040 11041 11042 11043 11044 11045 11046 11047 11048 11049 11050 11051 11052 -11053 -11054 11055 11056 11057 11058 11059 11060 11061 11062 11063 11064 11065 11066 11067 11068 11069 11070 11071 11072 11073 11074 11075 11076 11077 11078 11079 11080 11081 11082 11083 11084 11085 11086 11087 11088 11089 11090 11091 11092 11093 11094 11095 11096 11097 11098 11099 11100 11101 11102 11103 11104 11105 11106 11107 11108 11109 11110 11111 11112 11113 11114 11115 11116 11117 11118 11119 11120 11121 11122 11123 11124 11125 11126 11127 11128 11129 11130 11131 11132 11133 11134 11135 11136 11137 11138 11139 11140 11141 11142 11143 11144 11145 11146 11147 11148 11149 11150 11151 11152 11153 11154 11155 11156 0
-11682 1 0
-11682 120 0
-11682 199 0
-11682 244 0
11682 -1 -120 -199 -244 0
-11683 1 0
-11683 120 0
-11683 208 0
-11683 235 0
11683 -1 -120 -208 -235 0
-11684 1 0
-11684 120 0
-11684 217 0
-11684 226 0
11684 -1 -120 -217 -226 0
-11685 1 0
-11685 127 0
-11685 178 0
-11685 244 0
11685 -1 -127 -178 -244 0
-11686 1 0
-11686 127 0
-11686 187 0
-11686 235 0
11686 -1 -127 -187 -235 0
-11687 1 0
-11687 127 0
-11687 196 0
-11687 226 0
11687 -1 -127 -196 -226 0
-11688 1 0
-11688 136 0
-11688 169 0
-11688 244 0
11688 -1 -136 -169 -244 0
-11689 1 0
-11689 136 0
-11689 187 0
-11689 217 0
11689 -1 -136 -187 -217 0
-11690 1 0
-11690 136 0
-11690 196 0
-11690 208 0
11690 -1 -136 -196 -208 0
-11691 1 0
-11691 145 0
-11691 169 0
-11691 235 0
11691 -1 -145 -169 -235 0
-11692 1 0
-11692 145 0
-11692 178 0
-11692 217 0
11692 -1 -145 -178 -217 0
-11693 1 0
-11693 145 0
-11693 196 0
-11693 199 0
11693 -1 -145 -196 -199 0
-11694 1 0
-11694 154 0
-11694 169 0
-11694 226 0
11694 -1 -154 -169 -226 0
-11695 1 0
-11695 154 0
-11695 178 0
-11695 208 0
11695 -1 -154 -178 -208 0
-11696 1 0
-11696 154 0
-11696 187 0
-11696 199 0
11696 -1 -154 -187 -199 0
-11697 10 0
-11697 75 0
-11697 199 0
-11697 244 0
11697 -10 -75 -199 -244 0
-11698 10 0
-11698 75 0
-11698 208 0
-11698 235 0
11698 -10 -75 -208 -235 0
-11699 10 0
-11699 75 0
-11699 217 0
-11699 226 0
11699 -10 -75 -217 -226 0
-11700 10 0
-11700 82 0
-11700 178 0
-11700 244 0
11700 -10 -82 -178 -244 0
-11701 10 0
-11701 82 0
-11701 187 0
-11701 235 0
11701 -10 -82 -187 -235 0
-11702 10 0
-11702 82 0
-11702 196 0
-11702 226 0
11702 -10 -82 -196 -226 0
-11703 10 0
-11703 91 0
-11703 169 0
-11703 244 0
11703 -10 -91 -169 -244 0
-11704 10 0
-11704 91 0
-11704 187 0
-11704 217 0
11704 -10 -91 -187 -217 0
-11705 10 0
-11705 91 0
-11705 196 0
-11705 208 0
11705 -10 -91 -196 -208 0
-11706 10 0
-11706 100 0
-11706 169 0
-11706 235 0
11706 -10 -100 -169 -235 0
-11707 10 0
-11707 100 0
-11707 178 0
-11707 217 0
11707 -10 -100 -178 -217 0
-11708 10 0
-11708 100 0
-11708 196 0
-11708 199 0
11708 -10 -100 -196 -199 0
-11709 10 0
-11709 109 0
-11709 169 0
-11709 226 0
11709 -10 -109 -169 -226 0
-11710 10 0
-11710 109 0
-11710 178 0
-11710 208 0
11710 -10 -109 -178 -208 0
-11711 10 0
-11711 109 0
-11711 187 0
-11711 199 0
11711 -10 -109 -187 -199 0
-11712 21 0
-11712 64 0
-11712 199 0
-11712 244 0
11712 -21 -64 -199 -244 0
-11713 21 0
-11713 64 0
-11713 208 0
-11713 235 0
11713 -21 -64 -208 -235 0
-11714 21 0
-11714 64 0
-11714 217 0
-11714 226 0
11714 -21 -64 -217 -226 0
-11715 21 0
-11715 82 0
-11715 136 0
-11715 244 0
11715 -21 -82 -136 -244 0
-11716 21 0
-11716 82 0
-11716 145 0
-11716 235 0
11716 -21 -82 -145 -235 0
-11717 21 0
-11717 82 0
-11717 154 0
-11717 226 0
11717 -21 -82 -154 -226 0
-11718 21 0
-11718 91 0
-11718 127 0
-11718 244 0
11718 -21 -91 -127 -244 0
-11719 21 0
-11719 91 0
-11719 145 0
-11719 217 0
11719 -21 -91 -145 -217 0
-11720 21 0
-11720 91 0
-11720 154 0
-11720 208 0
11720 -21 -91 -154 -208 0
-11721 21 0
-11721 100 0
-11721 127 0
-11721 235 0
11721 -21 -100 -127 -235 0
-11722 21 0
-11722 100 0
-11722 136 0
-11722 217 0
11722 -21 -100 -136 -217 0
-11723 21 0
-11723 100 0
-11723 154 0
-11723 199 0
11723 -21 -100 -154 -199 0
-11724 21 0
-11724 109 0
-11724 127 0
-11724 226 0
11724 -21 -109 -127 -226 0
-11725 21 0
-11725 109 0
-11725 136 0
-11725 208 0
11725 -21 -109 -136 -208 0
-11726 21 0
-11726 109 0
-11726 145 0
-11726 199 0
11726 -21 -109 -145 -199 0
-11727 28 0
-11727 64 0
-11727 178 0
-11727 244 0
11727 -28 -64 -178 -244 0
-11728 28 0
-11728 64 0
-11728 187 0
-11728 235 0
11728 -28 -64 -187 -235 0
-11729 28 0
-11729 64 0
-11729 196 0
-11729 226 0
11729 -28 -64 -196 -226 0
-11730 28 0
-11730 75 0
-11730 136 0
-11730 244 0
11730 -28 -75 -136 -244 0
-11731 28 0
-11731 75 0
-11731 145 0
-11731 235 0
11731 -28 -75 -145 -235 0
-11732 28 0
-11732 75 0
-11732 154 0
-11732 226 0
11732 -28 -75 -154 -226 0
-11733 28 0
-11733 91 0
-11733 120 0
-11733 244 0
11733 -28 -91 -120 -244 0
-11734 28 0
-11734 91 0
-11734 145 0
-11734 196 0
11734 -28 -91 -145 -196 0
-11735 28 0
-11735 91 0
-11735 154 0
-11735 187 0
11735 -28 -91 -154 -187 0
-11736 28 0
-11736 100 0
-11736 120 0
-11736 235 0
11736 -28 -100 -120 -235 0
-11737 28 0
-11737 100 0
-11737 136 0
-11737 196 0
11737 -28 -100 -136 -196 0
-11738 28 0
-11738 100 0
-11738 154 0
-11738 178 0
11738 -28 -100 -154 -178 0
-11739 28 0
-11739 109 0
-11739 120 0
-11739 226 0
11739 -28 -109 -120 -226 0
-11740 28 0
-11740 109 0
-11740 136 0
-11740 187 0
11740 -28 -109 -136 -187 0
-11741 28 0
-11741 109 0
-11741 145 0
-11741 178 0
11741 -28 -109 -145 -178 0
-11742 37 0
-11742 64 0
-11742 169 0
-11742 244 0
11742 -37 -64 -169 -244 0
-11743 37 0
-11743 64 0
-11743 187 0
-11743 217 0
11743 -37 -64 -187 -217 0
-11744 37 0
-11744 64 0
-11744 196 0
-11744 208 0
11744 -37 -64 -196 -208 0
-11745 37 0
-11745 75 0
-11745 127 0
-11745 244 0
11745 -37 -75 -127 -244 0
-11746 37 0
-11746 75 0
-11746 145 0
-11746 217 0
11746 -37 -75 -145 -217 0
-11747 37 0
-11747 75 0
-11747 154 0
-11747 208 0
11747 -37 -75 -154 -208 0
-11748 37 0
-11748 82 0
-11748 120 0
-11748 244 0
11748 -37 -82 -120 -244 0
-11749 37 0
-11749 82 0
-11749 145 0
-11749 196 0
11749 -37 -82 -145 -196 0
-11750 37 0
-11750 82 0
-11750 154 0
-11750 187 0
11750 -37 -82 -154 -187 0
-11751 37 0
-11751 100 0
-11751 120 0
-11751 217 0
11751 -37 -100 -120 -217 0
-11752 37 0
-11752 100 0
-11752 127 0
-11752 196 0
11752 -37 -100 -127 -196 0
-11753 37 0
-11753 100 0
-11753 154 0
-11753 169 0
11753 -37 -100 -154 -169 0
-11754 37 0
-11754 109 0
-11754 120 0
-11754 208 0
11754 -37 -109 -120 -208 0
-11755 37 0
-11755 109 0
-11755 127 0
-11755 187 0
11755 -37 -109 -127 -187 0
-11756 37 0
-11756 109 0
-11756 145 0
-11756 169 0
11756 -37 -109 -145 -169 0
-11757 46 0
-11757 64 0
-11757 169 0
-11757 235 0
11757 -46 -64 -169 -235 0
-11758 46 0
-11758 64 0
-11758 178 0
-11758 217 0
11758 -46 -64 -178 -217 0
-11759 46 0
-11759 64 0
-11759 196 0
-11759 199 0
11759 -46 -64 -196 -199 0
-11760 46 0
-11760 75 0
-11760 127 0
-11760 235 0
11760 -46 -75 -127 -235 0
-11761 46 0
-11761 75 0
-11761 136 0
-11761 217 0
11761 -46 -75 -136 -217 0
-11762 46 0
-11762 75 0
-11762 154 0
-11762 199 0
11762 -46 -75 -154 -199 0
-11763 46 0
-11763 82 0
-11763 120 0
-11763 235 0
11763 -46 -82 -120 -235 0
-11764 46 0
-11764 82 0
-11764 136 0
-11764 196 0
11764 -46 -82 -136 -196 0
-11765 46 0
-11765 82 0
-11765 154 0
-11765 178 0
11765 -46 -82 -154 -178 0
-11766 46 0
-11766 91 0
-11766 120 0
-11766 217 0
11766 -46 -91 -120 -217 0
-11767 46 0
-11767 91 0
-11767 127 0
-11767 196 0
11767 -46 -91 -127 -196 0
-11768 46 0
-11768 91 0
-11768 154 0
-11768 169 0
11768 -46 -91 -154 -169 0
-11769 46 0
-11769 109 0
-11769 120 0
-11769 199 0
11769 -46 -109 -120 -199 0
-11770 46 0
-11770 109 0
-11770 127 0
-11770 178 0
11770 -46 -109 -127 -178 0
-11771 46 0
-11771 109 0
-11771 136 0
-11771 169 0
11771 -46 -109 -136 -169 0
-11772 55 0
-11772 64 0
-11772 169 0
-11772 226 0
11772 -55 -64 -169 -226 0
-11773 55 0
-11773 64 0
-11773 178 0
-11773 208 0
11773 -55 -64 -178 -208 0
-11774 55 0
-11774 64 0
-11774 187 0
-11774 199 0
11774 -55 -64 -187 -199 0
-11775 55 0
-11775 75 0
-11775 127 0
-11775 226 0
11775 -55 -75 -127 -226 0
-11776 55 0
-11776 75 0
-11776 136 0
-11776 208 0
11776 -55 -75 -136 -208 0
-11777 55 0
-11777 75 0
-11777 145 0
-11777 199 0
11777 -55 -75 -145 -199 0
-11778 55 0
-11778 82 0
-11778 120 0
-11778 226 0
11778 -55 -82 -120 -226 0
-11779 55 0
-11779 82 0
-11779 136 0
-11779 187 0
11779 -55 -82 -136 -187 0
-11780 55 0
-11780 82 0
-11780 145 0
-11780 178 0
11780 -55 -82 -145 -178 0
-11781 55 0
-11781 91 0
-11781 120 0
-11781 208 0
11781 -55 -91 -120 -208 0
-11782 55 0
-11782 91 0
-11782 127 0
-11782 187 0
11782 -55 -91 -127 -187 0
-11783 55 0
-11783 91 0
-11783 145 0
-11783 169 0
11783 -55 -91 -145 -169 0
-11784 55 0
-11784 100 0
-11784 120 0
-11784 199 0
11784 -55 -100 -120 -199 0
-11785 55 0
-11785 100 0
-11785 127 0
-11785 178 0
11785 -55 -100 -127 -178 0
-11786 55 0
-11786 100 0
-11786 136 0
-11786 169 0
11786 -55 -100 -136 -169 0
11682 -11683 -11684 11685 11686 11687 11688 11689 11690 11691 11692 11693 11694 11695 11696 11697 11698 11699 11700 11701 11702 11703 11704 11705 11706 11707 11708 11709 11710 11711 11712 11713 11714 11715 11716 11717 11718 11719 11720 11721 11722 11723 11724 11725 11726 11727 11728 11729 11730 11731 11732 11733 11734 11735 11736 11737 11738 11739 11740 11741 11742 11743 11744 11745 11746 11747 11748 11749 11750 11751 11752 11753 11754 11755 11756 11757 11758 11759 11760 11761 11762 11763 11764 11765 11766 11767 11768 11769 11770 11771 11772 11773 11774 11775 11776 11777 11778 11779 11780 11781 11782 11783 11784 11785 11786 11052 -11053 -11054 11055 11056 11057 11058 11059 11060 11061 11062 11063 11064 11065 11066 11067 11068 11069 11070 11071 11072 11073 11074 11075 11076 11077 11078 11079 11080 11081 11082 11083 11084 11085 11086 11087 11088 11089 11090 11091 11092 11093 11094 11095 11096 11097 11098 11099 11100 11101 11102 11103 11104 11105 11106 11107 11108 11109 11110 11111 11112 11113 11114 11115 11116 11117 11118 11119 11120 11121 11122 11123 11124 11125 11126 11127 11128 11129 11130 11131 11132 11133 11134 11135 11136 11137 11138 11139 11140 11141 11142 11143 11144 11145 11146 11147 11148 11149 11150 11151 11152 11153 11154 11155 11156 0
-11787 4 0
-11787 120 0
-11787 199 0
-11787 244 0
11787 -4 -120 -199 -244 0
-11788 4 0
-11788 120 0
-11788 208 0
-11788 235 0
11788 -4 -120 -208 -235 0
-11789 4 0
-11789 120 0
-11789 217 0
-11789 226 0
11789 -4 -120 -217 -226 0
-11790 4 0
-11790 127 0
-11790 178 0
-11790 244 0
11790 -4 -127 -178 -244 0
-11791 4 0
-11791 127 0
-11791 187 0
-11791 235 0
11791 -4 -127 -187 -235 0
-11792 4 0
-11792 127 0
-11792 196 0
-11792 226 0
11792 -4 -127 -196 -226 0
-11793 4 0
-11793 136 0
-11793 169 0
-11793 244 0
11793 -4 -136 -169 -244 0
-11794 4 0
-11794 136 0
-11794 187 0
-11794 217 0
11794 -4 -136 -187 -217 0
-11795 4 0
-11795 136 0
-11795 196 0
-11795 208 0
11795 -4 -136 -196 -208 0
-11796 4 0
-11796 145 0
-11796 169 0
-11796 235 0
11796 -4 -145 -169 -235 0
-11797 4 0
-11797 145 0
-11797 178 0
-11797 217 0
11797 -4 -145 -178 -217 0
-11798 4 0
-11798 145 0
-11798 196 0
-11798 199 0
11798 -4 -145 -196 -199 0
-11799 4 0
-11799 154 0
-11799 169 0
-11799 226 0
11799 -4 -154 -169 -226 0
-11800 4 0
-11800 154 0
-11800 178 0
-11800 208 0
11800 -4 -154 -178 -208 0
-11801 4 0
-11801 154 0
-11801 187 0
-11801 199 0
11801 -4 -154 -187 -199 0
-11802 13 0
-11802 75 0
-11802 199 0
-11802 244 0
11802 -13 -75 -199 -244 0
-11803 13 0
-11803 75 0
-11803 208 0
-11803 235 0
11803 -13 -75 -208 -235 0
-11804 13 0
-11804 75 0
-11804 217 0
-11804 226 0
11804 -13 -75 -217 -226 0
-11805 13 0
-11805 82 0
-11805 178 0
-11805 244 0
11805 -13 -82 -178 -244 0
-11806 13 0
-11806 82 0
-11806 187 0
-11806 235 0
11806 -13 -82 -187 -235 0
-11807 13 0
-11807 82 0
-11807 196 0
-11807 226 0
11807 -13 -82 -196 -226 0
-11808 13 0
-11808 91 0
-11808 169 0
-11808 244 0
11808 -13 -91 -169 -244 0
-11809 13 0
-11809 91 0
-11809 187 0
-11809 217 0
11809 -13 -91 -187 -217 0
-11810 13 0
-11810 91 0
-11810 196 0
-11810 208 0
11810 -13 -91 -196 -208 0
-11811 13 0
-11811 100 0
-11811 169 0
-11811 235 0
11811 -13 -100 -169 -235 0
-11812 13 0
-11812 100 0
-11812 178 0
-11812 217 0
11812 -13 -100 -178 -217 0
-11813 13 0
-11813 100 0
-11813 196 0
-11813 199 0
11813 -13 -100 -196 -199 0
-11814 13 0
-11814 109 0
-11814 169 0
-11814 226 0
11814 -13 -109 -169 -226 0
-11815 13 0
-11815 109 0
-11815 178 0
-11815 208 0
11815 -13 -109 -178 -208 0
-11816 13 0
-11816 109 0
-11816 187 0
-11816 199 0
11816 -13 -109 -187 -199 0
-11817 24 0
-11817 64 0
-11817 199 0
-11817 244 0
11817 -24 -64 -199 -244 0
-11818 24 0
-11818 64 0
-11818 208 0
-11818 235 0
11818 -24 -64 -208 -235 0
-11819 24 0
-11819 64 0
-11819 217 0
-11819 226 0
11819 -24 -64 -217 -226 0
-11820 24 0
-11820 82 0
-11820 136 0
-11820 244 0
11820 -24 -82 -136 -244 0
-11821 24 0
-11821 82 0
-11821 145 0
-11821 235 0
11821 -24 -82 -145 -235 0
-11822 24 0
-11822 82 0
-11822 154 0
-11822 226 0
11822 -24 -82 -154 -226 0
-11823 24 0
-11823 91 0
-11823 127 0
-11823 244 0
11823 -24 -91 -127 -244 0
-11824 24 0
-11824 91 0
-11824 145 0
-11824 217 0
11824 -24 -91 -145 -217 0
-11825 24 0
-11825 91 0
-11825 154 0
-11825 208 0
11825 -24 -91 -154 -208 0
-11826 24 0
-11826 100 0
-11826 127 0
-11826 235 0
11826 -24 -100 -127 -235 0
-11827 24 0
-11827 100 0
-11827 136 0
-11827 217 0
11827 -24 -100 -136 -217 0
-11828 24 0
-11828 100 0
-11828 154 0
-11828 199 0
11828 -24 -100 -154 -199 0
-11829 24 0
-11829 109 0
-11829 127 0
-11829 226 0
11829 -24 -109 -127 -226 0
-11830 24 0
-11830 109 0
-11830 136 0
-11830 208 0
11830 -24 -109 -136 -208 0
-11831 24 0
-11831 109 0
-11831 145 0
-11831 199 0
11831 -24 -109 -145 -199 0
-11832 31 0
-11832 64 0
-11832 178 0
-11832 244 0
11832 -31 -64 -178 -244 0
-11833 31 0
-11833 64 0
-11833 187 0
-11833 235 0
11833 -31 -64 -187 -235 0
-11834 31 0
-11834 64 0
-11834 196 0
-11834 226 0
11834 -31 -64 -196 -226 0
-11835 31 0
-11835 75 0
-11835 136 0
-11835 244 0
11835 -31 -75 -136 -244 0
-11836 31 0
-11836 75 0
-11836 145 0
-11836 235 0
11836 -31 -75 -145 -235 0
-11837 31 0
-11837 75 0
-11837 154 0
-11837 226 0
11837 -31 -75 -154 -226 0
-11838 31 0
-11838 91 0
-11838 120 0
-11838 244 0
11838 -31 -91 -120 -244 0
-11839 31 0
-11839 91 0
-11839 145 0
-11839 196 0
11839 -31 -91 -145 -196 0
-11840 31 0
-11840 91 0
-11840 154 0
-11840 187 0
11840 -31 -91 -154 -187 0
-11841 31 0
-11841 100 0
-11841 120 0
-11841 235 0
11841 -31 -100 -120 -235 0
-11842 31 0
-11842 100 0
-11842 136 0
-11842 196 0
11842 -31 -100 -136 -196 0
-11843 31 0
-11843 100 0
-11843 154 0
-11843 178 0
11843 -31 -100 -154 -178 0
-11844 31 0
-11844 109 0
-11844 120 0
-11844 226 0
11844 -31 -109 -120 -226 0
-11845 31 0
-11845 109 0
-11845 136 0
-11845 187 0
11845 -31 -109 -136 -187 0
-11846 31 0
-11846 109 0
-11846 145 0
-11846 178 0
11846 -31 -109 -145 -178 0
-11847 40 0
-11847 64 0
-11847 169 0
-11847 244 0
11847 -40 -64 -169 -244 0
-11848 40 0
-11848 64 0
-11848 187 0
-11848 217 0
11848 -40 -64 -187 -217 0
-11849 40 0
-11849 64 0
-11849 196 0
-11849 208 0
11849 -40 -64 -196 -208 0
-11850 40 0
-11850 75 0
-11850 127 0
-11850 244 0
11850 -40 -75 -127 -244 0
-11851 40 0
-11851 75 0
-11851 145 0
-11851 217 0
11851 -40 -75 -145 -217 0
-11852 40 0
-11852 75 0
-11852 154 0
-11852 208 0
11852 -40 -75 -154 -208 0
-11853 40 0
-11853 82 0
-11853 120 0
-11853 244 0
11853 -40 -82 -120 -244 0
-11854 40 0
-11854 82 0
-11854 145 0
-11854 196 0
11854 -40 -82 -145 -196 0
-11855 40 0
-11855 82 0
-11855 154 0
-11855 187 0
11855 -40 -82 -154 -187 0
-11856 40 0
-11856 100 0
-11856 120 0
-11856 217 0
11856 -40 -100 -120 -217 0
-11857 40 0
-11857 100 0
-11857 127 0
-11857 196 0
11857 -40 -100 -127 -196 0
-11858 40 0
-11858 100 0
-11858 154 0
-11858 169 0
11858 -40 -100 -154 -169 0
-11859 40 0
-11859 109 0
-11859 120 0
-11859 208 0
11859 -40 -109 -120 -208 0
-11860 40 0
-11860 109 0
-11860 127 0
-11860 187 0
11860 -40 -109 -127 -187 0
-11861 40 0
-11861 109 0
-11861 145 0
-11861 169 0
11861 -40 -109 -145 -169 0
-11862 49 0
-11862 64 0
-11862 169 0
-11862 235 0
11862 -49 -64 -169 -235 0
-11863 49 0
-11863 64 0
-11863 178 0
-11863 217 0
11863 -49 -64 -178 -217 0
-11864 49 0
-11864 64 0
-11864 196 0
-11864 199 0
11864 -49 -64 -196 -199 0
-11865 49 0
-11865 75 0
-11865 127 0
-11865 235 0
11865 -49 -75 -127 -235 0
-11866 49 0
-11866 75 0
-11866 136 0
-11866 217 0
11866 -49 -75 -136 -217 0
-11867 49 0
-11867 75 0
-11867 154 0
-11867 199 0
11867 -49 -75 -154 -199 0
-11868 49 0
-11868 82 0
-11868 120 0
-11868 235 0
11868 -49 -82 -120 -235 0
-11869 49 0
-11869 82 0
-11869 136 0
-11869 196 0
11869 -49 -82 -136 -196 0
-11870 49 0
-11870 82 0
-11870 154 0
-11870 178 0
11870 -49 -82 -154 -178 0
-11871 49 0
-11871 91 0
-11871 120 0
-11871 217 0
11871 -49 -91 -120 -217 0
-11872 49 0
-11872 91 0
-11872 127 0
-11872 196 0
11872 -49 -91 -127 -196 0
-11873 49 0
-11873 91 0
-11873 154 0
-11873 169 0
11873 -49 -91 -154 -169 0
-11874 49 0
-11874 109 0
-11874 120 0
-11874 199 0
11874 -49 -109 -120 -199 0
-11875 49 0
-11875 109 0
-11875 127 0
-11875 178 0
11875 -49 -109 -127 -178 0
-11876 49 0
-11876 109 0
-11876 136 0
-11876 169 0
11876 -49 -109 -136 -169 0
-11877 58 0
-11877 64 0
-11877 169 0
-11877 226 0
11877 -58 -64 -169 -226 0
-11878 58 0
-11878 64 0
-11878 178 0
-11878 208 0
11878 -58 -64 -178 -208 0
-11879 58 0
-11879 64 0
-11879 187 0
-11879 199 0
11879 -58 -64 -187 -199 0
-11880 58 0
-11880 75 0
-11880 127 0
-11880 226 0
11880 -58 -75 -127 -226 0
-11881 58 0
-11881 75 0
-11881 136 0
-11881 208 0
11881 -58 -75 -136 -208 0
-11882 58 0
-11882 75 0
-11882 145 0
-11882 199 0
11882 -58 -75 -145 -199 0
-11883 58 0
-11883 82 0
-11883 120 0
-11883 226 0
11883 -58 -82 -120 -226 0
-11884 58 0
-11884 82 0
-11884 136 0
-11884 187 0
11884 -58 -82 -136 -187 0
-11885 58 0
-11885 82 0
-11885 145 0
-11885 178 0
11885 -58 -82 -145 -178 0
-11886 58 0
-11886 91 0
-11886 120 0
-11886 208 0
11886 -58 -91 -120 -208 0
-11887 58 0
-11887 91 0
-11887 127 0
-11887 187 0
11887 -58 -91 -127 -187 0
-11888 58 0
-11888 91 0
-11888 145 0
-11888 169 0
11888 -58 -91 -145 -169 0
-11889 58 0
-11889 100 0
-11889 120 0
-11889 199 0
11889 -58 -100 -120 -199 0
-11890 58 0
-11890 100 0
-11890 127 0
-11890 178 0
11890 -58 -100 -127 -178 0
-11891 58 0
-11891 100 0
-11891 136 0
-11891 169 0
11891 -58 -100 -136 -169 0
11787 11788 11789 11790 11791 11792 11793 11794 11795 11796 11797 11798 11799 11800 11801 11802 -11803 -11804 11805 11806 11807 11808 11809 11810 11811 11812 11813 11814 11815 11816 11817 11818 11819 11820 11821 11822 11823 11824 11825 11826 11827 11828 11829 11830 11831 11832 11833 11834 11835 11836 11837 11838 11839 11840 11841 11842 11843 11844 11845 11846 11847 11848 11849 11850 11851 11852 11853 11854 11855 11856 11857 11858 11859 11860 11861 11862 11863 11864 11865 11866 11867 11868 11869 11870 11871 11872 11873 11874 11875 11876 11877 11878 11879 11880 11881 11882 11883 11884 11885 11886 11887 11888 11889 11890 11891 11052 -11053 -11054 11055 11056 11057 11058 11059 11060 11061 11062 11063 11064 11065 11066 11067 11068 11069 11070 11071 11072 11073 11074 11075 11076 11077 11078 11079 11080 11081 11082 11083 11084 11085 11086 11087 11088 11089 11090 11091 11092 11093 11094 11095 11096 11097 11098 11099 11100 11101 11102 11103 11104 11105 11106 11107 11108 11109 11110 11111 11112 11113 11114 11115 11116 11117 11118 11119 11120 11121 11122 11123 11124 11125 11126 11127 11128 11129 11130 11131 11132 11133 11134 11135 11136 11137 11138 11139 11140 11141 11142 11143 11144 11145 11146 11147 11148 11149 11150 11151 11152 11153 11154 11155 11156 0
