p cnf 3491 13736
1 2 3 0
-1 -2 0
-1 -3 0
-2 -3 0
4 5 6 0
-4 -5 0
-4 -6 0
-5 -6 0
7 8 9 0
-7 -8 0
-7 -9 0
-8 -9 0
10 11 12 0
-10 -11 0
-10 -12 0
-11 -12 0
13 14 15 0
-13 -14 0
-13 -15 0
-14 -15 0
16 17 18 0
-16 -17 0
-16 -18 0
-17 -18 0
19 20 21 0
-19 -20 0
-19 -21 0
-20 -21 0
22 23 24 0
-22 -23 0
-22 -24 0
-23 -24 0
25 26 27 0
-25 -26 0
-25 -27 0
-26 -27 0
28 29 30 0
-28 -29 0
-28 -30 0
-29 -30 0
31 32 33 0
-31 -32 0
-31 -33 0
-32 -33 0
34 35 36 0
-34 -35 0
-34 -36 0
-35 -36 0
37 38 39 0
-37 -38 0
-37 -39 0
-38 -39 0
40 41 42 0
-40 -41 0
-40 -42 0
-41 -42 0
43 44 45 0
-43 -44 0
-43 -45 0
-44 -45 0
46 47 48 0
-46 -47 0
-46 -48 0
-47 -48 0
49 50 51 0
-49 -50 0
-49 -51 0
-50 -51 0
52 53 54 0
-52 -53 0
-52 -54 0
-53 -54 0
55 56 57 0
-55 -56 0
-55 -57 0
-56 -57 0
58 59 60 0
-58 -59 0
-58 -60 0
-59 -60 0
61 62 63 0
-61 -62 0
-61 -63 0
-62 -63 0
64 65 66 0
-64 -65 0
-64 -66 0
-65 -66 0
67 68 69 0
-67 -68 0
-67 -69 0
-68 -69 0
70 71 72 0
-70 -71 0
-70 -72 0
-71 -72 0
73 74 75 0
-73 -74 0
-73 -75 0
-74 -75 0
76 77 78 0
-76 -77 0
-76 -78 0
-77 -78 0
79 80 81 0
-79 -80 0
-79 -81 0
-80 -81 0
82 83 84 0
-82 -83 0
-82 -84 0
-83 -84 0
85 86 87 0
-85 -86 0
-85 -87 0
-86 -87 0
88 89 90 0
-88 -89 0
-88 -90 0
-89 -90 0
91 92 93 0
-91 -92 0
-91 -93 0
-92 -93 0
94 95 96 0
-94 -95 0
-94 -96 0
-95 -96 0
97 98 99 0
-97 -98 0
-97 -99 0
-98 -99 0
100 101 102 0
-100 -101 0
-100 -102 0
-101 -102 0
103 104 105 0
-103 -104 0
-103 -105 0
-104 -105 0
106 107 108 0
-106 -107 0
-106 -108 0
-107 -108 0
109 110 111 0
-109 -110 0
-109 -111 0
-110 -111 0
112 113 114 0
-112 -113 0
-112 -114 0
-113 -114 0
115 116 117 0
-115 -116 0
-115 -117 0
-116 -117 0
118 119 120 0
-118 -119 0
-118 -120 0
-119 -120 0
121 122 123 0
-121 -122 0
-121 -123 0
-122 -123 0
124 125 126 0
-124 -125 0
-124 -126 0
-125 -126 0
127 128 129 0
-127 -128 0
-127 -129 0
-128 -129 0
130 131 132 0
-130 -131 0
-130 -132 0
-131 -132 0
133 134 135 0
-133 -134 0
-133 -135 0
-134 -135 0
136 137 138 0
-136 -137 0
-136 -138 0
-137 -138 0
139 140 141 0
-139 -140 0
-139 -141 0
-140 -141 0
142 143 144 0
-142 -143 0
-142 -144 0
-143 -144 0
145 146 147 0
-145 -146 0
-145 -147 0
-146 -147 0
148 149 150 0
-148 -149 0
-148 -150 0
-149 -150 0
151 152 153 0
-151 -152 0
-151 -153 0
-152 -153 0
154 155 156 0
-154 -155 0
-154 -156 0
-155 -156 0
157 158 159 0
-157 -158 0
-157 -159 0
-158 -159 0
160 161 162 0
-160 -161 0
-160 -162 0
-161 -162 0
163 164 165 0
-163 -164 0
-163 -165 0
-164 -165 0
166 167 168 0
-166 -167 0
-166 -168 0
-167 -168 0
169 170 171 0
-169 -170 0
-169 -171 0
-170 -171 0
172 173 174 0
-172 -173 0
-172 -174 0
-173 -174 0
175 176 177 0
-175 -176 0
-175 -177 0
-176 -177 0
178 179 180 0
-178 -179 0
-178 -180 0
-179 -180 0
181 182 183 0
-181 -182 0
-181 -183 0
-182 -183 0
184 185 186 0
-184 -185 0
-184 -186 0
-185 -186 0
187 188 189 0
-187 -188 0
-187 -189 0
-188 -189 0
190 191 192 0
-190 -191 0
-190 -192 0
-191 -192 0
193 194 195 0
-193 -194 0
-193 -195 0
-194 -195 0
196 197 198 0
-196 -197 0
-196 -198 0
-197 -198 0
199 200 201 0
-199 -200 0
-199 -201 0
-200 -201 0
202 203 204 0
-202 -203 0
-202 -204 0
-203 -204 0
205 206 207 0
-205 -206 0
-205 -207 0
-206 -207 0
208 209 210 0
-208 -209 0
-208 -210 0
-209 -210 0
211 212 213 0
-211 -212 0
-211 -213 0
-212 -213 0
214 215 216 0
-214 -215 0
-214 -216 0
-215 -216 0
217 218 219 0
-217 -218 0
-217 -219 0
-218 -219 0
220 221 222 0
-220 -221 0
-220 -222 0
-221 -222 0
223 224 225 0
-223 -224 0
-223 -225 0
-224 -225 0
226 227 228 0
-226 -227 0
-226 -228 0
-227 -228 0
229 230 231 0
-229 -230 0
-229 -231 0
-230 -231 0
232 233 234 0
-232 -233 0
-232 -234 0
-233 -234 0
235 236 237 0
-235 -236 0
-235 -237 0
-236 -237 0
238 239 240 0
-238 -239 0
-238 -240 0
-239 -240 0
241 242 243 0
-241 -242 0
-241 -243 0
-242 -243 0
244 245 246 0
-244 -245 0
-244 -246 0
-245 -246 0
247 248 249 0
-247 -248 0
-247 -249 0
-248 -249 0
250 251 252 0
-250 -251 0
-250 -252 0
-251 -252 0
-264 256 265 0
-260 256 265 0
-260 -264 265 0
-265 253 0
-261 253 0
-265 -261 254 0
-262 254 0
-265 -262 255 0
-263 255 0
-265 -263 0
-257 253 0
-265 -257 254 0
-258 254 0
-265 -258 255 0
-259 255 0
-265 -259 0
-257 -261 254 0
-265 -257 -261 255 0
-257 -262 255 0
-265 -257 -262 0
-257 -263 0
-265 -257 -263 0
-258 -261 255 0
-265 -258 -261 0
-258 -262 0
-265 -258 -262 0
-258 -263 0
-265 -258 -263 0
-259 -261 0
-265 -259 -261 0
-259 -262 0
-265 -259 -262 0
-259 -263 0
-265 -259 -263 0
-273 264 274 0
-269 264 274 0
-269 -273 274 0
-274 261 0
-270 261 0
-274 -270 262 0
-271 262 0
-274 -271 263 0
-272 263 0
-274 -272 0
-266 261 0
-274 -266 262 0
-267 262 0
-274 -267 263 0
-268 263 0
-274 -268 0
-266 -270 262 0
-274 -266 -270 263 0
-266 -271 263 0
-274 -266 -271 0
-266 -272 0
-274 -266 -272 0
-267 -270 263 0
-274 -267 -270 0
-267 -271 0
-274 -267 -271 0
-267 -272 0
-274 -267 -272 0
-268 -270 0
-274 -268 -270 0
-268 -271 0
-274 -268 -271 0
-268 -272 0
-274 -268 -272 0
-282 273 283 0
-278 273 283 0
-278 -282 283 0
-283 270 0
-279 270 0
-283 -279 271 0
-280 271 0
-283 -280 272 0
-281 272 0
-283 -281 0
-275 270 0
-283 -275 271 0
-276 271 0
-283 -276 272 0
-277 272 0
-283 -277 0
-275 -279 271 0
-283 -275 -279 272 0
-275 -280 272 0
-283 -275 -280 0
-275 -281 0
-283 -275 -281 0
-276 -279 272 0
-283 -276 -279 0
-276 -280 0
-283 -276 -280 0
-276 -281 0
-283 -276 -281 0
-277 -279 0
-283 -277 -279 0
-277 -280 0
-283 -277 -280 0
-277 -281 0
-283 -277 -281 0
-289 282 290 0
-286 282 290 0
-286 -289 290 0
-290 279 0
-287 279 0
-290 -287 280 0
-288 280 0
-290 -288 281 0
-284 279 0
-290 -284 280 0
-285 280 0
-290 -285 281 0
-284 -287 280 0
-290 -284 -287 281 0
-284 -288 281 0
-290 -284 -288 0
-285 -287 281 0
-290 -285 -287 0
-285 -288 0
-290 -285 -288 0
-294 289 295 0
-292 289 295 0
-292 -294 295 0
-295 287 0
-293 287 0
-295 -293 288 0
-291 287 0
-295 -291 288 0
-291 -293 288 0
-295 -291 -293 0
250 294 296 0
247 294 296 0
247 250 296 0
-296 293 0
244 292 299 0
-298 292 299 0
-298 244 299 0
-299 291 0
-297 291 0
-299 -297 0
241 298 300 0
238 298 300 0
238 241 300 0
-300 297 0
-304 286 305 0
-302 286 305 0
-302 -304 305 0
-305 284 0
-303 284 0
-305 -303 285 0
-301 284 0
-305 -301 285 0
-301 -303 285 0
-305 -301 -303 0
235 304 306 0
232 304 306 0
232 235 306 0
-306 303 0
229 302 309 0
-308 302 309 0
-308 229 309 0
-309 301 0
-307 301 0
-309 -307 0
226 308 310 0
223 308 310 0
223 226 310 0
-310 307 0
-317 278 318 0
-314 278 318 0
-314 -317 318 0
-318 275 0
-315 275 0
-318 -315 276 0
-316 276 0
-318 -316 277 0
-311 275 0
-318 -311 276 0
-312 276 0
-318 -312 277 0
-313 277 0
-318 -313 0
-311 -315 276 0
-318 -311 -315 277 0
-311 -316 277 0
-318 -311 -316 0
-312 -315 277 0
-318 -312 -315 0
-312 -316 0
-318 -312 -316 0
-313 -315 0
-318 -313 -315 0
-313 -316 0
-318 -313 -316 0
-322 317 323 0
-320 317 323 0
-320 -322 323 0
-323 315 0
-321 315 0
-323 -321 316 0
-319 315 0
-323 -319 316 0
-319 -321 316 0
-323 -319 -321 0
220 322 324 0
217 322 324 0
217 220 324 0
-324 321 0
214 320 327 0
-326 320 327 0
-326 214 327 0
-327 319 0
-325 319 0
-327 -325 0
211 326 328 0
208 326 328 0
208 211 328 0
-328 325 0
-332 314 333 0
-330 314 333 0
-330 -332 333 0
-333 311 0
-331 311 0
-333 -331 312 0
-329 311 0
-333 -329 312 0
-329 -331 312 0
-333 -329 -331 313 0
205 332 336 0
-335 332 336 0
-335 205 336 0
-336 331 0
-334 331 0
-336 -334 0
202 335 337 0
199 335 337 0
199 202 337 0
-337 334 0
196 330 340 0
-339 330 340 0
-339 196 340 0
-340 329 0
-338 329 0
-340 -338 0
193 339 341 0
190 339 341 0
190 193 341 0
-341 338 0
-349 269 350 0
-345 269 350 0
-345 -349 350 0
-350 266 0
-346 266 0
-350 -346 267 0
-347 267 0
-350 -347 268 0
-348 268 0
-350 -348 0
-342 266 0
-350 -342 267 0
-343 267 0
-350 -343 268 0
-344 268 0
-350 -344 0
-342 -346 267 0
-350 -342 -346 268 0
-342 -347 268 0
-350 -342 -347 0
-342 -348 0
-350 -342 -348 0
-343 -346 268 0
-350 -343 -346 0
-343 -347 0
-350 -343 -347 0
-343 -348 0
-350 -343 -348 0
-344 -346 0
-350 -344 -346 0
-344 -347 0
-350 -344 -347 0
-344 -348 0
-350 -344 -348 0
-356 349 357 0
-353 349 357 0
-353 -356 357 0
-357 346 0
-354 346 0
-357 -354 347 0
-355 347 0
-357 -355 348 0
-351 346 0
-357 -351 347 0
-352 347 0
-357 -352 348 0
-351 -354 347 0
-357 -351 -354 348 0
-351 -355 348 0
-357 -351 -355 0
-352 -354 348 0
-357 -352 -354 0
-352 -355 0
-357 -352 -355 0
-361 356 362 0
-359 356 362 0
-359 -361 362 0
-362 354 0
-360 354 0
-362 -360 355 0
-358 354 0
-362 -358 355 0
-358 -360 355 0
-362 -358 -360 0
187 361 363 0
184 361 363 0
184 187 363 0
-363 360 0
181 359 366 0
-365 359 366 0
-365 181 366 0
-366 358 0
-364 358 0
-366 -364 0
178 365 367 0
175 365 367 0
175 178 367 0
-367 364 0
-371 353 372 0
-369 353 372 0
-369 -371 372 0
-372 351 0
-370 351 0
-372 -370 352 0
-368 351 0
-372 -368 352 0
-368 -370 352 0
-372 -368 -370 0
172 371 373 0
169 371 373 0
169 172 373 0
-373 370 0
166 369 376 0
-375 369 376 0
-375 166 376 0
-376 368 0
-374 368 0
-376 -374 0
163 375 377 0
160 375 377 0
160 163 377 0
-377 374 0
-384 345 385 0
-381 345 385 0
-381 -384 385 0
-385 342 0
-382 342 0
-385 -382 343 0
-383 343 0
-385 -383 344 0
-378 342 0
-385 -378 343 0
-379 343 0
-385 -379 344 0
-380 344 0
-385 -380 0
-378 -382 343 0
-385 -378 -382 344 0
-378 -383 344 0
-385 -378 -383 0
-379 -382 344 0
-385 -379 -382 0
-379 -383 0
-385 -379 -383 0
-380 -382 0
-385 -380 -382 0
-380 -383 0
-385 -380 -383 0
-389 384 390 0
-387 384 390 0
-387 -389 390 0
-390 382 0
-388 382 0
-390 -388 383 0
-386 382 0
-390 -386 383 0
-386 -388 383 0
-390 -386 -388 0
157 389 391 0
154 389 391 0
154 157 391 0
-391 388 0
151 387 394 0
-393 387 394 0
-393 151 394 0
-394 386 0
-392 386 0
-394 -392 0
148 393 395 0
145 393 395 0
145 148 395 0
-395 392 0
-399 381 400 0
-397 381 400 0
-397 -399 400 0
-400 378 0
-398 378 0
-400 -398 379 0
-396 378 0
-400 -396 379 0
-396 -398 379 0
-400 -396 -398 380 0
142 399 403 0
-402 399 403 0
-402 142 403 0
-403 398 0
-401 398 0
-403 -401 0
139 402 404 0
136 402 404 0
136 139 404 0
-404 401 0
133 397 407 0
-406 397 407 0
-406 133 407 0
-407 396 0
-405 396 0
-407 -405 0
130 406 408 0
127 406 408 0
127 130 408 0
-408 405 0
-416 260 417 0
-412 260 417 0
-412 -416 417 0
-417 257 0
-413 257 0
-417 -413 258 0
-414 258 0
-417 -414 259 0
-415 259 0
-417 -415 0
-409 257 0
-417 -409 258 0
-410 258 0
-417 -410 259 0
-411 259 0
-417 -411 0
-409 -413 258 0
-417 -409 -413 259 0
-409 -414 259 0
-417 -409 -414 0
-409 -415 0
-417 -409 -415 0
-410 -413 259 0
-417 -410 -413 0
-410 -414 0
-417 -410 -414 0
-410 -415 0
-417 -410 -415 0
-411 -413 0
-417 -411 -413 0
-411 -414 0
-417 -411 -414 0
-411 -415 0
-417 -411 -415 0
-425 416 426 0
-421 416 426 0
-421 -425 426 0
-426 413 0
-422 413 0
-426 -422 414 0
-423 414 0
-426 -423 415 0
-424 415 0
-426 -424 0
-418 413 0
-426 -418 414 0
-419 414 0
-426 -419 415 0
-420 415 0
-426 -420 0
-418 -422 414 0
-426 -418 -422 415 0
-418 -423 415 0
-426 -418 -423 0
-418 -424 0
-426 -418 -424 0
-419 -422 415 0
-426 -419 -422 0
-419 -423 0
-426 -419 -423 0
-419 -424 0
-426 -419 -424 0
-420 -422 0
-426 -420 -422 0
-420 -423 0
-426 -420 -423 0
-420 -424 0
-426 -420 -424 0
-432 425 433 0
-429 425 433 0
-429 -432 433 0
-433 422 0
-430 422 0
-433 -430 423 0
-431 423 0
-433 -431 424 0
-427 422 0
-433 -427 423 0
-428 423 0
-433 -428 424 0
-427 -430 423 0
-433 -427 -430 424 0
-427 -431 424 0
-433 -427 -431 0
-428 -430 424 0
-433 -428 -430 0
-428 -431 0
-433 -428 -431 0
-437 432 438 0
-435 432 438 0
-435 -437 438 0
-438 430 0
-436 430 0
-438 -436 431 0
-434 430 0
-438 -434 431 0
-434 -436 431 0
-438 -434 -436 0
124 437 439 0
121 437 439 0
121 124 439 0
-439 436 0
118 435 442 0
-441 435 442 0
-441 118 442 0
-442 434 0
-440 434 0
-442 -440 0
115 441 443 0
112 441 443 0
112 115 443 0
-443 440 0
-447 429 448 0
-445 429 448 0
-445 -447 448 0
-448 427 0
-446 427 0
-448 -446 428 0
-444 427 0
-448 -444 428 0
-444 -446 428 0
-448 -444 -446 0
109 447 449 0
106 447 449 0
106 109 449 0
-449 446 0
103 445 452 0
-451 445 452 0
-451 103 452 0
-452 444 0
-450 444 0
-452 -450 0
100 451 453 0
97 451 453 0
97 100 453 0
-453 450 0
-460 421 461 0
-457 421 461 0
-457 -460 461 0
-461 418 0
-458 418 0
-461 -458 419 0
-459 419 0
-461 -459 420 0
-454 418 0
-461 -454 419 0
-455 419 0
-461 -455 420 0
-456 420 0
-461 -456 0
-454 -458 419 0
-461 -454 -458 420 0
-454 -459 420 0
-461 -454 -459 0
-455 -458 420 0
-461 -455 -458 0
-455 -459 0
-461 -455 -459 0
-456 -458 0
-461 -456 -458 0
-456 -459 0
-461 -456 -459 0
-465 460 466 0
-463 460 466 0
-463 -465 466 0
-466 458 0
-464 458 0
-466 -464 459 0
-462 458 0
-466 -462 459 0
-462 -464 459 0
-466 -462 -464 0
94 465 467 0
91 465 467 0
91 94 467 0
-467 464 0
88 463 470 0
-469 463 470 0
-469 88 470 0
-470 462 0
-468 462 0
-470 -468 0
85 469 471 0
82 469 471 0
82 85 471 0
-471 468 0
-475 457 476 0
-473 457 476 0
-473 -475 476 0
-476 454 0
-474 454 0
-476 -474 455 0
-472 454 0
-476 -472 455 0
-472 -474 455 0
-476 -472 -474 456 0
79 475 479 0
-478 475 479 0
-478 79 479 0
-479 474 0
-477 474 0
-479 -477 0
76 478 480 0
73 478 480 0
73 76 480 0
-480 477 0
70 473 483 0
-482 473 483 0
-482 70 483 0
-483 472 0
-481 472 0
-483 -481 0
67 482 484 0
64 482 484 0
64 67 484 0
-484 481 0
-492 412 493 0
-488 412 493 0
-488 -492 493 0
-493 409 0
-489 409 0
-493 -489 410 0
-490 410 0
-493 -490 411 0
-491 411 0
-493 -491 0
-485 409 0
-493 -485 410 0
-486 410 0
-493 -486 411 0
-487 411 0
-493 -487 0
-485 -489 410 0
-493 -485 -489 411 0
-485 -490 411 0
-493 -485 -490 0
-485 -491 0
-493 -485 -491 0
-486 -489 411 0
-493 -486 -489 0
-486 -490 0
-493 -486 -490 0
-486 -491 0
-493 -486 -491 0
-487 -489 0
-493 -487 -489 0
-487 -490 0
-493 -487 -490 0
-487 -491 0
-493 -487 -491 0
-499 492 500 0
-496 492 500 0
-496 -499 500 0
-500 489 0
-497 489 0
-500 -497 490 0
-498 490 0
-500 -498 491 0
-494 489 0
-500 -494 490 0
-495 490 0
-500 -495 491 0
-494 -497 490 0
-500 -494 -497 491 0
-494 -498 491 0
-500 -494 -498 0
-495 -497 491 0
-500 -495 -497 0
-495 -498 0
-500 -495 -498 0
-504 499 505 0
-502 499 505 0
-502 -504 505 0
-505 497 0
-503 497 0
-505 -503 498 0
-501 497 0
-505 -501 498 0
-501 -503 498 0
-505 -501 -503 0
61 504 506 0
58 504 506 0
58 61 506 0
-506 503 0
55 502 509 0
-508 502 509 0
-508 55 509 0
-509 501 0
-507 501 0
-509 -507 0
52 508 510 0
49 508 510 0
49 52 510 0
-510 507 0
-514 496 515 0
-512 496 515 0
-512 -514 515 0
-515 494 0
-513 494 0
-515 -513 495 0
-511 494 0
-515 -511 495 0
-511 -513 495 0
-515 -511 -513 0
46 514 516 0
43 514 516 0
43 46 516 0
-516 513 0
40 512 519 0
-518 512 519 0
-518 40 519 0
-519 511 0
-517 511 0
-519 -517 0
37 518 520 0
34 518 520 0
34 37 520 0
-520 517 0
-527 488 528 0
-524 488 528 0
-524 -527 528 0
-528 485 0
-525 485 0
-528 -525 486 0
-526 486 0
-528 -526 487 0
-521 485 0
-528 -521 486 0
-522 486 0
-528 -522 487 0
-523 487 0
-528 -523 0
-521 -525 486 0
-528 -521 -525 487 0
-521 -526 487 0
-528 -521 -526 0
-522 -525 487 0
-528 -522 -525 0
-522 -526 0
-528 -522 -526 0
-523 -525 0
-528 -523 -525 0
-523 -526 0
-528 -523 -526 0
-532 527 533 0
-530 527 533 0
-530 -532 533 0
-533 525 0
-531 525 0
-533 -531 526 0
-529 525 0
-533 -529 526 0
-529 -531 526 0
-533 -529 -531 0
31 532 534 0
28 532 534 0
28 31 534 0
-534 531 0
25 530 537 0
-536 530 537 0
-536 25 537 0
-537 529 0
-535 529 0
-537 -535 0
22 536 538 0
19 536 538 0
19 22 538 0
-538 535 0
-542 524 543 0
-540 524 543 0
-540 -542 543 0
-543 521 0
-541 521 0
-543 -541 522 0
-539 521 0
-543 -539 522 0
-539 -541 522 0
-543 -539 -541 523 0
16 542 546 0
-545 542 546 0
-545 16 546 0
-546 541 0
-544 541 0
-546 -544 0
13 545 547 0
10 545 547 0
10 13 547 0
-547 544 0
7 540 550 0
-549 540 550 0
-549 7 550 0
-550 539 0
-548 539 0
-550 -548 0
4 549 551 0
1 549 551 0
1 4 551 0
-551 548 0
-255 -256 0
552 0
-553 0
-554 0
-555 -1 0
-555 -40 0
-555 -163 0
-555 -244 0
555 1 40 163 244 0
3 42 -556 0
-3 -42 -556 0
3 -42 556 0
-3 42 556 0
556 165 -557 0
-556 -165 -557 0
556 -165 557 0
-556 165 557 0
557 246 -558 0
-557 -246 -558 0
557 -246 558 0
-557 246 558 0
559 560 561 0
-559 -560 0
-559 -561 0
-560 -561 0
-552 555 559 0
-552 -555 558 560 0
-552 -555 -558 561 0
-553 555 560 0
-553 -555 558 561 0
-553 -555 -558 559 0
-554 555 561 0
-554 -555 558 559 0
-554 -555 -558 560 0
-562 -1 0
-562 -40 0
-562 -190 0
-562 -241 0
562 1 40 190 241 0
3 42 -563 0
-3 -42 -563 0
3 -42 563 0
-3 42 563 0
563 192 -564 0
-563 -192 -564 0
563 -192 564 0
-563 192 564 0
564 243 -565 0
-564 -243 -565 0
564 -243 565 0
-564 243 565 0
566 567 568 0
-566 -567 0
-566 -568 0
-567 -568 0
-559 562 566 0
-559 -562 565 567 0
-559 -562 -565 568 0
-560 562 567 0
-560 -562 565 568 0
-560 -562 -565 566 0
-561 562 568 0
-561 -562 565 566 0
-561 -562 -565 567 0
-569 -1 0
-569 -40 0
-569 -214 0
-569 -217 0
569 1 40 214 217 0
3 42 -570 0
-3 -42 -570 0
3 -42 570 0
-3 42 570 0
570 216 -571 0
-570 -216 -571 0
570 -216 571 0
-570 216 571 0
571 219 -572 0
-571 -219 -572 0
571 -219 572 0
-571 219 572 0
573 574 575 0
-573 -574 0
-573 -575 0
-574 -575 0
-566 569 573 0
-566 -569 572 574 0
-566 -569 -572 575 0
-567 569 574 0
-567 -569 572 575 0
-567 -569 -572 573 0
-568 569 575 0
-568 -569 572 573 0
-568 -569 -572 574 0
-576 -1 0
-576 -67 0
-576 -187 0
-576 -244 0
576 1 67 187 244 0
3 69 -577 0
-3 -69 -577 0
3 -69 577 0
-3 69 577 0
577 189 -578 0
-577 -189 -578 0
577 -189 578 0
-577 189 578 0
578 246 -579 0
-578 -246 -579 0
578 -246 579 0
-578 246 579 0
580 581 582 0
-580 -581 0
-580 -582 0
-581 -582 0
-573 576 580 0
-573 -576 579 581 0
-573 -576 -579 582 0
-574 576 581 0
-574 -576 579 582 0
-574 -576 -579 580 0
-575 576 582 0
-575 -576 579 580 0
-575 -576 -579 581 0
-583 -1 0
-583 -67 0
-583 -202 0
-583 -241 0
583 1 67 202 241 0
3 69 -584 0
-3 -69 -584 0
3 -69 584 0
-3 69 584 0
584 204 -585 0
-584 -204 -585 0
584 -204 585 0
-584 204 585 0
585 243 -586 0
-585 -243 -586 0
585 -243 586 0
-585 243 586 0
587 588 589 0
-587 -588 0
-587 -589 0
-588 -589 0
-580 583 587 0
-580 -583 586 588 0
-580 -583 -586 589 0
-581 583 588 0
-581 -583 586 589 0
-581 -583 -586 587 0
-582 583 589 0
-582 -583 586 587 0
-582 -583 -586 588 0
-590 -1 0
-590 -67 0
-590 -214 0
-590 -229 0
590 1 67 214 229 0
3 69 -591 0
-3 -69 -591 0
3 -69 591 0
-3 69 591 0
591 216 -592 0
-591 -216 -592 0
591 -216 592 0
-591 216 592 0
592 231 -593 0
-592 -231 -593 0
592 -231 593 0
-592 231 593 0
594 595 596 0
-594 -595 0
-594 -596 0
-595 -596 0
-587 590 594 0
-587 -590 593 595 0
-587 -590 -593 596 0
-588 590 595 0
-588 -590 593 596 0
-588 -590 -593 594 0
-589 590 596 0
-589 -590 593 594 0
-589 -590 -593 595 0
-597 -1 0
-597 -94 0
-597 -175 0
-597 -244 0
597 1 94 175 244 0
3 96 -598 0
-3 -96 -598 0
3 -96 598 0
-3 96 598 0
598 177 -599 0
-598 -177 -599 0
598 -177 599 0
-598 177 599 0
599 246 -600 0
-599 -246 -600 0
599 -246 600 0
-599 246 600 0
601 602 603 0
-601 -602 0
-601 -603 0
-602 -603 0
-594 597 601 0
-594 -597 600 602 0
-594 -597 -600 603 0
-595 597 602 0
-595 -597 600 603 0
-595 -597 -600 601 0
-596 597 603 0
-596 -597 600 601 0
-596 -597 -600 602 0
-604 -1 0
-604 -94 0
-604 -190 0
-604 -229 0
604 1 94 190 229 0
3 96 -605 0
-3 -96 -605 0
3 -96 605 0
-3 96 605 0
605 192 -606 0
-605 -192 -606 0
605 -192 606 0
-605 192 606 0
606 231 -607 0
-606 -231 -607 0
606 -231 607 0
-606 231 607 0
608 609 610 0
-608 -609 0
-608 -610 0
-609 -610 0
-601 604 608 0
-601 -604 607 609 0
-601 -604 -607 610 0
-602 604 609 0
-602 -604 607 610 0
-602 -604 -607 608 0
-603 604 610 0
-603 -604 607 608 0
-603 -604 -607 609 0
-611 -1 0
-611 -94 0
-611 -202 0
-611 -217 0
611 1 94 202 217 0
3 96 -612 0
-3 -96 -612 0
3 -96 612 0
-3 96 612 0
612 204 -613 0
-612 -204 -613 0
612 -204 613 0
-612 204 613 0
613 219 -614 0
-613 -219 -614 0
613 -219 614 0
-613 219 614 0
615 616 617 0
-615 -616 0
-615 -617 0
-616 -617 0
-608 611 615 0
-608 -611 614 616 0
-608 -611 -614 617 0
-609 611 616 0
-609 -611 614 617 0
-609 -611 -614 615 0
-610 611 617 0
-610 -611 614 615 0
-610 -611 -614 616 0
-618 -1 0
-618 -121 0
-618 -163 0
-618 -229 0
618 1 121 163 229 0
3 123 -619 0
-3 -123 -619 0
3 -123 619 0
-3 123 619 0
619 165 -620 0
-619 -165 -620 0
619 -165 620 0
-619 165 620 0
620 231 -621 0
-620 -231 -621 0
620 -231 621 0
-620 231 621 0
622 623 624 0
-622 -623 0
-622 -624 0
-623 -624 0
-615 618 622 0
-615 -618 621 623 0
-615 -618 -621 624 0
-616 618 623 0
-616 -618 621 624 0
-616 -618 -621 622 0
-617 618 624 0
-617 -618 621 622 0
-617 -618 -621 623 0
-625 -1 0
-625 -121 0
-625 -175 0
-625 -241 0
625 1 121 175 241 0
3 123 -626 0
-3 -123 -626 0
3 -123 626 0
-3 123 626 0
626 177 -627 0
-626 -177 -627 0
626 -177 627 0
-626 177 627 0
627 243 -628 0
-627 -243 -628 0
627 -243 628 0
-627 243 628 0
629 630 631 0
-629 -630 0
-629 -631 0
-630 -631 0
-622 625 629 0
-622 -625 628 630 0
-622 -625 -628 631 0
-623 625 630 0
-623 -625 628 631 0
-623 -625 -628 629 0
-624 625 631 0
-624 -625 628 629 0
-624 -625 -628 630 0
-632 -1 0
-632 -121 0
-632 -187 0
-632 -217 0
632 1 121 187 217 0
3 123 -633 0
-3 -123 -633 0
3 -123 633 0
-3 123 633 0
633 189 -634 0
-633 -189 -634 0
633 -189 634 0
-633 189 634 0
634 219 -635 0
-634 -219 -635 0
634 -219 635 0
-634 219 635 0
636 637 638 0
-636 -637 0
-636 -638 0
-637 -638 0
-629 632 636 0
-629 -632 635 637 0
-629 -632 -635 638 0
-630 632 637 0
-630 -632 635 638 0
-630 -632 -635 636 0
-631 632 638 0
-631 -632 635 636 0
-631 -632 -635 637 0
-639 -1 0
-639 -148 0
-639 -163 0
-639 -202 0
639 1 148 163 202 0
3 150 -640 0
-3 -150 -640 0
3 -150 640 0
-3 150 640 0
640 165 -641 0
-640 -165 -641 0
640 -165 641 0
-640 165 641 0
641 204 -642 0
-641 -204 -642 0
641 -204 642 0
-641 204 642 0
643 644 645 0
-643 -644 0
-643 -645 0
-644 -645 0
-636 639 643 0
-636 -639 642 644 0
-636 -639 -642 645 0
-637 639 644 0
-637 -639 642 645 0
-637 -639 -642 643 0
-638 639 645 0
-638 -639 642 643 0
-638 -639 -642 644 0
-646 -1 0
-646 -148 0
-646 -175 0
-646 -214 0
646 1 148 175 214 0
3 150 -647 0
-3 -150 -647 0
3 -150 647 0
-3 150 647 0
647 177 -648 0
-647 -177 -648 0
647 -177 648 0
-647 177 648 0
648 216 -649 0
-648 -216 -649 0
648 -216 649 0
-648 216 649 0
650 651 652 0
-650 -651 0
-650 -652 0
-651 -652 0
-643 646 650 0
-643 -646 649 651 0
-643 -646 -649 652 0
-644 646 651 0
-644 -646 649 652 0
-644 -646 -649 650 0
-645 646 652 0
-645 -646 649 650 0
-645 -646 -649 651 0
-653 -1 0
-653 -148 0
-653 -187 0
-653 -190 0
653 1 148 187 190 0
3 150 -654 0
-3 -150 -654 0
3 -150 654 0
-3 150 654 0
654 189 -655 0
-654 -189 -655 0
654 -189 655 0
-654 189 655 0
655 192 -656 0
-655 -192 -656 0
655 -192 656 0
-655 192 656 0
657 658 659 0
-657 -658 0
-657 -659 0
-658 -659 0
-650 653 657 0
-650 -653 656 658 0
-650 -653 -656 659 0
-651 653 658 0
-651 -653 656 659 0
-651 -653 -656 657 0
-652 653 659 0
-652 -653 656 657 0
-652 -653 -656 658 0
-660 -13 0
-660 -52 0
-660 -175 0
-660 -244 0
660 13 52 175 244 0
15 54 -661 0
-15 -54 -661 0
15 -54 661 0
-15 54 661 0
661 177 -662 0
-661 -177 -662 0
661 -177 662 0
-661 177 662 0
662 246 -663 0
-662 -246 -663 0
662 -246 663 0
-662 246 663 0
664 665 666 0
-664 -665 0
-664 -666 0
-665 -666 0
-657 660 664 0
-657 -660 663 665 0
-657 -660 -663 666 0
-658 660 665 0
-658 -660 663 666 0
-658 -660 -663 664 0
-659 660 666 0
-659 -660 663 664 0
-659 -660 -663 665 0
-667 -13 0
-667 -52 0
-667 -190 0
-667 -229 0
667 13 52 190 229 0
15 54 -668 0
-15 -54 -668 0
15 -54 668 0
-15 54 668 0
668 192 -669 0
-668 -192 -669 0
668 -192 669 0
-668 192 669 0
669 231 -670 0
-669 -231 -670 0
669 -231 670 0
-669 231 670 0
671 672 673 0
-671 -672 0
-671 -673 0
-672 -673 0
-664 667 671 0
-664 -667 670 672 0
-664 -667 -670 673 0
-665 667 672 0
-665 -667 670 673 0
-665 -667 -670 671 0
-666 667 673 0
-666 -667 670 671 0
-666 -667 -670 672 0
-674 -13 0
-674 -52 0
-674 -202 0
-674 -217 0
674 13 52 202 217 0
15 54 -675 0
-15 -54 -675 0
15 -54 675 0
-15 54 675 0
675 204 -676 0
-675 -204 -676 0
675 -204 676 0
-675 204 676 0
676 219 -677 0
-676 -219 -677 0
676 -219 677 0
-676 219 677 0
678 679 680 0
-678 -679 0
-678 -680 0
-679 -680 0
-671 674 678 0
-671 -674 677 679 0
-671 -674 -677 680 0
-672 674 679 0
-672 -674 677 680 0
-672 -674 -677 678 0
-673 674 680 0
-673 -674 677 678 0
-673 -674 -677 679 0
-681 -13 0
-681 -79 0
-681 -163 0
-681 -244 0
681 13 79 163 244 0
15 81 -682 0
-15 -81 -682 0
15 -81 682 0
-15 81 682 0
682 165 -683 0
-682 -165 -683 0
682 -165 683 0
-682 165 683 0
683 246 -684 0
-683 -246 -684 0
683 -246 684 0
-683 246 684 0
685 686 687 0
-685 -686 0
-685 -687 0
-686 -687 0
-678 681 685 0
-678 -681 684 686 0
-678 -681 -684 687 0
-679 681 686 0
-679 -681 684 687 0
-679 -681 -684 685 0
-680 681 687 0
-680 -681 684 685 0
-680 -681 -684 686 0
-688 -13 0
-688 -79 0
-688 -190 0
-688 -241 0
688 13 79 190 241 0
15 81 -689 0
-15 -81 -689 0
15 -81 689 0
-15 81 689 0
689 192 -690 0
-689 -192 -690 0
689 -192 690 0
-689 192 690 0
690 243 -691 0
-690 -243 -691 0
690 -243 691 0
-690 243 691 0
692 693 694 0
-692 -693 0
-692 -694 0
-693 -694 0
-685 688 692 0
-685 -688 691 693 0
-685 -688 -691 694 0
-686 688 693 0
-686 -688 691 694 0
-686 -688 -691 692 0
-687 688 694 0
-687 -688 691 692 0
-687 -688 -691 693 0
-695 -13 0
-695 -79 0
-695 -214 0
-695 -217 0
695 13 79 214 217 0
15 81 -696 0
-15 -81 -696 0
15 -81 696 0
-15 81 696 0
696 216 -697 0
-696 -216 -697 0
696 -216 697 0
-696 216 697 0
697 219 -698 0
-697 -219 -698 0
697 -219 698 0
-697 219 698 0
699 700 701 0
-699 -700 0
-699 -701 0
-700 -701 0
-692 695 699 0
-692 -695 698 700 0
-692 -695 -698 701 0
-693 695 700 0
-693 -695 698 701 0
-693 -695 -698 699 0
-694 695 701 0
-694 -695 698 699 0
-694 -695 -698 700 0
-702 -13 0
-702 -106 0
-702 -187 0
-702 -244 0
702 13 106 187 244 0
15 108 -703 0
-15 -108 -703 0
15 -108 703 0
-15 108 703 0
703 189 -704 0
-703 -189 -704 0
703 -189 704 0
-703 189 704 0
704 246 -705 0
-704 -246 -705 0
704 -246 705 0
-704 246 705 0
706 707 708 0
-706 -707 0
-706 -708 0
-707 -708 0
-699 702 706 0
-699 -702 705 707 0
-699 -702 -705 708 0
-700 702 707 0
-700 -702 705 708 0
-700 -702 -705 706 0
-701 702 708 0
-701 -702 705 706 0
-701 -702 -705 707 0
-709 -13 0
-709 -106 0
-709 -202 0
-709 -241 0
709 13 106 202 241 0
15 108 -710 0
-15 -108 -710 0
15 -108 710 0
-15 108 710 0
710 204 -711 0
-710 -204 -711 0
710 -204 711 0
-710 204 711 0
711 243 -712 0
-711 -243 -712 0
711 -243 712 0
-711 243 712 0
713 714 715 0
-713 -714 0
-713 -715 0
-714 -715 0
-706 709 713 0
-706 -709 712 714 0
-706 -709 -712 715 0
-707 709 714 0
-707 -709 712 715 0
-707 -709 -712 713 0
-708 709 715 0
-708 -709 712 713 0
-708 -709 -712 714 0
-716 -13 0
-716 -106 0
-716 -214 0
-716 -229 0
716 13 106 214 229 0
15 108 -717 0
-15 -108 -717 0
15 -108 717 0
-15 108 717 0
717 216 -718 0
-717 -216 -718 0
717 -216 718 0
-717 216 718 0
718 231 -719 0
-718 -231 -719 0
718 -231 719 0
-718 231 719 0
720 721 722 0
-720 -721 0
-720 -722 0
-721 -722 0
-713 716 720 0
-713 -716 719 721 0
-713 -716 -719 722 0
-714 716 721 0
-714 -716 719 722 0
-714 -716 -719 720 0
-715 716 722 0
-715 -716 719 720 0
-715 -716 -719 721 0
-723 -13 0
-723 -133 0
-723 -163 0
-723 -229 0
723 13 133 163 229 0
15 135 -724 0
-15 -135 -724 0
15 -135 724 0
-15 135 724 0
724 165 -725 0
-724 -165 -725 0
724 -165 725 0
-724 165 725 0
725 231 -726 0
-725 -231 -726 0
725 -231 726 0
-725 231 726 0
727 728 729 0
-727 -728 0
-727 -729 0
-728 -729 0
-720 723 727 0
-720 -723 726 728 0
-720 -723 -726 729 0
-721 723 728 0
-721 -723 726 729 0
-721 -723 -726 727 0
-722 723 729 0
-722 -723 726 727 0
-722 -723 -726 728 0
-730 -13 0
-730 -133 0
-730 -175 0
-730 -241 0
730 13 133 175 241 0
15 135 -731 0
-15 -135 -731 0
15 -135 731 0
-15 135 731 0
731 177 -732 0
-731 -177 -732 0
731 -177 732 0
-731 177 732 0
732 243 -733 0
-732 -243 -733 0
732 -243 733 0
-732 243 733 0
734 735 736 0
-734 -735 0
-734 -736 0
-735 -736 0
-727 730 734 0
-727 -730 733 735 0
-727 -730 -733 736 0
-728 730 735 0
-728 -730 733 736 0
-728 -730 -733 734 0
-729 730 736 0
-729 -730 733 734 0
-729 -730 -733 735 0
-737 -13 0
-737 -133 0
-737 -187 0
-737 -217 0
737 13 133 187 217 0
15 135 -738 0
-15 -135 -738 0
15 -135 738 0
-15 135 738 0
738 189 -739 0
-738 -189 -739 0
738 -189 739 0
-738 189 739 0
739 219 -740 0
-739 -219 -740 0
739 -219 740 0
-739 219 740 0
741 742 743 0
-741 -742 0
-741 -743 0
-742 -743 0
-734 737 741 0
-734 -737 740 742 0
-734 -737 -740 743 0
-735 737 742 0
-735 -737 740 743 0
-735 -737 -740 741 0
-736 737 743 0
-736 -737 740 741 0
-736 -737 -740 742 0
-744 -13 0
-744 -160 0
-744 -163 0
-744 -202 0
744 13 160 163 202 0
15 162 -745 0
-15 -162 -745 0
15 -162 745 0
-15 162 745 0
745 165 -746 0
-745 -165 -746 0
745 -165 746 0
-745 165 746 0
746 204 -747 0
-746 -204 -747 0
746 -204 747 0
-746 204 747 0
748 749 750 0
-748 -749 0
-748 -750 0
-749 -750 0
-741 744 748 0
-741 -744 747 749 0
-741 -744 -747 750 0
-742 744 749 0
-742 -744 747 750 0
-742 -744 -747 748 0
-743 744 750 0
-743 -744 747 748 0
-743 -744 -747 749 0
-751 -13 0
-751 -160 0
-751 -175 0
-751 -214 0
751 13 160 175 214 0
15 162 -752 0
-15 -162 -752 0
15 -162 752 0
-15 162 752 0
752 177 -753 0
-752 -177 -753 0
752 -177 753 0
-752 177 753 0
753 216 -754 0
-753 -216 -754 0
753 -216 754 0
-753 216 754 0
755 756 757 0
-755 -756 0
-755 -757 0
-756 -757 0
-748 751 755 0
-748 -751 754 756 0
-748 -751 -754 757 0
-749 751 756 0
-749 -751 754 757 0
-749 -751 -754 755 0
-750 751 757 0
-750 -751 754 755 0
-750 -751 -754 756 0
-758 -13 0
-758 -160 0
-758 -187 0
-758 -190 0
758 13 160 187 190 0
15 162 -759 0
-15 -162 -759 0
15 -162 759 0
-15 162 759 0
759 189 -760 0
-759 -189 -760 0
759 -189 760 0
-759 189 760 0
760 192 -761 0
-760 -192 -761 0
760 -192 761 0
-760 192 761 0
762 763 764 0
-762 -763 0
-762 -764 0
-763 -764 0
-755 758 762 0
-755 -758 761 763 0
-755 -758 -761 764 0
-756 758 763 0
-756 -758 761 764 0
-756 -758 -761 762 0
-757 758 764 0
-757 -758 761 762 0
-757 -758 -761 763 0
-765 -25 0
-765 -28 0
-765 -187 0
-765 -244 0
765 25 28 187 244 0
27 30 -766 0
-27 -30 -766 0
27 -30 766 0
-27 30 766 0
766 189 -767 0
-766 -189 -767 0
766 -189 767 0
-766 189 767 0
767 246 -768 0
-767 -246 -768 0
767 -246 768 0
-767 246 768 0
769 770 771 0
-769 -770 0
-769 -771 0
-770 -771 0
-762 765 769 0
-762 -765 768 770 0
-762 -765 -768 771 0
-763 765 770 0
-763 -765 768 771 0
-763 -765 -768 769 0
-764 765 771 0
-764 -765 768 769 0
-764 -765 -768 770 0
-772 -25 0
-772 -28 0
-772 -202 0
-772 -241 0
772 25 28 202 241 0
27 30 -773 0
-27 -30 -773 0
27 -30 773 0
-27 30 773 0
773 204 -774 0
-773 -204 -774 0
773 -204 774 0
-773 204 774 0
774 243 -775 0
-774 -243 -775 0
774 -243 775 0
-774 243 775 0
776 777 778 0
-776 -777 0
-776 -778 0
-777 -778 0
-769 772 776 0
-769 -772 775 777 0
-769 -772 -775 778 0
-770 772 777 0
-770 -772 775 778 0
-770 -772 -775 776 0
-771 772 778 0
-771 -772 775 776 0
-771 -772 -775 777 0
-779 -25 0
-779 -28 0
-779 -214 0
-779 -229 0
779 25 28 214 229 0
27 30 -780 0
-27 -30 -780 0
27 -30 780 0
-27 30 780 0
780 216 -781 0
-780 -216 -781 0
780 -216 781 0
-780 216 781 0
781 231 -782 0
-781 -231 -782 0
781 -231 782 0
-781 231 782 0
783 784 785 0
-783 -784 0
-783 -785 0
-784 -785 0
-776 779 783 0
-776 -779 782 784 0
-776 -779 -782 785 0
-777 779 784 0
-777 -779 782 785 0
-777 -779 -782 783 0
-778 779 785 0
-778 -779 782 783 0
-778 -779 -782 784 0
-786 -25 0
-786 -55 0
-786 -175 0
-786 -244 0
786 25 55 175 244 0
27 57 -787 0
-27 -57 -787 0
27 -57 787 0
-27 57 787 0
787 177 -788 0
-787 -177 -788 0
787 -177 788 0
-787 177 788 0
788 246 -789 0
-788 -246 -789 0
788 -246 789 0
-788 246 789 0
790 791 792 0
-790 -791 0
-790 -792 0
-791 -792 0
-783 786 790 0
-783 -786 789 791 0
-783 -786 -789 792 0
-784 786 791 0
-784 -786 789 792 0
-784 -786 -789 790 0
-785 786 792 0
-785 -786 789 790 0
-785 -786 -789 791 0
-793 -25 0
-793 -55 0
-793 -190 0
-793 -229 0
793 25 55 190 229 0
27 57 -794 0
-27 -57 -794 0
27 -57 794 0
-27 57 794 0
794 192 -795 0
-794 -192 -795 0
794 -192 795 0
-794 192 795 0
795 231 -796 0
-795 -231 -796 0
795 -231 796 0
-795 231 796 0
797 798 799 0
-797 -798 0
-797 -799 0
-798 -799 0
-790 793 797 0
-790 -793 796 798 0
-790 -793 -796 799 0
-791 793 798 0
-791 -793 796 799 0
-791 -793 -796 797 0
-792 793 799 0
-792 -793 796 797 0
-792 -793 -796 798 0
-800 -25 0
-800 -55 0
-800 -202 0
-800 -217 0
800 25 55 202 217 0
27 57 -801 0
-27 -57 -801 0
27 -57 801 0
-27 57 801 0
801 204 -802 0
-801 -204 -802 0
801 -204 802 0
-801 204 802 0
802 219 -803 0
-802 -219 -803 0
802 -219 803 0
-802 219 803 0
804 805 806 0
-804 -805 0
-804 -806 0
-805 -806 0
-797 800 804 0
-797 -800 803 805 0
-797 -800 -803 806 0
-798 800 805 0
-798 -800 803 806 0
-798 -800 -803 804 0
-799 800 806 0
-799 -800 803 804 0
-799 -800 -803 805 0
-807 -25 0
-807 -82 0
-807 -163 0
-807 -244 0
807 25 82 163 244 0
27 84 -808 0
-27 -84 -808 0
27 -84 808 0
-27 84 808 0
808 165 -809 0
-808 -165 -809 0
808 -165 809 0
-808 165 809 0
809 246 -810 0
-809 -246 -810 0
809 -246 810 0
-809 246 810 0
811 812 813 0
-811 -812 0
-811 -813 0
-812 -813 0
-804 807 811 0
-804 -807 810 812 0
-804 -807 -810 813 0
-805 807 812 0
-805 -807 810 813 0
-805 -807 -810 811 0
-806 807 813 0
-806 -807 810 811 0
-806 -807 -810 812 0
-814 -25 0
-814 -82 0
-814 -190 0
-814 -241 0
814 25 82 190 241 0
27 84 -815 0
-27 -84 -815 0
27 -84 815 0
-27 84 815 0
815 192 -816 0
-815 -192 -816 0
815 -192 816 0
-815 192 816 0
816 243 -817 0
-816 -243 -817 0
816 -243 817 0
-816 243 817 0
818 819 820 0
-818 -819 0
-818 -820 0
-819 -820 0
-811 814 818 0
-811 -814 817 819 0
-811 -814 -817 820 0
-812 814 819 0
-812 -814 817 820 0
-812 -814 -817 818 0
-813 814 820 0
-813 -814 817 818 0
-813 -814 -817 819 0
-821 -25 0
-821 -82 0
-821 -214 0
-821 -217 0
821 25 82 214 217 0
27 84 -822 0
-27 -84 -822 0
27 -84 822 0
-27 84 822 0
822 216 -823 0
-822 -216 -823 0
822 -216 823 0
-822 216 823 0
823 219 -824 0
-823 -219 -824 0
823 -219 824 0
-823 219 824 0
825 826 827 0
-825 -826 0
-825 -827 0
-826 -827 0
-818 821 825 0
-818 -821 824 826 0
-818 -821 -824 827 0
-819 821 826 0
-819 -821 824 827 0
-819 -821 -824 825 0
-820 821 827 0
-820 -821 824 825 0
-820 -821 -824 826 0
-828 -25 0
-828 -109 0
-828 -163 0
-828 -229 0
828 25 109 163 229 0
27 111 -829 0
-27 -111 -829 0
27 -111 829 0
-27 111 829 0
829 165 -830 0
-829 -165 -830 0
829 -165 830 0
-829 165 830 0
830 231 -831 0
-830 -231 -831 0
830 -231 831 0
-830 231 831 0
832 833 834 0
-832 -833 0
-832 -834 0
-833 -834 0
-825 828 832 0
-825 -828 831 833 0
-825 -828 -831 834 0
-826 828 833 0
-826 -828 831 834 0
-826 -828 -831 832 0
-827 828 834 0
-827 -828 831 832 0
-827 -828 -831 833 0
-835 -25 0
-835 -109 0
-835 -175 0
-835 -241 0
835 25 109 175 241 0
27 111 -836 0
-27 -111 -836 0
27 -111 836 0
-27 111 836 0
836 177 -837 0
-836 -177 -837 0
836 -177 837 0
-836 177 837 0
837 243 -838 0
-837 -243 -838 0
837 -243 838 0
-837 243 838 0
839 840 841 0
-839 -840 0
-839 -841 0
-840 -841 0
-832 835 839 0
-832 -835 838 840 0
-832 -835 -838 841 0
-833 835 840 0
-833 -835 838 841 0
-833 -835 -838 839 0
-834 835 841 0
-834 -835 838 839 0
-834 -835 -838 840 0
-842 -25 0
-842 -109 0
-842 -187 0
-842 -217 0
842 25 109 187 217 0
27 111 -843 0
-27 -111 -843 0
27 -111 843 0
-27 111 843 0
843 189 -844 0
-843 -189 -844 0
843 -189 844 0
-843 189 844 0
844 219 -845 0
-844 -219 -845 0
844 -219 845 0
-844 219 845 0
846 847 848 0
-846 -847 0
-846 -848 0
-847 -848 0
-839 842 846 0
-839 -842 845 847 0
-839 -842 -845 848 0
-840 842 847 0
-840 -842 845 848 0
-840 -842 -845 846 0
-841 842 848 0
-841 -842 845 846 0
-841 -842 -845 847 0
-849 -25 0
-849 -136 0
-849 -163 0
-849 -202 0
849 25 136 163 202 0
27 138 -850 0
-27 -138 -850 0
27 -138 850 0
-27 138 850 0
850 165 -851 0
-850 -165 -851 0
850 -165 851 0
-850 165 851 0
851 204 -852 0
-851 -204 -852 0
851 -204 852 0
-851 204 852 0
853 854 855 0
-853 -854 0
-853 -855 0
-854 -855 0
-846 849 853 0
-846 -849 852 854 0
-846 -849 -852 855 0
-847 849 854 0
-847 -849 852 855 0
-847 -849 -852 853 0
-848 849 855 0
-848 -849 852 853 0
-848 -849 -852 854 0
-856 -25 0
-856 -136 0
-856 -175 0
-856 -214 0
856 25 136 175 214 0
27 138 -857 0
-27 -138 -857 0
27 -138 857 0
-27 138 857 0
857 177 -858 0
-857 -177 -858 0
857 -177 858 0
-857 177 858 0
858 216 -859 0
-858 -216 -859 0
858 -216 859 0
-858 216 859 0
860 861 862 0
-860 -861 0
-860 -862 0
-861 -862 0
-853 856 860 0
-853 -856 859 861 0
-853 -856 -859 862 0
-854 856 861 0
-854 -856 859 862 0
-854 -856 -859 860 0
-855 856 862 0
-855 -856 859 860 0
-855 -856 -859 861 0
-863 -25 0
-863 -136 0
-863 -187 0
-863 -190 0
863 25 136 187 190 0
27 138 -864 0
-27 -138 -864 0
27 -138 864 0
-27 138 864 0
864 189 -865 0
-864 -189 -865 0
864 -189 865 0
-864 189 865 0
865 192 -866 0
-865 -192 -866 0
865 -192 866 0
-865 192 866 0
867 868 869 0
-867 -868 0
-867 -869 0
-868 -869 0
-860 863 867 0
-860 -863 866 868 0
-860 -863 -866 869 0
-861 863 868 0
-861 -863 866 869 0
-861 -863 -866 867 0
-862 863 869 0
-862 -863 866 867 0
-862 -863 -866 868 0
-870 -28 0
-870 -40 0
-870 -52 0
-870 -244 0
870 28 40 52 244 0
30 42 -871 0
-30 -42 -871 0
30 -42 871 0
-30 42 871 0
871 54 -872 0
-871 -54 -872 0
871 -54 872 0
-871 54 872 0
872 246 -873 0
-872 -246 -873 0
872 -246 873 0
-872 246 873 0
874 875 876 0
-874 -875 0
-874 -876 0
-875 -876 0
-867 870 874 0
-867 -870 873 875 0
-867 -870 -873 876 0
-868 870 875 0
-868 -870 873 876 0
-868 -870 -873 874 0
-869 870 876 0
-869 -870 873 874 0
-869 -870 -873 875 0
-877 -28 0
-877 -40 0
-877 -133 0
-877 -241 0
877 28 40 133 241 0
30 42 -878 0
-30 -42 -878 0
30 -42 878 0
-30 42 878 0
878 135 -879 0
-878 -135 -879 0
878 -135 879 0
-878 135 879 0
879 243 -880 0
-879 -243 -880 0
879 -243 880 0
-879 243 880 0
881 882 883 0
-881 -882 0
-881 -883 0
-882 -883 0
-874 877 881 0
-874 -877 880 882 0
-874 -877 -880 883 0
-875 877 882 0
-875 -877 880 883 0
-875 -877 -880 881 0
-876 877 883 0
-876 -877 880 881 0
-876 -877 -880 882 0
-884 -28 0
-884 -40 0
-884 -160 0
-884 -214 0
884 28 40 160 214 0
30 42 -885 0
-30 -42 -885 0
30 -42 885 0
-30 42 885 0
885 162 -886 0
-885 -162 -886 0
885 -162 886 0
-885 162 886 0
886 216 -887 0
-886 -216 -887 0
886 -216 887 0
-886 216 887 0
888 889 890 0
-888 -889 0
-888 -890 0
-889 -890 0
-881 884 888 0
-881 -884 887 889 0
-881 -884 -887 890 0
-882 884 889 0
-882 -884 887 890 0
-882 -884 -887 888 0
-883 884 890 0
-883 -884 887 888 0
-883 -884 -887 889 0
-891 -28 0
-891 -52 0
-891 -121 0
-891 -229 0
891 28 52 121 229 0
30 54 -892 0
-30 -54 -892 0
30 -54 892 0
-30 54 892 0
892 123 -893 0
-892 -123 -893 0
892 -123 893 0
-892 123 893 0
893 231 -894 0
-893 -231 -894 0
893 -231 894 0
-893 231 894 0
895 896 897 0
-895 -896 0
-895 -897 0
-896 -897 0
-888 891 895 0
-888 -891 894 896 0
-888 -891 -894 897 0
-889 891 896 0
-889 -891 894 897 0
-889 -891 -894 895 0
-890 891 897 0
-890 -891 894 895 0
-890 -891 -894 896 0
-898 -28 0
-898 -52 0
-898 -148 0
-898 -202 0
898 28 52 148 202 0
30 54 -899 0
-30 -54 -899 0
30 -54 899 0
-30 54 899 0
899 150 -900 0
-899 -150 -900 0
899 -150 900 0
-899 150 900 0
900 204 -901 0
-900 -204 -901 0
900 -204 901 0
-900 204 901 0
902 903 904 0
-902 -903 0
-902 -904 0
-903 -904 0
-895 898 902 0
-895 -898 901 903 0
-895 -898 -901 904 0
-896 898 903 0
-896 -898 901 904 0
-896 -898 -901 902 0
-897 898 904 0
-897 -898 901 902 0
-897 -898 -901 903 0
-905 -28 0
-905 -79 0
-905 -94 0
-905 -244 0
905 28 79 94 244 0
30 81 -906 0
-30 -81 -906 0
30 -81 906 0
-30 81 906 0
906 96 -907 0
-906 -96 -907 0
906 -96 907 0
-906 96 907 0
907 246 -908 0
-907 -246 -908 0
907 -246 908 0
-907 246 908 0
909 910 911 0
-909 -910 0
-909 -911 0
-910 -911 0
-902 905 909 0
-902 -905 908 910 0
-902 -905 -908 911 0
-903 905 910 0
-903 -905 908 911 0
-903 -905 -908 909 0
-904 905 911 0
-904 -905 908 909 0
-904 -905 -908 910 0
-912 -28 0
-912 -79 0
-912 -121 0
-912 -241 0
912 28 79 121 241 0
30 81 -913 0
-30 -81 -913 0
30 -81 913 0
-30 81 913 0
913 123 -914 0
-913 -123 -914 0
913 -123 914 0
-913 123 914 0
914 243 -915 0
-914 -243 -915 0
914 -243 915 0
-914 243 915 0
916 917 918 0
-916 -917 0
-916 -918 0
-917 -918 0
-909 912 916 0
-909 -912 915 917 0
-909 -912 -915 918 0
-910 912 917 0
-910 -912 915 918 0
-910 -912 -915 916 0
-911 912 918 0
-911 -912 915 916 0
-911 -912 -915 917 0
-919 -28 0
-919 -79 0
-919 -148 0
-919 -214 0
919 28 79 148 214 0
30 81 -920 0
-30 -81 -920 0
30 -81 920 0
-30 81 920 0
920 150 -921 0
-920 -150 -921 0
920 -150 921 0
-920 150 921 0
921 216 -922 0
-921 -216 -922 0
921 -216 922 0
-921 216 922 0
923 924 925 0
-923 -924 0
-923 -925 0
-924 -925 0
-916 919 923 0
-916 -919 922 924 0
-916 -919 -922 925 0
-917 919 924 0
-917 -919 922 925 0
-917 -919 -922 923 0
-918 919 925 0
-918 -919 922 923 0
-918 -919 -922 924 0
-926 -28 0
-926 -94 0
-926 -133 0
-926 -229 0
926 28 94 133 229 0
30 96 -927 0
-30 -96 -927 0
30 -96 927 0
-30 96 927 0
927 135 -928 0
-927 -135 -928 0
927 -135 928 0
-927 135 928 0
928 231 -929 0
-928 -231 -929 0
928 -231 929 0
-928 231 929 0
930 931 932 0
-930 -931 0
-930 -932 0
-931 -932 0
-923 926 930 0
-923 -926 929 931 0
-923 -926 -929 932 0
-924 926 931 0
-924 -926 929 932 0
-924 -926 -929 930 0
-925 926 932 0
-925 -926 929 930 0
-925 -926 -929 931 0
-933 -28 0
-933 -94 0
-933 -160 0
-933 -202 0
933 28 94 160 202 0
30 96 -934 0
-30 -96 -934 0
30 -96 934 0
-30 96 934 0
934 162 -935 0
-934 -162 -935 0
934 -162 935 0
-934 162 935 0
935 204 -936 0
-935 -204 -936 0
935 -204 936 0
-935 204 936 0
937 938 939 0
-937 -938 0
-937 -939 0
-938 -939 0
-930 933 937 0
-930 -933 936 938 0
-930 -933 -936 939 0
-931 933 938 0
-931 -933 936 939 0
-931 -933 -936 937 0
-932 933 939 0
-932 -933 936 937 0
-932 -933 -936 938 0
-940 -28 0
-940 -121 0
-940 -160 0
-940 -187 0
940 28 121 160 187 0
30 123 -941 0
-30 -123 -941 0
30 -123 941 0
-30 123 941 0
941 162 -942 0
-941 -162 -942 0
941 -162 942 0
-941 162 942 0
942 189 -943 0
-942 -189 -943 0
942 -189 943 0
-942 189 943 0
944 945 946 0
-944 -945 0
-944 -946 0
-945 -946 0
-937 940 944 0
-937 -940 943 945 0
-937 -940 -943 946 0
-938 940 945 0
-938 -940 943 946 0
-938 -940 -943 944 0
-939 940 946 0
-939 -940 943 944 0
-939 -940 -943 945 0
-947 -28 0
-947 -133 0
-947 -148 0
-947 -187 0
947 28 133 148 187 0
30 135 -948 0
-30 -135 -948 0
30 -135 948 0
-30 135 948 0
948 150 -949 0
-948 -150 -949 0
948 -150 949 0
-948 150 949 0
949 189 -950 0
-949 -189 -950 0
949 -189 950 0
-949 189 950 0
951 952 953 0
-951 -952 0
-951 -953 0
-952 -953 0
-944 947 951 0
-944 -947 950 952 0
-944 -947 -950 953 0
-945 947 952 0
-945 -947 950 953 0
-945 -947 -950 951 0
-946 947 953 0
-946 -947 950 951 0
-946 -947 -950 952 0
-954 -40 0
-954 -52 0
-954 -109 0
-954 -217 0
954 40 52 109 217 0
42 54 -955 0
-42 -54 -955 0
42 -54 955 0
-42 54 955 0
955 111 -956 0
-955 -111 -956 0
955 -111 956 0
-955 111 956 0
956 219 -957 0
-956 -219 -957 0
956 -219 957 0
-956 219 957 0
958 959 960 0
-958 -959 0
-958 -960 0
-959 -960 0
-951 954 958 0
-951 -954 957 959 0
-951 -954 -957 960 0
-952 954 959 0
-952 -954 957 960 0
-952 -954 -957 958 0
-953 954 960 0
-953 -954 957 958 0
-953 -954 -957 959 0
-961 -40 0
-961 -52 0
-961 -136 0
-961 -190 0
961 40 52 136 190 0
42 54 -962 0
-42 -54 -962 0
42 -54 962 0
-42 54 962 0
962 138 -963 0
-962 -138 -963 0
962 -138 963 0
-962 138 963 0
963 192 -964 0
-963 -192 -964 0
963 -192 964 0
-963 192 964 0
965 966 967 0
-965 -966 0
-965 -967 0
-966 -967 0
-958 961 965 0
-958 -961 964 966 0
-958 -961 -964 967 0
-959 961 966 0
-959 -961 964 967 0
-959 -961 -964 965 0
-960 961 967 0
-960 -961 964 965 0
-960 -961 -964 966 0
-968 -40 0
-968 -55 0
-968 -106 0
-968 -244 0
968 40 55 106 244 0
42 57 -969 0
-42 -57 -969 0
42 -57 969 0
-42 57 969 0
969 108 -970 0
-969 -108 -970 0
969 -108 970 0
-969 108 970 0
970 246 -971 0
-970 -246 -971 0
970 -246 971 0
-970 246 971 0
972 973 974 0
-972 -973 0
-972 -974 0
-973 -974 0
-965 968 972 0
-965 -968 971 973 0
-965 -968 -971 974 0
-966 968 973 0
-966 -968 971 974 0
-966 -968 -971 972 0
-967 968 974 0
-967 -968 971 972 0
-967 -968 -971 973 0
-975 -40 0
-975 -55 0
-975 -133 0
-975 -217 0
975 40 55 133 217 0
42 57 -976 0
-42 -57 -976 0
42 -57 976 0
-42 57 976 0
976 135 -977 0
-976 -135 -977 0
976 -135 977 0
-976 135 977 0
977 219 -978 0
-977 -219 -978 0
977 -219 978 0
-977 219 978 0
979 980 981 0
-979 -980 0
-979 -981 0
-980 -981 0
-972 975 979 0
-972 -975 978 980 0
-972 -975 -978 981 0
-973 975 980 0
-973 -975 978 981 0
-973 -975 -978 979 0
-974 975 981 0
-974 -975 978 979 0
-974 -975 -978 980 0
-982 -40 0
-982 -55 0
-982 -160 0
-982 -190 0
982 40 55 160 190 0
42 57 -983 0
-42 -57 -983 0
42 -57 983 0
-42 57 983 0
983 162 -984 0
-983 -162 -984 0
983 -162 984 0
-983 162 984 0
984 192 -985 0
-984 -192 -985 0
984 -192 985 0
-984 192 985 0
986 987 988 0
-986 -987 0
-986 -988 0
-987 -988 0
-979 982 986 0
-979 -982 985 987 0
-979 -982 -985 988 0
-980 982 987 0
-980 -982 985 988 0
-980 -982 -985 986 0
-981 982 988 0
-981 -982 985 986 0
-981 -982 -985 987 0
-989 -40 0
-989 -106 0
-989 -109 0
-989 -241 0
989 40 106 109 241 0
42 108 -990 0
-42 -108 -990 0
42 -108 990 0
-42 108 990 0
990 111 -991 0
-990 -111 -991 0
990 -111 991 0
-990 111 991 0
991 243 -992 0
-991 -243 -992 0
991 -243 992 0
-991 243 992 0
993 994 995 0
-993 -994 0
-993 -995 0
-994 -995 0
-986 989 993 0
-986 -989 992 994 0
-986 -989 -992 995 0
-987 989 994 0
-987 -989 992 995 0
-987 -989 -992 993 0
-988 989 995 0
-988 -989 992 993 0
-988 -989 -992 994 0
-996 -40 0
-996 -106 0
-996 -136 0
-996 -214 0
996 40 106 136 214 0
42 108 -997 0
-42 -108 -997 0
42 -108 997 0
-42 108 997 0
997 138 -998 0
-997 -138 -998 0
997 -138 998 0
-997 138 998 0
998 216 -999 0
-998 -216 -999 0
998 -216 999 0
-998 216 999 0
1000 1001 1002 0
-1000 -1001 0
-1000 -1002 0
-1001 -1002 0
-993 996 1000 0
-993 -996 999 1001 0
-993 -996 -999 1002 0
-994 996 1001 0
-994 -996 999 1002 0
-994 -996 -999 1000 0
-995 996 1002 0
-995 -996 999 1000 0
-995 -996 -999 1001 0
-1003 -40 0
-1003 -109 0
-1003 -160 0
-1003 -163 0
1003 40 109 160 163 0
42 111 -1004 0
-42 -111 -1004 0
42 -111 1004 0
-42 111 1004 0
1004 162 -1005 0
-1004 -162 -1005 0
1004 -162 1005 0
-1004 162 1005 0
1005 165 -1006 0
-1005 -165 -1006 0
1005 -165 1006 0
-1005 165 1006 0
1007 1008 1009 0
-1007 -1008 0
-1007 -1009 0
-1008 -1009 0
-1000 1003 1007 0
-1000 -1003 1006 1008 0
-1000 -1003 -1006 1009 0
-1001 1003 1008 0
-1001 -1003 1006 1009 0
-1001 -1003 -1006 1007 0
-1002 1003 1009 0
-1002 -1003 1006 1007 0
-1002 -1003 -1006 1008 0
-1010 -40 0
-1010 -133 0
-1010 -136 0
-1010 -163 0
1010 40 133 136 163 0
42 135 -1011 0
-42 -135 -1011 0
42 -135 1011 0
-42 135 1011 0
1011 138 -1012 0
-1011 -138 -1012 0
1011 -138 1012 0
-1011 138 1012 0
1012 165 -1013 0
-1012 -165 -1013 0
1012 -165 1013 0
-1012 165 1013 0
1014 1015 1016 0
-1014 -1015 0
-1014 -1016 0
-1015 -1016 0
-1007 1010 1014 0
-1007 -1010 1013 1015 0
-1007 -1010 -1013 1016 0
-1008 1010 1015 0
-1008 -1010 1013 1016 0
-1008 -1010 -1013 1014 0
-1009 1010 1016 0
-1009 -1010 1013 1014 0
-1009 -1010 -1013 1015 0
-1017 -52 0
-1017 -67 0
-1017 -82 0
-1017 -244 0
1017 52 67 82 244 0
54 69 -1018 0
-54 -69 -1018 0
54 -69 1018 0
-54 69 1018 0
1018 84 -1019 0
-1018 -84 -1019 0
1018 -84 1019 0
-1018 84 1019 0
1019 246 -1020 0
-1019 -246 -1020 0
1019 -246 1020 0
-1019 246 1020 0
1021 1022 1023 0
-1021 -1022 0
-1021 -1023 0
-1022 -1023 0
-1014 1017 1021 0
-1014 -1017 1020 1022 0
-1014 -1017 -1020 1023 0
-1015 1017 1022 0
-1015 -1017 1020 1023 0
-1015 -1017 -1020 1021 0
-1016 1017 1023 0
-1016 -1017 1020 1021 0
-1016 -1017 -1020 1022 0
-1024 -52 0
-1024 -67 0
-1024 -109 0
-1024 -229 0
1024 52 67 109 229 0
54 69 -1025 0
-54 -69 -1025 0
54 -69 1025 0
-54 69 1025 0
1025 111 -1026 0
-1025 -111 -1026 0
1025 -111 1026 0
-1025 111 1026 0
1026 231 -1027 0
-1026 -231 -1027 0
1026 -231 1027 0
-1026 231 1027 0
1028 1029 1030 0
-1028 -1029 0
-1028 -1030 0
-1029 -1030 0
-1021 1024 1028 0
-1021 -1024 1027 1029 0
-1021 -1024 -1027 1030 0
-1022 1024 1029 0
-1022 -1024 1027 1030 0
-1022 -1024 -1027 1028 0
-1023 1024 1030 0
-1023 -1024 1027 1028 0
-1023 -1024 -1027 1029 0
-1031 -52 0
-1031 -67 0
-1031 -136 0
-1031 -202 0
1031 52 67 136 202 0
54 69 -1032 0
-54 -69 -1032 0
54 -69 1032 0
-54 69 1032 0
1032 138 -1033 0
-1032 -138 -1033 0
1032 -138 1033 0
-1032 138 1033 0
1033 204 -1034 0
-1033 -204 -1034 0
1033 -204 1034 0
-1033 204 1034 0
1035 1036 1037 0
-1035 -1036 0
-1035 -1037 0
-1036 -1037 0
-1028 1031 1035 0
-1028 -1031 1034 1036 0
-1028 -1031 -1034 1037 0
-1029 1031 1036 0
-1029 -1031 1034 1037 0
-1029 -1031 -1034 1035 0
-1030 1031 1037 0
-1030 -1031 1034 1035 0
-1030 -1031 -1034 1036 0
-1038 -52 0
-1038 -82 0
-1038 -121 0
-1038 -217 0
1038 52 82 121 217 0
54 84 -1039 0
-54 -84 -1039 0
54 -84 1039 0
-54 84 1039 0
1039 123 -1040 0
-1039 -123 -1040 0
1039 -123 1040 0
-1039 123 1040 0
1040 219 -1041 0
-1040 -219 -1041 0
1040 -219 1041 0
-1040 219 1041 0
1042 1043 1044 0
-1042 -1043 0
-1042 -1044 0
-1043 -1044 0
-1035 1038 1042 0
-1035 -1038 1041 1043 0
-1035 -1038 -1041 1044 0
-1036 1038 1043 0
-1036 -1038 1041 1044 0
-1036 -1038 -1041 1042 0
-1037 1038 1044 0
-1037 -1038 1041 1042 0
-1037 -1038 -1041 1043 0
-1045 -52 0
-1045 -82 0
-1045 -148 0
-1045 -190 0
1045 52 82 148 190 0
54 84 -1046 0
-54 -84 -1046 0
54 -84 1046 0
-54 84 1046 0
1046 150 -1047 0
-1046 -150 -1047 0
1046 -150 1047 0
-1046 150 1047 0
1047 192 -1048 0
-1047 -192 -1048 0
1047 -192 1048 0
-1047 192 1048 0
1049 1050 1051 0
-1049 -1050 0
-1049 -1051 0
-1050 -1051 0
-1042 1045 1049 0
-1042 -1045 1048 1050 0
-1042 -1045 -1048 1051 0
-1043 1045 1050 0
-1043 -1045 1048 1051 0
-1043 -1045 -1048 1049 0
-1044 1045 1051 0
-1044 -1045 1048 1049 0
-1044 -1045 -1048 1050 0
-1052 -52 0
-1052 -109 0
-1052 -148 0
-1052 -175 0
1052 52 109 148 175 0
54 111 -1053 0
-54 -111 -1053 0
54 -111 1053 0
-54 111 1053 0
1053 150 -1054 0
-1053 -150 -1054 0
1053 -150 1054 0
-1053 150 1054 0
1054 177 -1055 0
-1054 -177 -1055 0
1054 -177 1055 0
-1054 177 1055 0
1056 1057 1058 0
-1056 -1057 0
-1056 -1058 0
-1057 -1058 0
-1049 1052 1056 0
-1049 -1052 1055 1057 0
-1049 -1052 -1055 1058 0
-1050 1052 1057 0
-1050 -1052 1055 1058 0
-1050 -1052 -1055 1056 0
-1051 1052 1058 0
-1051 -1052 1055 1056 0
-1051 -1052 -1055 1057 0
-1059 -52 0
-1059 -121 0
-1059 -136 0
-1059 -175 0
1059 52 121 136 175 0
54 123 -1060 0
-54 -123 -1060 0
54 -123 1060 0
-54 123 1060 0
1060 138 -1061 0
-1060 -138 -1061 0
1060 -138 1061 0
-1060 138 1061 0
1061 177 -1062 0
-1061 -177 -1062 0
1061 -177 1062 0
-1061 177 1062 0
1063 1064 1065 0
-1063 -1064 0
-1063 -1065 0
-1064 -1065 0
-1056 1059 1063 0
-1056 -1059 1062 1064 0
-1056 -1059 -1062 1065 0
-1057 1059 1064 0
-1057 -1059 1062 1065 0
-1057 -1059 -1062 1063 0
-1058 1059 1065 0
-1058 -1059 1062 1063 0
-1058 -1059 -1062 1064 0
-1066 -55 0
-1066 -67 0
-1066 -79 0
-1066 -244 0
1066 55 67 79 244 0
57 69 -1067 0
-57 -69 -1067 0
57 -69 1067 0
-57 69 1067 0
1067 81 -1068 0
-1067 -81 -1068 0
1067 -81 1068 0
-1067 81 1068 0
1068 246 -1069 0
-1068 -246 -1069 0
1068 -246 1069 0
-1068 246 1069 0
1070 1071 1072 0
-1070 -1071 0
-1070 -1072 0
-1071 -1072 0
-1063 1066 1070 0
-1063 -1066 1069 1071 0
-1063 -1066 -1069 1072 0
-1064 1066 1071 0
-1064 -1066 1069 1072 0
-1064 -1066 -1069 1070 0
-1065 1066 1072 0
-1065 -1066 1069 1070 0
-1065 -1066 -1069 1071 0
-1073 -55 0
-1073 -67 0
-1073 -133 0
-1073 -229 0
1073 55 67 133 229 0
57 69 -1074 0
-57 -69 -1074 0
57 -69 1074 0
-57 69 1074 0
1074 135 -1075 0
-1074 -135 -1075 0
1074 -135 1075 0
-1074 135 1075 0
1075 231 -1076 0
-1075 -231 -1076 0
1075 -231 1076 0
-1075 231 1076 0
1077 1078 1079 0
-1077 -1078 0
-1077 -1079 0
-1078 -1079 0
-1070 1073 1077 0
-1070 -1073 1076 1078 0
-1070 -1073 -1076 1079 0
-1071 1073 1078 0
-1071 -1073 1076 1079 0
-1071 -1073 -1076 1077 0
-1072 1073 1079 0
-1072 -1073 1076 1077 0
-1072 -1073 -1076 1078 0
-1080 -55 0
-1080 -67 0
-1080 -160 0
-1080 -202 0
1080 55 67 160 202 0
57 69 -1081 0
-57 -69 -1081 0
57 -69 1081 0
-57 69 1081 0
1081 162 -1082 0
-1081 -162 -1082 0
1081 -162 1082 0
-1081 162 1082 0
1082 204 -1083 0
-1082 -204 -1083 0
1082 -204 1083 0
-1082 204 1083 0
1084 1085 1086 0
-1084 -1085 0
-1084 -1086 0
-1085 -1086 0
-1077 1080 1084 0
-1077 -1080 1083 1085 0
-1077 -1080 -1083 1086 0
-1078 1080 1085 0
-1078 -1080 1083 1086 0
-1078 -1080 -1083 1084 0
-1079 1080 1086 0
-1079 -1080 1083 1084 0
-1079 -1080 -1083 1085 0
-1087 -55 0
-1087 -79 0
-1087 -121 0
-1087 -217 0
1087 55 79 121 217 0
57 81 -1088 0
-57 -81 -1088 0
57 -81 1088 0
-57 81 1088 0
1088 123 -1089 0
-1088 -123 -1089 0
1088 -123 1089 0
-1088 123 1089 0
1089 219 -1090 0
-1089 -219 -1090 0
1089 -219 1090 0
-1089 219 1090 0
1091 1092 1093 0
-1091 -1092 0
-1091 -1093 0
-1092 -1093 0
-1084 1087 1091 0
-1084 -1087 1090 1092 0
-1084 -1087 -1090 1093 0
-1085 1087 1092 0
-1085 -1087 1090 1093 0
-1085 -1087 -1090 1091 0
-1086 1087 1093 0
-1086 -1087 1090 1091 0
-1086 -1087 -1090 1092 0
-1094 -55 0
-1094 -79 0
-1094 -148 0
-1094 -190 0
1094 55 79 148 190 0
57 81 -1095 0
-57 -81 -1095 0
57 -81 1095 0
-57 81 1095 0
1095 150 -1096 0
-1095 -150 -1096 0
1095 -150 1096 0
-1095 150 1096 0
1096 192 -1097 0
-1096 -192 -1097 0
1096 -192 1097 0
-1096 192 1097 0
1098 1099 1100 0
-1098 -1099 0
-1098 -1100 0
-1099 -1100 0
-1091 1094 1098 0
-1091 -1094 1097 1099 0
-1091 -1094 -1097 1100 0
-1092 1094 1099 0
-1092 -1094 1097 1100 0
-1092 -1094 -1097 1098 0
-1093 1094 1100 0
-1093 -1094 1097 1098 0
-1093 -1094 -1097 1099 0
-1101 -55 0
-1101 -106 0
-1101 -121 0
-1101 -229 0
1101 55 106 121 229 0
57 108 -1102 0
-57 -108 -1102 0
57 -108 1102 0
-57 108 1102 0
1102 123 -1103 0
-1102 -123 -1103 0
1102 -123 1103 0
-1102 123 1103 0
1103 231 -1104 0
-1103 -231 -1104 0
1103 -231 1104 0
-1103 231 1104 0
1105 1106 1107 0
-1105 -1106 0
-1105 -1107 0
-1106 -1107 0
-1098 1101 1105 0
-1098 -1101 1104 1106 0
-1098 -1101 -1104 1107 0
-1099 1101 1106 0
-1099 -1101 1104 1107 0
-1099 -1101 -1104 1105 0
-1100 1101 1107 0
-1100 -1101 1104 1105 0
-1100 -1101 -1104 1106 0
-1108 -55 0
-1108 -106 0
-1108 -148 0
-1108 -202 0
1108 55 106 148 202 0
57 108 -1109 0
-57 -108 -1109 0
57 -108 1109 0
-57 108 1109 0
1109 150 -1110 0
-1109 -150 -1110 0
1109 -150 1110 0
-1109 150 1110 0
1110 204 -1111 0
-1110 -204 -1111 0
1110 -204 1111 0
-1110 204 1111 0
1112 1113 1114 0
-1112 -1113 0
-1112 -1114 0
-1113 -1114 0
-1105 1108 1112 0
-1105 -1108 1111 1113 0
-1105 -1108 -1111 1114 0
-1106 1108 1113 0
-1106 -1108 1111 1114 0
-1106 -1108 -1111 1112 0
-1107 1108 1114 0
-1107 -1108 1111 1112 0
-1107 -1108 -1111 1113 0
-1115 -55 0
-1115 -121 0
-1115 -160 0
-1115 -175 0
1115 55 121 160 175 0
57 123 -1116 0
-57 -123 -1116 0
57 -123 1116 0
-57 123 1116 0
1116 162 -1117 0
-1116 -162 -1117 0
1116 -162 1117 0
-1116 162 1117 0
1117 177 -1118 0
-1117 -177 -1118 0
1117 -177 1118 0
-1117 177 1118 0
1119 1120 1121 0
-1119 -1120 0
-1119 -1121 0
-1120 -1121 0
-1112 1115 1119 0
-1112 -1115 1118 1120 0
-1112 -1115 -1118 1121 0
-1113 1115 1120 0
-1113 -1115 1118 1121 0
-1113 -1115 -1118 1119 0
-1114 1115 1121 0
-1114 -1115 1118 1119 0
-1114 -1115 -1118 1120 0
-1122 -55 0
-1122 -133 0
-1122 -148 0
-1122 -175 0
1122 55 133 148 175 0
57 135 -1123 0
-57 -135 -1123 0
57 -135 1123 0
-57 135 1123 0
1123 150 -1124 0
-1123 -150 -1124 0
1123 -150 1124 0
-1123 150 1124 0
1124 177 -1125 0
-1124 -177 -1125 0
1124 -177 1125 0
-1124 177 1125 0
1126 1127 1128 0
-1126 -1127 0
-1126 -1128 0
-1127 -1128 0
-1119 1122 1126 0
-1119 -1122 1125 1127 0
-1119 -1122 -1125 1128 0
-1120 1122 1127 0
-1120 -1122 1125 1128 0
-1120 -1122 -1125 1126 0
-1121 1122 1128 0
-1121 -1122 1125 1126 0
-1121 -1122 -1125 1127 0
-1129 -67 0
-1129 -79 0
-1129 -109 0
-1129 -241 0
1129 67 79 109 241 0
69 81 -1130 0
-69 -81 -1130 0
69 -81 1130 0
-69 81 1130 0
1130 111 -1131 0
-1130 -111 -1131 0
1130 -111 1131 0
-1130 111 1131 0
1131 243 -1132 0
-1131 -243 -1132 0
1131 -243 1132 0
-1131 243 1132 0
1133 1134 1135 0
-1133 -1134 0
-1133 -1135 0
-1134 -1135 0
-1126 1129 1133 0
-1126 -1129 1132 1134 0
-1126 -1129 -1132 1135 0
-1127 1129 1134 0
-1127 -1129 1132 1135 0
-1127 -1129 -1132 1133 0
-1128 1129 1135 0
-1128 -1129 1132 1133 0
-1128 -1129 -1132 1134 0
-1136 -67 0
-1136 -79 0
-1136 -136 0
-1136 -214 0
1136 67 79 136 214 0
69 81 -1137 0
-69 -81 -1137 0
69 -81 1137 0
-69 81 1137 0
1137 138 -1138 0
-1137 -138 -1138 0
1137 -138 1138 0
-1137 138 1138 0
1138 216 -1139 0
-1138 -216 -1139 0
1138 -216 1139 0
-1138 216 1139 0
1140 1141 1142 0
-1140 -1141 0
-1140 -1142 0
-1141 -1142 0
-1133 1136 1140 0
-1133 -1136 1139 1141 0
-1133 -1136 -1139 1142 0
-1134 1136 1141 0
-1134 -1136 1139 1142 0
-1134 -1136 -1139 1140 0
-1135 1136 1142 0
-1135 -1136 1139 1140 0
-1135 -1136 -1139 1141 0
-1143 -67 0
-1143 -82 0
-1143 -133 0
-1143 -241 0
1143 67 82 133 241 0
69 84 -1144 0
-69 -84 -1144 0
69 -84 1144 0
-69 84 1144 0
1144 135 -1145 0
-1144 -135 -1145 0
1144 -135 1145 0
-1144 135 1145 0
1145 243 -1146 0
-1145 -243 -1146 0
1145 -243 1146 0
-1145 243 1146 0
1147 1148 1149 0
-1147 -1148 0
-1147 -1149 0
-1148 -1149 0
-1140 1143 1147 0
-1140 -1143 1146 1148 0
-1140 -1143 -1146 1149 0
-1141 1143 1148 0
-1141 -1143 1146 1149 0
-1141 -1143 -1146 1147 0
-1142 1143 1149 0
-1142 -1143 1146 1147 0
-1142 -1143 -1146 1148 0
-1150 -67 0
-1150 -82 0
-1150 -160 0
-1150 -214 0
1150 67 82 160 214 0
69 84 -1151 0
-69 -84 -1151 0
69 -84 1151 0
-69 84 1151 0
1151 162 -1152 0
-1151 -162 -1152 0
1151 -162 1152 0
-1151 162 1152 0
1152 216 -1153 0
-1152 -216 -1153 0
1152 -216 1153 0
-1152 216 1153 0
1154 1155 1156 0
-1154 -1155 0
-1154 -1156 0
-1155 -1156 0
-1147 1150 1154 0
-1147 -1150 1153 1155 0
-1147 -1150 -1153 1156 0
-1148 1150 1155 0
-1148 -1150 1153 1156 0
-1148 -1150 -1153 1154 0
-1149 1150 1156 0
-1149 -1150 1153 1154 0
-1149 -1150 -1153 1155 0
-1157 -67 0
-1157 -109 0
-1157 -160 0
-1157 -187 0
1157 67 109 160 187 0
69 111 -1158 0
-69 -111 -1158 0
69 -111 1158 0
-69 111 1158 0
1158 162 -1159 0
-1158 -162 -1159 0
1158 -162 1159 0
-1158 162 1159 0
1159 189 -1160 0
-1159 -189 -1160 0
1159 -189 1160 0
-1159 189 1160 0
1161 1162 1163 0
-1161 -1162 0
-1161 -1163 0
-1162 -1163 0
-1154 1157 1161 0
-1154 -1157 1160 1162 0
-1154 -1157 -1160 1163 0
-1155 1157 1162 0
-1155 -1157 1160 1163 0
-1155 -1157 -1160 1161 0
-1156 1157 1163 0
-1156 -1157 1160 1161 0
-1156 -1157 -1160 1162 0
-1164 -67 0
-1164 -133 0
-1164 -136 0
-1164 -187 0
1164 67 133 136 187 0
69 135 -1165 0
-69 -135 -1165 0
69 -135 1165 0
-69 135 1165 0
1165 138 -1166 0
-1165 -138 -1166 0
1165 -138 1166 0
-1165 138 1166 0
1166 189 -1167 0
-1166 -189 -1167 0
1166 -189 1167 0
-1166 189 1167 0
1168 1169 1170 0
-1168 -1169 0
-1168 -1170 0
-1169 -1170 0
-1161 1164 1168 0
-1161 -1164 1167 1169 0
-1161 -1164 -1167 1170 0
-1162 1164 1169 0
-1162 -1164 1167 1170 0
-1162 -1164 -1167 1168 0
-1163 1164 1170 0
-1163 -1164 1167 1168 0
-1163 -1164 -1167 1169 0
-1171 -79 0
-1171 -94 0
-1171 -109 0
-1171 -217 0
1171 79 94 109 217 0
81 96 -1172 0
-81 -96 -1172 0
81 -96 1172 0
-81 96 1172 0
1172 111 -1173 0
-1172 -111 -1173 0
1172 -111 1173 0
-1172 111 1173 0
1173 219 -1174 0
-1173 -219 -1174 0
1173 -219 1174 0
-1173 219 1174 0
1175 1176 1177 0
-1175 -1176 0
-1175 -1177 0
-1176 -1177 0
-1168 1171 1175 0
-1168 -1171 1174 1176 0
-1168 -1171 -1174 1177 0
-1169 1171 1176 0
-1169 -1171 1174 1177 0
-1169 -1171 -1174 1175 0
-1170 1171 1177 0
-1170 -1171 1174 1175 0
-1170 -1171 -1174 1176 0
-1178 -79 0
-1178 -94 0
-1178 -136 0
-1178 -190 0
1178 79 94 136 190 0
81 96 -1179 0
-81 -96 -1179 0
81 -96 1179 0
-81 96 1179 0
1179 138 -1180 0
-1179 -138 -1180 0
1179 -138 1180 0
-1179 138 1180 0
1180 192 -1181 0
-1180 -192 -1181 0
1180 -192 1181 0
-1180 192 1181 0
1182 1183 1184 0
-1182 -1183 0
-1182 -1184 0
-1183 -1184 0
-1175 1178 1182 0
-1175 -1178 1181 1183 0
-1175 -1178 -1181 1184 0
-1176 1178 1183 0
-1176 -1178 1181 1184 0
-1176 -1178 -1181 1182 0
-1177 1178 1184 0
-1177 -1178 1181 1182 0
-1177 -1178 -1181 1183 0
-1185 -79 0
-1185 -109 0
-1185 -148 0
-1185 -163 0
1185 79 109 148 163 0
81 111 -1186 0
-81 -111 -1186 0
81 -111 1186 0
-81 111 1186 0
1186 150 -1187 0
-1186 -150 -1187 0
1186 -150 1187 0
-1186 150 1187 0
1187 165 -1188 0
-1187 -165 -1188 0
1187 -165 1188 0
-1187 165 1188 0
1189 1190 1191 0
-1189 -1190 0
-1189 -1191 0
-1190 -1191 0
-1182 1185 1189 0
-1182 -1185 1188 1190 0
-1182 -1185 -1188 1191 0
-1183 1185 1190 0
-1183 -1185 1188 1191 0
-1183 -1185 -1188 1189 0
-1184 1185 1191 0
-1184 -1185 1188 1189 0
-1184 -1185 -1188 1190 0
-1192 -79 0
-1192 -121 0
-1192 -136 0
-1192 -163 0
1192 79 121 136 163 0
81 123 -1193 0
-81 -123 -1193 0
81 -123 1193 0
-81 123 1193 0
1193 138 -1194 0
-1193 -138 -1194 0
1193 -138 1194 0
-1193 138 1194 0
1194 165 -1195 0
-1194 -165 -1195 0
1194 -165 1195 0
-1194 165 1195 0
1196 1197 1198 0
-1196 -1197 0
-1196 -1198 0
-1197 -1198 0
-1189 1192 1196 0
-1189 -1192 1195 1197 0
-1189 -1192 -1195 1198 0
-1190 1192 1197 0
-1190 -1192 1195 1198 0
-1190 -1192 -1195 1196 0
-1191 1192 1198 0
-1191 -1192 1195 1196 0
-1191 -1192 -1195 1197 0
-1199 -82 0
-1199 -94 0
-1199 -106 0
-1199 -244 0
1199 82 94 106 244 0
84 96 -1200 0
-84 -96 -1200 0
84 -96 1200 0
-84 96 1200 0
1200 108 -1201 0
-1200 -108 -1201 0
1200 -108 1201 0
-1200 108 1201 0
1201 246 -1202 0
-1201 -246 -1202 0
1201 -246 1202 0
-1201 246 1202 0
1203 1204 1205 0
-1203 -1204 0
-1203 -1205 0
-1204 -1205 0
-1196 1199 1203 0
-1196 -1199 1202 1204 0
-1196 -1199 -1202 1205 0
-1197 1199 1204 0
-1197 -1199 1202 1205 0
-1197 -1199 -1202 1203 0
-1198 1199 1205 0
-1198 -1199 1202 1203 0
-1198 -1199 -1202 1204 0
-1206 -82 0
-1206 -94 0
-1206 -133 0
-1206 -217 0
1206 82 94 133 217 0
84 96 -1207 0
-84 -96 -1207 0
84 -96 1207 0
-84 96 1207 0
1207 135 -1208 0
-1207 -135 -1208 0
1207 -135 1208 0
-1207 135 1208 0
1208 219 -1209 0
-1208 -219 -1209 0
1208 -219 1209 0
-1208 219 1209 0
1210 1211 1212 0
-1210 -1211 0
-1210 -1212 0
-1211 -1212 0
-1203 1206 1210 0
-1203 -1206 1209 1211 0
-1203 -1206 -1209 1212 0
-1204 1206 1211 0
-1204 -1206 1209 1212 0
-1204 -1206 -1209 1210 0
-1205 1206 1212 0
-1205 -1206 1209 1210 0
-1205 -1206 -1209 1211 0
-1213 -82 0
-1213 -94 0
-1213 -160 0
-1213 -190 0
1213 82 94 160 190 0
84 96 -1214 0
-84 -96 -1214 0
84 -96 1214 0
-84 96 1214 0
1214 162 -1215 0
-1214 -162 -1215 0
1214 -162 1215 0
-1214 162 1215 0
1215 192 -1216 0
-1215 -192 -1216 0
1215 -192 1216 0
-1215 192 1216 0
1217 1218 1219 0
-1217 -1218 0
-1217 -1219 0
-1218 -1219 0
-1210 1213 1217 0
-1210 -1213 1216 1218 0
-1210 -1213 -1216 1219 0
-1211 1213 1218 0
-1211 -1213 1216 1219 0
-1211 -1213 -1216 1217 0
-1212 1213 1219 0
-1212 -1213 1216 1217 0
-1212 -1213 -1216 1218 0
-1220 -82 0
-1220 -106 0
-1220 -121 0
-1220 -241 0
1220 82 106 121 241 0
84 108 -1221 0
-84 -108 -1221 0
84 -108 1221 0
-84 108 1221 0
1221 123 -1222 0
-1221 -123 -1222 0
1221 -123 1222 0
-1221 123 1222 0
1222 243 -1223 0
-1222 -243 -1223 0
1222 -243 1223 0
-1222 243 1223 0
1224 1225 1226 0
-1224 -1225 0
-1224 -1226 0
-1225 -1226 0
-1217 1220 1224 0
-1217 -1220 1223 1225 0
-1217 -1220 -1223 1226 0
-1218 1220 1225 0
-1218 -1220 1223 1226 0
-1218 -1220 -1223 1224 0
-1219 1220 1226 0
-1219 -1220 1223 1224 0
-1219 -1220 -1223 1225 0
-1227 -82 0
-1227 -106 0
-1227 -148 0
-1227 -214 0
1227 82 106 148 214 0
84 108 -1228 0
-84 -108 -1228 0
84 -108 1228 0
-84 108 1228 0
1228 150 -1229 0
-1228 -150 -1229 0
1228 -150 1229 0
-1228 150 1229 0
1229 216 -1230 0
-1229 -216 -1230 0
1229 -216 1230 0
-1229 216 1230 0
1231 1232 1233 0
-1231 -1232 0
-1231 -1233 0
-1232 -1233 0
-1224 1227 1231 0
-1224 -1227 1230 1232 0
-1224 -1227 -1230 1233 0
-1225 1227 1232 0
-1225 -1227 1230 1233 0
-1225 -1227 -1230 1231 0
-1226 1227 1233 0
-1226 -1227 1230 1231 0
-1226 -1227 -1230 1232 0
-1234 -82 0
-1234 -121 0
-1234 -160 0
-1234 -163 0
1234 82 121 160 163 0
84 123 -1235 0
-84 -123 -1235 0
84 -123 1235 0
-84 123 1235 0
1235 162 -1236 0
-1235 -162 -1236 0
1235 -162 1236 0
-1235 162 1236 0
1236 165 -1237 0
-1236 -165 -1237 0
1236 -165 1237 0
-1236 165 1237 0
1238 1239 1240 0
-1238 -1239 0
-1238 -1240 0
-1239 -1240 0
-1231 1234 1238 0
-1231 -1234 1237 1239 0
-1231 -1234 -1237 1240 0
-1232 1234 1239 0
-1232 -1234 1237 1240 0
-1232 -1234 -1237 1238 0
-1233 1234 1240 0
-1233 -1234 1237 1238 0
-1233 -1234 -1237 1239 0
-1241 -82 0
-1241 -133 0
-1241 -148 0
-1241 -163 0
1241 82 133 148 163 0
84 135 -1242 0
-84 -135 -1242 0
84 -135 1242 0
-84 135 1242 0
1242 150 -1243 0
-1242 -150 -1243 0
1242 -150 1243 0
-1242 150 1243 0
1243 165 -1244 0
-1243 -165 -1244 0
1243 -165 1244 0
-1243 165 1244 0
1245 1246 1247 0
-1245 -1246 0
-1245 -1247 0
-1246 -1247 0
-1238 1241 1245 0
-1238 -1241 1244 1246 0
-1238 -1241 -1244 1247 0
-1239 1241 1246 0
-1239 -1241 1244 1247 0
-1239 -1241 -1244 1245 0
-1240 1241 1247 0
-1240 -1241 1244 1245 0
-1240 -1241 -1244 1246 0
-1248 -94 0
-1248 -106 0
-1248 -109 0
-1248 -229 0
1248 94 106 109 229 0
96 108 -1249 0
-96 -108 -1249 0
96 -108 1249 0
-96 108 1249 0
1249 111 -1250 0
-1249 -111 -1250 0
1249 -111 1250 0
-1249 111 1250 0
1250 231 -1251 0
-1250 -231 -1251 0
1250 -231 1251 0
-1250 231 1251 0
1252 1253 1254 0
-1252 -1253 0
-1252 -1254 0
-1253 -1254 0
-1245 1248 1252 0
-1245 -1248 1251 1253 0
-1245 -1248 -1251 1254 0
-1246 1248 1253 0
-1246 -1248 1251 1254 0
-1246 -1248 -1251 1252 0
-1247 1248 1254 0
-1247 -1248 1251 1252 0
-1247 -1248 -1251 1253 0
-1255 -94 0
-1255 -106 0
-1255 -136 0
-1255 -202 0
1255 94 106 136 202 0
96 108 -1256 0
-96 -108 -1256 0
96 -108 1256 0
-96 108 1256 0
1256 138 -1257 0
-1256 -138 -1257 0
1256 -138 1257 0
-1256 138 1257 0
1257 204 -1258 0
-1257 -204 -1258 0
1257 -204 1258 0
-1257 204 1258 0
1259 1260 1261 0
-1259 -1260 0
-1259 -1261 0
-1260 -1261 0
-1252 1255 1259 0
-1252 -1255 1258 1260 0
-1252 -1255 -1258 1261 0
-1253 1255 1260 0
-1253 -1255 1258 1261 0
-1253 -1255 -1258 1259 0
-1254 1255 1261 0
-1254 -1255 1258 1259 0
-1254 -1255 -1258 1260 0
-1262 -94 0
-1262 -109 0
-1262 -160 0
-1262 -175 0
1262 94 109 160 175 0
96 111 -1263 0
-96 -111 -1263 0
96 -111 1263 0
-96 111 1263 0
1263 162 -1264 0
-1263 -162 -1264 0
1263 -162 1264 0
-1263 162 1264 0
1264 177 -1265 0
-1264 -177 -1265 0
1264 -177 1265 0
-1264 177 1265 0
1266 1267 1268 0
-1266 -1267 0
-1266 -1268 0
-1267 -1268 0
-1259 1262 1266 0
-1259 -1262 1265 1267 0
-1259 -1262 -1265 1268 0
-1260 1262 1267 0
-1260 -1262 1265 1268 0
-1260 -1262 -1265 1266 0
-1261 1262 1268 0
-1261 -1262 1265 1266 0
-1261 -1262 -1265 1267 0
-1269 -94 0
-1269 -133 0
-1269 -136 0
-1269 -175 0
1269 94 133 136 175 0
96 135 -1270 0
-96 -135 -1270 0
96 -135 1270 0
-96 135 1270 0
1270 138 -1271 0
-1270 -138 -1271 0
1270 -138 1271 0
-1270 138 1271 0
1271 177 -1272 0
-1271 -177 -1272 0
1271 -177 1272 0
-1271 177 1272 0
1273 1274 1275 0
-1273 -1274 0
-1273 -1275 0
-1274 -1275 0
-1266 1269 1273 0
-1266 -1269 1272 1274 0
-1266 -1269 -1272 1275 0
-1267 1269 1274 0
-1267 -1269 1272 1275 0
-1267 -1269 -1272 1273 0
-1268 1269 1275 0
-1268 -1269 1272 1273 0
-1268 -1269 -1272 1274 0
-1276 -106 0
-1276 -109 0
-1276 -148 0
-1276 -187 0
1276 106 109 148 187 0
108 111 -1277 0
-108 -111 -1277 0
108 -111 1277 0
-108 111 1277 0
1277 150 -1278 0
-1277 -150 -1278 0
1277 -150 1278 0
-1277 150 1278 0
1278 189 -1279 0
-1278 -189 -1279 0
1278 -189 1279 0
-1278 189 1279 0
1280 1281 1282 0
-1280 -1281 0
-1280 -1282 0
-1281 -1282 0
-1273 1276 1280 0
-1273 -1276 1279 1281 0
-1273 -1276 -1279 1282 0
-1274 1276 1281 0
-1274 -1276 1279 1282 0
-1274 -1276 -1279 1280 0
-1275 1276 1282 0
-1275 -1276 1279 1280 0
-1275 -1276 -1279 1281 0
-1283 -106 0
-1283 -121 0
-1283 -136 0
-1283 -187 0
1283 106 121 136 187 0
108 123 -1284 0
-108 -123 -1284 0
108 -123 1284 0
-108 123 1284 0
1284 138 -1285 0
-1284 -138 -1285 0
1284 -138 1285 0
-1284 138 1285 0
1285 189 -1286 0
-1285 -189 -1286 0
1285 -189 1286 0
-1285 189 1286 0
1287 1288 1289 0
-1287 -1288 0
-1287 -1289 0
-1288 -1289 0
-1280 1283 1287 0
-1280 -1283 1286 1288 0
-1280 -1283 -1286 1289 0
-1281 1283 1288 0
-1281 -1283 1286 1289 0
-1281 -1283 -1286 1287 0
-1282 1283 1289 0
-1282 -1283 1286 1287 0
-1282 -1283 -1286 1288 0
1288 0
1290 0
-1291 0
-1292 0
-1293 -4 0
-1293 -40 0
-1293 -166 0
-1293 -244 0
1293 4 40 166 244 0
6 42 -1294 0
-6 -42 -1294 0
6 -42 1294 0
-6 42 1294 0
1294 168 -1295 0
-1294 -168 -1295 0
1294 -168 1295 0
-1294 168 1295 0
1295 246 -1296 0
-1295 -246 -1296 0
1295 -246 1296 0
-1295 246 1296 0
1297 1298 1299 0
-1297 -1298 0
-1297 -1299 0
-1298 -1299 0
-1290 1293 1297 0
-1290 -1293 1296 1298 0
-1290 -1293 -1296 1299 0
-1291 1293 1298 0
-1291 -1293 1296 1299 0
-1291 -1293 -1296 1297 0
-1292 1293 1299 0
-1292 -1293 1296 1297 0
-1292 -1293 -1296 1298 0
-1300 -4 0
-1300 -40 0
-1300 -190 0
-1300 -223 0
1300 4 40 190 223 0
6 42 -1301 0
-6 -42 -1301 0
6 -42 1301 0
-6 42 1301 0
1301 192 -1302 0
-1301 -192 -1302 0
1301 -192 1302 0
-1301 192 1302 0
1302 225 -1303 0
-1302 -225 -1303 0
1302 -225 1303 0
-1302 225 1303 0
1304 1305 1306 0
-1304 -1305 0
-1304 -1306 0
-1305 -1306 0
-1297 1300 1304 0
-1297 -1300 1303 1305 0
-1297 -1300 -1303 1306 0
-1298 1300 1305 0
-1298 -1300 1303 1306 0
-1298 -1300 -1303 1304 0
-1299 1300 1306 0
-1299 -1300 1303 1304 0
-1299 -1300 -1303 1305 0
-1307 -4 0
-1307 -40 0
-1307 -196 0
-1307 -217 0
1307 4 40 196 217 0
6 42 -1308 0
-6 -42 -1308 0
6 -42 1308 0
-6 42 1308 0
1308 198 -1309 0
-1308 -198 -1309 0
1308 -198 1309 0
-1308 198 1309 0
1309 219 -1310 0
-1309 -219 -1310 0
1309 -219 1310 0
-1309 219 1310 0
1311 1312 1313 0
-1311 -1312 0
-1311 -1313 0
-1312 -1313 0
-1304 1307 1311 0
-1304 -1307 1310 1312 0
-1304 -1307 -1310 1313 0
-1305 1307 1312 0
-1305 -1307 1310 1313 0
-1305 -1307 -1310 1311 0
-1306 1307 1313 0
-1306 -1307 1310 1311 0
-1306 -1307 -1310 1312 0
-1314 -4 0
-1314 -67 0
-1314 -169 0
-1314 -244 0
1314 4 67 169 244 0
6 69 -1315 0
-6 -69 -1315 0
6 -69 1315 0
-6 69 1315 0
1315 171 -1316 0
-1315 -171 -1316 0
1315 -171 1316 0
-1315 171 1316 0
1316 246 -1317 0
-1316 -246 -1317 0
1316 -246 1317 0
-1316 246 1317 0
1318 1319 1320 0
-1318 -1319 0
-1318 -1320 0
-1319 -1320 0
-1311 1314 1318 0
-1311 -1314 1317 1319 0
-1311 -1314 -1317 1320 0
-1312 1314 1319 0
-1312 -1314 1317 1320 0
-1312 -1314 -1317 1318 0
-1313 1314 1320 0
-1313 -1314 1317 1318 0
-1313 -1314 -1317 1319 0
-1321 -4 0
-1321 -67 0
-1321 -196 0
-1321 -229 0
1321 4 67 196 229 0
6 69 -1322 0
-6 -69 -1322 0
6 -69 1322 0
-6 69 1322 0
1322 198 -1323 0
-1322 -198 -1323 0
1322 -198 1323 0
-1322 198 1323 0
1323 231 -1324 0
-1323 -231 -1324 0
1323 -231 1324 0
-1323 231 1324 0
1325 1326 1327 0
-1325 -1326 0
-1325 -1327 0
-1326 -1327 0
-1318 1321 1325 0
-1318 -1321 1324 1326 0
-1318 -1321 -1324 1327 0
-1319 1321 1326 0
-1319 -1321 1324 1327 0
-1319 -1321 -1324 1325 0
-1320 1321 1327 0
-1320 -1321 1324 1325 0
-1320 -1321 -1324 1326 0
-1328 -4 0
-1328 -67 0
-1328 -202 0
-1328 -223 0
1328 4 67 202 223 0
6 69 -1329 0
-6 -69 -1329 0
6 -69 1329 0
-6 69 1329 0
1329 204 -1330 0
-1329 -204 -1330 0
1329 -204 1330 0
-1329 204 1330 0
1330 225 -1331 0
-1330 -225 -1331 0
1330 -225 1331 0
-1330 225 1331 0
1332 1333 1334 0
-1332 -1333 0
-1332 -1334 0
-1333 -1334 0
-1325 1328 1332 0
-1325 -1328 1331 1333 0
-1325 -1328 -1331 1334 0
-1326 1328 1333 0
-1326 -1328 1331 1334 0
-1326 -1328 -1331 1332 0
-1327 1328 1334 0
-1327 -1328 1331 1332 0
-1327 -1328 -1331 1333 0
-1335 -4 0
-1335 -97 0
-1335 -175 0
-1335 -244 0
1335 4 97 175 244 0
6 99 -1336 0
-6 -99 -1336 0
6 -99 1336 0
-6 99 1336 0
1336 177 -1337 0
-1336 -177 -1337 0
1336 -177 1337 0
-1336 177 1337 0
1337 246 -1338 0
-1337 -246 -1338 0
1337 -246 1338 0
-1337 246 1338 0
1339 1340 1341 0
-1339 -1340 0
-1339 -1341 0
-1340 -1341 0
-1332 1335 1339 0
-1332 -1335 1338 1340 0
-1332 -1335 -1338 1341 0
-1333 1335 1340 0
-1333 -1335 1338 1341 0
-1333 -1335 -1338 1339 0
-1334 1335 1341 0
-1334 -1335 1338 1339 0
-1334 -1335 -1338 1340 0
-1342 -4 0
-1342 -97 0
-1342 -190 0
-1342 -229 0
1342 4 97 190 229 0
6 99 -1343 0
-6 -99 -1343 0
6 -99 1343 0
-6 99 1343 0
1343 192 -1344 0
-1343 -192 -1344 0
1343 -192 1344 0
-1343 192 1344 0
1344 231 -1345 0
-1344 -231 -1345 0
1344 -231 1345 0
-1344 231 1345 0
1346 1347 1348 0
-1346 -1347 0
-1346 -1348 0
-1347 -1348 0
-1339 1342 1346 0
-1339 -1342 1345 1347 0
-1339 -1342 -1345 1348 0
-1340 1342 1347 0
-1340 -1342 1345 1348 0
-1340 -1342 -1345 1346 0
-1341 1342 1348 0
-1341 -1342 1345 1346 0
-1341 -1342 -1345 1347 0
-1349 -4 0
-1349 -97 0
-1349 -202 0
-1349 -217 0
1349 4 97 202 217 0
6 99 -1350 0
-6 -99 -1350 0
6 -99 1350 0
-6 99 1350 0
1350 204 -1351 0
-1350 -204 -1351 0
1350 -204 1351 0
-1350 204 1351 0
1351 219 -1352 0
-1351 -219 -1352 0
1351 -219 1352 0
-1351 219 1352 0
1353 1354 1355 0
-1353 -1354 0
-1353 -1355 0
-1354 -1355 0
-1346 1349 1353 0
-1346 -1349 1352 1354 0
-1346 -1349 -1352 1355 0
-1347 1349 1354 0
-1347 -1349 1352 1355 0
-1347 -1349 -1352 1353 0
-1348 1349 1355 0
-1348 -1349 1352 1353 0
-1348 -1349 -1352 1354 0
-1356 -4 0
-1356 -121 0
-1356 -166 0
-1356 -229 0
1356 4 121 166 229 0
6 123 -1357 0
-6 -123 -1357 0
6 -123 1357 0
-6 123 1357 0
1357 168 -1358 0
-1357 -168 -1358 0
1357 -168 1358 0
-1357 168 1358 0
1358 231 -1359 0
-1358 -231 -1359 0
1358 -231 1359 0
-1358 231 1359 0
1360 1361 1362 0
-1360 -1361 0
-1360 -1362 0
-1361 -1362 0
-1353 1356 1360 0
-1353 -1356 1359 1361 0
-1353 -1356 -1359 1362 0
-1354 1356 1361 0
-1354 -1356 1359 1362 0
-1354 -1356 -1359 1360 0
-1355 1356 1362 0
-1355 -1356 1359 1360 0
-1355 -1356 -1359 1361 0
-1363 -4 0
-1363 -121 0
-1363 -169 0
-1363 -217 0
1363 4 121 169 217 0
6 123 -1364 0
-6 -123 -1364 0
6 -123 1364 0
-6 123 1364 0
1364 171 -1365 0
-1364 -171 -1365 0
1364 -171 1365 0
-1364 171 1365 0
1365 219 -1366 0
-1365 -219 -1366 0
1365 -219 1366 0
-1365 219 1366 0
1367 1368 1369 0
-1367 -1368 0
-1367 -1369 0
-1368 -1369 0
-1360 1363 1367 0
-1360 -1363 1366 1368 0
-1360 -1363 -1366 1369 0
-1361 1363 1368 0
-1361 -1363 1366 1369 0
-1361 -1363 -1366 1367 0
-1362 1363 1369 0
-1362 -1363 1366 1367 0
-1362 -1363 -1366 1368 0
-1370 -4 0
-1370 -121 0
-1370 -175 0
-1370 -223 0
1370 4 121 175 223 0
6 123 -1371 0
-6 -123 -1371 0
6 -123 1371 0
-6 123 1371 0
1371 177 -1372 0
-1371 -177 -1372 0
1371 -177 1372 0
-1371 177 1372 0
1372 225 -1373 0
-1372 -225 -1373 0
1372 -225 1373 0
-1372 225 1373 0
1374 1375 1376 0
-1374 -1375 0
-1374 -1376 0
-1375 -1376 0
-1367 1370 1374 0
-1367 -1370 1373 1375 0
-1367 -1370 -1373 1376 0
-1368 1370 1375 0
-1368 -1370 1373 1376 0
-1368 -1370 -1373 1374 0
-1369 1370 1376 0
-1369 -1370 1373 1374 0
-1369 -1370 -1373 1375 0
-1377 -4 0
-1377 -148 0
-1377 -166 0
-1377 -202 0
1377 4 148 166 202 0
6 150 -1378 0
-6 -150 -1378 0
6 -150 1378 0
-6 150 1378 0
1378 168 -1379 0
-1378 -168 -1379 0
1378 -168 1379 0
-1378 168 1379 0
1379 204 -1380 0
-1379 -204 -1380 0
1379 -204 1380 0
-1379 204 1380 0
1381 1382 1383 0
-1381 -1382 0
-1381 -1383 0
-1382 -1383 0
-1374 1377 1381 0
-1374 -1377 1380 1382 0
-1374 -1377 -1380 1383 0
-1375 1377 1382 0
-1375 -1377 1380 1383 0
-1375 -1377 -1380 1381 0
-1376 1377 1383 0
-1376 -1377 1380 1381 0
-1376 -1377 -1380 1382 0
-1384 -4 0
-1384 -148 0
-1384 -169 0
-1384 -190 0
1384 4 148 169 190 0
6 150 -1385 0
-6 -150 -1385 0
6 -150 1385 0
-6 150 1385 0
1385 171 -1386 0
-1385 -171 -1386 0
1385 -171 1386 0
-1385 171 1386 0
1386 192 -1387 0
-1386 -192 -1387 0
1386 -192 1387 0
-1386 192 1387 0
1388 1389 1390 0
-1388 -1389 0
-1388 -1390 0
-1389 -1390 0
-1381 1384 1388 0
-1381 -1384 1387 1389 0
-1381 -1384 -1387 1390 0
-1382 1384 1389 0
-1382 -1384 1387 1390 0
-1382 -1384 -1387 1388 0
-1383 1384 1390 0
-1383 -1384 1387 1388 0
-1383 -1384 -1387 1389 0
-1391 -4 0
-1391 -148 0
-1391 -175 0
-1391 -196 0
1391 4 148 175 196 0
6 150 -1392 0
-6 -150 -1392 0
6 -150 1392 0
-6 150 1392 0
1392 177 -1393 0
-1392 -177 -1393 0
1392 -177 1393 0
-1392 177 1393 0
1393 198 -1394 0
-1393 -198 -1394 0
1393 -198 1394 0
-1393 198 1394 0
1395 1396 1397 0
-1395 -1396 0
-1395 -1397 0
-1396 -1397 0
-1388 1391 1395 0
-1388 -1391 1394 1396 0
-1388 -1391 -1394 1397 0
-1389 1391 1396 0
-1389 -1391 1394 1397 0
-1389 -1391 -1394 1395 0
-1390 1391 1397 0
-1390 -1391 1394 1395 0
-1390 -1391 -1394 1396 0
-1398 -7 0
-1398 -28 0
-1398 -169 0
-1398 -244 0
1398 7 28 169 244 0
9 30 -1399 0
-9 -30 -1399 0
9 -30 1399 0
-9 30 1399 0
1399 171 -1400 0
-1399 -171 -1400 0
1399 -171 1400 0
-1399 171 1400 0
1400 246 -1401 0
-1400 -246 -1401 0
1400 -246 1401 0
-1400 246 1401 0
1402 1403 1404 0
-1402 -1403 0
-1402 -1404 0
-1403 -1404 0
-1395 1398 1402 0
-1395 -1398 1401 1403 0
-1395 -1398 -1401 1404 0
-1396 1398 1403 0
-1396 -1398 1401 1404 0
-1396 -1398 -1401 1402 0
-1397 1398 1404 0
-1397 -1398 1401 1402 0
-1397 -1398 -1401 1403 0
-1405 -7 0
-1405 -28 0
-1405 -196 0
-1405 -229 0
1405 7 28 196 229 0
9 30 -1406 0
-9 -30 -1406 0
9 -30 1406 0
-9 30 1406 0
1406 198 -1407 0
-1406 -198 -1407 0
1406 -198 1407 0
-1406 198 1407 0
1407 231 -1408 0
-1407 -231 -1408 0
1407 -231 1408 0
-1407 231 1408 0
1409 1410 1411 0
-1409 -1410 0
-1409 -1411 0
-1410 -1411 0
-1402 1405 1409 0
-1402 -1405 1408 1410 0
-1402 -1405 -1408 1411 0
-1403 1405 1410 0
-1403 -1405 1408 1411 0
-1403 -1405 -1408 1409 0
-1404 1405 1411 0
-1404 -1405 1408 1409 0
-1404 -1405 -1408 1410 0
-1412 -7 0
-1412 -28 0
-1412 -202 0
-1412 -223 0
1412 7 28 202 223 0
9 30 -1413 0
-9 -30 -1413 0
9 -30 1413 0
-9 30 1413 0
1413 204 -1414 0
-1413 -204 -1414 0
1413 -204 1414 0
-1413 204 1414 0
1414 225 -1415 0
-1414 -225 -1415 0
1414 -225 1415 0
-1414 225 1415 0
1416 1417 1418 0
-1416 -1417 0
-1416 -1418 0
-1417 -1418 0
-1409 1412 1416 0
-1409 -1412 1415 1417 0
-1409 -1412 -1415 1418 0
-1410 1412 1417 0
-1410 -1412 1415 1418 0
-1410 -1412 -1415 1416 0
-1411 1412 1418 0
-1411 -1412 1415 1416 0
-1411 -1412 -1415 1417 0
-1419 -7 0
-1419 -58 0
-1419 -175 0
-1419 -244 0
1419 7 58 175 244 0
9 60 -1420 0
-9 -60 -1420 0
9 -60 1420 0
-9 60 1420 0
1420 177 -1421 0
-1420 -177 -1421 0
1420 -177 1421 0
-1420 177 1421 0
1421 246 -1422 0
-1421 -246 -1422 0
1421 -246 1422 0
-1421 246 1422 0
1423 1424 1425 0
-1423 -1424 0
-1423 -1425 0
-1424 -1425 0
-1416 1419 1423 0
-1416 -1419 1422 1424 0
-1416 -1419 -1422 1425 0
-1417 1419 1424 0
-1417 -1419 1422 1425 0
-1417 -1419 -1422 1423 0
-1418 1419 1425 0
-1418 -1419 1422 1423 0
-1418 -1419 -1422 1424 0
-1426 -7 0
-1426 -58 0
-1426 -190 0
-1426 -229 0
1426 7 58 190 229 0
9 60 -1427 0
-9 -60 -1427 0
9 -60 1427 0
-9 60 1427 0
1427 192 -1428 0
-1427 -192 -1428 0
1427 -192 1428 0
-1427 192 1428 0
1428 231 -1429 0
-1428 -231 -1429 0
1428 -231 1429 0
-1428 231 1429 0
1430 1431 1432 0
-1430 -1431 0
-1430 -1432 0
-1431 -1432 0
-1423 1426 1430 0
-1423 -1426 1429 1431 0
-1423 -1426 -1429 1432 0
-1424 1426 1431 0
-1424 -1426 1429 1432 0
-1424 -1426 -1429 1430 0
-1425 1426 1432 0
-1425 -1426 1429 1430 0
-1425 -1426 -1429 1431 0
-1433 -7 0
-1433 -58 0
-1433 -202 0
-1433 -217 0
1433 7 58 202 217 0
9 60 -1434 0
-9 -60 -1434 0
9 -60 1434 0
-9 60 1434 0
1434 204 -1435 0
-1434 -204 -1435 0
1434 -204 1435 0
-1434 204 1435 0
1435 219 -1436 0
-1435 -219 -1436 0
1435 -219 1436 0
-1435 219 1436 0
1437 1438 1439 0
-1437 -1438 0
-1437 -1439 0
-1438 -1439 0
-1430 1433 1437 0
-1430 -1433 1436 1438 0
-1430 -1433 -1436 1439 0
-1431 1433 1438 0
-1431 -1433 1436 1439 0
-1431 -1433 -1436 1437 0
-1432 1433 1439 0
-1432 -1433 1436 1437 0
-1432 -1433 -1436 1438 0
-1440 -7 0
-1440 -82 0
-1440 -166 0
-1440 -244 0
1440 7 82 166 244 0
9 84 -1441 0
-9 -84 -1441 0
9 -84 1441 0
-9 84 1441 0
1441 168 -1442 0
-1441 -168 -1442 0
1441 -168 1442 0
-1441 168 1442 0
1442 246 -1443 0
-1442 -246 -1443 0
1442 -246 1443 0
-1442 246 1443 0
1444 1445 1446 0
-1444 -1445 0
-1444 -1446 0
-1445 -1446 0
-1437 1440 1444 0
-1437 -1440 1443 1445 0
-1437 -1440 -1443 1446 0
-1438 1440 1445 0
-1438 -1440 1443 1446 0
-1438 -1440 -1443 1444 0
-1439 1440 1446 0
-1439 -1440 1443 1444 0
-1439 -1440 -1443 1445 0
-1447 -7 0
-1447 -82 0
-1447 -190 0
-1447 -223 0
1447 7 82 190 223 0
9 84 -1448 0
-9 -84 -1448 0
9 -84 1448 0
-9 84 1448 0
1448 192 -1449 0
-1448 -192 -1449 0
1448 -192 1449 0
-1448 192 1449 0
1449 225 -1450 0
-1449 -225 -1450 0
1449 -225 1450 0
-1449 225 1450 0
1451 1452 1453 0
-1451 -1452 0
-1451 -1453 0
-1452 -1453 0
-1444 1447 1451 0
-1444 -1447 1450 1452 0
-1444 -1447 -1450 1453 0
-1445 1447 1452 0
-1445 -1447 1450 1453 0
-1445 -1447 -1450 1451 0
-1446 1447 1453 0
-1446 -1447 1450 1451 0
-1446 -1447 -1450 1452 0
-1454 -7 0
-1454 -82 0
-1454 -196 0
-1454 -217 0
1454 7 82 196 217 0
9 84 -1455 0
-9 -84 -1455 0
9 -84 1455 0
-9 84 1455 0
1455 198 -1456 0
-1455 -198 -1456 0
1455 -198 1456 0
-1455 198 1456 0
1456 219 -1457 0
-1456 -219 -1457 0
1456 -219 1457 0
-1456 219 1457 0
1458 1459 1460 0
-1458 -1459 0
-1458 -1460 0
-1459 -1460 0
-1451 1454 1458 0
-1451 -1454 1457 1459 0
-1451 -1454 -1457 1460 0
-1452 1454 1459 0
-1452 -1454 1457 1460 0
-1452 -1454 -1457 1458 0
-1453 1454 1460 0
-1453 -1454 1457 1458 0
-1453 -1454 -1457 1459 0
-1461 -7 0
-1461 -109 0
-1461 -166 0
-1461 -229 0
1461 7 109 166 229 0
9 111 -1462 0
-9 -111 -1462 0
9 -111 1462 0
-9 111 1462 0
1462 168 -1463 0
-1462 -168 -1463 0
1462 -168 1463 0
-1462 168 1463 0
1463 231 -1464 0
-1463 -231 -1464 0
1463 -231 1464 0
-1463 231 1464 0
1465 1466 1467 0
-1465 -1466 0
-1465 -1467 0
-1466 -1467 0
-1458 1461 1465 0
-1458 -1461 1464 1466 0
-1458 -1461 -1464 1467 0
-1459 1461 1466 0
-1459 -1461 1464 1467 0
-1459 -1461 -1464 1465 0
-1460 1461 1467 0
-1460 -1461 1464 1465 0
-1460 -1461 -1464 1466 0
-1468 -7 0
-1468 -109 0
-1468 -169 0
-1468 -217 0
1468 7 109 169 217 0
9 111 -1469 0
-9 -111 -1469 0
9 -111 1469 0
-9 111 1469 0
1469 171 -1470 0
-1469 -171 -1470 0
1469 -171 1470 0
-1469 171 1470 0
1470 219 -1471 0
-1470 -219 -1471 0
1470 -219 1471 0
-1470 219 1471 0
1472 1473 1474 0
-1472 -1473 0
-1472 -1474 0
-1473 -1474 0
-1465 1468 1472 0
-1465 -1468 1471 1473 0
-1465 -1468 -1471 1474 0
-1466 1468 1473 0
-1466 -1468 1471 1474 0
-1466 -1468 -1471 1472 0
-1467 1468 1474 0
-1467 -1468 1471 1472 0
-1467 -1468 -1471 1473 0
-1475 -7 0
-1475 -109 0
-1475 -175 0
-1475 -223 0
1475 7 109 175 223 0
9 111 -1476 0
-9 -111 -1476 0
9 -111 1476 0
-9 111 1476 0
1476 177 -1477 0
-1476 -177 -1477 0
1476 -177 1477 0
-1476 177 1477 0
1477 225 -1478 0
-1477 -225 -1478 0
1477 -225 1478 0
-1477 225 1478 0
1479 1480 1481 0
-1479 -1480 0
-1479 -1481 0
-1480 -1481 0
-1472 1475 1479 0
-1472 -1475 1478 1480 0
-1472 -1475 -1478 1481 0
-1473 1475 1480 0
-1473 -1475 1478 1481 0
-1473 -1475 -1478 1479 0
-1474 1475 1481 0
-1474 -1475 1478 1479 0
-1474 -1475 -1478 1480 0
-1482 -7 0
-1482 -136 0
-1482 -166 0
-1482 -202 0
1482 7 136 166 202 0
9 138 -1483 0
-9 -138 -1483 0
9 -138 1483 0
-9 138 1483 0
1483 168 -1484 0
-1483 -168 -1484 0
1483 -168 1484 0
-1483 168 1484 0
1484 204 -1485 0
-1484 -204 -1485 0
1484 -204 1485 0
-1484 204 1485 0
1486 1487 1488 0
-1486 -1487 0
-1486 -1488 0
-1487 -1488 0
-1479 1482 1486 0
-1479 -1482 1485 1487 0
-1479 -1482 -1485 1488 0
-1480 1482 1487 0
-1480 -1482 1485 1488 0
-1480 -1482 -1485 1486 0
-1481 1482 1488 0
-1481 -1482 1485 1486 0
-1481 -1482 -1485 1487 0
-1489 -7 0
-1489 -136 0
-1489 -169 0
-1489 -190 0
1489 7 136 169 190 0
9 138 -1490 0
-9 -138 -1490 0
9 -138 1490 0
-9 138 1490 0
1490 171 -1491 0
-1490 -171 -1491 0
1490 -171 1491 0
-1490 171 1491 0
1491 192 -1492 0
-1491 -192 -1492 0
1491 -192 1492 0
-1491 192 1492 0
1493 1494 1495 0
-1493 -1494 0
-1493 -1495 0
-1494 -1495 0
-1486 1489 1493 0
-1486 -1489 1492 1494 0
-1486 -1489 -1492 1495 0
-1487 1489 1494 0
-1487 -1489 1492 1495 0
-1487 -1489 -1492 1493 0
-1488 1489 1495 0
-1488 -1489 1492 1493 0
-1488 -1489 -1492 1494 0
-1496 -7 0
-1496 -136 0
-1496 -175 0
-1496 -196 0
1496 7 136 175 196 0
9 138 -1497 0
-9 -138 -1497 0
9 -138 1497 0
-9 138 1497 0
1497 177 -1498 0
-1497 -177 -1498 0
1497 -177 1498 0
-1497 177 1498 0
1498 198 -1499 0
-1498 -198 -1499 0
1498 -198 1499 0
-1498 198 1499 0
1500 1501 1502 0
-1500 -1501 0
-1500 -1502 0
-1501 -1502 0
-1493 1496 1500 0
-1493 -1496 1499 1501 0
-1493 -1496 -1499 1502 0
-1494 1496 1501 0
-1494 -1496 1499 1502 0
-1494 -1496 -1499 1500 0
-1495 1496 1502 0
-1495 -1496 1499 1500 0
-1495 -1496 -1499 1501 0
-1503 -13 0
-1503 -28 0
-1503 -175 0
-1503 -244 0
1503 13 28 175 244 0
15 30 -1504 0
-15 -30 -1504 0
15 -30 1504 0
-15 30 1504 0
1504 177 -1505 0
-1504 -177 -1505 0
1504 -177 1505 0
-1504 177 1505 0
1505 246 -1506 0
-1505 -246 -1506 0
1505 -246 1506 0
-1505 246 1506 0
1507 1508 1509 0
-1507 -1508 0
-1507 -1509 0
-1508 -1509 0
-1500 1503 1507 0
-1500 -1503 1506 1508 0
-1500 -1503 -1506 1509 0
-1501 1503 1508 0
-1501 -1503 1506 1509 0
-1501 -1503 -1506 1507 0
-1502 1503 1509 0
-1502 -1503 1506 1507 0
-1502 -1503 -1506 1508 0
-1510 -13 0
-1510 -28 0
-1510 -190 0
-1510 -229 0
1510 13 28 190 229 0
15 30 -1511 0
-15 -30 -1511 0
15 -30 1511 0
-15 30 1511 0
1511 192 -1512 0
-1511 -192 -1512 0
1511 -192 1512 0
-1511 192 1512 0
1512 231 -1513 0
-1512 -231 -1513 0
1512 -231 1513 0
-1512 231 1513 0
1514 1515 1516 0
-1514 -1515 0
-1514 -1516 0
-1515 -1516 0
-1507 1510 1514 0
-1507 -1510 1513 1515 0
-1507 -1510 -1513 1516 0
-1508 1510 1515 0
-1508 -1510 1513 1516 0
-1508 -1510 -1513 1514 0
-1509 1510 1516 0
-1509 -1510 1513 1514 0
-1509 -1510 -1513 1515 0
-1517 -13 0
-1517 -28 0
-1517 -202 0
-1517 -217 0
1517 13 28 202 217 0
15 30 -1518 0
-15 -30 -1518 0
15 -30 1518 0
-15 30 1518 0
1518 204 -1519 0
-1518 -204 -1519 0
1518 -204 1519 0
-1518 204 1519 0
1519 219 -1520 0
-1519 -219 -1520 0
1519 -219 1520 0
-1519 219 1520 0
1521 1522 1523 0
-1521 -1522 0
-1521 -1523 0
-1522 -1523 0
-1514 1517 1521 0
-1514 -1517 1520 1522 0
-1514 -1517 -1520 1523 0
-1515 1517 1522 0
-1515 -1517 1520 1523 0
-1515 -1517 -1520 1521 0
-1516 1517 1523 0
-1516 -1517 1520 1521 0
-1516 -1517 -1520 1522 0
-1524 -13 0
-1524 -61 0
-1524 -166 0
-1524 -244 0
1524 13 61 166 244 0
15 63 -1525 0
-15 -63 -1525 0
15 -63 1525 0
-15 63 1525 0
1525 168 -1526 0
-1525 -168 -1526 0
1525 -168 1526 0
-1525 168 1526 0
1526 246 -1527 0
-1526 -246 -1527 0
1526 -246 1527 0
-1526 246 1527 0
1528 1529 1530 0
-1528 -1529 0
-1528 -1530 0
-1529 -1530 0
-1521 1524 1528 0
-1521 -1524 1527 1529 0
-1521 -1524 -1527 1530 0
-1522 1524 1529 0
-1522 -1524 1527 1530 0
-1522 -1524 -1527 1528 0
-1523 1524 1530 0
-1523 -1524 1527 1528 0
-1523 -1524 -1527 1529 0
-1531 -13 0
-1531 -61 0
-1531 -190 0
-1531 -223 0
1531 13 61 190 223 0
15 63 -1532 0
-15 -63 -1532 0
15 -63 1532 0
-15 63 1532 0
1532 192 -1533 0
-1532 -192 -1533 0
1532 -192 1533 0
-1532 192 1533 0
1533 225 -1534 0
-1533 -225 -1534 0
1533 -225 1534 0
-1533 225 1534 0
1535 1536 1537 0
-1535 -1536 0
-1535 -1537 0
-1536 -1537 0
-1528 1531 1535 0
-1528 -1531 1534 1536 0
-1528 -1531 -1534 1537 0
-1529 1531 1536 0
-1529 -1531 1534 1537 0
-1529 -1531 -1534 1535 0
-1530 1531 1537 0
-1530 -1531 1534 1535 0
-1530 -1531 -1534 1536 0
-1538 -13 0
-1538 -61 0
-1538 -196 0
-1538 -217 0
1538 13 61 196 217 0
15 63 -1539 0
-15 -63 -1539 0
15 -63 1539 0
-15 63 1539 0
1539 198 -1540 0
-1539 -198 -1540 0
1539 -198 1540 0
-1539 198 1540 0
1540 219 -1541 0
-1540 -219 -1541 0
1540 -219 1541 0
-1540 219 1541 0
1542 1543 1544 0
-1542 -1543 0
-1542 -1544 0
-1543 -1544 0
-1535 1538 1542 0
-1535 -1538 1541 1543 0
-1535 -1538 -1541 1544 0
-1536 1538 1543 0
-1536 -1538 1541 1544 0
-1536 -1538 -1541 1542 0
-1537 1538 1544 0
-1537 -1538 1541 1542 0
-1537 -1538 -1541 1543 0
-1545 -13 0
-1545 -88 0
-1545 -169 0
-1545 -244 0
1545 13 88 169 244 0
15 90 -1546 0
-15 -90 -1546 0
15 -90 1546 0
-15 90 1546 0
1546 171 -1547 0
-1546 -171 -1547 0
1546 -171 1547 0
-1546 171 1547 0
1547 246 -1548 0
-1547 -246 -1548 0
1547 -246 1548 0
-1547 246 1548 0
1549 1550 1551 0
-1549 -1550 0
-1549 -1551 0
-1550 -1551 0
-1542 1545 1549 0
-1542 -1545 1548 1550 0
-1542 -1545 -1548 1551 0
-1543 1545 1550 0
-1543 -1545 1548 1551 0
-1543 -1545 -1548 1549 0
-1544 1545 1551 0
-1544 -1545 1548 1549 0
-1544 -1545 -1548 1550 0
-1552 -13 0
-1552 -88 0
-1552 -196 0
-1552 -229 0
1552 13 88 196 229 0
15 90 -1553 0
-15 -90 -1553 0
15 -90 1553 0
-15 90 1553 0
1553 198 -1554 0
-1553 -198 -1554 0
1553 -198 1554 0
-1553 198 1554 0
1554 231 -1555 0
-1554 -231 -1555 0
1554 -231 1555 0
-1554 231 1555 0
1556 1557 1558 0
-1556 -1557 0
-1556 -1558 0
-1557 -1558 0
-1549 1552 1556 0
-1549 -1552 1555 1557 0
-1549 -1552 -1555 1558 0
-1550 1552 1557 0
-1550 -1552 1555 1558 0
-1550 -1552 -1555 1556 0
-1551 1552 1558 0
-1551 -1552 1555 1556 0
-1551 -1552 -1555 1557 0
-1559 -13 0
-1559 -88 0
-1559 -202 0
-1559 -223 0
1559 13 88 202 223 0
15 90 -1560 0
-15 -90 -1560 0
15 -90 1560 0
-15 90 1560 0
1560 204 -1561 0
-1560 -204 -1561 0
1560 -204 1561 0
-1560 204 1561 0
1561 225 -1562 0
-1561 -225 -1562 0
1561 -225 1562 0
-1561 225 1562 0
1563 1564 1565 0
-1563 -1564 0
-1563 -1565 0
-1564 -1565 0
-1556 1559 1563 0
-1556 -1559 1562 1564 0
-1556 -1559 -1562 1565 0
-1557 1559 1564 0
-1557 -1559 1562 1565 0
-1557 -1559 -1562 1563 0
-1558 1559 1565 0
-1558 -1559 1562 1563 0
-1558 -1559 -1562 1564 0
-1566 -13 0
-1566 -115 0
-1566 -166 0
-1566 -229 0
1566 13 115 166 229 0
15 117 -1567 0
-15 -117 -1567 0
15 -117 1567 0
-15 117 1567 0
1567 168 -1568 0
-1567 -168 -1568 0
1567 -168 1568 0
-1567 168 1568 0
1568 231 -1569 0
-1568 -231 -1569 0
1568 -231 1569 0
-1568 231 1569 0
1570 1571 1572 0
-1570 -1571 0
-1570 -1572 0
-1571 -1572 0
-1563 1566 1570 0
-1563 -1566 1569 1571 0
-1563 -1566 -1569 1572 0
-1564 1566 1571 0
-1564 -1566 1569 1572 0
-1564 -1566 -1569 1570 0
-1565 1566 1572 0
-1565 -1566 1569 1570 0
-1565 -1566 -1569 1571 0
-1573 -13 0
-1573 -115 0
-1573 -169 0
-1573 -217 0
1573 13 115 169 217 0
15 117 -1574 0
-15 -117 -1574 0
15 -117 1574 0
-15 117 1574 0
1574 171 -1575 0
-1574 -171 -1575 0
1574 -171 1575 0
-1574 171 1575 0
1575 219 -1576 0
-1575 -219 -1576 0
1575 -219 1576 0
-1575 219 1576 0
1577 1578 1579 0
-1577 -1578 0
-1577 -1579 0
-1578 -1579 0
-1570 1573 1577 0
-1570 -1573 1576 1578 0
-1570 -1573 -1576 1579 0
-1571 1573 1578 0
-1571 -1573 1576 1579 0
-1571 -1573 -1576 1577 0
-1572 1573 1579 0
-1572 -1573 1576 1577 0
-1572 -1573 -1576 1578 0
-1580 -13 0
-1580 -115 0
-1580 -175 0
-1580 -223 0
1580 13 115 175 223 0
15 117 -1581 0
-15 -117 -1581 0
15 -117 1581 0
-15 117 1581 0
1581 177 -1582 0
-1581 -177 -1582 0
1581 -177 1582 0
-1581 177 1582 0
1582 225 -1583 0
-1582 -225 -1583 0
1582 -225 1583 0
-1582 225 1583 0
1584 1585 1586 0
-1584 -1585 0
-1584 -1586 0
-1585 -1586 0
-1577 1580 1584 0
-1577 -1580 1583 1585 0
-1577 -1580 -1583 1586 0
-1578 1580 1585 0
-1578 -1580 1583 1586 0
-1578 -1580 -1583 1584 0
-1579 1580 1586 0
-1579 -1580 1583 1584 0
-1579 -1580 -1583 1585 0
-1587 -13 0
-1587 -142 0
-1587 -166 0
-1587 -202 0
1587 13 142 166 202 0
15 144 -1588 0
-15 -144 -1588 0
15 -144 1588 0
-15 144 1588 0
1588 168 -1589 0
-1588 -168 -1589 0
1588 -168 1589 0
-1588 168 1589 0
1589 204 -1590 0
-1589 -204 -1590 0
1589 -204 1590 0
-1589 204 1590 0
1591 1592 1593 0
-1591 -1592 0
-1591 -1593 0
-1592 -1593 0
-1584 1587 1591 0
-1584 -1587 1590 1592 0
-1584 -1587 -1590 1593 0
-1585 1587 1592 0
-1585 -1587 1590 1593 0
-1585 -1587 -1590 1591 0
-1586 1587 1593 0
-1586 -1587 1590 1591 0
-1586 -1587 -1590 1592 0
-1594 -13 0
-1594 -142 0
-1594 -169 0
-1594 -190 0
1594 13 142 169 190 0
15 144 -1595 0
-15 -144 -1595 0
15 -144 1595 0
-15 144 1595 0
1595 171 -1596 0
-1595 -171 -1596 0
1595 -171 1596 0
-1595 171 1596 0
1596 192 -1597 0
-1596 -192 -1597 0
1596 -192 1597 0
-1596 192 1597 0
1598 1599 1600 0
-1598 -1599 0
-1598 -1600 0
-1599 -1600 0
-1591 1594 1598 0
-1591 -1594 1597 1599 0
-1591 -1594 -1597 1600 0
-1592 1594 1599 0
-1592 -1594 1597 1600 0
-1592 -1594 -1597 1598 0
-1593 1594 1600 0
-1593 -1594 1597 1598 0
-1593 -1594 -1597 1599 0
-1601 -13 0
-1601 -142 0
-1601 -175 0
-1601 -196 0
1601 13 142 175 196 0
15 144 -1602 0
-15 -144 -1602 0
15 -144 1602 0
-15 144 1602 0
1602 177 -1603 0
-1602 -177 -1603 0
1602 -177 1603 0
-1602 177 1603 0
1603 198 -1604 0
-1603 -198 -1604 0
1603 -198 1604 0
-1603 198 1604 0
1605 1606 1607 0
-1605 -1606 0
-1605 -1607 0
-1606 -1607 0
-1598 1601 1605 0
-1598 -1601 1604 1606 0
-1598 -1601 -1604 1607 0
-1599 1601 1606 0
-1599 -1601 1604 1607 0
-1599 -1601 -1604 1605 0
-1600 1601 1607 0
-1600 -1601 1604 1605 0
-1600 -1601 -1604 1606 0
-1608 -28 0
-1608 -28 0
-1608 -40 0
-1608 -244 0
1608 28 28 40 244 0
30 30 -1609 0
-30 -30 -1609 0
30 -30 1609 0
-30 30 1609 0
1609 42 -1610 0
-1609 -42 -1610 0
1609 -42 1610 0
-1609 42 1610 0
1610 246 -1611 0
-1610 -246 -1611 0
1610 -246 1611 0
-1610 246 1611 0
1612 1613 1614 0
-1612 -1613 0
-1612 -1614 0
-1613 -1614 0
-1605 1608 1612 0
-1605 -1608 1611 1613 0
-1605 -1608 -1611 1614 0
-1606 1608 1613 0
-1606 -1608 1611 1614 0
-1606 -1608 -1611 1612 0
-1607 1608 1614 0
-1607 -1608 1611 1612 0
-1607 -1608 -1611 1613 0
-1615 -28 0
-1615 -28 0
-1615 -121 0
-1615 -229 0
1615 28 28 121 229 0
30 30 -1616 0
-30 -30 -1616 0
30 -30 1616 0
-30 30 1616 0
1616 123 -1617 0
-1616 -123 -1617 0
1616 -123 1617 0
-1616 123 1617 0
1617 231 -1618 0
-1617 -231 -1618 0
1617 -231 1618 0
-1617 231 1618 0
1619 1620 1621 0
-1619 -1620 0
-1619 -1621 0
-1620 -1621 0
-1612 1615 1619 0
-1612 -1615 1618 1620 0
-1612 -1615 -1618 1621 0
-1613 1615 1620 0
-1613 -1615 1618 1621 0
-1613 -1615 -1618 1619 0
-1614 1615 1621 0
-1614 -1615 1618 1619 0
-1614 -1615 -1618 1620 0
-1622 -28 0
-1622 -28 0
-1622 -148 0
-1622 -202 0
1622 28 28 148 202 0
30 30 -1623 0
-30 -30 -1623 0
30 -30 1623 0
-30 30 1623 0
1623 150 -1624 0
-1623 -150 -1624 0
1623 -150 1624 0
-1623 150 1624 0
1624 204 -1625 0
-1624 -204 -1625 0
1624 -204 1625 0
-1624 204 1625 0
1626 1627 1628 0
-1626 -1627 0
-1626 -1628 0
-1627 -1628 0
-1619 1622 1626 0
-1619 -1622 1625 1627 0
-1619 -1622 -1625 1628 0
-1620 1622 1627 0
-1620 -1622 1625 1628 0
-1620 -1622 -1625 1626 0
-1621 1622 1628 0
-1621 -1622 1625 1626 0
-1621 -1622 -1625 1627 0
-1629 -28 0
-1629 -40 0
-1629 -109 0
-1629 -217 0
1629 28 40 109 217 0
30 42 -1630 0
-30 -42 -1630 0
30 -42 1630 0
-30 42 1630 0
1630 111 -1631 0
-1630 -111 -1631 0
1630 -111 1631 0
-1630 111 1631 0
1631 219 -1632 0
-1631 -219 -1632 0
1631 -219 1632 0
-1631 219 1632 0
1633 1634 1635 0
-1633 -1634 0
-1633 -1635 0
-1634 -1635 0
-1626 1629 1633 0
-1626 -1629 1632 1634 0
-1626 -1629 -1632 1635 0
-1627 1629 1634 0
-1627 -1629 1632 1635 0
-1627 -1629 -1632 1633 0
-1628 1629 1635 0
-1628 -1629 1632 1633 0
-1628 -1629 -1632 1634 0
-1636 -28 0
-1636 -40 0
-1636 -115 0
-1636 -223 0
1636 28 40 115 223 0
30 42 -1637 0
-30 -42 -1637 0
30 -42 1637 0
-30 42 1637 0
1637 117 -1638 0
-1637 -117 -1638 0
1637 -117 1638 0
-1637 117 1638 0
1638 225 -1639 0
-1638 -225 -1639 0
1638 -225 1639 0
-1638 225 1639 0
1640 1641 1642 0
-1640 -1641 0
-1640 -1642 0
-1641 -1642 0
-1633 1636 1640 0
-1633 -1636 1639 1641 0
-1633 -1636 -1639 1642 0
-1634 1636 1641 0
-1634 -1636 1639 1642 0
-1634 -1636 -1639 1640 0
-1635 1636 1642 0
-1635 -1636 1639 1640 0
-1635 -1636 -1639 1641 0
-1643 -28 0
-1643 -40 0
-1643 -136 0
-1643 -190 0
1643 28 40 136 190 0
30 42 -1644 0
-30 -42 -1644 0
30 -42 1644 0
-30 42 1644 0
1644 138 -1645 0
-1644 -138 -1645 0
1644 -138 1645 0
-1644 138 1645 0
1645 192 -1646 0
-1645 -192 -1646 0
1645 -192 1646 0
-1645 192 1646 0
1647 1648 1649 0
-1647 -1648 0
-1647 -1649 0
-1648 -1649 0
-1640 1643 1647 0
-1640 -1643 1646 1648 0
-1640 -1643 -1646 1649 0
-1641 1643 1648 0
-1641 -1643 1646 1649 0
-1641 -1643 -1646 1647 0
-1642 1643 1649 0
-1642 -1643 1646 1647 0
-1642 -1643 -1646 1648 0
-1650 -28 0
-1650 -40 0
-1650 -142 0
-1650 -196 0
1650 28 40 142 196 0
30 42 -1651 0
-30 -42 -1651 0
30 -42 1651 0
-30 42 1651 0
1651 144 -1652 0
-1651 -144 -1652 0
1651 -144 1652 0
-1651 144 1652 0
1652 198 -1653 0
-1652 -198 -1653 0
1652 -198 1653 0
-1652 198 1653 0
1654 1655 1656 0
-1654 -1655 0
-1654 -1656 0
-1655 -1656 0
-1647 1650 1654 0
-1647 -1650 1653 1655 0
-1647 -1650 -1653 1656 0
-1648 1650 1655 0
-1648 -1650 1653 1656 0
-1648 -1650 -1653 1654 0
-1649 1650 1656 0
-1649 -1650 1653 1654 0
-1649 -1650 -1653 1655 0
-1657 -28 0
-1657 -61 0
-1657 -97 0
-1657 -244 0
1657 28 61 97 244 0
30 63 -1658 0
-30 -63 -1658 0
30 -63 1658 0
-30 63 1658 0
1658 99 -1659 0
-1658 -99 -1659 0
1658 -99 1659 0
-1658 99 1659 0
1659 246 -1660 0
-1659 -246 -1660 0
1659 -246 1660 0
-1659 246 1660 0
1661 1662 1663 0
-1661 -1662 0
-1661 -1663 0
-1662 -1663 0
-1654 1657 1661 0
-1654 -1657 1660 1662 0
-1654 -1657 -1660 1663 0
-1655 1657 1662 0
-1655 -1657 1660 1663 0
-1655 -1657 -1660 1661 0
-1656 1657 1663 0
-1656 -1657 1660 1661 0
-1656 -1657 -1660 1662 0
-1664 -28 0
-1664 -61 0
-1664 -121 0
-1664 -223 0
1664 28 61 121 223 0
30 63 -1665 0
-30 -63 -1665 0
30 -63 1665 0
-30 63 1665 0
1665 123 -1666 0
-1665 -123 -1666 0
1665 -123 1666 0
-1665 123 1666 0
1666 225 -1667 0
-1666 -225 -1667 0
1666 -225 1667 0
-1666 225 1667 0
1668 1669 1670 0
-1668 -1669 0
-1668 -1670 0
-1669 -1670 0
-1661 1664 1668 0
-1661 -1664 1667 1669 0
-1661 -1664 -1667 1670 0
-1662 1664 1669 0
-1662 -1664 1667 1670 0
-1662 -1664 -1667 1668 0
-1663 1664 1670 0
-1663 -1664 1667 1668 0
-1663 -1664 -1667 1669 0
-1671 -28 0
-1671 -61 0
-1671 -148 0
-1671 -196 0
1671 28 61 148 196 0
30 63 -1672 0
-30 -63 -1672 0
30 -63 1672 0
-30 63 1672 0
1672 150 -1673 0
-1672 -150 -1673 0
1672 -150 1673 0
-1672 150 1673 0
1673 198 -1674 0
-1673 -198 -1674 0
1673 -198 1674 0
-1673 198 1674 0
1675 1676 1677 0
-1675 -1676 0
-1675 -1677 0
-1676 -1677 0
-1668 1671 1675 0
-1668 -1671 1674 1676 0
-1668 -1671 -1674 1677 0
-1669 1671 1676 0
-1669 -1671 1674 1677 0
-1669 -1671 -1674 1675 0
-1670 1671 1677 0
-1670 -1671 1674 1675 0
-1670 -1671 -1674 1676 0
-1678 -28 0
-1678 -67 0
-1678 -82 0
-1678 -244 0
1678 28 67 82 244 0
30 69 -1679 0
-30 -69 -1679 0
30 -69 1679 0
-30 69 1679 0
1679 84 -1680 0
-1679 -84 -1680 0
1679 -84 1680 0
-1679 84 1680 0
1680 246 -1681 0
-1680 -246 -1681 0
1680 -246 1681 0
-1680 246 1681 0
1682 1683 1684 0
-1682 -1683 0
-1682 -1684 0
-1683 -1684 0
-1675 1678 1682 0
-1675 -1678 1681 1683 0
-1675 -1678 -1681 1684 0
-1676 1678 1683 0
-1676 -1678 1681 1684 0
-1676 -1678 -1681 1682 0
-1677 1678 1684 0
-1677 -1678 1681 1682 0
-1677 -1678 -1681 1683 0
-1685 -28 0
-1685 -67 0
-1685 -109 0
-1685 -229 0
1685 28 67 109 229 0
30 69 -1686 0
-30 -69 -1686 0
30 -69 1686 0
-30 69 1686 0
1686 111 -1687 0
-1686 -111 -1687 0
1686 -111 1687 0
-1686 111 1687 0
1687 231 -1688 0
-1687 -231 -1688 0
1687 -231 1688 0
-1687 231 1688 0
1689 1690 1691 0
-1689 -1690 0
-1689 -1691 0
-1690 -1691 0
-1682 1685 1689 0
-1682 -1685 1688 1690 0
-1682 -1685 -1688 1691 0
-1683 1685 1690 0
-1683 -1685 1688 1691 0
-1683 -1685 -1688 1689 0
-1684 1685 1691 0
-1684 -1685 1688 1689 0
-1684 -1685 -1688 1690 0
-1692 -28 0
-1692 -67 0
-1692 -136 0
-1692 -202 0
1692 28 67 136 202 0
30 69 -1693 0
-30 -69 -1693 0
30 -69 1693 0
-30 69 1693 0
1693 138 -1694 0
-1693 -138 -1694 0
1693 -138 1694 0
-1693 138 1694 0
1694 204 -1695 0
-1694 -204 -1695 0
1694 -204 1695 0
-1694 204 1695 0
1696 1697 1698 0
-1696 -1697 0
-1696 -1698 0
-1697 -1698 0
-1689 1692 1696 0
-1689 -1692 1695 1697 0
-1689 -1692 -1695 1698 0
-1690 1692 1697 0
-1690 -1692 1695 1698 0
-1690 -1692 -1695 1696 0
-1691 1692 1698 0
-1691 -1692 1695 1696 0
-1691 -1692 -1695 1697 0
-1699 -28 0
-1699 -82 0
-1699 -121 0
-1699 -217 0
1699 28 82 121 217 0
30 84 -1700 0
-30 -84 -1700 0
30 -84 1700 0
-30 84 1700 0
1700 123 -1701 0
-1700 -123 -1701 0
1700 -123 1701 0
-1700 123 1701 0
1701 219 -1702 0
-1701 -219 -1702 0
1701 -219 1702 0
-1701 219 1702 0
1703 1704 1705 0
-1703 -1704 0
-1703 -1705 0
-1704 -1705 0
-1696 1699 1703 0
-1696 -1699 1702 1704 0
-1696 -1699 -1702 1705 0
-1697 1699 1704 0
-1697 -1699 1702 1705 0
-1697 -1699 -1702 1703 0
-1698 1699 1705 0
-1698 -1699 1702 1703 0
-1698 -1699 -1702 1704 0
-1706 -28 0
-1706 -82 0
-1706 -148 0
-1706 -190 0
1706 28 82 148 190 0
30 84 -1707 0
-30 -84 -1707 0
30 -84 1707 0
-30 84 1707 0
1707 150 -1708 0
-1707 -150 -1708 0
1707 -150 1708 0
-1707 150 1708 0
1708 192 -1709 0
-1708 -192 -1709 0
1708 -192 1709 0
-1708 192 1709 0
1710 1711 1712 0
-1710 -1711 0
-1710 -1712 0
-1711 -1712 0
-1703 1706 1710 0
-1703 -1706 1709 1711 0
-1703 -1706 -1709 1712 0
-1704 1706 1711 0
-1704 -1706 1709 1712 0
-1704 -1706 -1709 1710 0
-1705 1706 1712 0
-1705 -1706 1709 1710 0
-1705 -1706 -1709 1711 0
-1713 -28 0
-1713 -97 0
-1713 -115 0
-1713 -229 0
1713 28 97 115 229 0
30 99 -1714 0
-30 -99 -1714 0
30 -99 1714 0
-30 99 1714 0
1714 117 -1715 0
-1714 -117 -1715 0
1714 -117 1715 0
-1714 117 1715 0
1715 231 -1716 0
-1715 -231 -1716 0
1715 -231 1716 0
-1715 231 1716 0
1717 1718 1719 0
-1717 -1718 0
-1717 -1719 0
-1718 -1719 0
-1710 1713 1717 0
-1710 -1713 1716 1718 0
-1710 -1713 -1716 1719 0
-1711 1713 1718 0
-1711 -1713 1716 1719 0
-1711 -1713 -1716 1717 0
-1712 1713 1719 0
-1712 -1713 1716 1717 0
-1712 -1713 -1716 1718 0
-1720 -28 0
-1720 -97 0
-1720 -142 0
-1720 -202 0
1720 28 97 142 202 0
30 99 -1721 0
-30 -99 -1721 0
30 -99 1721 0
-30 99 1721 0
1721 144 -1722 0
-1721 -144 -1722 0
1721 -144 1722 0
-1721 144 1722 0
1722 204 -1723 0
-1722 -204 -1723 0
1722 -204 1723 0
-1722 204 1723 0
1724 1725 1726 0
-1724 -1725 0
-1724 -1726 0
-1725 -1726 0
-1717 1720 1724 0
-1717 -1720 1723 1725 0
-1717 -1720 -1723 1726 0
-1718 1720 1725 0
-1718 -1720 1723 1726 0
-1718 -1720 -1723 1724 0
-1719 1720 1726 0
-1719 -1720 1723 1724 0
-1719 -1720 -1723 1725 0
-1727 -28 0
-1727 -109 0
-1727 -148 0
-1727 -175 0
1727 28 109 148 175 0
30 111 -1728 0
-30 -111 -1728 0
30 -111 1728 0
-30 111 1728 0
1728 150 -1729 0
-1728 -150 -1729 0
1728 -150 1729 0
-1728 150 1729 0
1729 177 -1730 0
-1729 -177 -1730 0
1729 -177 1730 0
-1729 177 1730 0
1731 1732 1733 0
-1731 -1732 0
-1731 -1733 0
-1732 -1733 0
-1724 1727 1731 0
-1724 -1727 1730 1732 0
-1724 -1727 -1730 1733 0
-1725 1727 1732 0
-1725 -1727 1730 1733 0
-1725 -1727 -1730 1731 0
-1726 1727 1733 0
-1726 -1727 1730 1731 0
-1726 -1727 -1730 1732 0
-1734 -28 0
-1734 -115 0
-1734 -148 0
-1734 -169 0
1734 28 115 148 169 0
30 117 -1735 0
-30 -117 -1735 0
30 -117 1735 0
-30 117 1735 0
1735 150 -1736 0
-1735 -150 -1736 0
1735 -150 1736 0
-1735 150 1736 0
1736 171 -1737 0
-1736 -171 -1737 0
1736 -171 1737 0
-1736 171 1737 0
1738 1739 1740 0
-1738 -1739 0
-1738 -1740 0
-1739 -1740 0
-1731 1734 1738 0
-1731 -1734 1737 1739 0
-1731 -1734 -1737 1740 0
-1732 1734 1739 0
-1732 -1734 1737 1740 0
-1732 -1734 -1737 1738 0
-1733 1734 1740 0
-1733 -1734 1737 1738 0
-1733 -1734 -1737 1739 0
-1741 -28 0
-1741 -121 0
-1741 -136 0
-1741 -175 0
1741 28 121 136 175 0
30 123 -1742 0
-30 -123 -1742 0
30 -123 1742 0
-30 123 1742 0
1742 138 -1743 0
-1742 -138 -1743 0
1742 -138 1743 0
-1742 138 1743 0
1743 177 -1744 0
-1743 -177 -1744 0
1743 -177 1744 0
-1743 177 1744 0
1745 1746 1747 0
-1745 -1746 0
-1745 -1747 0
-1746 -1747 0
-1738 1741 1745 0
-1738 -1741 1744 1746 0
-1738 -1741 -1744 1747 0
-1739 1741 1746 0
-1739 -1741 1744 1747 0
-1739 -1741 -1744 1745 0
-1740 1741 1747 0
-1740 -1741 1744 1745 0
-1740 -1741 -1744 1746 0
-1748 -28 0
-1748 -121 0
-1748 -142 0
-1748 -169 0
1748 28 121 142 169 0
30 123 -1749 0
-30 -123 -1749 0
30 -123 1749 0
-30 123 1749 0
1749 144 -1750 0
-1749 -144 -1750 0
1749 -144 1750 0
-1749 144 1750 0
1750 171 -1751 0
-1750 -171 -1751 0
1750 -171 1751 0
-1750 171 1751 0
1752 1753 1754 0
-1752 -1753 0
-1752 -1754 0
-1753 -1754 0
-1745 1748 1752 0
-1745 -1748 1751 1753 0
-1745 -1748 -1751 1754 0
-1746 1748 1753 0
-1746 -1748 1751 1754 0
-1746 -1748 -1751 1752 0
-1747 1748 1754 0
-1747 -1748 1751 1752 0
-1747 -1748 -1751 1753 0
-1755 -40 0
-1755 -58 0
-1755 -88 0
-1755 -244 0
1755 40 58 88 244 0
42 60 -1756 0
-42 -60 -1756 0
42 -60 1756 0
-42 60 1756 0
1756 90 -1757 0
-1756 -90 -1757 0
1756 -90 1757 0
-1756 90 1757 0
1757 246 -1758 0
-1757 -246 -1758 0
1757 -246 1758 0
-1757 246 1758 0
1759 1760 1761 0
-1759 -1760 0
-1759 -1761 0
-1760 -1761 0
-1752 1755 1759 0
-1752 -1755 1758 1760 0
-1752 -1755 -1758 1761 0
-1753 1755 1760 0
-1753 -1755 1758 1761 0
-1753 -1755 -1758 1759 0
-1754 1755 1761 0
-1754 -1755 1758 1759 0
-1754 -1755 -1758 1760 0
-1762 -40 0
-1762 -58 0
-1762 -115 0
-1762 -217 0
1762 40 58 115 217 0
42 60 -1763 0
-42 -60 -1763 0
42 -60 1763 0
-42 60 1763 0
1763 117 -1764 0
-1763 -117 -1764 0
1763 -117 1764 0
-1763 117 1764 0
1764 219 -1765 0
-1764 -219 -1765 0
1764 -219 1765 0
-1764 219 1765 0
1766 1767 1768 0
-1766 -1767 0
-1766 -1768 0
-1767 -1768 0
-1759 1762 1766 0
-1759 -1762 1765 1767 0
-1759 -1762 -1765 1768 0
-1760 1762 1767 0
-1760 -1762 1765 1768 0
-1760 -1762 -1765 1766 0
-1761 1762 1768 0
-1761 -1762 1765 1766 0
-1761 -1762 -1765 1767 0
-1769 -40 0
-1769 -58 0
-1769 -142 0
-1769 -190 0
1769 40 58 142 190 0
42 60 -1770 0
-42 -60 -1770 0
42 -60 1770 0
-42 60 1770 0
1770 144 -1771 0
-1770 -144 -1771 0
1770 -144 1771 0
-1770 144 1771 0
1771 192 -1772 0
-1771 -192 -1772 0
1771 -192 1772 0
-1771 192 1772 0
1773 1774 1775 0
-1773 -1774 0
-1773 -1775 0
-1774 -1775 0
-1766 1769 1773 0
-1766 -1769 1772 1774 0
-1766 -1769 -1772 1775 0
-1767 1769 1774 0
-1767 -1769 1772 1775 0
-1767 -1769 -1772 1773 0
-1768 1769 1775 0
-1768 -1769 1772 1773 0
-1768 -1769 -1772 1774 0
-1776 -40 0
-1776 -88 0
-1776 -109 0
-1776 -223 0
1776 40 88 109 223 0
42 90 -1777 0
-42 -90 -1777 0
42 -90 1777 0
-42 90 1777 0
1777 111 -1778 0
-1777 -111 -1778 0
1777 -111 1778 0
-1777 111 1778 0
1778 225 -1779 0
-1778 -225 -1779 0
1778 -225 1779 0
-1778 225 1779 0
1780 1781 1782 0
-1780 -1781 0
-1780 -1782 0
-1781 -1782 0
-1773 1776 1780 0
-1773 -1776 1779 1781 0
-1773 -1776 -1779 1782 0
-1774 1776 1781 0
-1774 -1776 1779 1782 0
-1774 -1776 -1779 1780 0
-1775 1776 1782 0
-1775 -1776 1779 1780 0
-1775 -1776 -1779 1781 0
-1783 -40 0
-1783 -88 0
-1783 -136 0
-1783 -196 0
1783 40 88 136 196 0
42 90 -1784 0
-42 -90 -1784 0
42 -90 1784 0
-42 90 1784 0
1784 138 -1785 0
-1784 -138 -1785 0
1784 -138 1785 0
-1784 138 1785 0
1785 198 -1786 0
-1785 -198 -1786 0
1785 -198 1786 0
-1785 198 1786 0
1787 1788 1789 0
-1787 -1788 0
-1787 -1789 0
-1788 -1789 0
-1780 1783 1787 0
-1780 -1783 1786 1788 0
-1780 -1783 -1786 1789 0
-1781 1783 1788 0
-1781 -1783 1786 1789 0
-1781 -1783 -1786 1787 0
-1782 1783 1789 0
-1782 -1783 1786 1787 0
-1782 -1783 -1786 1788 0
-1790 -40 0
-1790 -109 0
-1790 -142 0
-1790 -166 0
1790 40 109 142 166 0
42 111 -1791 0
-42 -111 -1791 0
42 -111 1791 0
-42 111 1791 0
1791 144 -1792 0
-1791 -144 -1792 0
1791 -144 1792 0
-1791 144 1792 0
1792 168 -1793 0
-1792 -168 -1793 0
1792 -168 1793 0
-1792 168 1793 0
1794 1795 1796 0
-1794 -1795 0
-1794 -1796 0
-1795 -1796 0
-1787 1790 1794 0
-1787 -1790 1793 1795 0
-1787 -1790 -1793 1796 0
-1788 1790 1795 0
-1788 -1790 1793 1796 0
-1788 -1790 -1793 1794 0
-1789 1790 1796 0
-1789 -1790 1793 1794 0
-1789 -1790 -1793 1795 0
-1797 -40 0
-1797 -115 0
-1797 -136 0
-1797 -166 0
1797 40 115 136 166 0
42 117 -1798 0
-42 -117 -1798 0
42 -117 1798 0
-42 117 1798 0
1798 138 -1799 0
-1798 -138 -1799 0
1798 -138 1799 0
-1798 138 1799 0
1799 168 -1800 0
-1799 -168 -1800 0
1799 -168 1800 0
-1799 168 1800 0
1801 1802 1803 0
-1801 -1802 0
-1801 -1803 0
-1802 -1803 0
-1794 1797 1801 0
-1794 -1797 1800 1802 0
-1794 -1797 -1800 1803 0
-1795 1797 1802 0
-1795 -1797 1800 1803 0
-1795 -1797 -1800 1801 0
-1796 1797 1803 0
-1796 -1797 1800 1801 0
-1796 -1797 -1800 1802 0
-1804 -58 0
-1804 -61 0
-1804 -67 0
-1804 -244 0
1804 58 61 67 244 0
60 63 -1805 0
-60 -63 -1805 0
60 -63 1805 0
-60 63 1805 0
1805 69 -1806 0
-1805 -69 -1806 0
1805 -69 1806 0
-1805 69 1806 0
1806 246 -1807 0
-1806 -246 -1807 0
1806 -246 1807 0
-1806 246 1807 0
1808 1809 1810 0
-1808 -1809 0
-1808 -1810 0
-1809 -1810 0
-1801 1804 1808 0
-1801 -1804 1807 1809 0
-1801 -1804 -1807 1810 0
-1802 1804 1809 0
-1802 -1804 1807 1810 0
-1802 -1804 -1807 1808 0
-1803 1804 1810 0
-1803 -1804 1807 1808 0
-1803 -1804 -1807 1809 0
-1811 -58 0
-1811 -61 0
-1811 -121 0
-1811 -217 0
1811 58 61 121 217 0
60 63 -1812 0
-60 -63 -1812 0
60 -63 1812 0
-60 63 1812 0
1812 123 -1813 0
-1812 -123 -1813 0
1812 -123 1813 0
-1812 123 1813 0
1813 219 -1814 0
-1813 -219 -1814 0
1813 -219 1814 0
-1813 219 1814 0
1815 1816 1817 0
-1815 -1816 0
-1815 -1817 0
-1816 -1817 0
-1808 1811 1815 0
-1808 -1811 1814 1816 0
-1808 -1811 -1814 1817 0
-1809 1811 1816 0
-1809 -1811 1814 1817 0
-1809 -1811 -1814 1815 0
-1810 1811 1817 0
-1810 -1811 1814 1815 0
-1810 -1811 -1814 1816 0
-1818 -58 0
-1818 -61 0
-1818 -148 0
-1818 -190 0
1818 58 61 148 190 0
60 63 -1819 0
-60 -63 -1819 0
60 -63 1819 0
-60 63 1819 0
1819 150 -1820 0
-1819 -150 -1820 0
1819 -150 1820 0
-1819 150 1820 0
1820 192 -1821 0
-1820 -192 -1821 0
1820 -192 1821 0
-1820 192 1821 0
1822 1823 1824 0
-1822 -1823 0
-1822 -1824 0
-1823 -1824 0
-1815 1818 1822 0
-1815 -1818 1821 1823 0
-1815 -1818 -1821 1824 0
-1816 1818 1823 0
-1816 -1818 1821 1824 0
-1816 -1818 -1821 1822 0
-1817 1818 1824 0
-1817 -1818 1821 1822 0
-1817 -1818 -1821 1823 0
-1825 -58 0
-1825 -67 0
-1825 -115 0
-1825 -229 0
1825 58 67 115 229 0
60 69 -1826 0
-60 -69 -1826 0
60 -69 1826 0
-60 69 1826 0
1826 117 -1827 0
-1826 -117 -1827 0
1826 -117 1827 0
-1826 117 1827 0
1827 231 -1828 0
-1827 -231 -1828 0
1827 -231 1828 0
-1827 231 1828 0
1829 1830 1831 0
-1829 -1830 0
-1829 -1831 0
-1830 -1831 0
-1822 1825 1829 0
-1822 -1825 1828 1830 0
-1822 -1825 -1828 1831 0
-1823 1825 1830 0
-1823 -1825 1828 1831 0
-1823 -1825 -1828 1829 0
-1824 1825 1831 0
-1824 -1825 1828 1829 0
-1824 -1825 -1828 1830 0
-1832 -58 0
-1832 -67 0
-1832 -142 0
-1832 -202 0
1832 58 67 142 202 0
60 69 -1833 0
-60 -69 -1833 0
60 -69 1833 0
-60 69 1833 0
1833 144 -1834 0
-1833 -144 -1834 0
1833 -144 1834 0
-1833 144 1834 0
1834 204 -1835 0
-1834 -204 -1835 0
1834 -204 1835 0
-1834 204 1835 0
1836 1837 1838 0
-1836 -1837 0
-1836 -1838 0
-1837 -1838 0
-1829 1832 1836 0
-1829 -1832 1835 1837 0
-1829 -1832 -1835 1838 0
-1830 1832 1837 0
-1830 -1832 1835 1838 0
-1830 -1832 -1835 1836 0
-1831 1832 1838 0
-1831 -1832 1835 1836 0
-1831 -1832 -1835 1837 0
-1839 -58 0
-1839 -88 0
-1839 -121 0
-1839 -229 0
1839 58 88 121 229 0
60 90 -1840 0
-60 -90 -1840 0
60 -90 1840 0
-60 90 1840 0
1840 123 -1841 0
-1840 -123 -1841 0
1840 -123 1841 0
-1840 123 1841 0
1841 231 -1842 0
-1841 -231 -1842 0
1841 -231 1842 0
-1841 231 1842 0
1843 1844 1845 0
-1843 -1844 0
-1843 -1845 0
-1844 -1845 0
-1836 1839 1843 0
-1836 -1839 1842 1844 0
-1836 -1839 -1842 1845 0
-1837 1839 1844 0
-1837 -1839 1842 1845 0
-1837 -1839 -1842 1843 0
-1838 1839 1845 0
-1838 -1839 1842 1843 0
-1838 -1839 -1842 1844 0
-1846 -58 0
-1846 -88 0
-1846 -148 0
-1846 -202 0
1846 58 88 148 202 0
60 90 -1847 0
-60 -90 -1847 0
60 -90 1847 0
-60 90 1847 0
1847 150 -1848 0
-1847 -150 -1848 0
1847 -150 1848 0
-1847 150 1848 0
1848 204 -1849 0
-1848 -204 -1849 0
1848 -204 1849 0
-1848 204 1849 0
1850 1851 1852 0
-1850 -1851 0
-1850 -1852 0
-1851 -1852 0
-1843 1846 1850 0
-1843 -1846 1849 1851 0
-1843 -1846 -1849 1852 0
-1844 1846 1851 0
-1844 -1846 1849 1852 0
-1844 -1846 -1849 1850 0
-1845 1846 1852 0
-1845 -1846 1849 1850 0
-1845 -1846 -1849 1851 0
-1853 -58 0
-1853 -115 0
-1853 -148 0
-1853 -175 0
1853 58 115 148 175 0
60 117 -1854 0
-60 -117 -1854 0
60 -117 1854 0
-60 117 1854 0
1854 150 -1855 0
-1854 -150 -1855 0
1854 -150 1855 0
-1854 150 1855 0
1855 177 -1856 0
-1855 -177 -1856 0
1855 -177 1856 0
-1855 177 1856 0
1857 1858 1859 0
-1857 -1858 0
-1857 -1859 0
-1858 -1859 0
-1850 1853 1857 0
-1850 -1853 1856 1858 0
-1850 -1853 -1856 1859 0
-1851 1853 1858 0
-1851 -1853 1856 1859 0
-1851 -1853 -1856 1857 0
-1852 1853 1859 0
-1852 -1853 1856 1857 0
-1852 -1853 -1856 1858 0
-1860 -58 0
-1860 -121 0
-1860 -142 0
-1860 -175 0
1860 58 121 142 175 0
60 123 -1861 0
-60 -123 -1861 0
60 -123 1861 0
-60 123 1861 0
1861 144 -1862 0
-1861 -144 -1862 0
1861 -144 1862 0
-1861 144 1862 0
1862 177 -1863 0
-1862 -177 -1863 0
1862 -177 1863 0
-1862 177 1863 0
1864 1865 1866 0
-1864 -1865 0
-1864 -1866 0
-1865 -1866 0
-1857 1860 1864 0
-1857 -1860 1863 1865 0
-1857 -1860 -1863 1866 0
-1858 1860 1865 0
-1858 -1860 1863 1866 0
-1858 -1860 -1863 1864 0
-1859 1860 1866 0
-1859 -1860 1863 1864 0
-1859 -1860 -1863 1865 0
-1867 -61 0
-1867 -67 0
-1867 -109 0
-1867 -223 0
1867 61 67 109 223 0
63 69 -1868 0
-63 -69 -1868 0
63 -69 1868 0
-63 69 1868 0
1868 111 -1869 0
-1868 -111 -1869 0
1868 -111 1869 0
-1868 111 1869 0
1869 225 -1870 0
-1869 -225 -1870 0
1869 -225 1870 0
-1869 225 1870 0
1871 1872 1873 0
-1871 -1872 0
-1871 -1873 0
-1872 -1873 0
-1864 1867 1871 0
-1864 -1867 1870 1872 0
-1864 -1867 -1870 1873 0
-1865 1867 1872 0
-1865 -1867 1870 1873 0
-1865 -1867 -1870 1871 0
-1866 1867 1873 0
-1866 -1867 1870 1871 0
-1866 -1867 -1870 1872 0
-1874 -61 0
-1874 -67 0
-1874 -136 0
-1874 -196 0
1874 61 67 136 196 0
63 69 -1875 0
-63 -69 -1875 0
63 -69 1875 0
-63 69 1875 0
1875 138 -1876 0
-1875 -138 -1876 0
1875 -138 1876 0
-1875 138 1876 0
1876 198 -1877 0
-1876 -198 -1877 0
1876 -198 1877 0
-1876 198 1877 0
1878 1879 1880 0
-1878 -1879 0
-1878 -1880 0
-1879 -1880 0
-1871 1874 1878 0
-1871 -1874 1877 1879 0
-1871 -1874 -1877 1880 0
-1872 1874 1879 0
-1872 -1874 1877 1880 0
-1872 -1874 -1877 1878 0
-1873 1874 1880 0
-1873 -1874 1877 1878 0
-1873 -1874 -1877 1879 0
-1881 -61 0
-1881 -97 0
-1881 -109 0
-1881 -217 0
1881 61 97 109 217 0
63 99 -1882 0
-63 -99 -1882 0
63 -99 1882 0
-63 99 1882 0
1882 111 -1883 0
-1882 -111 -1883 0
1882 -111 1883 0
-1882 111 1883 0
1883 219 -1884 0
-1883 -219 -1884 0
1883 -219 1884 0
-1883 219 1884 0
1885 1886 1887 0
-1885 -1886 0
-1885 -1887 0
-1886 -1887 0
-1878 1881 1885 0
-1878 -1881 1884 1886 0
-1878 -1881 -1884 1887 0
-1879 1881 1886 0
-1879 -1881 1884 1887 0
-1879 -1881 -1884 1885 0
-1880 1881 1887 0
-1880 -1881 1884 1885 0
-1880 -1881 -1884 1886 0
-1888 -61 0
-1888 -97 0
-1888 -136 0
-1888 -190 0
1888 61 97 136 190 0
63 99 -1889 0
-63 -99 -1889 0
63 -99 1889 0
-63 99 1889 0
1889 138 -1890 0
-1889 -138 -1890 0
1889 -138 1890 0
-1889 138 1890 0
1890 192 -1891 0
-1890 -192 -1891 0
1890 -192 1891 0
-1890 192 1891 0
1892 1893 1894 0
-1892 -1893 0
-1892 -1894 0
-1893 -1894 0
-1885 1888 1892 0
-1885 -1888 1891 1893 0
-1885 -1888 -1891 1894 0
-1886 1888 1893 0
-1886 -1888 1891 1894 0
-1886 -1888 -1891 1892 0
-1887 1888 1894 0
-1887 -1888 1891 1892 0
-1887 -1888 -1891 1893 0
-1895 -61 0
-1895 -109 0
-1895 -148 0
-1895 -166 0
1895 61 109 148 166 0
63 111 -1896 0
-63 -111 -1896 0
63 -111 1896 0
-63 111 1896 0
1896 150 -1897 0
-1896 -150 -1897 0
1896 -150 1897 0
-1896 150 1897 0
1897 168 -1898 0
-1897 -168 -1898 0
1897 -168 1898 0
-1897 168 1898 0
1899 1900 1901 0
-1899 -1900 0
-1899 -1901 0
-1900 -1901 0
-1892 1895 1899 0
-1892 -1895 1898 1900 0
-1892 -1895 -1898 1901 0
-1893 1895 1900 0
-1893 -1895 1898 1901 0
-1893 -1895 -1898 1899 0
-1894 1895 1901 0
-1894 -1895 1898 1899 0
-1894 -1895 -1898 1900 0
-1902 -61 0
-1902 -121 0
-1902 -136 0
-1902 -166 0
1902 61 121 136 166 0
63 123 -1903 0
-63 -123 -1903 0
63 -123 1903 0
-63 123 1903 0
1903 138 -1904 0
-1903 -138 -1904 0
1903 -138 1904 0
-1903 138 1904 0
1904 168 -1905 0
-1904 -168 -1905 0
1904 -168 1905 0
-1904 168 1905 0
1906 1907 1908 0
-1906 -1907 0
-1906 -1908 0
-1907 -1908 0
-1899 1902 1906 0
-1899 -1902 1905 1907 0
-1899 -1902 -1905 1908 0
-1900 1902 1907 0
-1900 -1902 1905 1908 0
-1900 -1902 -1905 1906 0
-1901 1902 1908 0
-1901 -1902 1905 1906 0
-1901 -1902 -1905 1907 0
-1909 -67 0
-1909 -82 0
-1909 -115 0
-1909 -223 0
1909 67 82 115 223 0
69 84 -1910 0
-69 -84 -1910 0
69 -84 1910 0
-69 84 1910 0
1910 117 -1911 0
-1910 -117 -1911 0
1910 -117 1911 0
-1910 117 1911 0
1911 225 -1912 0
-1911 -225 -1912 0
1911 -225 1912 0
-1911 225 1912 0
1913 1914 1915 0
-1913 -1914 0
-1913 -1915 0
-1914 -1915 0
-1906 1909 1913 0
-1906 -1909 1912 1914 0
-1906 -1909 -1912 1915 0
-1907 1909 1914 0
-1907 -1909 1912 1915 0
-1907 -1909 -1912 1913 0
-1908 1909 1915 0
-1908 -1909 1912 1913 0
-1908 -1909 -1912 1914 0
-1916 -67 0
-1916 -82 0
-1916 -142 0
-1916 -196 0
1916 67 82 142 196 0
69 84 -1917 0
-69 -84 -1917 0
69 -84 1917 0
-69 84 1917 0
1917 144 -1918 0
-1917 -144 -1918 0
1917 -144 1918 0
-1917 144 1918 0
1918 198 -1919 0
-1918 -198 -1919 0
1918 -198 1919 0
-1918 198 1919 0
1920 1921 1922 0
-1920 -1921 0
-1920 -1922 0
-1921 -1922 0
-1913 1916 1920 0
-1913 -1916 1919 1921 0
-1913 -1916 -1919 1922 0
-1914 1916 1921 0
-1914 -1916 1919 1922 0
-1914 -1916 -1919 1920 0
-1915 1916 1922 0
-1915 -1916 1919 1920 0
-1915 -1916 -1919 1921 0
-1923 -67 0
-1923 -109 0
-1923 -142 0
-1923 -169 0
1923 67 109 142 169 0
69 111 -1924 0
-69 -111 -1924 0
69 -111 1924 0
-69 111 1924 0
1924 144 -1925 0
-1924 -144 -1925 0
1924 -144 1925 0
-1924 144 1925 0
1925 171 -1926 0
-1925 -171 -1926 0
1925 -171 1926 0
-1925 171 1926 0
1927 1928 1929 0
-1927 -1928 0
-1927 -1929 0
-1928 -1929 0
-1920 1923 1927 0
-1920 -1923 1926 1928 0
-1920 -1923 -1926 1929 0
-1921 1923 1928 0
-1921 -1923 1926 1929 0
-1921 -1923 -1926 1927 0
-1922 1923 1929 0
-1922 -1923 1926 1927 0
-1922 -1923 -1926 1928 0
-1930 -67 0
-1930 -115 0
-1930 -136 0
-1930 -169 0
1930 67 115 136 169 0
69 117 -1931 0
-69 -117 -1931 0
69 -117 1931 0
-69 117 1931 0
1931 138 -1932 0
-1931 -138 -1932 0
1931 -138 1932 0
-1931 138 1932 0
1932 171 -1933 0
-1932 -171 -1933 0
1932 -171 1933 0
-1932 171 1933 0
1934 1935 1936 0
-1934 -1935 0
-1934 -1936 0
-1935 -1936 0
-1927 1930 1934 0
-1927 -1930 1933 1935 0
-1927 -1930 -1933 1936 0
-1928 1930 1935 0
-1928 -1930 1933 1936 0
-1928 -1930 -1933 1934 0
-1929 1930 1936 0
-1929 -1930 1933 1934 0
-1929 -1930 -1933 1935 0
-1937 -82 0
-1937 -88 0
-1937 -97 0
-1937 -244 0
1937 82 88 97 244 0
84 90 -1938 0
-84 -90 -1938 0
84 -90 1938 0
-84 90 1938 0
1938 99 -1939 0
-1938 -99 -1939 0
1938 -99 1939 0
-1938 99 1939 0
1939 246 -1940 0
-1939 -246 -1940 0
1939 -246 1940 0
-1939 246 1940 0
1941 1942 1943 0
-1941 -1942 0
-1941 -1943 0
-1942 -1943 0
-1934 1937 1941 0
-1934 -1937 1940 1942 0
-1934 -1937 -1940 1943 0
-1935 1937 1942 0
-1935 -1937 1940 1943 0
-1935 -1937 -1940 1941 0
-1936 1937 1943 0
-1936 -1937 1940 1941 0
-1936 -1937 -1940 1942 0
-1944 -82 0
-1944 -88 0
-1944 -121 0
-1944 -223 0
1944 82 88 121 223 0
84 90 -1945 0
-84 -90 -1945 0
84 -90 1945 0
-84 90 1945 0
1945 123 -1946 0
-1945 -123 -1946 0
1945 -123 1946 0
-1945 123 1946 0
1946 225 -1947 0
-1946 -225 -1947 0
1946 -225 1947 0
-1946 225 1947 0
1948 1949 1950 0
-1948 -1949 0
-1948 -1950 0
-1949 -1950 0
-1941 1944 1948 0
-1941 -1944 1947 1949 0
-1941 -1944 -1947 1950 0
-1942 1944 1949 0
-1942 -1944 1947 1950 0
-1942 -1944 -1947 1948 0
-1943 1944 1950 0
-1943 -1944 1947 1948 0
-1943 -1944 -1947 1949 0
-1951 -82 0
-1951 -88 0
-1951 -148 0
-1951 -196 0
1951 82 88 148 196 0
84 90 -1952 0
-84 -90 -1952 0
84 -90 1952 0
-84 90 1952 0
1952 150 -1953 0
-1952 -150 -1953 0
1952 -150 1953 0
-1952 150 1953 0
1953 198 -1954 0
-1953 -198 -1954 0
1953 -198 1954 0
-1953 198 1954 0
1955 1956 1957 0
-1955 -1956 0
-1955 -1957 0
-1956 -1957 0
-1948 1951 1955 0
-1948 -1951 1954 1956 0
-1948 -1951 -1954 1957 0
-1949 1951 1956 0
-1949 -1951 1954 1957 0
-1949 -1951 -1954 1955 0
-1950 1951 1957 0
-1950 -1951 1954 1955 0
-1950 -1951 -1954 1956 0
-1958 -82 0
-1958 -97 0
-1958 -115 0
-1958 -217 0
1958 82 97 115 217 0
84 99 -1959 0
-84 -99 -1959 0
84 -99 1959 0
-84 99 1959 0
1959 117 -1960 0
-1959 -117 -1960 0
1959 -117 1960 0
-1959 117 1960 0
1960 219 -1961 0
-1960 -219 -1961 0
1960 -219 1961 0
-1960 219 1961 0
1962 1963 1964 0
-1962 -1963 0
-1962 -1964 0
-1963 -1964 0
-1955 1958 1962 0
-1955 -1958 1961 1963 0
-1955 -1958 -1961 1964 0
-1956 1958 1963 0
-1956 -1958 1961 1964 0
-1956 -1958 -1961 1962 0
-1957 1958 1964 0
-1957 -1958 1961 1962 0
-1957 -1958 -1961 1963 0
-1965 -82 0
-1965 -97 0
-1965 -142 0
-1965 -190 0
1965 82 97 142 190 0
84 99 -1966 0
-84 -99 -1966 0
84 -99 1966 0
-84 99 1966 0
1966 144 -1967 0
-1966 -144 -1967 0
1966 -144 1967 0
-1966 144 1967 0
1967 192 -1968 0
-1967 -192 -1968 0
1967 -192 1968 0
-1967 192 1968 0
1969 1970 1971 0
-1969 -1970 0
-1969 -1971 0
-1970 -1971 0
-1962 1965 1969 0
-1962 -1965 1968 1970 0
-1962 -1965 -1968 1971 0
-1963 1965 1970 0
-1963 -1965 1968 1971 0
-1963 -1965 -1968 1969 0
-1964 1965 1971 0
-1964 -1965 1968 1969 0
-1964 -1965 -1968 1970 0
-1972 -82 0
-1972 -115 0
-1972 -148 0
-1972 -166 0
1972 82 115 148 166 0
84 117 -1973 0
-84 -117 -1973 0
84 -117 1973 0
-84 117 1973 0
1973 150 -1974 0
-1973 -150 -1974 0
1973 -150 1974 0
-1973 150 1974 0
1974 168 -1975 0
-1974 -168 -1975 0
1974 -168 1975 0
-1974 168 1975 0
1976 1977 1978 0
-1976 -1977 0
-1976 -1978 0
-1977 -1978 0
-1969 1972 1976 0
-1969 -1972 1975 1977 0
-1969 -1972 -1975 1978 0
-1970 1972 1977 0
-1970 -1972 1975 1978 0
-1970 -1972 -1975 1976 0
-1971 1972 1978 0
-1971 -1972 1975 1976 0
-1971 -1972 -1975 1977 0
-1979 -82 0
-1979 -121 0
-1979 -142 0
-1979 -166 0
1979 82 121 142 166 0
84 123 -1980 0
-84 -123 -1980 0
84 -123 1980 0
-84 123 1980 0
1980 144 -1981 0
-1980 -144 -1981 0
1980 -144 1981 0
-1980 144 1981 0
1981 168 -1982 0
-1981 -168 -1982 0
1981 -168 1982 0
-1981 168 1982 0
1983 1984 1985 0
-1983 -1984 0
-1983 -1985 0
-1984 -1985 0
-1976 1979 1983 0
-1976 -1979 1982 1984 0
-1976 -1979 -1982 1985 0
-1977 1979 1984 0
-1977 -1979 1982 1985 0
-1977 -1979 -1982 1983 0
-1978 1979 1985 0
-1978 -1979 1982 1983 0
-1978 -1979 -1982 1984 0
-1986 -88 0
-1986 -97 0
-1986 -109 0
-1986 -229 0
1986 88 97 109 229 0
90 99 -1987 0
-90 -99 -1987 0
90 -99 1987 0
-90 99 1987 0
1987 111 -1988 0
-1987 -111 -1988 0
1987 -111 1988 0
-1987 111 1988 0
1988 231 -1989 0
-1988 -231 -1989 0
1988 -231 1989 0
-1988 231 1989 0
1990 1991 1992 0
-1990 -1991 0
-1990 -1992 0
-1991 -1992 0
-1983 1986 1990 0
-1983 -1986 1989 1991 0
-1983 -1986 -1989 1992 0
-1984 1986 1991 0
-1984 -1986 1989 1992 0
-1984 -1986 -1989 1990 0
-1985 1986 1992 0
-1985 -1986 1989 1990 0
-1985 -1986 -1989 1991 0
-1993 -88 0
-1993 -97 0
-1993 -136 0
-1993 -202 0
1993 88 97 136 202 0
90 99 -1994 0
-90 -99 -1994 0
90 -99 1994 0
-90 99 1994 0
1994 138 -1995 0
-1994 -138 -1995 0
1994 -138 1995 0
-1994 138 1995 0
1995 204 -1996 0
-1995 -204 -1996 0
1995 -204 1996 0
-1995 204 1996 0
1997 1998 1999 0
-1997 -1998 0
-1997 -1999 0
-1998 -1999 0
-1990 1993 1997 0
-1990 -1993 1996 1998 0
-1990 -1993 -1996 1999 0
-1991 1993 1998 0
-1991 -1993 1996 1999 0
-1991 -1993 -1996 1997 0
-1992 1993 1999 0
-1992 -1993 1996 1997 0
-1992 -1993 -1996 1998 0
-2000 -88 0
-2000 -109 0
-2000 -148 0
-2000 -169 0
2000 88 109 148 169 0
90 111 -2001 0
-90 -111 -2001 0
90 -111 2001 0
-90 111 2001 0
2001 150 -2002 0
-2001 -150 -2002 0
2001 -150 2002 0
-2001 150 2002 0
2002 171 -2003 0
-2002 -171 -2003 0
2002 -171 2003 0
-2002 171 2003 0
2004 2005 2006 0
-2004 -2005 0
-2004 -2006 0
-2005 -2006 0
-1997 2000 2004 0
-1997 -2000 2003 2005 0
-1997 -2000 -2003 2006 0
-1998 2000 2005 0
-1998 -2000 2003 2006 0
-1998 -2000 -2003 2004 0
-1999 2000 2006 0
-1999 -2000 2003 2004 0
-1999 -2000 -2003 2005 0
-2007 -88 0
-2007 -121 0
-2007 -136 0
-2007 -169 0
2007 88 121 136 169 0
90 123 -2008 0
-90 -123 -2008 0
90 -123 2008 0
-90 123 2008 0
2008 138 -2009 0
-2008 -138 -2009 0
2008 -138 2009 0
-2008 138 2009 0
2009 171 -2010 0
-2009 -171 -2010 0
2009 -171 2010 0
-2009 171 2010 0
2011 2012 2013 0
-2011 -2012 0
-2011 -2013 0
-2012 -2013 0
-2004 2007 2011 0
-2004 -2007 2010 2012 0
-2004 -2007 -2010 2013 0
-2005 2007 2012 0
-2005 -2007 2010 2013 0
-2005 -2007 -2010 2011 0
-2006 2007 2013 0
-2006 -2007 2010 2011 0
-2006 -2007 -2010 2012 0
-2014 -97 0
-2014 -109 0
-2014 -142 0
-2014 -175 0
2014 97 109 142 175 0
99 111 -2015 0
-99 -111 -2015 0
99 -111 2015 0
-99 111 2015 0
2015 144 -2016 0
-2015 -144 -2016 0
2015 -144 2016 0
-2015 144 2016 0
2016 177 -2017 0
-2016 -177 -2017 0
2016 -177 2017 0
-2016 177 2017 0
2018 2019 2020 0
-2018 -2019 0
-2018 -2020 0
-2019 -2020 0
-2011 2014 2018 0
-2011 -2014 2017 2019 0
-2011 -2014 -2017 2020 0
-2012 2014 2019 0
-2012 -2014 2017 2020 0
-2012 -2014 -2017 2018 0
-2013 2014 2020 0
-2013 -2014 2017 2018 0
-2013 -2014 -2017 2019 0
-2021 -97 0
-2021 -115 0
-2021 -136 0
-2021 -175 0
2021 97 115 136 175 0
99 117 -2022 0
-99 -117 -2022 0
99 -117 2022 0
-99 117 2022 0
2022 138 -2023 0
-2022 -138 -2023 0
2022 -138 2023 0
-2022 138 2023 0
2023 177 -2024 0
-2023 -177 -2024 0
2023 -177 2024 0
-2023 177 2024 0
2025 2026 2027 0
-2025 -2026 0
-2025 -2027 0
-2026 -2027 0
-2018 2021 2025 0
-2018 -2021 2024 2026 0
-2018 -2021 -2024 2027 0
-2019 2021 2026 0
-2019 -2021 2024 2027 0
-2019 -2021 -2024 2025 0
-2020 2021 2027 0
-2020 -2021 2024 2025 0
-2020 -2021 -2024 2026 0
2025 0
2028 0
-2029 0
-2030 0
-2031 -7 0
-2031 -52 0
-2031 -169 0
-2031 -244 0
2031 7 52 169 244 0
9 54 -2032 0
-9 -54 -2032 0
9 -54 2032 0
-9 54 2032 0
2032 171 -2033 0
-2032 -171 -2033 0
2032 -171 2033 0
-2032 171 2033 0
2033 246 -2034 0
-2033 -246 -2034 0
2033 -246 2034 0
-2033 246 2034 0
2035 2036 2037 0
-2035 -2036 0
-2035 -2037 0
-2036 -2037 0
-2028 2031 2035 0
-2028 -2031 2034 2036 0
-2028 -2031 -2034 2037 0
-2029 2031 2036 0
-2029 -2031 2034 2037 0
-2029 -2031 -2034 2035 0
-2030 2031 2037 0
-2030 -2031 2034 2035 0
-2030 -2031 -2034 2036 0
-2038 -7 0
-2038 -52 0
-2038 -196 0
-2038 -229 0
2038 7 52 196 229 0
9 54 -2039 0
-9 -54 -2039 0
9 -54 2039 0
-9 54 2039 0
2039 198 -2040 0
-2039 -198 -2040 0
2039 -198 2040 0
-2039 198 2040 0
2040 231 -2041 0
-2040 -231 -2041 0
2040 -231 2041 0
-2040 231 2041 0
2042 2043 2044 0
-2042 -2043 0
-2042 -2044 0
-2043 -2044 0
-2035 2038 2042 0
-2035 -2038 2041 2043 0
-2035 -2038 -2041 2044 0
-2036 2038 2043 0
-2036 -2038 2041 2044 0
-2036 -2038 -2041 2042 0
-2037 2038 2044 0
-2037 -2038 2041 2042 0
-2037 -2038 -2041 2043 0
-2045 -7 0
-2045 -52 0
-2045 -202 0
-2045 -223 0
2045 7 52 202 223 0
9 54 -2046 0
-9 -54 -2046 0
9 -54 2046 0
-9 54 2046 0
2046 204 -2047 0
-2046 -204 -2047 0
2046 -204 2047 0
-2046 204 2047 0
2047 225 -2048 0
-2047 -225 -2048 0
2047 -225 2048 0
-2047 225 2048 0
2049 2050 2051 0
-2049 -2050 0
-2049 -2051 0
-2050 -2051 0
-2042 2045 2049 0
-2042 -2045 2048 2050 0
-2042 -2045 -2048 2051 0
-2043 2045 2050 0
-2043 -2045 2048 2051 0
-2043 -2045 -2048 2049 0
-2044 2045 2051 0
-2044 -2045 2048 2049 0
-2044 -2045 -2048 2050 0
-2052 -7 0
-2052 -76 0
-2052 -172 0
-2052 -244 0
2052 7 76 172 244 0
9 78 -2053 0
-9 -78 -2053 0
9 -78 2053 0
-9 78 2053 0
2053 174 -2054 0
-2053 -174 -2054 0
2053 -174 2054 0
-2053 174 2054 0
2054 246 -2055 0
-2054 -246 -2055 0
2054 -246 2055 0
-2054 246 2055 0
2056 2057 2058 0
-2056 -2057 0
-2056 -2058 0
-2057 -2058 0
-2049 2052 2056 0
-2049 -2052 2055 2057 0
-2049 -2052 -2055 2058 0
-2050 2052 2057 0
-2050 -2052 2055 2058 0
-2050 -2052 -2055 2056 0
-2051 2052 2058 0
-2051 -2052 2055 2056 0
-2051 -2052 -2055 2057 0
-2059 -7 0
-2059 -76 0
-2059 -202 0
-2059 -235 0
2059 7 76 202 235 0
9 78 -2060 0
-9 -78 -2060 0
9 -78 2060 0
-9 78 2060 0
2060 204 -2061 0
-2060 -204 -2061 0
2060 -204 2061 0
-2060 204 2061 0
2061 237 -2062 0
-2061 -237 -2062 0
2061 -237 2062 0
-2061 237 2062 0
2063 2064 2065 0
-2063 -2064 0
-2063 -2065 0
-2064 -2065 0
-2056 2059 2063 0
-2056 -2059 2062 2064 0
-2056 -2059 -2062 2065 0
-2057 2059 2064 0
-2057 -2059 2062 2065 0
-2057 -2059 -2062 2063 0
-2058 2059 2065 0
-2058 -2059 2062 2063 0
-2058 -2059 -2062 2064 0
-2066 -7 0
-2066 -76 0
-2066 -208 0
-2066 -229 0
2066 7 76 208 229 0
9 78 -2067 0
-9 -78 -2067 0
9 -78 2067 0
-9 78 2067 0
2067 210 -2068 0
-2067 -210 -2068 0
2067 -210 2068 0
-2067 210 2068 0
2068 231 -2069 0
-2068 -231 -2069 0
2068 -231 2069 0
-2068 231 2069 0
2070 2071 2072 0
-2070 -2071 0
-2070 -2072 0
-2071 -2072 0
-2063 2066 2070 0
-2063 -2066 2069 2071 0
-2063 -2066 -2069 2072 0
-2064 2066 2071 0
-2064 -2066 2069 2072 0
-2064 -2066 -2069 2070 0
-2065 2066 2072 0
-2065 -2066 2069 2070 0
-2065 -2066 -2069 2071 0
-2073 -7 0
-2073 -100 0
-2073 -184 0
-2073 -244 0
2073 7 100 184 244 0
9 102 -2074 0
-9 -102 -2074 0
9 -102 2074 0
-9 102 2074 0
2074 186 -2075 0
-2074 -186 -2075 0
2074 -186 2075 0
-2074 186 2075 0
2075 246 -2076 0
-2075 -246 -2076 0
2075 -246 2076 0
-2075 246 2076 0
2077 2078 2079 0
-2077 -2078 0
-2077 -2079 0
-2078 -2079 0
-2070 2073 2077 0
-2070 -2073 2076 2078 0
-2070 -2073 -2076 2079 0
-2071 2073 2078 0
-2071 -2073 2076 2079 0
-2071 -2073 -2076 2077 0
-2072 2073 2079 0
-2072 -2073 2076 2077 0
-2072 -2073 -2076 2078 0
-2080 -7 0
-2080 -100 0
-2080 -196 0
-2080 -235 0
2080 7 100 196 235 0
9 102 -2081 0
-9 -102 -2081 0
9 -102 2081 0
-9 102 2081 0
2081 198 -2082 0
-2081 -198 -2082 0
2081 -198 2082 0
-2081 198 2082 0
2082 237 -2083 0
-2082 -237 -2083 0
2082 -237 2083 0
-2082 237 2083 0
2084 2085 2086 0
-2084 -2085 0
-2084 -2086 0
-2085 -2086 0
-2077 2080 2084 0
-2077 -2080 2083 2085 0
-2077 -2080 -2083 2086 0
-2078 2080 2085 0
-2078 -2080 2083 2086 0
-2078 -2080 -2083 2084 0
-2079 2080 2086 0
-2079 -2080 2083 2084 0
-2079 -2080 -2083 2085 0
-2087 -7 0
-2087 -100 0
-2087 -208 0
-2087 -223 0
2087 7 100 208 223 0
9 102 -2088 0
-9 -102 -2088 0
9 -102 2088 0
-9 102 2088 0
2088 210 -2089 0
-2088 -210 -2089 0
2088 -210 2089 0
-2088 210 2089 0
2089 225 -2090 0
-2089 -225 -2090 0
2089 -225 2090 0
-2089 225 2090 0
2091 2092 2093 0
-2091 -2092 0
-2091 -2093 0
-2092 -2093 0
-2084 2087 2091 0
-2084 -2087 2090 2092 0
-2084 -2087 -2090 2093 0
-2085 2087 2092 0
-2085 -2087 2090 2093 0
-2085 -2087 -2090 2091 0
-2086 2087 2093 0
-2086 -2087 2090 2091 0
-2086 -2087 -2090 2092 0
-2094 -7 0
-2094 -127 0
-2094 -169 0
-2094 -235 0
2094 7 127 169 235 0
9 129 -2095 0
-9 -129 -2095 0
9 -129 2095 0
-9 129 2095 0
2095 171 -2096 0
-2095 -171 -2096 0
2095 -171 2096 0
-2095 171 2096 0
2096 237 -2097 0
-2096 -237 -2097 0
2096 -237 2097 0
-2096 237 2097 0
2098 2099 2100 0
-2098 -2099 0
-2098 -2100 0
-2099 -2100 0
-2091 2094 2098 0
-2091 -2094 2097 2099 0
-2091 -2094 -2097 2100 0
-2092 2094 2099 0
-2092 -2094 2097 2100 0
-2092 -2094 -2097 2098 0
-2093 2094 2100 0
-2093 -2094 2097 2098 0
-2093 -2094 -2097 2099 0
-2101 -7 0
-2101 -127 0
-2101 -172 0
-2101 -223 0
2101 7 127 172 223 0
9 129 -2102 0
-9 -129 -2102 0
9 -129 2102 0
-9 129 2102 0
2102 174 -2103 0
-2102 -174 -2103 0
2102 -174 2103 0
-2102 174 2103 0
2103 225 -2104 0
-2103 -225 -2104 0
2103 -225 2104 0
-2103 225 2104 0
2105 2106 2107 0
-2105 -2106 0
-2105 -2107 0
-2106 -2107 0
-2098 2101 2105 0
-2098 -2101 2104 2106 0
-2098 -2101 -2104 2107 0
-2099 2101 2106 0
-2099 -2101 2104 2107 0
-2099 -2101 -2104 2105 0
-2100 2101 2107 0
-2100 -2101 2104 2105 0
-2100 -2101 -2104 2106 0
-2108 -7 0
-2108 -127 0
-2108 -184 0
-2108 -229 0
2108 7 127 184 229 0
9 129 -2109 0
-9 -129 -2109 0
9 -129 2109 0
-9 129 2109 0
2109 186 -2110 0
-2109 -186 -2110 0
2109 -186 2110 0
-2109 186 2110 0
2110 231 -2111 0
-2110 -231 -2111 0
2110 -231 2111 0
-2110 231 2111 0
2112 2113 2114 0
-2112 -2113 0
-2112 -2114 0
-2113 -2114 0
-2105 2108 2112 0
-2105 -2108 2111 2113 0
-2105 -2108 -2111 2114 0
-2106 2108 2113 0
-2106 -2108 2111 2114 0
-2106 -2108 -2111 2112 0
-2107 2108 2114 0
-2107 -2108 2111 2112 0
-2107 -2108 -2111 2113 0
-2115 -7 0
-2115 -154 0
-2115 -169 0
-2115 -208 0
2115 7 154 169 208 0
9 156 -2116 0
-9 -156 -2116 0
9 -156 2116 0
-9 156 2116 0
2116 171 -2117 0
-2116 -171 -2117 0
2116 -171 2117 0
-2116 171 2117 0
2117 210 -2118 0
-2117 -210 -2118 0
2117 -210 2118 0
-2117 210 2118 0
2119 2120 2121 0
-2119 -2120 0
-2119 -2121 0
-2120 -2121 0
-2112 2115 2119 0
-2112 -2115 2118 2120 0
-2112 -2115 -2118 2121 0
-2113 2115 2120 0
-2113 -2115 2118 2121 0
-2113 -2115 -2118 2119 0
-2114 2115 2121 0
-2114 -2115 2118 2119 0
-2114 -2115 -2118 2120 0
-2122 -7 0
-2122 -154 0
-2122 -172 0
-2122 -196 0
2122 7 154 172 196 0
9 156 -2123 0
-9 -156 -2123 0
9 -156 2123 0
-9 156 2123 0
2123 174 -2124 0
-2123 -174 -2124 0
2123 -174 2124 0
-2123 174 2124 0
2124 198 -2125 0
-2124 -198 -2125 0
2124 -198 2125 0
-2124 198 2125 0
2126 2127 2128 0
-2126 -2127 0
-2126 -2128 0
-2127 -2128 0
-2119 2122 2126 0
-2119 -2122 2125 2127 0
-2119 -2122 -2125 2128 0
-2120 2122 2127 0
-2120 -2122 2125 2128 0
-2120 -2122 -2125 2126 0
-2121 2122 2128 0
-2121 -2122 2125 2126 0
-2121 -2122 -2125 2127 0
-2129 -7 0
-2129 -154 0
-2129 -184 0
-2129 -202 0
2129 7 154 184 202 0
9 156 -2130 0
-9 -156 -2130 0
9 -156 2130 0
-9 156 2130 0
2130 186 -2131 0
-2130 -186 -2131 0
2130 -186 2131 0
-2130 186 2131 0
2131 204 -2132 0
-2131 -204 -2132 0
2131 -204 2132 0
-2131 204 2132 0
2133 2134 2135 0
-2133 -2134 0
-2133 -2135 0
-2134 -2135 0
-2126 2129 2133 0
-2126 -2129 2132 2134 0
-2126 -2129 -2132 2135 0
-2127 2129 2134 0
-2127 -2129 2132 2135 0
-2127 -2129 -2132 2133 0
-2128 2129 2135 0
-2128 -2129 2132 2133 0
-2128 -2129 -2132 2134 0
-2136 -10 0
-2136 -28 0
-2136 -172 0
-2136 -244 0
2136 10 28 172 244 0
12 30 -2137 0
-12 -30 -2137 0
12 -30 2137 0
-12 30 2137 0
2137 174 -2138 0
-2137 -174 -2138 0
2137 -174 2138 0
-2137 174 2138 0
2138 246 -2139 0
-2138 -246 -2139 0
2138 -246 2139 0
-2138 246 2139 0
2140 2141 2142 0
-2140 -2141 0
-2140 -2142 0
-2141 -2142 0
-2133 2136 2140 0
-2133 -2136 2139 2141 0
-2133 -2136 -2139 2142 0
-2134 2136 2141 0
-2134 -2136 2139 2142 0
-2134 -2136 -2139 2140 0
-2135 2136 2142 0
-2135 -2136 2139 2140 0
-2135 -2136 -2139 2141 0
-2143 -10 0
-2143 -28 0
-2143 -202 0
-2143 -235 0
2143 10 28 202 235 0
12 30 -2144 0
-12 -30 -2144 0
12 -30 2144 0
-12 30 2144 0
2144 204 -2145 0
-2144 -204 -2145 0
2144 -204 2145 0
-2144 204 2145 0
2145 237 -2146 0
-2145 -237 -2146 0
2145 -237 2146 0
-2145 237 2146 0
2147 2148 2149 0
-2147 -2148 0
-2147 -2149 0
-2148 -2149 0
-2140 2143 2147 0
-2140 -2143 2146 2148 0
-2140 -2143 -2146 2149 0
-2141 2143 2148 0
-2141 -2143 2146 2149 0
-2141 -2143 -2146 2147 0
-2142 2143 2149 0
-2142 -2143 2146 2147 0
-2142 -2143 -2146 2148 0
-2150 -10 0
-2150 -28 0
-2150 -208 0
-2150 -229 0
2150 10 28 208 229 0
12 30 -2151 0
-12 -30 -2151 0
12 -30 2151 0
-12 30 2151 0
2151 210 -2152 0
-2151 -210 -2152 0
2151 -210 2152 0
-2151 210 2152 0
2152 231 -2153 0
-2152 -231 -2153 0
2152 -231 2153 0
-2152 231 2153 0
2154 2155 2156 0
-2154 -2155 0
-2154 -2156 0
-2155 -2156 0
-2147 2150 2154 0
-2147 -2150 2153 2155 0
-2147 -2150 -2153 2156 0
-2148 2150 2155 0
-2148 -2150 2153 2156 0
-2148 -2150 -2153 2154 0
-2149 2150 2156 0
-2149 -2150 2153 2154 0
-2149 -2150 -2153 2155 0
-2157 -10 0
-2157 -61 0
-2157 -184 0
-2157 -244 0
2157 10 61 184 244 0
12 63 -2158 0
-12 -63 -2158 0
12 -63 2158 0
-12 63 2158 0
2158 186 -2159 0
-2158 -186 -2159 0
2158 -186 2159 0
-2158 186 2159 0
2159 246 -2160 0
-2159 -246 -2160 0
2159 -246 2160 0
-2159 246 2160 0
2161 2162 2163 0
-2161 -2162 0
-2161 -2163 0
-2162 -2163 0
-2154 2157 2161 0
-2154 -2157 2160 2162 0
-2154 -2157 -2160 2163 0
-2155 2157 2162 0
-2155 -2157 2160 2163 0
-2155 -2157 -2160 2161 0
-2156 2157 2163 0
-2156 -2157 2160 2161 0
-2156 -2157 -2160 2162 0
-2164 -10 0
-2164 -61 0
-2164 -196 0
-2164 -235 0
2164 10 61 196 235 0
12 63 -2165 0
-12 -63 -2165 0
12 -63 2165 0
-12 63 2165 0
2165 198 -2166 0
-2165 -198 -2166 0
2165 -198 2166 0
-2165 198 2166 0
2166 237 -2167 0
-2166 -237 -2167 0
2166 -237 2167 0
-2166 237 2167 0
2168 2169 2170 0
-2168 -2169 0
-2168 -2170 0
-2169 -2170 0
-2161 2164 2168 0
-2161 -2164 2167 2169 0
-2161 -2164 -2167 2170 0
-2162 2164 2169 0
-2162 -2164 2167 2170 0
-2162 -2164 -2167 2168 0
-2163 2164 2170 0
-2163 -2164 2167 2168 0
-2163 -2164 -2167 2169 0
-2171 -10 0
-2171 -61 0
-2171 -208 0
-2171 -223 0
2171 10 61 208 223 0
12 63 -2172 0
-12 -63 -2172 0
12 -63 2172 0
-12 63 2172 0
2172 210 -2173 0
-2172 -210 -2173 0
2172 -210 2173 0
-2172 210 2173 0
2173 225 -2174 0
-2173 -225 -2174 0
2173 -225 2174 0
-2173 225 2174 0
2175 2176 2177 0
-2175 -2176 0
-2175 -2177 0
-2176 -2177 0
-2168 2171 2175 0
-2168 -2171 2174 2176 0
-2168 -2171 -2174 2177 0
-2169 2171 2176 0
-2169 -2171 2174 2177 0
-2169 -2171 -2174 2175 0
-2170 2171 2177 0
-2170 -2171 2174 2175 0
-2170 -2171 -2174 2176 0
-2178 -10 0
-2178 -85 0
-2178 -169 0
-2178 -244 0
2178 10 85 169 244 0
12 87 -2179 0
-12 -87 -2179 0
12 -87 2179 0
-12 87 2179 0
2179 171 -2180 0
-2179 -171 -2180 0
2179 -171 2180 0
-2179 171 2180 0
2180 246 -2181 0
-2180 -246 -2181 0
2180 -246 2181 0
-2180 246 2181 0
2182 2183 2184 0
-2182 -2183 0
-2182 -2184 0
-2183 -2184 0
-2175 2178 2182 0
-2175 -2178 2181 2183 0
-2175 -2178 -2181 2184 0
-2176 2178 2183 0
-2176 -2178 2181 2184 0
-2176 -2178 -2181 2182 0
-2177 2178 2184 0
-2177 -2178 2181 2182 0
-2177 -2178 -2181 2183 0
-2185 -10 0
-2185 -85 0
-2185 -196 0
-2185 -229 0
2185 10 85 196 229 0
12 87 -2186 0
-12 -87 -2186 0
12 -87 2186 0
-12 87 2186 0
2186 198 -2187 0
-2186 -198 -2187 0
2186 -198 2187 0
-2186 198 2187 0
2187 231 -2188 0
-2187 -231 -2188 0
2187 -231 2188 0
-2187 231 2188 0
2189 2190 2191 0
-2189 -2190 0
-2189 -2191 0
-2190 -2191 0
-2182 2185 2189 0
-2182 -2185 2188 2190 0
-2182 -2185 -2188 2191 0
-2183 2185 2190 0
-2183 -2185 2188 2191 0
-2183 -2185 -2188 2189 0
-2184 2185 2191 0
-2184 -2185 2188 2189 0
-2184 -2185 -2188 2190 0
-2192 -10 0
-2192 -85 0
-2192 -202 0
-2192 -223 0
2192 10 85 202 223 0
12 87 -2193 0
-12 -87 -2193 0
12 -87 2193 0
-12 87 2193 0
2193 204 -2194 0
-2193 -204 -2194 0
2193 -204 2194 0
-2193 204 2194 0
2194 225 -2195 0
-2194 -225 -2195 0
2194 -225 2195 0
-2194 225 2195 0
2196 2197 2198 0
-2196 -2197 0
-2196 -2198 0
-2197 -2198 0
-2189 2192 2196 0
-2189 -2192 2195 2197 0
-2189 -2192 -2195 2198 0
-2190 2192 2197 0
-2190 -2192 2195 2198 0
-2190 -2192 -2195 2196 0
-2191 2192 2198 0
-2191 -2192 2195 2196 0
-2191 -2192 -2195 2197 0
-2199 -10 0
-2199 -115 0
-2199 -169 0
-2199 -235 0
2199 10 115 169 235 0
12 117 -2200 0
-12 -117 -2200 0
12 -117 2200 0
-12 117 2200 0
2200 171 -2201 0
-2200 -171 -2201 0
2200 -171 2201 0
-2200 171 2201 0
2201 237 -2202 0
-2201 -237 -2202 0
2201 -237 2202 0
-2201 237 2202 0
2203 2204 2205 0
-2203 -2204 0
-2203 -2205 0
-2204 -2205 0
-2196 2199 2203 0
-2196 -2199 2202 2204 0
-2196 -2199 -2202 2205 0
-2197 2199 2204 0
-2197 -2199 2202 2205 0
-2197 -2199 -2202 2203 0
-2198 2199 2205 0
-2198 -2199 2202 2203 0
-2198 -2199 -2202 2204 0
-2206 -10 0
-2206 -115 0
-2206 -172 0
-2206 -223 0
2206 10 115 172 223 0
12 117 -2207 0
-12 -117 -2207 0
12 -117 2207 0
-12 117 2207 0
2207 174 -2208 0
-2207 -174 -2208 0
2207 -174 2208 0
-2207 174 2208 0
2208 225 -2209 0
-2208 -225 -2209 0
2208 -225 2209 0
-2208 225 2209 0
2210 2211 2212 0
-2210 -2211 0
-2210 -2212 0
-2211 -2212 0
-2203 2206 2210 0
-2203 -2206 2209 2211 0
-2203 -2206 -2209 2212 0
-2204 2206 2211 0
-2204 -2206 2209 2212 0
-2204 -2206 -2209 2210 0
-2205 2206 2212 0
-2205 -2206 2209 2210 0
-2205 -2206 -2209 2211 0
-2213 -10 0
-2213 -115 0
-2213 -184 0
-2213 -229 0
2213 10 115 184 229 0
12 117 -2214 0
-12 -117 -2214 0
12 -117 2214 0
-12 117 2214 0
2214 186 -2215 0
-2214 -186 -2215 0
2214 -186 2215 0
-2214 186 2215 0
2215 231 -2216 0
-2215 -231 -2216 0
2215 -231 2216 0
-2215 231 2216 0
2217 2218 2219 0
-2217 -2218 0
-2217 -2219 0
-2218 -2219 0
-2210 2213 2217 0
-2210 -2213 2216 2218 0
-2210 -2213 -2216 2219 0
-2211 2213 2218 0
-2211 -2213 2216 2219 0
-2211 -2213 -2216 2217 0
-2212 2213 2219 0
-2212 -2213 2216 2217 0
-2212 -2213 -2216 2218 0
-2220 -10 0
-2220 -142 0
-2220 -169 0
-2220 -208 0
2220 10 142 169 208 0
12 144 -2221 0
-12 -144 -2221 0
12 -144 2221 0
-12 144 2221 0
2221 171 -2222 0
-2221 -171 -2222 0
2221 -171 2222 0
-2221 171 2222 0
2222 210 -2223 0
-2222 -210 -2223 0
2222 -210 2223 0
-2222 210 2223 0
2224 2225 2226 0
-2224 -2225 0
-2224 -2226 0
-2225 -2226 0
-2217 2220 2224 0
-2217 -2220 2223 2225 0
-2217 -2220 -2223 2226 0
-2218 2220 2225 0
-2218 -2220 2223 2226 0
-2218 -2220 -2223 2224 0
-2219 2220 2226 0
-2219 -2220 2223 2224 0
-2219 -2220 -2223 2225 0
-2227 -10 0
-2227 -142 0
-2227 -172 0
-2227 -196 0
2227 10 142 172 196 0
12 144 -2228 0
-12 -144 -2228 0
12 -144 2228 0
-12 144 2228 0
2228 174 -2229 0
-2228 -174 -2229 0
2228 -174 2229 0
-2228 174 2229 0
2229 198 -2230 0
-2229 -198 -2230 0
2229 -198 2230 0
-2229 198 2230 0
2231 2232 2233 0
-2231 -2232 0
-2231 -2233 0
-2232 -2233 0
-2224 2227 2231 0
-2224 -2227 2230 2232 0
-2224 -2227 -2230 2233 0
-2225 2227 2232 0
-2225 -2227 2230 2233 0
-2225 -2227 -2230 2231 0
-2226 2227 2233 0
-2226 -2227 2230 2231 0
-2226 -2227 -2230 2232 0
-2234 -10 0
-2234 -142 0
-2234 -184 0
-2234 -202 0
2234 10 142 184 202 0
12 144 -2235 0
-12 -144 -2235 0
12 -144 2235 0
-12 144 2235 0
2235 186 -2236 0
-2235 -186 -2236 0
2235 -186 2236 0
-2235 186 2236 0
2236 204 -2237 0
-2236 -204 -2237 0
2236 -204 2237 0
-2236 204 2237 0
2238 2239 2240 0
-2238 -2239 0
-2238 -2240 0
-2239 -2240 0
-2231 2234 2238 0
-2231 -2234 2237 2239 0
-2231 -2234 -2237 2240 0
-2232 2234 2239 0
-2232 -2234 2237 2240 0
-2232 -2234 -2237 2238 0
-2233 2234 2240 0
-2233 -2234 2237 2238 0
-2233 -2234 -2237 2239 0
-2241 -22 0
-2241 -40 0
-2241 -184 0
-2241 -244 0
2241 22 40 184 244 0
24 42 -2242 0
-24 -42 -2242 0
24 -42 2242 0
-24 42 2242 0
2242 186 -2243 0
-2242 -186 -2243 0
2242 -186 2243 0
-2242 186 2243 0
2243 246 -2244 0
-2243 -246 -2244 0
2243 -246 2244 0
-2243 246 2244 0
2245 2246 2247 0
-2245 -2246 0
-2245 -2247 0
-2246 -2247 0
-2238 2241 2245 0
-2238 -2241 2244 2246 0
-2238 -2241 -2244 2247 0
-2239 2241 2246 0
-2239 -2241 2244 2247 0
-2239 -2241 -2244 2245 0
-2240 2241 2247 0
-2240 -2241 2244 2245 0
-2240 -2241 -2244 2246 0
-2248 -22 0
-2248 -40 0
-2248 -196 0
-2248 -235 0
2248 22 40 196 235 0
24 42 -2249 0
-24 -42 -2249 0
24 -42 2249 0
-24 42 2249 0
2249 198 -2250 0
-2249 -198 -2250 0
2249 -198 2250 0
-2249 198 2250 0
2250 237 -2251 0
-2250 -237 -2251 0
2250 -237 2251 0
-2250 237 2251 0
2252 2253 2254 0
-2252 -2253 0
-2252 -2254 0
-2253 -2254 0
-2245 2248 2252 0
-2245 -2248 2251 2253 0
-2245 -2248 -2251 2254 0
-2246 2248 2253 0
-2246 -2248 2251 2254 0
-2246 -2248 -2251 2252 0
-2247 2248 2254 0
-2247 -2248 2251 2252 0
-2247 -2248 -2251 2253 0
-2255 -22 0
-2255 -40 0
-2255 -208 0
-2255 -223 0
2255 22 40 208 223 0
24 42 -2256 0
-24 -42 -2256 0
24 -42 2256 0
-24 42 2256 0
2256 210 -2257 0
-2256 -210 -2257 0
2256 -210 2257 0
-2256 210 2257 0
2257 225 -2258 0
-2257 -225 -2258 0
2257 -225 2258 0
-2257 225 2258 0
2259 2260 2261 0
-2259 -2260 0
-2259 -2261 0
-2260 -2261 0
-2252 2255 2259 0
-2252 -2255 2258 2260 0
-2252 -2255 -2258 2261 0
-2253 2255 2260 0
-2253 -2255 2258 2261 0
-2253 -2255 -2258 2259 0
-2254 2255 2261 0
-2254 -2255 2258 2259 0
-2254 -2255 -2258 2260 0
-2262 -22 0
-2262 -64 0
-2262 -169 0
-2262 -244 0
2262 22 64 169 244 0
24 66 -2263 0
-24 -66 -2263 0
24 -66 2263 0
-24 66 2263 0
2263 171 -2264 0
-2263 -171 -2264 0
2263 -171 2264 0
-2263 171 2264 0
2264 246 -2265 0
-2264 -246 -2265 0
2264 -246 2265 0
-2264 246 2265 0
2266 2267 2268 0
-2266 -2267 0
-2266 -2268 0
-2267 -2268 0
-2259 2262 2266 0
-2259 -2262 2265 2267 0
-2259 -2262 -2265 2268 0
-2260 2262 2267 0
-2260 -2262 2265 2268 0
-2260 -2262 -2265 2266 0
-2261 2262 2268 0
-2261 -2262 2265 2266 0
-2261 -2262 -2265 2267 0
-2269 -22 0
-2269 -64 0
-2269 -196 0
-2269 -229 0
2269 22 64 196 229 0
24 66 -2270 0
-24 -66 -2270 0
24 -66 2270 0
-24 66 2270 0
2270 198 -2271 0
-2270 -198 -2271 0
2270 -198 2271 0
-2270 198 2271 0
2271 231 -2272 0
-2271 -231 -2272 0
2271 -231 2272 0
-2271 231 2272 0
2273 2274 2275 0
-2273 -2274 0
-2273 -2275 0
-2274 -2275 0
-2266 2269 2273 0
-2266 -2269 2272 2274 0
-2266 -2269 -2272 2275 0
-2267 2269 2274 0
-2267 -2269 2272 2275 0
-2267 -2269 -2272 2273 0
-2268 2269 2275 0
-2268 -2269 2272 2273 0
-2268 -2269 -2272 2274 0
-2276 -22 0
-2276 -64 0
-2276 -202 0
-2276 -223 0
2276 22 64 202 223 0
24 66 -2277 0
-24 -66 -2277 0
24 -66 2277 0
-24 66 2277 0
2277 204 -2278 0
-2277 -204 -2278 0
2277 -204 2278 0
-2277 204 2278 0
2278 225 -2279 0
-2278 -225 -2279 0
2278 -225 2279 0
-2278 225 2279 0
2280 2281 2282 0
-2280 -2281 0
-2280 -2282 0
-2281 -2282 0
-2273 2276 2280 0
-2273 -2276 2279 2281 0
-2273 -2276 -2279 2282 0
-2274 2276 2281 0
-2274 -2276 2279 2282 0
-2274 -2276 -2279 2280 0
-2275 2276 2282 0
-2275 -2276 2279 2280 0
-2275 -2276 -2279 2281 0
-2283 -22 0
-2283 -97 0
-2283 -172 0
-2283 -244 0
2283 22 97 172 244 0
24 99 -2284 0
-24 -99 -2284 0
24 -99 2284 0
-24 99 2284 0
2284 174 -2285 0
-2284 -174 -2285 0
2284 -174 2285 0
-2284 174 2285 0
2285 246 -2286 0
-2285 -246 -2286 0
2285 -246 2286 0
-2285 246 2286 0
2287 2288 2289 0
-2287 -2288 0
-2287 -2289 0
-2288 -2289 0
-2280 2283 2287 0
-2280 -2283 2286 2288 0
-2280 -2283 -2286 2289 0
-2281 2283 2288 0
-2281 -2283 2286 2289 0
-2281 -2283 -2286 2287 0
-2282 2283 2289 0
-2282 -2283 2286 2287 0
-2282 -2283 -2286 2288 0
-2290 -22 0
-2290 -97 0
-2290 -202 0
-2290 -235 0
2290 22 97 202 235 0
24 99 -2291 0
-24 -99 -2291 0
24 -99 2291 0
-24 99 2291 0
2291 204 -2292 0
-2291 -204 -2292 0
2291 -204 2292 0
-2291 204 2292 0
2292 237 -2293 0
-2292 -237 -2293 0
2292 -237 2293 0
-2292 237 2293 0
2294 2295 2296 0
-2294 -2295 0
-2294 -2296 0
-2295 -2296 0
-2287 2290 2294 0
-2287 -2290 2293 2295 0
-2287 -2290 -2293 2296 0
-2288 2290 2295 0
-2288 -2290 2293 2296 0
-2288 -2290 -2293 2294 0
-2289 2290 2296 0
-2289 -2290 2293 2294 0
-2289 -2290 -2293 2295 0
-2297 -22 0
-2297 -97 0
-2297 -208 0
-2297 -229 0
2297 22 97 208 229 0
24 99 -2298 0
-24 -99 -2298 0
24 -99 2298 0
-24 99 2298 0
2298 210 -2299 0
-2298 -210 -2299 0
2298 -210 2299 0
-2298 210 2299 0
2299 231 -2300 0
-2299 -231 -2300 0
2299 -231 2300 0
-2299 231 2300 0
2301 2302 2303 0
-2301 -2302 0
-2301 -2303 0
-2302 -2303 0
-2294 2297 2301 0
-2294 -2297 2300 2302 0
-2294 -2297 -2300 2303 0
-2295 2297 2302 0
-2295 -2297 2300 2303 0
-2295 -2297 -2300 2301 0
-2296 2297 2303 0
-2296 -2297 2300 2301 0
-2296 -2297 -2300 2302 0
-2304 -22 0
-2304 -121 0
-2304 -169 0
-2304 -235 0
2304 22 121 169 235 0
24 123 -2305 0
-24 -123 -2305 0
24 -123 2305 0
-24 123 2305 0
2305 171 -2306 0
-2305 -171 -2306 0
2305 -171 2306 0
-2305 171 2306 0
2306 237 -2307 0
-2306 -237 -2307 0
2306 -237 2307 0
-2306 237 2307 0
2308 2309 2310 0
-2308 -2309 0
-2308 -2310 0
-2309 -2310 0
-2301 2304 2308 0
-2301 -2304 2307 2309 0
-2301 -2304 -2307 2310 0
-2302 2304 2309 0
-2302 -2304 2307 2310 0
-2302 -2304 -2307 2308 0
-2303 2304 2310 0
-2303 -2304 2307 2308 0
-2303 -2304 -2307 2309 0
-2311 -22 0
-2311 -121 0
-2311 -172 0
-2311 -223 0
2311 22 121 172 223 0
24 123 -2312 0
-24 -123 -2312 0
24 -123 2312 0
-24 123 2312 0
2312 174 -2313 0
-2312 -174 -2313 0
2312 -174 2313 0
-2312 174 2313 0
2313 225 -2314 0
-2313 -225 -2314 0
2313 -225 2314 0
-2313 225 2314 0
2315 2316 2317 0
-2315 -2316 0
-2315 -2317 0
-2316 -2317 0
-2308 2311 2315 0
-2308 -2311 2314 2316 0
-2308 -2311 -2314 2317 0
-2309 2311 2316 0
-2309 -2311 2314 2317 0
-2309 -2311 -2314 2315 0
-2310 2311 2317 0
-2310 -2311 2314 2315 0
-2310 -2311 -2314 2316 0
-2318 -22 0
-2318 -121 0
-2318 -184 0
-2318 -229 0
2318 22 121 184 229 0
24 123 -2319 0
-24 -123 -2319 0
24 -123 2319 0
-24 123 2319 0
2319 186 -2320 0
-2319 -186 -2320 0
2319 -186 2320 0
-2319 186 2320 0
2320 231 -2321 0
-2320 -231 -2321 0
2320 -231 2321 0
-2320 231 2321 0
2322 2323 2324 0
-2322 -2323 0
-2322 -2324 0
-2323 -2324 0
-2315 2318 2322 0
-2315 -2318 2321 2323 0
-2315 -2318 -2321 2324 0
-2316 2318 2323 0
-2316 -2318 2321 2324 0
-2316 -2318 -2321 2322 0
-2317 2318 2324 0
-2317 -2318 2321 2322 0
-2317 -2318 -2321 2323 0
-2325 -22 0
-2325 -148 0
-2325 -169 0
-2325 -208 0
2325 22 148 169 208 0
24 150 -2326 0
-24 -150 -2326 0
24 -150 2326 0
-24 150 2326 0
2326 171 -2327 0
-2326 -171 -2327 0
2326 -171 2327 0
-2326 171 2327 0
2327 210 -2328 0
-2327 -210 -2328 0
2327 -210 2328 0
-2327 210 2328 0
2329 2330 2331 0
-2329 -2330 0
-2329 -2331 0
-2330 -2331 0
-2322 2325 2329 0
-2322 -2325 2328 2330 0
-2322 -2325 -2328 2331 0
-2323 2325 2330 0
-2323 -2325 2328 2331 0
-2323 -2325 -2328 2329 0
-2324 2325 2331 0
-2324 -2325 2328 2329 0
-2324 -2325 -2328 2330 0
-2332 -22 0
-2332 -148 0
-2332 -172 0
-2332 -196 0
2332 22 148 172 196 0
24 150 -2333 0
-24 -150 -2333 0
24 -150 2333 0
-24 150 2333 0
2333 174 -2334 0
-2333 -174 -2334 0
2333 -174 2334 0
-2333 174 2334 0
2334 198 -2335 0
-2334 -198 -2335 0
2334 -198 2335 0
-2334 198 2335 0
2336 2337 2338 0
-2336 -2337 0
-2336 -2338 0
-2337 -2338 0
-2329 2332 2336 0
-2329 -2332 2335 2337 0
-2329 -2332 -2335 2338 0
-2330 2332 2337 0
-2330 -2332 2335 2338 0
-2330 -2332 -2335 2336 0
-2331 2332 2338 0
-2331 -2332 2335 2336 0
-2331 -2332 -2335 2337 0
-2339 -22 0
-2339 -148 0
-2339 -184 0
-2339 -202 0
2339 22 148 184 202 0
24 150 -2340 0
-24 -150 -2340 0
24 -150 2340 0
-24 150 2340 0
2340 186 -2341 0
-2340 -186 -2341 0
2340 -186 2341 0
-2340 186 2341 0
2341 204 -2342 0
-2341 -204 -2342 0
2341 -204 2342 0
-2341 204 2342 0
2343 2344 2345 0
-2343 -2344 0
-2343 -2345 0
-2344 -2345 0
-2336 2339 2343 0
-2336 -2339 2342 2344 0
-2336 -2339 -2342 2345 0
-2337 2339 2344 0
-2337 -2339 2342 2345 0
-2337 -2339 -2342 2343 0
-2338 2339 2345 0
-2338 -2339 2342 2343 0
-2338 -2339 -2342 2344 0
2346 2347 2348 0
-2346 -2347 0
-2346 -2348 0
-2347 -2348 0
-2343 870 2346 0
-2343 -870 873 2347 0
-2343 -870 -873 2348 0
-2344 870 2347 0
-2344 -870 873 2348 0
-2344 -870 -873 2346 0
-2345 870 2348 0
-2345 -870 873 2346 0
-2345 -870 -873 2347 0
-2349 -28 0
-2349 -40 0
-2349 -127 0
-2349 -235 0
2349 28 40 127 235 0
30 42 -2350 0
-30 -42 -2350 0
30 -42 2350 0
-30 42 2350 0
2350 129 -2351 0
-2350 -129 -2351 0
2350 -129 2351 0
-2350 129 2351 0
2351 237 -2352 0
-2351 -237 -2352 0
2351 -237 2352 0
-2351 237 2352 0
2353 2354 2355 0
-2353 -2354 0
-2353 -2355 0
-2354 -2355 0
-2346 2349 2353 0
-2346 -2349 2352 2354 0
-2346 -2349 -2352 2355 0
-2347 2349 2354 0
-2347 -2349 2352 2355 0
-2347 -2349 -2352 2353 0
-2348 2349 2355 0
-2348 -2349 2352 2353 0
-2348 -2349 -2352 2354 0
-2356 -28 0
-2356 -40 0
-2356 -154 0
-2356 -208 0
2356 28 40 154 208 0
30 42 -2357 0
-30 -42 -2357 0
30 -42 2357 0
-30 42 2357 0
2357 156 -2358 0
-2357 -156 -2358 0
2357 -156 2358 0
-2357 156 2358 0
2358 210 -2359 0
-2358 -210 -2359 0
2358 -210 2359 0
-2358 210 2359 0
2360 2361 2362 0
-2360 -2361 0
-2360 -2362 0
-2361 -2362 0
-2353 2356 2360 0
-2353 -2356 2359 2361 0
-2353 -2356 -2359 2362 0
-2354 2356 2361 0
-2354 -2356 2359 2362 0
-2354 -2356 -2359 2360 0
-2355 2356 2362 0
-2355 -2356 2359 2360 0
-2355 -2356 -2359 2361 0
2363 2364 2365 0
-2363 -2364 0
-2363 -2365 0
-2364 -2365 0
-2360 891 2363 0
-2360 -891 894 2364 0
-2360 -891 -894 2365 0
-2361 891 2364 0
-2361 -891 894 2365 0
-2361 -891 -894 2363 0
-2362 891 2365 0
-2362 -891 894 2363 0
-2362 -891 -894 2364 0
2366 2367 2368 0
-2366 -2367 0
-2366 -2368 0
-2367 -2368 0
-2363 898 2366 0
-2363 -898 901 2367 0
-2363 -898 -901 2368 0
-2364 898 2367 0
-2364 -898 901 2368 0
-2364 -898 -901 2366 0
-2365 898 2368 0
-2365 -898 901 2366 0
-2365 -898 -901 2367 0
-2369 -28 0
-2369 -64 0
-2369 -100 0
-2369 -244 0
2369 28 64 100 244 0
30 66 -2370 0
-30 -66 -2370 0
30 -66 2370 0
-30 66 2370 0
2370 102 -2371 0
-2370 -102 -2371 0
2370 -102 2371 0
-2370 102 2371 0
2371 246 -2372 0
-2371 -246 -2372 0
2371 -246 2372 0
-2371 246 2372 0
2373 2374 2375 0
-2373 -2374 0
-2373 -2375 0
-2374 -2375 0
-2366 2369 2373 0
-2366 -2369 2372 2374 0
-2366 -2369 -2372 2375 0
-2367 2369 2374 0
-2367 -2369 2372 2375 0
-2367 -2369 -2372 2373 0
-2368 2369 2375 0
-2368 -2369 2372 2373 0
-2368 -2369 -2372 2374 0
-2376 -28 0
-2376 -64 0
-2376 -127 0
-2376 -229 0
2376 28 64 127 229 0
30 66 -2377 0
-30 -66 -2377 0
30 -66 2377 0
-30 66 2377 0
2377 129 -2378 0
-2377 -129 -2378 0
2377 -129 2378 0
-2377 129 2378 0
2378 231 -2379 0
-2378 -231 -2379 0
2378 -231 2379 0
-2378 231 2379 0
2380 2381 2382 0
-2380 -2381 0
-2380 -2382 0
-2381 -2382 0
-2373 2376 2380 0
-2373 -2376 2379 2381 0
-2373 -2376 -2379 2382 0
-2374 2376 2381 0
-2374 -2376 2379 2382 0
-2374 -2376 -2379 2380 0
-2375 2376 2382 0
-2375 -2376 2379 2380 0
-2375 -2376 -2379 2381 0
-2383 -28 0
-2383 -64 0
-2383 -154 0
-2383 -202 0
2383 28 64 154 202 0
30 66 -2384 0
-30 -66 -2384 0
30 -66 2384 0
-30 66 2384 0
2384 156 -2385 0
-2384 -156 -2385 0
2384 -156 2385 0
-2384 156 2385 0
2385 204 -2386 0
-2385 -204 -2386 0
2385 -204 2386 0
-2385 204 2386 0
2387 2388 2389 0
-2387 -2388 0
-2387 -2389 0
-2388 -2389 0
-2380 2383 2387 0
-2380 -2383 2386 2388 0
-2380 -2383 -2386 2389 0
-2381 2383 2388 0
-2381 -2383 2386 2389 0
-2381 -2383 -2386 2387 0
-2382 2383 2389 0
-2382 -2383 2386 2387 0
-2382 -2383 -2386 2388 0
-2390 -28 0
-2390 -100 0
-2390 -121 0
-2390 -235 0
2390 28 100 121 235 0
30 102 -2391 0
-30 -102 -2391 0
30 -102 2391 0
-30 102 2391 0
2391 123 -2392 0
-2391 -123 -2392 0
2391 -123 2392 0
-2391 123 2392 0
2392 237 -2393 0
-2392 -237 -2393 0
2392 -237 2393 0
-2392 237 2393 0
2394 2395 2396 0
-2394 -2395 0
-2394 -2396 0
-2395 -2396 0
-2387 2390 2394 0
-2387 -2390 2393 2395 0
-2387 -2390 -2393 2396 0
-2388 2390 2395 0
-2388 -2390 2393 2396 0
-2388 -2390 -2393 2394 0
-2389 2390 2396 0
-2389 -2390 2393 2394 0
-2389 -2390 -2393 2395 0
-2397 -28 0
-2397 -100 0
-2397 -148 0
-2397 -208 0
2397 28 100 148 208 0
30 102 -2398 0
-30 -102 -2398 0
30 -102 2398 0
-30 102 2398 0
2398 150 -2399 0
-2398 -150 -2399 0
2398 -150 2399 0
-2398 150 2399 0
2399 210 -2400 0
-2399 -210 -2400 0
2399 -210 2400 0
-2399 210 2400 0
2401 2402 2403 0
-2401 -2402 0
-2401 -2403 0
-2402 -2403 0
-2394 2397 2401 0
-2394 -2397 2400 2402 0
-2394 -2397 -2400 2403 0
-2395 2397 2402 0
-2395 -2397 2400 2403 0
-2395 -2397 -2400 2401 0
-2396 2397 2403 0
-2396 -2397 2400 2401 0
-2396 -2397 -2400 2402 0
-2404 -28 0
-2404 -121 0
-2404 -154 0
-2404 -172 0
2404 28 121 154 172 0
30 123 -2405 0
-30 -123 -2405 0
30 -123 2405 0
-30 123 2405 0
2405 156 -2406 0
-2405 -156 -2406 0
2405 -156 2406 0
-2405 156 2406 0
2406 174 -2407 0
-2406 -174 -2407 0
2406 -174 2407 0
-2406 174 2407 0
2408 2409 2410 0
-2408 -2409 0
-2408 -2410 0
-2409 -2410 0
-2401 2404 2408 0
-2401 -2404 2407 2409 0
-2401 -2404 -2407 2410 0
-2402 2404 2409 0
-2402 -2404 2407 2410 0
-2402 -2404 -2407 2408 0
-2403 2404 2410 0
-2403 -2404 2407 2408 0
-2403 -2404 -2407 2409 0
-2411 -28 0
-2411 -127 0
-2411 -148 0
-2411 -172 0
2411 28 127 148 172 0
30 129 -2412 0
-30 -129 -2412 0
30 -129 2412 0
-30 129 2412 0
2412 150 -2413 0
-2412 -150 -2413 0
2412 -150 2413 0
-2412 150 2413 0
2413 174 -2414 0
-2413 -174 -2414 0
2413 -174 2414 0
-2413 174 2414 0
2415 2416 2417 0
-2415 -2416 0
-2415 -2417 0
-2416 -2417 0
-2408 2411 2415 0
-2408 -2411 2414 2416 0
-2408 -2411 -2414 2417 0
-2409 2411 2416 0
-2409 -2411 2414 2417 0
-2409 -2411 -2414 2415 0
-2410 2411 2417 0
-2410 -2411 2414 2415 0
-2410 -2411 -2414 2416 0
-2418 -40 0
-2418 -52 0
-2418 -115 0
-2418 -223 0
2418 40 52 115 223 0
42 54 -2419 0
-42 -54 -2419 0
42 -54 2419 0
-42 54 2419 0
2419 117 -2420 0
-2419 -117 -2420 0
2419 -117 2420 0
-2419 117 2420 0
2420 225 -2421 0
-2420 -225 -2421 0
2420 -225 2421 0
-2420 225 2421 0
2422 2423 2424 0
-2422 -2423 0
-2422 -2424 0
-2423 -2424 0
-2415 2418 2422 0
-2415 -2418 2421 2423 0
-2415 -2418 -2421 2424 0
-2416 2418 2423 0
-2416 -2418 2421 2424 0
-2416 -2418 -2421 2422 0
-2417 2418 2424 0
-2417 -2418 2421 2422 0
-2417 -2418 -2421 2423 0
-2425 -40 0
-2425 -52 0
-2425 -142 0
-2425 -196 0
2425 40 52 142 196 0
42 54 -2426 0
-42 -54 -2426 0
42 -54 2426 0
-42 54 2426 0
2426 144 -2427 0
-2426 -144 -2427 0
2426 -144 2427 0
-2426 144 2427 0
2427 198 -2428 0
-2427 -198 -2428 0
2427 -198 2428 0
-2427 198 2428 0
2429 2430 2431 0
-2429 -2430 0
-2429 -2431 0
-2430 -2431 0
-2422 2425 2429 0
-2422 -2425 2428 2430 0
-2422 -2425 -2428 2431 0
-2423 2425 2430 0
-2423 -2425 2428 2431 0
-2423 -2425 -2428 2429 0
-2424 2425 2431 0
-2424 -2425 2428 2429 0
-2424 -2425 -2428 2430 0
-2432 -40 0
-2432 -76 0
-2432 -85 0
-2432 -244 0
2432 40 76 85 244 0
42 78 -2433 0
-42 -78 -2433 0
42 -78 2433 0
-42 78 2433 0
2433 87 -2434 0
-2433 -87 -2434 0
2433 -87 2434 0
-2433 87 2434 0
2434 246 -2435 0
-2434 -246 -2435 0
2434 -246 2435 0
-2434 246 2435 0
2436 2437 2438 0
-2436 -2437 0
-2436 -2438 0
-2437 -2438 0
-2429 2432 2436 0
-2429 -2432 2435 2437 0
-2429 -2432 -2435 2438 0
-2430 2432 2437 0
-2430 -2432 2435 2438 0
-2430 -2432 -2435 2436 0
-2431 2432 2438 0
-2431 -2432 2435 2436 0
-2431 -2432 -2435 2437 0
-2439 -40 0
-2439 -76 0
-2439 -115 0
-2439 -235 0
2439 40 76 115 235 0
42 78 -2440 0
-42 -78 -2440 0
42 -78 2440 0
-42 78 2440 0
2440 117 -2441 0
-2440 -117 -2441 0
2440 -117 2441 0
-2440 117 2441 0
2441 237 -2442 0
-2441 -237 -2442 0
2441 -237 2442 0
-2441 237 2442 0
2443 2444 2445 0
-2443 -2444 0
-2443 -2445 0
-2444 -2445 0
-2436 2439 2443 0
-2436 -2439 2442 2444 0
-2436 -2439 -2442 2445 0
-2437 2439 2444 0
-2437 -2439 2442 2445 0
-2437 -2439 -2442 2443 0
-2438 2439 2445 0
-2438 -2439 2442 2443 0
-2438 -2439 -2442 2444 0
-2446 -40 0
-2446 -76 0
-2446 -142 0
-2446 -208 0
2446 40 76 142 208 0
42 78 -2447 0
-42 -78 -2447 0
42 -78 2447 0
-42 78 2447 0
2447 144 -2448 0
-2447 -144 -2448 0
2447 -144 2448 0
-2447 144 2448 0
2448 210 -2449 0
-2448 -210 -2449 0
2448 -210 2449 0
-2448 210 2449 0
2450 2451 2452 0
-2450 -2451 0
-2450 -2452 0
-2451 -2452 0
-2443 2446 2450 0
-2443 -2446 2449 2451 0
-2443 -2446 -2449 2452 0
-2444 2446 2451 0
-2444 -2446 2449 2452 0
-2444 -2446 -2449 2450 0
-2445 2446 2452 0
-2445 -2446 2449 2450 0
-2445 -2446 -2449 2451 0
-2453 -40 0
-2453 -85 0
-2453 -127 0
-2453 -223 0
2453 40 85 127 223 0
42 87 -2454 0
-42 -87 -2454 0
42 -87 2454 0
-42 87 2454 0
2454 129 -2455 0
-2454 -129 -2455 0
2454 -129 2455 0
-2454 129 2455 0
2455 225 -2456 0
-2455 -225 -2456 0
2455 -225 2456 0
-2455 225 2456 0
2457 2458 2459 0
-2457 -2458 0
-2457 -2459 0
-2458 -2459 0
-2450 2453 2457 0
-2450 -2453 2456 2458 0
-2450 -2453 -2456 2459 0
-2451 2453 2458 0
-2451 -2453 2456 2459 0
-2451 -2453 -2456 2457 0
-2452 2453 2459 0
-2452 -2453 2456 2457 0
-2452 -2453 -2456 2458 0
-2460 -40 0
-2460 -85 0
-2460 -154 0
-2460 -196 0
2460 40 85 154 196 0
42 87 -2461 0
-42 -87 -2461 0
42 -87 2461 0
-42 87 2461 0
2461 156 -2462 0
-2461 -156 -2462 0
2461 -156 2462 0
-2461 156 2462 0
2462 198 -2463 0
-2462 -198 -2463 0
2462 -198 2463 0
-2462 198 2463 0
2464 2465 2466 0
-2464 -2465 0
-2464 -2466 0
-2465 -2466 0
-2457 2460 2464 0
-2457 -2460 2463 2465 0
-2457 -2460 -2463 2466 0
-2458 2460 2465 0
-2458 -2460 2463 2466 0
-2458 -2460 -2463 2464 0
-2459 2460 2466 0
-2459 -2460 2463 2464 0
-2459 -2460 -2463 2465 0
-2467 -40 0
-2467 -115 0
-2467 -154 0
-2467 -184 0
2467 40 115 154 184 0
42 117 -2468 0
-42 -117 -2468 0
42 -117 2468 0
-42 117 2468 0
2468 156 -2469 0
-2468 -156 -2469 0
2468 -156 2469 0
-2468 156 2469 0
2469 186 -2470 0
-2469 -186 -2470 0
2469 -186 2470 0
-2469 186 2470 0
2471 2472 2473 0
-2471 -2472 0
-2471 -2473 0
-2472 -2473 0
-2464 2467 2471 0
-2464 -2467 2470 2472 0
-2464 -2467 -2470 2473 0
-2465 2467 2472 0
-2465 -2467 2470 2473 0
-2465 -2467 -2470 2471 0
-2466 2467 2473 0
-2466 -2467 2470 2471 0
-2466 -2467 -2470 2472 0
-2474 -40 0
-2474 -127 0
-2474 -142 0
-2474 -184 0
2474 40 127 142 184 0
42 129 -2475 0
-42 -129 -2475 0
42 -129 2475 0
-42 129 2475 0
2475 144 -2476 0
-2475 -144 -2476 0
2475 -144 2476 0
-2475 144 2476 0
2476 186 -2477 0
-2476 -186 -2477 0
2476 -186 2477 0
-2476 186 2477 0
2478 2479 2480 0
-2478 -2479 0
-2478 -2480 0
-2479 -2480 0
-2471 2474 2478 0
-2471 -2474 2477 2479 0
-2471 -2474 -2477 2480 0
-2472 2474 2479 0
-2472 -2474 2477 2480 0
-2472 -2474 -2477 2478 0
-2473 2474 2480 0
-2473 -2474 2477 2478 0
-2473 -2474 -2477 2479 0
-2481 -52 0
-2481 -61 0
-2481 -97 0
-2481 -244 0
2481 52 61 97 244 0
54 63 -2482 0
-54 -63 -2482 0
54 -63 2482 0
-54 63 2482 0
2482 99 -2483 0
-2482 -99 -2483 0
2482 -99 2483 0
-2482 99 2483 0
2483 246 -2484 0
-2483 -246 -2484 0
2483 -246 2484 0
-2483 246 2484 0
2485 2486 2487 0
-2485 -2486 0
-2485 -2487 0
-2486 -2487 0
-2478 2481 2485 0
-2478 -2481 2484 2486 0
-2478 -2481 -2484 2487 0
-2479 2481 2486 0
-2479 -2481 2484 2487 0
-2479 -2481 -2484 2485 0
-2480 2481 2487 0
-2480 -2481 2484 2485 0
-2480 -2481 -2484 2486 0
-2488 -52 0
-2488 -61 0
-2488 -121 0
-2488 -223 0
2488 52 61 121 223 0
54 63 -2489 0
-54 -63 -2489 0
54 -63 2489 0
-54 63 2489 0
2489 123 -2490 0
-2489 -123 -2490 0
2489 -123 2490 0
-2489 123 2490 0
2490 225 -2491 0
-2490 -225 -2491 0
2490 -225 2491 0
-2490 225 2491 0
2492 2493 2494 0
-2492 -2493 0
-2492 -2494 0
-2493 -2494 0
-2485 2488 2492 0
-2485 -2488 2491 2493 0
-2485 -2488 -2491 2494 0
-2486 2488 2493 0
-2486 -2488 2491 2494 0
-2486 -2488 -2491 2492 0
-2487 2488 2494 0
-2487 -2488 2491 2492 0
-2487 -2488 -2491 2493 0
-2495 -52 0
-2495 -61 0
-2495 -148 0
-2495 -196 0
2495 52 61 148 196 0
54 63 -2496 0
-54 -63 -2496 0
54 -63 2496 0
-54 63 2496 0
2496 150 -2497 0
-2496 -150 -2497 0
2496 -150 2497 0
-2496 150 2497 0
2497 198 -2498 0
-2497 -198 -2498 0
2497 -198 2498 0
-2497 198 2498 0
2499 2500 2501 0
-2499 -2500 0
-2499 -2501 0
-2500 -2501 0
-2492 2495 2499 0
-2492 -2495 2498 2500 0
-2492 -2495 -2498 2501 0
-2493 2495 2500 0
-2493 -2495 2498 2501 0
-2493 -2495 -2498 2499 0
-2494 2495 2501 0
-2494 -2495 2498 2499 0
-2494 -2495 -2498 2500 0
-2502 -52 0
-2502 -97 0
-2502 -115 0
-2502 -229 0
2502 52 97 115 229 0
54 99 -2503 0
-54 -99 -2503 0
54 -99 2503 0
-54 99 2503 0
2503 117 -2504 0
-2503 -117 -2504 0
2503 -117 2504 0
-2503 117 2504 0
2504 231 -2505 0
-2504 -231 -2505 0
2504 -231 2505 0
-2504 231 2505 0
2506 2507 2508 0
-2506 -2507 0
-2506 -2508 0
-2507 -2508 0
-2499 2502 2506 0
-2499 -2502 2505 2507 0
-2499 -2502 -2505 2508 0
-2500 2502 2507 0
-2500 -2502 2505 2508 0
-2500 -2502 -2505 2506 0
-2501 2502 2508 0
-2501 -2502 2505 2506 0
-2501 -2502 -2505 2507 0
-2509 -52 0
-2509 -97 0
-2509 -142 0
-2509 -202 0
2509 52 97 142 202 0
54 99 -2510 0
-54 -99 -2510 0
54 -99 2510 0
-54 99 2510 0
2510 144 -2511 0
-2510 -144 -2511 0
2510 -144 2511 0
-2510 144 2511 0
2511 204 -2512 0
-2511 -204 -2512 0
2511 -204 2512 0
-2511 204 2512 0
2513 2514 2515 0
-2513 -2514 0
-2513 -2515 0
-2514 -2515 0
-2506 2509 2513 0
-2506 -2509 2512 2514 0
-2506 -2509 -2512 2515 0
-2507 2509 2514 0
-2507 -2509 2512 2515 0
-2507 -2509 -2512 2513 0
-2508 2509 2515 0
-2508 -2509 2512 2513 0
-2508 -2509 -2512 2514 0
-2516 -52 0
-2516 -115 0
-2516 -148 0
-2516 -169 0
2516 52 115 148 169 0
54 117 -2517 0
-54 -117 -2517 0
54 -117 2517 0
-54 117 2517 0
2517 150 -2518 0
-2517 -150 -2518 0
2517 -150 2518 0
-2517 150 2518 0
2518 171 -2519 0
-2518 -171 -2519 0
2518 -171 2519 0
-2518 171 2519 0
2520 2521 2522 0
-2520 -2521 0
-2520 -2522 0
-2521 -2522 0
-2513 2516 2520 0
-2513 -2516 2519 2521 0
-2513 -2516 -2519 2522 0
-2514 2516 2521 0
-2514 -2516 2519 2522 0
-2514 -2516 -2519 2520 0
-2515 2516 2522 0
-2515 -2516 2519 2520 0
-2515 -2516 -2519 2521 0
-2523 -52 0
-2523 -121 0
-2523 -142 0
-2523 -169 0
2523 52 121 142 169 0
54 123 -2524 0
-54 -123 -2524 0
54 -123 2524 0
-54 123 2524 0
2524 144 -2525 0
-2524 -144 -2525 0
2524 -144 2525 0
-2524 144 2525 0
2525 171 -2526 0
-2525 -171 -2526 0
2525 -171 2526 0
-2525 171 2526 0
2527 2528 2529 0
-2527 -2528 0
-2527 -2529 0
-2528 -2529 0
-2520 2523 2527 0
-2520 -2523 2526 2528 0
-2520 -2523 -2526 2529 0
-2521 2523 2528 0
-2521 -2523 2526 2529 0
-2521 -2523 -2526 2527 0
-2522 2523 2529 0
-2522 -2523 2526 2527 0
-2522 -2523 -2526 2528 0
-2530 -61 0
-2530 -64 0
-2530 -76 0
-2530 -244 0
2530 61 64 76 244 0
63 66 -2531 0
-63 -66 -2531 0
63 -66 2531 0
-63 66 2531 0
2531 78 -2532 0
-2531 -78 -2532 0
2531 -78 2532 0
-2531 78 2532 0
2532 246 -2533 0
-2532 -246 -2533 0
2532 -246 2533 0
-2532 246 2533 0
2534 2535 2536 0
-2534 -2535 0
-2534 -2536 0
-2535 -2536 0
-2527 2530 2534 0
-2527 -2530 2533 2535 0
-2527 -2530 -2533 2536 0
-2528 2530 2535 0
-2528 -2530 2533 2536 0
-2528 -2530 -2533 2534 0
-2529 2530 2536 0
-2529 -2530 2533 2534 0
-2529 -2530 -2533 2535 0
-2537 -61 0
-2537 -64 0
-2537 -127 0
-2537 -223 0
2537 61 64 127 223 0
63 66 -2538 0
-63 -66 -2538 0
63 -66 2538 0
-63 66 2538 0
2538 129 -2539 0
-2538 -129 -2539 0
2538 -129 2539 0
-2538 129 2539 0
2539 225 -2540 0
-2539 -225 -2540 0
2539 -225 2540 0
-2539 225 2540 0
2541 2542 2543 0
-2541 -2542 0
-2541 -2543 0
-2542 -2543 0
-2534 2537 2541 0
-2534 -2537 2540 2542 0
-2534 -2537 -2540 2543 0
-2535 2537 2542 0
-2535 -2537 2540 2543 0
-2535 -2537 -2540 2541 0
-2536 2537 2543 0
-2536 -2537 2540 2541 0
-2536 -2537 -2540 2542 0
-2544 -61 0
-2544 -64 0
-2544 -154 0
-2544 -196 0
2544 61 64 154 196 0
63 66 -2545 0
-63 -66 -2545 0
63 -66 2545 0
-63 66 2545 0
2545 156 -2546 0
-2545 -156 -2546 0
2545 -156 2546 0
-2545 156 2546 0
2546 198 -2547 0
-2546 -198 -2547 0
2546 -198 2547 0
-2546 198 2547 0
2548 2549 2550 0
-2548 -2549 0
-2548 -2550 0
-2549 -2550 0
-2541 2544 2548 0
-2541 -2544 2547 2549 0
-2541 -2544 -2547 2550 0
-2542 2544 2549 0
-2542 -2544 2547 2550 0
-2542 -2544 -2547 2548 0
-2543 2544 2550 0
-2543 -2544 2547 2548 0
-2543 -2544 -2547 2549 0
-2551 -61 0
-2551 -76 0
-2551 -121 0
-2551 -235 0
2551 61 76 121 235 0
63 78 -2552 0
-63 -78 -2552 0
63 -78 2552 0
-63 78 2552 0
2552 123 -2553 0
-2552 -123 -2553 0
2552 -123 2553 0
-2552 123 2553 0
2553 237 -2554 0
-2553 -237 -2554 0
2553 -237 2554 0
-2553 237 2554 0
2555 2556 2557 0
-2555 -2556 0
-2555 -2557 0
-2556 -2557 0
-2548 2551 2555 0
-2548 -2551 2554 2556 0
-2548 -2551 -2554 2557 0
-2549 2551 2556 0
-2549 -2551 2554 2557 0
-2549 -2551 -2554 2555 0
-2550 2551 2557 0
-2550 -2551 2554 2555 0
-2550 -2551 -2554 2556 0
-2558 -61 0
-2558 -76 0
-2558 -148 0
-2558 -208 0
2558 61 76 148 208 0
63 78 -2559 0
-63 -78 -2559 0
63 -78 2559 0
-63 78 2559 0
2559 150 -2560 0
-2559 -150 -2560 0
2559 -150 2560 0
-2559 150 2560 0
2560 210 -2561 0
-2560 -210 -2561 0
2560 -210 2561 0
-2560 210 2561 0
2562 2563 2564 0
-2562 -2563 0
-2562 -2564 0
-2563 -2564 0
-2555 2558 2562 0
-2555 -2558 2561 2563 0
-2555 -2558 -2561 2564 0
-2556 2558 2563 0
-2556 -2558 2561 2564 0
-2556 -2558 -2561 2562 0
-2557 2558 2564 0
-2557 -2558 2561 2562 0
-2557 -2558 -2561 2563 0
-2565 -61 0
-2565 -97 0
-2565 -127 0
-2565 -235 0
2565 61 97 127 235 0
63 99 -2566 0
-63 -99 -2566 0
63 -99 2566 0
-63 99 2566 0
2566 129 -2567 0
-2566 -129 -2567 0
2566 -129 2567 0
-2566 129 2567 0
2567 237 -2568 0
-2567 -237 -2568 0
2567 -237 2568 0
-2567 237 2568 0
2569 2570 2571 0
-2569 -2570 0
-2569 -2571 0
-2570 -2571 0
-2562 2565 2569 0
-2562 -2565 2568 2570 0
-2562 -2565 -2568 2571 0
-2563 2565 2570 0
-2563 -2565 2568 2571 0
-2563 -2565 -2568 2569 0
-2564 2565 2571 0
-2564 -2565 2568 2569 0
-2564 -2565 -2568 2570 0
-2572 -61 0
-2572 -97 0
-2572 -154 0
-2572 -208 0
2572 61 97 154 208 0
63 99 -2573 0
-63 -99 -2573 0
63 -99 2573 0
-63 99 2573 0
2573 156 -2574 0
-2573 -156 -2574 0
2573 -156 2574 0
-2573 156 2574 0
2574 210 -2575 0
-2574 -210 -2575 0
2574 -210 2575 0
-2574 210 2575 0
2576 2577 2578 0
-2576 -2577 0
-2576 -2578 0
-2577 -2578 0
-2569 2572 2576 0
-2569 -2572 2575 2577 0
-2569 -2572 -2575 2578 0
-2570 2572 2577 0
-2570 -2572 2575 2578 0
-2570 -2572 -2575 2576 0
-2571 2572 2578 0
-2571 -2572 2575 2576 0
-2571 -2572 -2575 2577 0
-2579 -61 0
-2579 -121 0
-2579 -154 0
-2579 -184 0
2579 61 121 154 184 0
63 123 -2580 0
-63 -123 -2580 0
63 -123 2580 0
-63 123 2580 0
2580 156 -2581 0
-2580 -156 -2581 0
2580 -156 2581 0
-2580 156 2581 0
2581 186 -2582 0
-2581 -186 -2582 0
2581 -186 2582 0
-2581 186 2582 0
2583 2584 2585 0
-2583 -2584 0
-2583 -2585 0
-2584 -2585 0
-2576 2579 2583 0
-2576 -2579 2582 2584 0
-2576 -2579 -2582 2585 0
-2577 2579 2584 0
-2577 -2579 2582 2585 0
-2577 -2579 -2582 2583 0
-2578 2579 2585 0
-2578 -2579 2582 2583 0
-2578 -2579 -2582 2584 0
-2586 -61 0
-2586 -127 0
-2586 -148 0
-2586 -184 0
2586 61 127 148 184 0
63 129 -2587 0
-63 -129 -2587 0
63 -129 2587 0
-63 129 2587 0
2587 150 -2588 0
-2587 -150 -2588 0
2587 -150 2588 0
-2587 150 2588 0
2588 186 -2589 0
-2588 -186 -2589 0
2588 -186 2589 0
-2588 186 2589 0
2590 2591 2592 0
-2590 -2591 0
-2590 -2592 0
-2591 -2592 0
-2583 2586 2590 0
-2583 -2586 2589 2591 0
-2583 -2586 -2589 2592 0
-2584 2586 2591 0
-2584 -2586 2589 2592 0
-2584 -2586 -2589 2590 0
-2585 2586 2592 0
-2585 -2586 2589 2590 0
-2585 -2586 -2589 2591 0
-2593 -64 0
-2593 -76 0
-2593 -115 0
-2593 -229 0
2593 64 76 115 229 0
66 78 -2594 0
-66 -78 -2594 0
66 -78 2594 0
-66 78 2594 0
2594 117 -2595 0
-2594 -117 -2595 0
2594 -117 2595 0
-2594 117 2595 0
2595 231 -2596 0
-2595 -231 -2596 0
2595 -231 2596 0
-2595 231 2596 0
2597 2598 2599 0
-2597 -2598 0
-2597 -2599 0
-2598 -2599 0
-2590 2593 2597 0
-2590 -2593 2596 2598 0
-2590 -2593 -2596 2599 0
-2591 2593 2598 0
-2591 -2593 2596 2599 0
-2591 -2593 -2596 2597 0
-2592 2593 2599 0
-2592 -2593 2596 2597 0
-2592 -2593 -2596 2598 0
-2600 -64 0
-2600 -76 0
-2600 -142 0
-2600 -202 0
2600 64 76 142 202 0
66 78 -2601 0
-66 -78 -2601 0
66 -78 2601 0
-66 78 2601 0
2601 144 -2602 0
-2601 -144 -2602 0
2601 -144 2602 0
-2601 144 2602 0
2602 204 -2603 0
-2602 -204 -2603 0
2602 -204 2603 0
-2602 204 2603 0
2604 2605 2606 0
-2604 -2605 0
-2604 -2606 0
-2605 -2606 0
-2597 2600 2604 0
-2597 -2600 2603 2605 0
-2597 -2600 -2603 2606 0
-2598 2600 2605 0
-2598 -2600 2603 2606 0
-2598 -2600 -2603 2604 0
-2599 2600 2606 0
-2599 -2600 2603 2604 0
-2599 -2600 -2603 2605 0
-2607 -64 0
-2607 -100 0
-2607 -115 0
-2607 -223 0
2607 64 100 115 223 0
66 102 -2608 0
-66 -102 -2608 0
66 -102 2608 0
-66 102 2608 0
2608 117 -2609 0
-2608 -117 -2609 0
2608 -117 2609 0
-2608 117 2609 0
2609 225 -2610 0
-2609 -225 -2610 0
2609 -225 2610 0
-2609 225 2610 0
2611 2612 2613 0
-2611 -2612 0
-2611 -2613 0
-2612 -2613 0
-2604 2607 2611 0
-2604 -2607 2610 2612 0
-2604 -2607 -2610 2613 0
-2605 2607 2612 0
-2605 -2607 2610 2613 0
-2605 -2607 -2610 2611 0
-2606 2607 2613 0
-2606 -2607 2610 2611 0
-2606 -2607 -2610 2612 0
-2614 -64 0
-2614 -100 0
-2614 -142 0
-2614 -196 0
2614 64 100 142 196 0
66 102 -2615 0
-66 -102 -2615 0
66 -102 2615 0
-66 102 2615 0
2615 144 -2616 0
-2615 -144 -2616 0
2615 -144 2616 0
-2615 144 2616 0
2616 198 -2617 0
-2616 -198 -2617 0
2616 -198 2617 0
-2616 198 2617 0
2618 2619 2620 0
-2618 -2619 0
-2618 -2620 0
-2619 -2620 0
-2611 2614 2618 0
-2611 -2614 2617 2619 0
-2611 -2614 -2617 2620 0
-2612 2614 2619 0
-2612 -2614 2617 2620 0
-2612 -2614 -2617 2618 0
-2613 2614 2620 0
-2613 -2614 2617 2618 0
-2613 -2614 -2617 2619 0
-2621 -64 0
-2621 -115 0
-2621 -154 0
-2621 -169 0
2621 64 115 154 169 0
66 117 -2622 0
-66 -117 -2622 0
66 -117 2622 0
-66 117 2622 0
2622 156 -2623 0
-2622 -156 -2623 0
2622 -156 2623 0
-2622 156 2623 0
2623 171 -2624 0
-2623 -171 -2624 0
2623 -171 2624 0
-2623 171 2624 0
2625 2626 2627 0
-2625 -2626 0
-2625 -2627 0
-2626 -2627 0
-2618 2621 2625 0
-2618 -2621 2624 2626 0
-2618 -2621 -2624 2627 0
-2619 2621 2626 0
-2619 -2621 2624 2627 0
-2619 -2621 -2624 2625 0
-2620 2621 2627 0
-2620 -2621 2624 2625 0
-2620 -2621 -2624 2626 0
-2628 -64 0
-2628 -127 0
-2628 -142 0
-2628 -169 0
2628 64 127 142 169 0
66 129 -2629 0
-66 -129 -2629 0
66 -129 2629 0
-66 129 2629 0
2629 144 -2630 0
-2629 -144 -2630 0
2629 -144 2630 0
-2629 144 2630 0
2630 171 -2631 0
-2630 -171 -2631 0
2630 -171 2631 0
-2630 171 2631 0
2632 2633 2634 0
-2632 -2633 0
-2632 -2634 0
-2633 -2634 0
-2625 2628 2632 0
-2625 -2628 2631 2633 0
-2625 -2628 -2631 2634 0
-2626 2628 2633 0
-2626 -2628 2631 2634 0
-2626 -2628 -2631 2632 0
-2627 2628 2634 0
-2627 -2628 2631 2632 0
-2627 -2628 -2631 2633 0
-2635 -76 0
-2635 -85 0
-2635 -121 0
-2635 -229 0
2635 76 85 121 229 0
78 87 -2636 0
-78 -87 -2636 0
78 -87 2636 0
-78 87 2636 0
2636 123 -2637 0
-2636 -123 -2637 0
2636 -123 2637 0
-2636 123 2637 0
2637 231 -2638 0
-2637 -231 -2638 0
2637 -231 2638 0
-2637 231 2638 0
2639 2640 2641 0
-2639 -2640 0
-2639 -2641 0
-2640 -2641 0
-2632 2635 2639 0
-2632 -2635 2638 2640 0
-2632 -2635 -2638 2641 0
-2633 2635 2640 0
-2633 -2635 2638 2641 0
-2633 -2635 -2638 2639 0
-2634 2635 2641 0
-2634 -2635 2638 2639 0
-2634 -2635 -2638 2640 0
-2642 -76 0
-2642 -85 0
-2642 -148 0
-2642 -202 0
2642 76 85 148 202 0
78 87 -2643 0
-78 -87 -2643 0
78 -87 2643 0
-78 87 2643 0
2643 150 -2644 0
-2643 -150 -2644 0
2643 -150 2644 0
-2643 150 2644 0
2644 204 -2645 0
-2644 -204 -2645 0
2644 -204 2645 0
-2644 204 2645 0
2646 2647 2648 0
-2646 -2647 0
-2646 -2648 0
-2647 -2648 0
-2639 2642 2646 0
-2639 -2642 2645 2647 0
-2639 -2642 -2645 2648 0
-2640 2642 2647 0
-2640 -2642 2645 2648 0
-2640 -2642 -2645 2646 0
-2641 2642 2648 0
-2641 -2642 2645 2646 0
-2641 -2642 -2645 2647 0
-2649 -76 0
-2649 -115 0
-2649 -148 0
-2649 -172 0
2649 76 115 148 172 0
78 117 -2650 0
-78 -117 -2650 0
78 -117 2650 0
-78 117 2650 0
2650 150 -2651 0
-2650 -150 -2651 0
2650 -150 2651 0
-2650 150 2651 0
2651 174 -2652 0
-2651 -174 -2652 0
2651 -174 2652 0
-2651 174 2652 0
2653 2654 2655 0
-2653 -2654 0
-2653 -2655 0
-2654 -2655 0
-2646 2649 2653 0
-2646 -2649 2652 2654 0
-2646 -2649 -2652 2655 0
-2647 2649 2654 0
-2647 -2649 2652 2655 0
-2647 -2649 -2652 2653 0
-2648 2649 2655 0
-2648 -2649 2652 2653 0
-2648 -2649 -2652 2654 0
-2656 -76 0
-2656 -121 0
-2656 -142 0
-2656 -172 0
2656 76 121 142 172 0
78 123 -2657 0
-78 -123 -2657 0
78 -123 2657 0
-78 123 2657 0
2657 144 -2658 0
-2657 -144 -2658 0
2657 -144 2658 0
-2657 144 2658 0
2658 174 -2659 0
-2658 -174 -2659 0
2658 -174 2659 0
-2658 174 2659 0
2660 2661 2662 0
-2660 -2661 0
-2660 -2662 0
-2661 -2662 0
-2653 2656 2660 0
-2653 -2656 2659 2661 0
-2653 -2656 -2659 2662 0
-2654 2656 2661 0
-2654 -2656 2659 2662 0
-2654 -2656 -2659 2660 0
-2655 2656 2662 0
-2655 -2656 2659 2660 0
-2655 -2656 -2659 2661 0
-2663 -85 0
-2663 -97 0
-2663 -100 0
-2663 -244 0
2663 85 97 100 244 0
87 99 -2664 0
-87 -99 -2664 0
87 -99 2664 0
-87 99 2664 0
2664 102 -2665 0
-2664 -102 -2665 0
2664 -102 2665 0
-2664 102 2665 0
2665 246 -2666 0
-2665 -246 -2666 0
2665 -246 2666 0
-2665 246 2666 0
2667 2668 2669 0
-2667 -2668 0
-2667 -2669 0
-2668 -2669 0
-2660 2663 2667 0
-2660 -2663 2666 2668 0
-2660 -2663 -2666 2669 0
-2661 2663 2668 0
-2661 -2663 2666 2669 0
-2661 -2663 -2666 2667 0
-2662 2663 2669 0
-2662 -2663 2666 2667 0
-2662 -2663 -2666 2668 0
-2670 -85 0
-2670 -97 0
-2670 -127 0
-2670 -229 0
2670 85 97 127 229 0
87 99 -2671 0
-87 -99 -2671 0
87 -99 2671 0
-87 99 2671 0
2671 129 -2672 0
-2671 -129 -2672 0
2671 -129 2672 0
-2671 129 2672 0
2672 231 -2673 0
-2672 -231 -2673 0
2672 -231 2673 0
-2672 231 2673 0
2674 2675 2676 0
-2674 -2675 0
-2674 -2676 0
-2675 -2676 0
-2667 2670 2674 0
-2667 -2670 2673 2675 0
-2667 -2670 -2673 2676 0
-2668 2670 2675 0
-2668 -2670 2673 2676 0
-2668 -2670 -2673 2674 0
-2669 2670 2676 0
-2669 -2670 2673 2674 0
-2669 -2670 -2673 2675 0
-2677 -85 0
-2677 -97 0
-2677 -154 0
-2677 -202 0
2677 85 97 154 202 0
87 99 -2678 0
-87 -99 -2678 0
87 -99 2678 0
-87 99 2678 0
2678 156 -2679 0
-2678 -156 -2679 0
2678 -156 2679 0
-2678 156 2679 0
2679 204 -2680 0
-2679 -204 -2680 0
2679 -204 2680 0
-2679 204 2680 0
2681 2682 2683 0
-2681 -2682 0
-2681 -2683 0
-2682 -2683 0
-2674 2677 2681 0
-2674 -2677 2680 2682 0
-2674 -2677 -2680 2683 0
-2675 2677 2682 0
-2675 -2677 2680 2683 0
-2675 -2677 -2680 2681 0
-2676 2677 2683 0
-2676 -2677 2680 2681 0
-2676 -2677 -2680 2682 0
-2684 -85 0
-2684 -100 0
-2684 -121 0
-2684 -223 0
2684 85 100 121 223 0
87 102 -2685 0
-87 -102 -2685 0
87 -102 2685 0
-87 102 2685 0
2685 123 -2686 0
-2685 -123 -2686 0
2685 -123 2686 0
-2685 123 2686 0
2686 225 -2687 0
-2686 -225 -2687 0
2686 -225 2687 0
-2686 225 2687 0
2688 2689 2690 0
-2688 -2689 0
-2688 -2690 0
-2689 -2690 0
-2681 2684 2688 0
-2681 -2684 2687 2689 0
-2681 -2684 -2687 2690 0
-2682 2684 2689 0
-2682 -2684 2687 2690 0
-2682 -2684 -2687 2688 0
-2683 2684 2690 0
-2683 -2684 2687 2688 0
-2683 -2684 -2687 2689 0
-2691 -85 0
-2691 -100 0
-2691 -148 0
-2691 -196 0
2691 85 100 148 196 0
87 102 -2692 0
-87 -102 -2692 0
87 -102 2692 0
-87 102 2692 0
2692 150 -2693 0
-2692 -150 -2693 0
2692 -150 2693 0
-2692 150 2693 0
2693 198 -2694 0
-2693 -198 -2694 0
2693 -198 2694 0
-2693 198 2694 0
2695 2696 2697 0
-2695 -2696 0
-2695 -2697 0
-2696 -2697 0
-2688 2691 2695 0
-2688 -2691 2694 2696 0
-2688 -2691 -2694 2697 0
-2689 2691 2696 0
-2689 -2691 2694 2697 0
-2689 -2691 -2694 2695 0
-2690 2691 2697 0
-2690 -2691 2694 2695 0
-2690 -2691 -2694 2696 0
-2698 -85 0
-2698 -121 0
-2698 -154 0
-2698 -169 0
2698 85 121 154 169 0
87 123 -2699 0
-87 -123 -2699 0
87 -123 2699 0
-87 123 2699 0
2699 156 -2700 0
-2699 -156 -2700 0
2699 -156 2700 0
-2699 156 2700 0
2700 171 -2701 0
-2700 -171 -2701 0
2700 -171 2701 0
-2700 171 2701 0
2702 2703 2704 0
-2702 -2703 0
-2702 -2704 0
-2703 -2704 0
-2695 2698 2702 0
-2695 -2698 2701 2703 0
-2695 -2698 -2701 2704 0
-2696 2698 2703 0
-2696 -2698 2701 2704 0
-2696 -2698 -2701 2702 0
-2697 2698 2704 0
-2697 -2698 2701 2702 0
-2697 -2698 -2701 2703 0
-2705 -85 0
-2705 -127 0
-2705 -148 0
-2705 -169 0
2705 85 127 148 169 0
87 129 -2706 0
-87 -129 -2706 0
87 -129 2706 0
-87 129 2706 0
2706 150 -2707 0
-2706 -150 -2707 0
2706 -150 2707 0
-2706 150 2707 0
2707 171 -2708 0
-2707 -171 -2708 0
2707 -171 2708 0
-2707 171 2708 0
2709 2710 2711 0
-2709 -2710 0
-2709 -2711 0
-2710 -2711 0
-2702 2705 2709 0
-2702 -2705 2708 2710 0
-2702 -2705 -2708 2711 0
-2703 2705 2710 0
-2703 -2705 2708 2711 0
-2703 -2705 -2708 2709 0
-2704 2705 2711 0
-2704 -2705 2708 2709 0
-2704 -2705 -2708 2710 0
-2712 -97 0
-2712 -100 0
-2712 -115 0
-2712 -235 0
2712 97 100 115 235 0
99 102 -2713 0
-99 -102 -2713 0
99 -102 2713 0
-99 102 2713 0
2713 117 -2714 0
-2713 -117 -2714 0
2713 -117 2714 0
-2713 117 2714 0
2714 237 -2715 0
-2714 -237 -2715 0
2714 -237 2715 0
-2714 237 2715 0
2716 2717 2718 0
-2716 -2717 0
-2716 -2718 0
-2717 -2718 0
-2709 2712 2716 0
-2709 -2712 2715 2717 0
-2709 -2712 -2715 2718 0
-2710 2712 2717 0
-2710 -2712 2715 2718 0
-2710 -2712 -2715 2716 0
-2711 2712 2718 0
-2711 -2712 2715 2716 0
-2711 -2712 -2715 2717 0
-2719 -97 0
-2719 -100 0
-2719 -142 0
-2719 -208 0
2719 97 100 142 208 0
99 102 -2720 0
-99 -102 -2720 0
99 -102 2720 0
-99 102 2720 0
2720 144 -2721 0
-2720 -144 -2721 0
2720 -144 2721 0
-2720 144 2721 0
2721 210 -2722 0
-2721 -210 -2722 0
2721 -210 2722 0
-2721 210 2722 0
2723 2724 2725 0
-2723 -2724 0
-2723 -2725 0
-2724 -2725 0
-2716 2719 2723 0
-2716 -2719 2722 2724 0
-2716 -2719 -2722 2725 0
-2717 2719 2724 0
-2717 -2719 2722 2725 0
-2717 -2719 -2722 2723 0
-2718 2719 2725 0
-2718 -2719 2722 2723 0
-2718 -2719 -2722 2724 0
-2726 -97 0
-2726 -115 0
-2726 -154 0
-2726 -172 0
2726 97 115 154 172 0
99 117 -2727 0
-99 -117 -2727 0
99 -117 2727 0
-99 117 2727 0
2727 156 -2728 0
-2727 -156 -2728 0
2727 -156 2728 0
-2727 156 2728 0
2728 174 -2729 0
-2728 -174 -2729 0
2728 -174 2729 0
-2728 174 2729 0
2730 2731 2732 0
-2730 -2731 0
-2730 -2732 0
-2731 -2732 0
-2723 2726 2730 0
-2723 -2726 2729 2731 0
-2723 -2726 -2729 2732 0
-2724 2726 2731 0
-2724 -2726 2729 2732 0
-2724 -2726 -2729 2730 0
-2725 2726 2732 0
-2725 -2726 2729 2730 0
-2725 -2726 -2729 2731 0
-2733 -97 0
-2733 -127 0
-2733 -142 0
-2733 -172 0
2733 97 127 142 172 0
99 129 -2734 0
-99 -129 -2734 0
99 -129 2734 0
-99 129 2734 0
2734 144 -2735 0
-2734 -144 -2735 0
2734 -144 2735 0
-2734 144 2735 0
2735 174 -2736 0
-2735 -174 -2736 0
2735 -174 2736 0
-2735 174 2736 0
2737 2738 2739 0
-2737 -2738 0
-2737 -2739 0
-2738 -2739 0
-2730 2733 2737 0
-2730 -2733 2736 2738 0
-2730 -2733 -2736 2739 0
-2731 2733 2738 0
-2731 -2733 2736 2739 0
-2731 -2733 -2736 2737 0
-2732 2733 2739 0
-2732 -2733 2736 2737 0
-2732 -2733 -2736 2738 0
-2740 -100 0
-2740 -115 0
-2740 -148 0
-2740 -184 0
2740 100 115 148 184 0
102 117 -2741 0
-102 -117 -2741 0
102 -117 2741 0
-102 117 2741 0
2741 150 -2742 0
-2741 -150 -2742 0
2741 -150 2742 0
-2741 150 2742 0
2742 186 -2743 0
-2742 -186 -2743 0
2742 -186 2743 0
-2742 186 2743 0
2744 2745 2746 0
-2744 -2745 0
-2744 -2746 0
-2745 -2746 0
-2737 2740 2744 0
-2737 -2740 2743 2745 0
-2737 -2740 -2743 2746 0
-2738 2740 2745 0
-2738 -2740 2743 2746 0
-2738 -2740 -2743 2744 0
-2739 2740 2746 0
-2739 -2740 2743 2744 0
-2739 -2740 -2743 2745 0
-2747 -100 0
-2747 -121 0
-2747 -142 0
-2747 -184 0
2747 100 121 142 184 0
102 123 -2748 0
-102 -123 -2748 0
102 -123 2748 0
-102 123 2748 0
2748 144 -2749 0
-2748 -144 -2749 0
2748 -144 2749 0
-2748 144 2749 0
2749 186 -2750 0
-2749 -186 -2750 0
2749 -186 2750 0
-2749 186 2750 0
2751 2752 2753 0
-2751 -2752 0
-2751 -2753 0
-2752 -2753 0
-2744 2747 2751 0
-2744 -2747 2750 2752 0
-2744 -2747 -2750 2753 0
-2745 2747 2752 0
-2745 -2747 2750 2753 0
-2745 -2747 -2750 2751 0
-2746 2747 2753 0
-2746 -2747 2750 2751 0
-2746 -2747 -2750 2752 0
2751 0
2754 0
-2755 0
-2756 0
-2757 -10 0
-2757 -52 0
-2757 -172 0
-2757 -244 0
2757 10 52 172 244 0
12 54 -2758 0
-12 -54 -2758 0
12 -54 2758 0
-12 54 2758 0
2758 174 -2759 0
-2758 -174 -2759 0
2758 -174 2759 0
-2758 174 2759 0
2759 246 -2760 0
-2759 -246 -2760 0
2759 -246 2760 0
-2759 246 2760 0
2761 2762 2763 0
-2761 -2762 0
-2761 -2763 0
-2762 -2763 0
-2754 2757 2761 0
-2754 -2757 2760 2762 0
-2754 -2757 -2760 2763 0
-2755 2757 2762 0
-2755 -2757 2760 2763 0
-2755 -2757 -2760 2761 0
-2756 2757 2763 0
-2756 -2757 2760 2761 0
-2756 -2757 -2760 2762 0
-2764 -10 0
-2764 -52 0
-2764 -202 0
-2764 -235 0
2764 10 52 202 235 0
12 54 -2765 0
-12 -54 -2765 0
12 -54 2765 0
-12 54 2765 0
2765 204 -2766 0
-2765 -204 -2766 0
2765 -204 2766 0
-2765 204 2766 0
2766 237 -2767 0
-2766 -237 -2767 0
2766 -237 2767 0
-2766 237 2767 0
2768 2769 2770 0
-2768 -2769 0
-2768 -2770 0
-2769 -2770 0
-2761 2764 2768 0
-2761 -2764 2767 2769 0
-2761 -2764 -2767 2770 0
-2762 2764 2769 0
-2762 -2764 2767 2770 0
-2762 -2764 -2767 2768 0
-2763 2764 2770 0
-2763 -2764 2767 2768 0
-2763 -2764 -2767 2769 0
-2771 -10 0
-2771 -52 0
-2771 -208 0
-2771 -229 0
2771 10 52 208 229 0
12 54 -2772 0
-12 -54 -2772 0
12 -54 2772 0
-12 54 2772 0
2772 210 -2773 0
-2772 -210 -2773 0
2772 -210 2773 0
-2772 210 2773 0
2773 231 -2774 0
-2773 -231 -2774 0
2773 -231 2774 0
-2773 231 2774 0
2775 2776 2777 0
-2775 -2776 0
-2775 -2777 0
-2776 -2777 0
-2768 2771 2775 0
-2768 -2771 2774 2776 0
-2768 -2771 -2774 2777 0
-2769 2771 2776 0
-2769 -2771 2774 2777 0
-2769 -2771 -2774 2775 0
-2770 2771 2777 0
-2770 -2771 2774 2775 0
-2770 -2771 -2774 2776 0
-2778 -10 0
-2778 -79 0
-2778 -181 0
-2778 -244 0
2778 10 79 181 244 0
12 81 -2779 0
-12 -81 -2779 0
12 -81 2779 0
-12 81 2779 0
2779 183 -2780 0
-2779 -183 -2780 0
2779 -183 2780 0
-2779 183 2780 0
2780 246 -2781 0
-2780 -246 -2781 0
2780 -246 2781 0
-2780 246 2781 0
2782 2783 2784 0
-2782 -2783 0
-2782 -2784 0
-2783 -2784 0
-2775 2778 2782 0
-2775 -2778 2781 2783 0
-2775 -2778 -2781 2784 0
-2776 2778 2783 0
-2776 -2778 2781 2784 0
-2776 -2778 -2781 2782 0
-2777 2778 2784 0
-2777 -2778 2781 2782 0
-2777 -2778 -2781 2783 0
-2785 -10 0
-2785 -79 0
-2785 -208 0
-2785 -241 0
2785 10 79 208 241 0
12 81 -2786 0
-12 -81 -2786 0
12 -81 2786 0
-12 81 2786 0
2786 210 -2787 0
-2786 -210 -2787 0
2786 -210 2787 0
-2786 210 2787 0
2787 243 -2788 0
-2787 -243 -2788 0
2787 -243 2788 0
-2787 243 2788 0
2789 2790 2791 0
-2789 -2790 0
-2789 -2791 0
-2790 -2791 0
-2782 2785 2789 0
-2782 -2785 2788 2790 0
-2782 -2785 -2788 2791 0
-2783 2785 2790 0
-2783 -2785 2788 2791 0
-2783 -2785 -2788 2789 0
-2784 2785 2791 0
-2784 -2785 2788 2789 0
-2784 -2785 -2788 2790 0
-2792 -10 0
-2792 -79 0
-2792 -214 0
-2792 -235 0
2792 10 79 214 235 0
12 81 -2793 0
-12 -81 -2793 0
12 -81 2793 0
-12 81 2793 0
2793 216 -2794 0
-2793 -216 -2794 0
2793 -216 2794 0
-2793 216 2794 0
2794 237 -2795 0
-2794 -237 -2795 0
2794 -237 2795 0
-2794 237 2795 0
2796 2797 2798 0
-2796 -2797 0
-2796 -2798 0
-2797 -2798 0
-2789 2792 2796 0
-2789 -2792 2795 2797 0
-2789 -2792 -2795 2798 0
-2790 2792 2797 0
-2790 -2792 2795 2798 0
-2790 -2792 -2795 2796 0
-2791 2792 2798 0
-2791 -2792 2795 2796 0
-2791 -2792 -2795 2797 0
-2799 -10 0
-2799 -103 0
-2799 -187 0
-2799 -244 0
2799 10 103 187 244 0
12 105 -2800 0
-12 -105 -2800 0
12 -105 2800 0
-12 105 2800 0
2800 189 -2801 0
-2800 -189 -2801 0
2800 -189 2801 0
-2800 189 2801 0
2801 246 -2802 0
-2801 -246 -2802 0
2801 -246 2802 0
-2801 246 2802 0
2803 2804 2805 0
-2803 -2804 0
-2803 -2805 0
-2804 -2805 0
-2796 2799 2803 0
-2796 -2799 2802 2804 0
-2796 -2799 -2802 2805 0
-2797 2799 2804 0
-2797 -2799 2802 2805 0
-2797 -2799 -2802 2803 0
-2798 2799 2805 0
-2798 -2799 2802 2803 0
-2798 -2799 -2802 2804 0
-2806 -10 0
-2806 -103 0
-2806 -202 0
-2806 -241 0
2806 10 103 202 241 0
12 105 -2807 0
-12 -105 -2807 0
12 -105 2807 0
-12 105 2807 0
2807 204 -2808 0
-2807 -204 -2808 0
2807 -204 2808 0
-2807 204 2808 0
2808 243 -2809 0
-2808 -243 -2809 0
2808 -243 2809 0
-2808 243 2809 0
2810 2811 2812 0
-2810 -2811 0
-2810 -2812 0
-2811 -2812 0
-2803 2806 2810 0
-2803 -2806 2809 2811 0
-2803 -2806 -2809 2812 0
-2804 2806 2811 0
-2804 -2806 2809 2812 0
-2804 -2806 -2809 2810 0
-2805 2806 2812 0
-2805 -2806 2809 2810 0
-2805 -2806 -2809 2811 0
-2813 -10 0
-2813 -103 0
-2813 -214 0
-2813 -229 0
2813 10 103 214 229 0
12 105 -2814 0
-12 -105 -2814 0
12 -105 2814 0
-12 105 2814 0
2814 216 -2815 0
-2814 -216 -2815 0
2814 -216 2815 0
-2814 216 2815 0
2815 231 -2816 0
-2815 -231 -2816 0
2815 -231 2816 0
-2815 231 2816 0
2817 2818 2819 0
-2817 -2818 0
-2817 -2819 0
-2818 -2819 0
-2810 2813 2817 0
-2810 -2813 2816 2818 0
-2810 -2813 -2816 2819 0
-2811 2813 2818 0
-2811 -2813 2816 2819 0
-2811 -2813 -2816 2817 0
-2812 2813 2819 0
-2812 -2813 2816 2817 0
-2812 -2813 -2816 2818 0
-2820 -10 0
-2820 -133 0
-2820 -172 0
-2820 -241 0
2820 10 133 172 241 0
12 135 -2821 0
-12 -135 -2821 0
12 -135 2821 0
-12 135 2821 0
2821 174 -2822 0
-2821 -174 -2822 0
2821 -174 2822 0
-2821 174 2822 0
2822 243 -2823 0
-2822 -243 -2823 0
2822 -243 2823 0
-2822 243 2823 0
2824 2825 2826 0
-2824 -2825 0
-2824 -2826 0
-2825 -2826 0
-2817 2820 2824 0
-2817 -2820 2823 2825 0
-2817 -2820 -2823 2826 0
-2818 2820 2825 0
-2818 -2820 2823 2826 0
-2818 -2820 -2823 2824 0
-2819 2820 2826 0
-2819 -2820 2823 2824 0
-2819 -2820 -2823 2825 0
-2827 -10 0
-2827 -133 0
-2827 -181 0
-2827 -229 0
2827 10 133 181 229 0
12 135 -2828 0
-12 -135 -2828 0
12 -135 2828 0
-12 135 2828 0
2828 183 -2829 0
-2828 -183 -2829 0
2828 -183 2829 0
-2828 183 2829 0
2829 231 -2830 0
-2829 -231 -2830 0
2829 -231 2830 0
-2829 231 2830 0
2831 2832 2833 0
-2831 -2832 0
-2831 -2833 0
-2832 -2833 0
-2824 2827 2831 0
-2824 -2827 2830 2832 0
-2824 -2827 -2830 2833 0
-2825 2827 2832 0
-2825 -2827 2830 2833 0
-2825 -2827 -2830 2831 0
-2826 2827 2833 0
-2826 -2827 2830 2831 0
-2826 -2827 -2830 2832 0
-2834 -10 0
-2834 -133 0
-2834 -187 0
-2834 -235 0
2834 10 133 187 235 0
12 135 -2835 0
-12 -135 -2835 0
12 -135 2835 0
-12 135 2835 0
2835 189 -2836 0
-2835 -189 -2836 0
2835 -189 2836 0
-2835 189 2836 0
2836 237 -2837 0
-2836 -237 -2837 0
2836 -237 2837 0
-2836 237 2837 0
2838 2839 2840 0
-2838 -2839 0
-2838 -2840 0
-2839 -2840 0
-2831 2834 2838 0
-2831 -2834 2837 2839 0
-2831 -2834 -2837 2840 0
-2832 2834 2839 0
-2832 -2834 2837 2840 0
-2832 -2834 -2837 2838 0
-2833 2834 2840 0
-2833 -2834 2837 2838 0
-2833 -2834 -2837 2839 0
-2841 -10 0
-2841 -160 0
-2841 -172 0
-2841 -214 0
2841 10 160 172 214 0
12 162 -2842 0
-12 -162 -2842 0
12 -162 2842 0
-12 162 2842 0
2842 174 -2843 0
-2842 -174 -2843 0
2842 -174 2843 0
-2842 174 2843 0
2843 216 -2844 0
-2843 -216 -2844 0
2843 -216 2844 0
-2843 216 2844 0
2845 2846 2847 0
-2845 -2846 0
-2845 -2847 0
-2846 -2847 0
-2838 2841 2845 0
-2838 -2841 2844 2846 0
-2838 -2841 -2844 2847 0
-2839 2841 2846 0
-2839 -2841 2844 2847 0
-2839 -2841 -2844 2845 0
-2840 2841 2847 0
-2840 -2841 2844 2845 0
-2840 -2841 -2844 2846 0
-2848 -10 0
-2848 -160 0
-2848 -181 0
-2848 -202 0
2848 10 160 181 202 0
12 162 -2849 0
-12 -162 -2849 0
12 -162 2849 0
-12 162 2849 0
2849 183 -2850 0
-2849 -183 -2850 0
2849 -183 2850 0
-2849 183 2850 0
2850 204 -2851 0
-2850 -204 -2851 0
2850 -204 2851 0
-2850 204 2851 0
2852 2853 2854 0
-2852 -2853 0
-2852 -2854 0
-2853 -2854 0
-2845 2848 2852 0
-2845 -2848 2851 2853 0
-2845 -2848 -2851 2854 0
-2846 2848 2853 0
-2846 -2848 2851 2854 0
-2846 -2848 -2851 2852 0
-2847 2848 2854 0
-2847 -2848 2851 2852 0
-2847 -2848 -2851 2853 0
-2855 -10 0
-2855 -160 0
-2855 -187 0
-2855 -208 0
2855 10 160 187 208 0
12 162 -2856 0
-12 -162 -2856 0
12 -162 2856 0
-12 162 2856 0
2856 189 -2857 0
-2856 -189 -2857 0
2856 -189 2857 0
-2856 189 2857 0
2857 210 -2858 0
-2857 -210 -2858 0
2857 -210 2858 0
-2857 210 2858 0
2859 2860 2861 0
-2859 -2860 0
-2859 -2861 0
-2860 -2861 0
-2852 2855 2859 0
-2852 -2855 2858 2860 0
-2852 -2855 -2858 2861 0
-2853 2855 2860 0
-2853 -2855 2858 2861 0
-2853 -2855 -2858 2859 0
-2854 2855 2861 0
-2854 -2855 2858 2859 0
-2854 -2855 -2858 2860 0
-2862 -19 0
-2862 -40 0
-2862 -181 0
-2862 -244 0
2862 19 40 181 244 0
21 42 -2863 0
-21 -42 -2863 0
21 -42 2863 0
-21 42 2863 0
2863 183 -2864 0
-2863 -183 -2864 0
2863 -183 2864 0
-2863 183 2864 0
2864 246 -2865 0
-2864 -246 -2865 0
2864 -246 2865 0
-2864 246 2865 0
2866 2867 2868 0
-2866 -2867 0
-2866 -2868 0
-2867 -2868 0
-2859 2862 2866 0
-2859 -2862 2865 2867 0
-2859 -2862 -2865 2868 0
-2860 2862 2867 0
-2860 -2862 2865 2868 0
-2860 -2862 -2865 2866 0
-2861 2862 2868 0
-2861 -2862 2865 2866 0
-2861 -2862 -2865 2867 0
-2869 -19 0
-2869 -40 0
-2869 -208 0
-2869 -241 0
2869 19 40 208 241 0
21 42 -2870 0
-21 -42 -2870 0
21 -42 2870 0
-21 42 2870 0
2870 210 -2871 0
-2870 -210 -2871 0
2870 -210 2871 0
-2870 210 2871 0
2871 243 -2872 0
-2871 -243 -2872 0
2871 -243 2872 0
-2871 243 2872 0
2873 2874 2875 0
-2873 -2874 0
-2873 -2875 0
-2874 -2875 0
-2866 2869 2873 0
-2866 -2869 2872 2874 0
-2866 -2869 -2872 2875 0
-2867 2869 2874 0
-2867 -2869 2872 2875 0
-2867 -2869 -2872 2873 0
-2868 2869 2875 0
-2868 -2869 2872 2873 0
-2868 -2869 -2872 2874 0
-2876 -19 0
-2876 -40 0
-2876 -214 0
-2876 -235 0
2876 19 40 214 235 0
21 42 -2877 0
-21 -42 -2877 0
21 -42 2877 0
-21 42 2877 0
2877 216 -2878 0
-2877 -216 -2878 0
2877 -216 2878 0
-2877 216 2878 0
2878 237 -2879 0
-2878 -237 -2879 0
2878 -237 2879 0
-2878 237 2879 0
2880 2881 2882 0
-2880 -2881 0
-2880 -2882 0
-2881 -2882 0
-2873 2876 2880 0
-2873 -2876 2879 2881 0
-2873 -2876 -2879 2882 0
-2874 2876 2881 0
-2874 -2876 2879 2882 0
-2874 -2876 -2879 2880 0
-2875 2876 2882 0
-2875 -2876 2879 2880 0
-2875 -2876 -2879 2881 0
-2883 -19 0
-2883 -64 0
-2883 -187 0
-2883 -244 0
2883 19 64 187 244 0
21 66 -2884 0
-21 -66 -2884 0
21 -66 2884 0
-21 66 2884 0
2884 189 -2885 0
-2884 -189 -2885 0
2884 -189 2885 0
-2884 189 2885 0
2885 246 -2886 0
-2885 -246 -2886 0
2885 -246 2886 0
-2885 246 2886 0
2887 2888 2889 0
-2887 -2888 0
-2887 -2889 0
-2888 -2889 0
-2880 2883 2887 0
-2880 -2883 2886 2888 0
-2880 -2883 -2886 2889 0
-2881 2883 2888 0
-2881 -2883 2886 2889 0
-2881 -2883 -2886 2887 0
-2882 2883 2889 0
-2882 -2883 2886 2887 0
-2882 -2883 -2886 2888 0
-2890 -19 0
-2890 -64 0
-2890 -202 0
-2890 -241 0
2890 19 64 202 241 0
21 66 -2891 0
-21 -66 -2891 0
21 -66 2891 0
-21 66 2891 0
2891 204 -2892 0
-2891 -204 -2892 0
2891 -204 2892 0
-2891 204 2892 0
2892 243 -2893 0
-2892 -243 -2893 0
2892 -243 2893 0
-2892 243 2893 0
2894 2895 2896 0
-2894 -2895 0
-2894 -2896 0
-2895 -2896 0
-2887 2890 2894 0
-2887 -2890 2893 2895 0
-2887 -2890 -2893 2896 0
-2888 2890 2895 0
-2888 -2890 2893 2896 0
-2888 -2890 -2893 2894 0
-2889 2890 2896 0
-2889 -2890 2893 2894 0
-2889 -2890 -2893 2895 0
-2897 -19 0
-2897 -64 0
-2897 -214 0
-2897 -229 0
2897 19 64 214 229 0
21 66 -2898 0
-21 -66 -2898 0
21 -66 2898 0
-21 66 2898 0
2898 216 -2899 0
-2898 -216 -2899 0
2898 -216 2899 0
-2898 216 2899 0
2899 231 -2900 0
-2899 -231 -2900 0
2899 -231 2900 0
-2899 231 2900 0
2901 2902 2903 0
-2901 -2902 0
-2901 -2903 0
-2902 -2903 0
-2894 2897 2901 0
-2894 -2897 2900 2902 0
-2894 -2897 -2900 2903 0
-2895 2897 2902 0
-2895 -2897 2900 2903 0
-2895 -2897 -2900 2901 0
-2896 2897 2903 0
-2896 -2897 2900 2901 0
-2896 -2897 -2900 2902 0
-2904 -19 0
-2904 -94 0
-2904 -172 0
-2904 -244 0
2904 19 94 172 244 0
21 96 -2905 0
-21 -96 -2905 0
21 -96 2905 0
-21 96 2905 0
2905 174 -2906 0
-2905 -174 -2906 0
2905 -174 2906 0
-2905 174 2906 0
2906 246 -2907 0
-2906 -246 -2907 0
2906 -246 2907 0
-2906 246 2907 0
2908 2909 2910 0
-2908 -2909 0
-2908 -2910 0
-2909 -2910 0
-2901 2904 2908 0
-2901 -2904 2907 2909 0
-2901 -2904 -2907 2910 0
-2902 2904 2909 0
-2902 -2904 2907 2910 0
-2902 -2904 -2907 2908 0
-2903 2904 2910 0
-2903 -2904 2907 2908 0
-2903 -2904 -2907 2909 0
-2911 -19 0
-2911 -94 0
-2911 -202 0
-2911 -235 0
2911 19 94 202 235 0
21 96 -2912 0
-21 -96 -2912 0
21 -96 2912 0
-21 96 2912 0
2912 204 -2913 0
-2912 -204 -2913 0
2912 -204 2913 0
-2912 204 2913 0
2913 237 -2914 0
-2913 -237 -2914 0
2913 -237 2914 0
-2913 237 2914 0
2915 2916 2917 0
-2915 -2916 0
-2915 -2917 0
-2916 -2917 0
-2908 2911 2915 0
-2908 -2911 2914 2916 0
-2908 -2911 -2914 2917 0
-2909 2911 2916 0
-2909 -2911 2914 2917 0
-2909 -2911 -2914 2915 0
-2910 2911 2917 0
-2910 -2911 2914 2915 0
-2910 -2911 -2914 2916 0
-2918 -19 0
-2918 -94 0
-2918 -208 0
-2918 -229 0
2918 19 94 208 229 0
21 96 -2919 0
-21 -96 -2919 0
21 -96 2919 0
-21 96 2919 0
2919 210 -2920 0
-2919 -210 -2920 0
2919 -210 2920 0
-2919 210 2920 0
2920 231 -2921 0
-2920 -231 -2921 0
2920 -231 2921 0
-2920 231 2921 0
2922 2923 2924 0
-2922 -2923 0
-2922 -2924 0
-2923 -2924 0
-2915 2918 2922 0
-2915 -2918 2921 2923 0
-2915 -2918 -2921 2924 0
-2916 2918 2923 0
-2916 -2918 2921 2924 0
-2916 -2918 -2921 2922 0
-2917 2918 2924 0
-2917 -2918 2921 2922 0
-2917 -2918 -2921 2923 0
-2925 -19 0
-2925 -121 0
-2925 -172 0
-2925 -241 0
2925 19 121 172 241 0
21 123 -2926 0
-21 -123 -2926 0
21 -123 2926 0
-21 123 2926 0
2926 174 -2927 0
-2926 -174 -2927 0
2926 -174 2927 0
-2926 174 2927 0
2927 243 -2928 0
-2927 -243 -2928 0
2927 -243 2928 0
-2927 243 2928 0
2929 2930 2931 0
-2929 -2930 0
-2929 -2931 0
-2930 -2931 0
-2922 2925 2929 0
-2922 -2925 2928 2930 0
-2922 -2925 -2928 2931 0
-2923 2925 2930 0
-2923 -2925 2928 2931 0
-2923 -2925 -2928 2929 0
-2924 2925 2931 0
-2924 -2925 2928 2929 0
-2924 -2925 -2928 2930 0
-2932 -19 0
-2932 -121 0
-2932 -181 0
-2932 -229 0
2932 19 121 181 229 0
21 123 -2933 0
-21 -123 -2933 0
21 -123 2933 0
-21 123 2933 0
2933 183 -2934 0
-2933 -183 -2934 0
2933 -183 2934 0
-2933 183 2934 0
2934 231 -2935 0
-2934 -231 -2935 0
2934 -231 2935 0
-2934 231 2935 0
2936 2937 2938 0
-2936 -2937 0
-2936 -2938 0
-2937 -2938 0
-2929 2932 2936 0
-2929 -2932 2935 2937 0
-2929 -2932 -2935 2938 0
-2930 2932 2937 0
-2930 -2932 2935 2938 0
-2930 -2932 -2935 2936 0
-2931 2932 2938 0
-2931 -2932 2935 2936 0
-2931 -2932 -2935 2937 0
-2939 -19 0
-2939 -121 0
-2939 -187 0
-2939 -235 0
2939 19 121 187 235 0
21 123 -2940 0
-21 -123 -2940 0
21 -123 2940 0
-21 123 2940 0
2940 189 -2941 0
-2940 -189 -2941 0
2940 -189 2941 0
-2940 189 2941 0
2941 237 -2942 0
-2941 -237 -2942 0
2941 -237 2942 0
-2941 237 2942 0
2943 2944 2945 0
-2943 -2944 0
-2943 -2945 0
-2944 -2945 0
-2936 2939 2943 0
-2936 -2939 2942 2944 0
-2936 -2939 -2942 2945 0
-2937 2939 2944 0
-2937 -2939 2942 2945 0
-2937 -2939 -2942 2943 0
-2938 2939 2945 0
-2938 -2939 2942 2943 0
-2938 -2939 -2942 2944 0
-2946 -19 0
-2946 -148 0
-2946 -172 0
-2946 -214 0
2946 19 148 172 214 0
21 150 -2947 0
-21 -150 -2947 0
21 -150 2947 0
-21 150 2947 0
2947 174 -2948 0
-2947 -174 -2948 0
2947 -174 2948 0
-2947 174 2948 0
2948 216 -2949 0
-2948 -216 -2949 0
2948 -216 2949 0
-2948 216 2949 0
2950 2951 2952 0
-2950 -2951 0
-2950 -2952 0
-2951 -2952 0
-2943 2946 2950 0
-2943 -2946 2949 2951 0
-2943 -2946 -2949 2952 0
-2944 2946 2951 0
-2944 -2946 2949 2952 0
-2944 -2946 -2949 2950 0
-2945 2946 2952 0
-2945 -2946 2949 2950 0
-2945 -2946 -2949 2951 0
-2953 -19 0
-2953 -148 0
-2953 -181 0
-2953 -202 0
2953 19 148 181 202 0
21 150 -2954 0
-21 -150 -2954 0
21 -150 2954 0
-21 150 2954 0
2954 183 -2955 0
-2954 -183 -2955 0
2954 -183 2955 0
-2954 183 2955 0
2955 204 -2956 0
-2955 -204 -2956 0
2955 -204 2956 0
-2955 204 2956 0
2957 2958 2959 0
-2957 -2958 0
-2957 -2959 0
-2958 -2959 0
-2950 2953 2957 0
-2950 -2953 2956 2958 0
-2950 -2953 -2956 2959 0
-2951 2953 2958 0
-2951 -2953 2956 2959 0
-2951 -2953 -2956 2957 0
-2952 2953 2959 0
-2952 -2953 2956 2957 0
-2952 -2953 -2956 2958 0
-2960 -19 0
-2960 -148 0
-2960 -187 0
-2960 -208 0
2960 19 148 187 208 0
21 150 -2961 0
-21 -150 -2961 0
21 -150 2961 0
-21 150 2961 0
2961 189 -2962 0
-2961 -189 -2962 0
2961 -189 2962 0
-2961 189 2962 0
2962 210 -2963 0
-2962 -210 -2963 0
2962 -210 2963 0
-2962 210 2963 0
2964 2965 2966 0
-2964 -2965 0
-2964 -2966 0
-2965 -2966 0
-2957 2960 2964 0
-2957 -2960 2963 2965 0
-2957 -2960 -2963 2966 0
-2958 2960 2965 0
-2958 -2960 2963 2966 0
-2958 -2960 -2963 2964 0
-2959 2960 2966 0
-2959 -2960 2963 2964 0
-2959 -2960 -2963 2965 0
-2967 -25 0
-2967 -52 0
-2967 -187 0
-2967 -244 0
2967 25 52 187 244 0
27 54 -2968 0
-27 -54 -2968 0
27 -54 2968 0
-27 54 2968 0
2968 189 -2969 0
-2968 -189 -2969 0
2968 -189 2969 0
-2968 189 2969 0
2969 246 -2970 0
-2969 -246 -2970 0
2969 -246 2970 0
-2969 246 2970 0
2971 2972 2973 0
-2971 -2972 0
-2971 -2973 0
-2972 -2973 0
-2964 2967 2971 0
-2964 -2967 2970 2972 0
-2964 -2967 -2970 2973 0
-2965 2967 2972 0
-2965 -2967 2970 2973 0
-2965 -2967 -2970 2971 0
-2966 2967 2973 0
-2966 -2967 2970 2971 0
-2966 -2967 -2970 2972 0
-2974 -25 0
-2974 -52 0
-2974 -202 0
-2974 -241 0
2974 25 52 202 241 0
27 54 -2975 0
-27 -54 -2975 0
27 -54 2975 0
-27 54 2975 0
2975 204 -2976 0
-2975 -204 -2976 0
2975 -204 2976 0
-2975 204 2976 0
2976 243 -2977 0
-2976 -243 -2977 0
2976 -243 2977 0
-2976 243 2977 0
2978 2979 2980 0
-2978 -2979 0
-2978 -2980 0
-2979 -2980 0
-2971 2974 2978 0
-2971 -2974 2977 2979 0
-2971 -2974 -2977 2980 0
-2972 2974 2979 0
-2972 -2974 2977 2980 0
-2972 -2974 -2977 2978 0
-2973 2974 2980 0
-2973 -2974 2977 2978 0
-2973 -2974 -2977 2979 0
-2981 -25 0
-2981 -52 0
-2981 -214 0
-2981 -229 0
2981 25 52 214 229 0
27 54 -2982 0
-27 -54 -2982 0
27 -54 2982 0
-27 54 2982 0
2982 216 -2983 0
-2982 -216 -2983 0
2982 -216 2983 0
-2982 216 2983 0
2983 231 -2984 0
-2983 -231 -2984 0
2983 -231 2984 0
-2983 231 2984 0
2985 2986 2987 0
-2985 -2986 0
-2985 -2987 0
-2986 -2987 0
-2978 2981 2985 0
-2978 -2981 2984 2986 0
-2978 -2981 -2984 2987 0
-2979 2981 2986 0
-2979 -2981 2984 2987 0
-2979 -2981 -2984 2985 0
-2980 2981 2987 0
-2980 -2981 2984 2985 0
-2980 -2981 -2984 2986 0
-2988 -25 0
-2988 -73 0
-2988 -172 0
-2988 -244 0
2988 25 73 172 244 0
27 75 -2989 0
-27 -75 -2989 0
27 -75 2989 0
-27 75 2989 0
2989 174 -2990 0
-2989 -174 -2990 0
2989 -174 2990 0
-2989 174 2990 0
2990 246 -2991 0
-2990 -246 -2991 0
2990 -246 2991 0
-2990 246 2991 0
2992 2993 2994 0
-2992 -2993 0
-2992 -2994 0
-2993 -2994 0
-2985 2988 2992 0
-2985 -2988 2991 2993 0
-2985 -2988 -2991 2994 0
-2986 2988 2993 0
-2986 -2988 2991 2994 0
-2986 -2988 -2991 2992 0
-2987 2988 2994 0
-2987 -2988 2991 2992 0
-2987 -2988 -2991 2993 0
-2995 -25 0
-2995 -73 0
-2995 -202 0
-2995 -235 0
2995 25 73 202 235 0
27 75 -2996 0
-27 -75 -2996 0
27 -75 2996 0
-27 75 2996 0
2996 204 -2997 0
-2996 -204 -2997 0
2996 -204 2997 0
-2996 204 2997 0
2997 237 -2998 0
-2997 -237 -2998 0
2997 -237 2998 0
-2997 237 2998 0
2999 3000 3001 0
-2999 -3000 0
-2999 -3001 0
-3000 -3001 0
-2992 2995 2999 0
-2992 -2995 2998 3000 0
-2992 -2995 -2998 3001 0
-2993 2995 3000 0
-2993 -2995 2998 3001 0
-2993 -2995 -2998 2999 0
-2994 2995 3001 0
-2994 -2995 2998 2999 0
-2994 -2995 -2998 3000 0
-3002 -25 0
-3002 -73 0
-3002 -208 0
-3002 -229 0
3002 25 73 208 229 0
27 75 -3003 0
-27 -75 -3003 0
27 -75 3003 0
-27 75 3003 0
3003 210 -3004 0
-3003 -210 -3004 0
3003 -210 3004 0
-3003 210 3004 0
3004 231 -3005 0
-3004 -231 -3005 0
3004 -231 3005 0
-3004 231 3005 0
3006 3007 3008 0
-3006 -3007 0
-3006 -3008 0
-3007 -3008 0
-2999 3002 3006 0
-2999 -3002 3005 3007 0
-2999 -3002 -3005 3008 0
-3000 3002 3007 0
-3000 -3002 3005 3008 0
-3000 -3002 -3005 3006 0
-3001 3002 3008 0
-3001 -3002 3005 3006 0
-3001 -3002 -3005 3007 0
-3009 -25 0
-3009 -100 0
-3009 -181 0
-3009 -244 0
3009 25 100 181 244 0
27 102 -3010 0
-27 -102 -3010 0
27 -102 3010 0
-27 102 3010 0
3010 183 -3011 0
-3010 -183 -3011 0
3010 -183 3011 0
-3010 183 3011 0
3011 246 -3012 0
-3011 -246 -3012 0
3011 -246 3012 0
-3011 246 3012 0
3013 3014 3015 0
-3013 -3014 0
-3013 -3015 0
-3014 -3015 0
-3006 3009 3013 0
-3006 -3009 3012 3014 0
-3006 -3009 -3012 3015 0
-3007 3009 3014 0
-3007 -3009 3012 3015 0
-3007 -3009 -3012 3013 0
-3008 3009 3015 0
-3008 -3009 3012 3013 0
-3008 -3009 -3012 3014 0
-3016 -25 0
-3016 -100 0
-3016 -208 0
-3016 -241 0
3016 25 100 208 241 0
27 102 -3017 0
-27 -102 -3017 0
27 -102 3017 0
-27 102 3017 0
3017 210 -3018 0
-3017 -210 -3018 0
3017 -210 3018 0
-3017 210 3018 0
3018 243 -3019 0
-3018 -243 -3019 0
3018 -243 3019 0
-3018 243 3019 0
3020 3021 3022 0
-3020 -3021 0
-3020 -3022 0
-3021 -3022 0
-3013 3016 3020 0
-3013 -3016 3019 3021 0
-3013 -3016 -3019 3022 0
-3014 3016 3021 0
-3014 -3016 3019 3022 0
-3014 -3016 -3019 3020 0
-3015 3016 3022 0
-3015 -3016 3019 3020 0
-3015 -3016 -3019 3021 0
-3023 -25 0
-3023 -100 0
-3023 -214 0
-3023 -235 0
3023 25 100 214 235 0
27 102 -3024 0
-27 -102 -3024 0
27 -102 3024 0
-27 102 3024 0
3024 216 -3025 0
-3024 -216 -3025 0
3024 -216 3025 0
-3024 216 3025 0
3025 237 -3026 0
-3025 -237 -3026 0
3025 -237 3026 0
-3025 237 3026 0
3027 3028 3029 0
-3027 -3028 0
-3027 -3029 0
-3028 -3029 0
-3020 3023 3027 0
-3020 -3023 3026 3028 0
-3020 -3023 -3026 3029 0
-3021 3023 3028 0
-3021 -3023 3026 3029 0
-3021 -3023 -3026 3027 0
-3022 3023 3029 0
-3022 -3023 3026 3027 0
-3022 -3023 -3026 3028 0
-3030 -25 0
-3030 -127 0
-3030 -172 0
-3030 -241 0
3030 25 127 172 241 0
27 129 -3031 0
-27 -129 -3031 0
27 -129 3031 0
-27 129 3031 0
3031 174 -3032 0
-3031 -174 -3032 0
3031 -174 3032 0
-3031 174 3032 0
3032 243 -3033 0
-3032 -243 -3033 0
3032 -243 3033 0
-3032 243 3033 0
3034 3035 3036 0
-3034 -3035 0
-3034 -3036 0
-3035 -3036 0
-3027 3030 3034 0
-3027 -3030 3033 3035 0
-3027 -3030 -3033 3036 0
-3028 3030 3035 0
-3028 -3030 3033 3036 0
-3028 -3030 -3033 3034 0
-3029 3030 3036 0
-3029 -3030 3033 3034 0
-3029 -3030 -3033 3035 0
-3037 -25 0
-3037 -127 0
-3037 -181 0
-3037 -229 0
3037 25 127 181 229 0
27 129 -3038 0
-27 -129 -3038 0
27 -129 3038 0
-27 129 3038 0
3038 183 -3039 0
-3038 -183 -3039 0
3038 -183 3039 0
-3038 183 3039 0
3039 231 -3040 0
-3039 -231 -3040 0
3039 -231 3040 0
-3039 231 3040 0
3041 3042 3043 0
-3041 -3042 0
-3041 -3043 0
-3042 -3043 0
-3034 3037 3041 0
-3034 -3037 3040 3042 0
-3034 -3037 -3040 3043 0
-3035 3037 3042 0
-3035 -3037 3040 3043 0
-3035 -3037 -3040 3041 0
-3036 3037 3043 0
-3036 -3037 3040 3041 0
-3036 -3037 -3040 3042 0
-3044 -25 0
-3044 -127 0
-3044 -187 0
-3044 -235 0
3044 25 127 187 235 0
27 129 -3045 0
-27 -129 -3045 0
27 -129 3045 0
-27 129 3045 0
3045 189 -3046 0
-3045 -189 -3046 0
3045 -189 3046 0
-3045 189 3046 0
3046 237 -3047 0
-3046 -237 -3047 0
3046 -237 3047 0
-3046 237 3047 0
3048 3049 3050 0
-3048 -3049 0
-3048 -3050 0
-3049 -3050 0
-3041 3044 3048 0
-3041 -3044 3047 3049 0
-3041 -3044 -3047 3050 0
-3042 3044 3049 0
-3042 -3044 3047 3050 0
-3042 -3044 -3047 3048 0
-3043 3044 3050 0
-3043 -3044 3047 3048 0
-3043 -3044 -3047 3049 0
-3051 -25 0
-3051 -154 0
-3051 -172 0
-3051 -214 0
3051 25 154 172 214 0
27 156 -3052 0
-27 -156 -3052 0
27 -156 3052 0
-27 156 3052 0
3052 174 -3053 0
-3052 -174 -3053 0
3052 -174 3053 0
-3052 174 3053 0
3053 216 -3054 0
-3053 -216 -3054 0
3053 -216 3054 0
-3053 216 3054 0
3055 3056 3057 0
-3055 -3056 0
-3055 -3057 0
-3056 -3057 0
-3048 3051 3055 0
-3048 -3051 3054 3056 0
-3048 -3051 -3054 3057 0
-3049 3051 3056 0
-3049 -3051 3054 3057 0
-3049 -3051 -3054 3055 0
-3050 3051 3057 0
-3050 -3051 3054 3055 0
-3050 -3051 -3054 3056 0
-3058 -25 0
-3058 -154 0
-3058 -181 0
-3058 -202 0
3058 25 154 181 202 0
27 156 -3059 0
-27 -156 -3059 0
27 -156 3059 0
-27 156 3059 0
3059 183 -3060 0
-3059 -183 -3060 0
3059 -183 3060 0
-3059 183 3060 0
3060 204 -3061 0
-3060 -204 -3061 0
3060 -204 3061 0
-3060 204 3061 0
3062 3063 3064 0
-3062 -3063 0
-3062 -3064 0
-3063 -3064 0
-3055 3058 3062 0
-3055 -3058 3061 3063 0
-3055 -3058 -3061 3064 0
-3056 3058 3063 0
-3056 -3058 3061 3064 0
-3056 -3058 -3061 3062 0
-3057 3058 3064 0
-3057 -3058 3061 3062 0
-3057 -3058 -3061 3063 0
-3065 -25 0
-3065 -154 0
-3065 -187 0
-3065 -208 0
3065 25 154 187 208 0
27 156 -3066 0
-27 -156 -3066 0
27 -156 3066 0
-27 156 3066 0
3066 189 -3067 0
-3066 -189 -3067 0
3066 -189 3067 0
-3066 189 3067 0
3067 210 -3068 0
-3067 -210 -3068 0
3067 -210 3068 0
-3067 210 3068 0
3069 3070 3071 0
-3069 -3070 0
-3069 -3071 0
-3070 -3071 0
-3062 3065 3069 0
-3062 -3065 3068 3070 0
-3062 -3065 -3068 3071 0
-3063 3065 3070 0
-3063 -3065 3068 3071 0
-3063 -3065 -3068 3069 0
-3064 3065 3071 0
-3064 -3065 3068 3069 0
-3064 -3065 -3068 3070 0
-3072 -40 0
-3072 -52 0
-3072 -52 0
-3072 -244 0
3072 40 52 52 244 0
42 54 -3073 0
-42 -54 -3073 0
42 -54 3073 0
-42 54 3073 0
3073 54 -3074 0
-3073 -54 -3074 0
3073 -54 3074 0
-3073 54 3074 0
3074 246 -3075 0
-3074 -246 -3075 0
3074 -246 3075 0
-3074 246 3075 0
3076 3077 3078 0
-3076 -3077 0
-3076 -3078 0
-3077 -3078 0
-3069 3072 3076 0
-3069 -3072 3075 3077 0
-3069 -3072 -3075 3078 0
-3070 3072 3077 0
-3070 -3072 3075 3078 0
-3070 -3072 -3075 3076 0
-3071 3072 3078 0
-3071 -3072 3075 3076 0
-3071 -3072 -3075 3077 0
-3079 -40 0
-3079 -52 0
-3079 -127 0
-3079 -235 0
3079 40 52 127 235 0
42 54 -3080 0
-42 -54 -3080 0
42 -54 3080 0
-42 54 3080 0
3080 129 -3081 0
-3080 -129 -3081 0
3080 -129 3081 0
-3080 129 3081 0
3081 237 -3082 0
-3081 -237 -3082 0
3081 -237 3082 0
-3081 237 3082 0
3083 3084 3085 0
-3083 -3084 0
-3083 -3085 0
-3084 -3085 0
-3076 3079 3083 0
-3076 -3079 3082 3084 0
-3076 -3079 -3082 3085 0
-3077 3079 3084 0
-3077 -3079 3082 3085 0
-3077 -3079 -3082 3083 0
-3078 3079 3085 0
-3078 -3079 3082 3083 0
-3078 -3079 -3082 3084 0
-3086 -40 0
-3086 -52 0
-3086 -133 0
-3086 -241 0
3086 40 52 133 241 0
42 54 -3087 0
-42 -54 -3087 0
42 -54 3087 0
-42 54 3087 0
3087 135 -3088 0
-3087 -135 -3088 0
3087 -135 3088 0
-3087 135 3088 0
3088 243 -3089 0
-3088 -243 -3089 0
3088 -243 3089 0
-3088 243 3089 0
3090 3091 3092 0
-3090 -3091 0
-3090 -3092 0
-3091 -3092 0
-3083 3086 3090 0
-3083 -3086 3089 3091 0
-3083 -3086 -3089 3092 0
-3084 3086 3091 0
-3084 -3086 3089 3092 0
-3084 -3086 -3089 3090 0
-3085 3086 3092 0
-3085 -3086 3089 3090 0
-3085 -3086 -3089 3091 0
-3093 -40 0
-3093 -52 0
-3093 -154 0
-3093 -208 0
3093 40 52 154 208 0
42 54 -3094 0
-42 -54 -3094 0
42 -54 3094 0
-42 54 3094 0
3094 156 -3095 0
-3094 -156 -3095 0
3094 -156 3095 0
-3094 156 3095 0
3095 210 -3096 0
-3095 -210 -3096 0
3095 -210 3096 0
-3095 210 3096 0
3097 3098 3099 0
-3097 -3098 0
-3097 -3099 0
-3098 -3099 0
-3090 3093 3097 0
-3090 -3093 3096 3098 0
-3090 -3093 -3096 3099 0
-3091 3093 3098 0
-3091 -3093 3096 3099 0
-3091 -3093 -3096 3097 0
-3092 3093 3099 0
-3092 -3093 3096 3097 0
-3092 -3093 -3096 3098 0
-3100 -40 0
-3100 -52 0
-3100 -160 0
-3100 -214 0
3100 40 52 160 214 0
42 54 -3101 0
-42 -54 -3101 0
42 -54 3101 0
-42 54 3101 0
3101 162 -3102 0
-3101 -162 -3102 0
3101 -162 3102 0
-3101 162 3102 0
3102 216 -3103 0
-3102 -216 -3103 0
3102 -216 3103 0
-3102 216 3103 0
3104 3105 3106 0
-3104 -3105 0
-3104 -3106 0
-3105 -3106 0
-3097 3100 3104 0
-3097 -3100 3103 3105 0
-3097 -3100 -3103 3106 0
-3098 3100 3105 0
-3098 -3100 3103 3106 0
-3098 -3100 -3103 3104 0
-3099 3100 3106 0
-3099 -3100 3103 3104 0
-3099 -3100 -3103 3105 0
-3107 -40 0
-3107 -73 0
-3107 -103 0
-3107 -244 0
3107 40 73 103 244 0
42 75 -3108 0
-42 -75 -3108 0
42 -75 3108 0
-42 75 3108 0
3108 105 -3109 0
-3108 -105 -3109 0
3108 -105 3109 0
-3108 105 3109 0
3109 246 -3110 0
-3109 -246 -3110 0
3109 -246 3110 0
-3109 246 3110 0
3111 3112 3113 0
-3111 -3112 0
-3111 -3113 0
-3112 -3113 0
-3104 3107 3111 0
-3104 -3107 3110 3112 0
-3104 -3107 -3110 3113 0
-3105 3107 3112 0
-3105 -3107 3110 3113 0
-3105 -3107 -3110 3111 0
-3106 3107 3113 0
-3106 -3107 3110 3111 0
-3106 -3107 -3110 3112 0
-3114 -40 0
-3114 -73 0
-3114 -133 0
-3114 -235 0
3114 40 73 133 235 0
42 75 -3115 0
-42 -75 -3115 0
42 -75 3115 0
-42 75 3115 0
3115 135 -3116 0
-3115 -135 -3116 0
3115 -135 3116 0
-3115 135 3116 0
3116 237 -3117 0
-3116 -237 -3117 0
3116 -237 3117 0
-3116 237 3117 0
3118 3119 3120 0
-3118 -3119 0
-3118 -3120 0
-3119 -3120 0
-3111 3114 3118 0
-3111 -3114 3117 3119 0
-3111 -3114 -3117 3120 0
-3112 3114 3119 0
-3112 -3114 3117 3120 0
-3112 -3114 -3117 3118 0
-3113 3114 3120 0
-3113 -3114 3117 3118 0
-3113 -3114 -3117 3119 0
-3121 -40 0
-3121 -73 0
-3121 -160 0
-3121 -208 0
3121 40 73 160 208 0
42 75 -3122 0
-42 -75 -3122 0
42 -75 3122 0
-42 75 3122 0
3122 162 -3123 0
-3122 -162 -3123 0
3122 -162 3123 0
-3122 162 3123 0
3123 210 -3124 0
-3123 -210 -3124 0
3123 -210 3124 0
-3123 210 3124 0
3125 3126 3127 0
-3125 -3126 0
-3125 -3127 0
-3126 -3127 0
-3118 3121 3125 0
-3118 -3121 3124 3126 0
-3118 -3121 -3124 3127 0
-3119 3121 3126 0
-3119 -3121 3124 3127 0
-3119 -3121 -3124 3125 0
-3120 3121 3127 0
-3120 -3121 3124 3125 0
-3120 -3121 -3124 3126 0
-3128 -40 0
-3128 -103 0
-3128 -127 0
-3128 -241 0
3128 40 103 127 241 0
42 105 -3129 0
-42 -105 -3129 0
42 -105 3129 0
-42 105 3129 0
3129 129 -3130 0
-3129 -129 -3130 0
3129 -129 3130 0
-3129 129 3130 0
3130 243 -3131 0
-3130 -243 -3131 0
3130 -243 3131 0
-3130 243 3131 0
3132 3133 3134 0
-3132 -3133 0
-3132 -3134 0
-3133 -3134 0
-3125 3128 3132 0
-3125 -3128 3131 3133 0
-3125 -3128 -3131 3134 0
-3126 3128 3133 0
-3126 -3128 3131 3134 0
-3126 -3128 -3131 3132 0
-3127 3128 3134 0
-3127 -3128 3131 3132 0
-3127 -3128 -3131 3133 0
-3135 -40 0
-3135 -103 0
-3135 -154 0
-3135 -214 0
3135 40 103 154 214 0
42 105 -3136 0
-42 -105 -3136 0
42 -105 3136 0
-42 105 3136 0
3136 156 -3137 0
-3136 -156 -3137 0
3136 -156 3137 0
-3136 156 3137 0
3137 216 -3138 0
-3137 -216 -3138 0
3137 -216 3138 0
-3137 216 3138 0
3139 3140 3141 0
-3139 -3140 0
-3139 -3141 0
-3140 -3141 0
-3132 3135 3139 0
-3132 -3135 3138 3140 0
-3132 -3135 -3138 3141 0
-3133 3135 3140 0
-3133 -3135 3138 3141 0
-3133 -3135 -3138 3139 0
-3134 3135 3141 0
-3134 -3135 3138 3139 0
-3134 -3135 -3138 3140 0
-3142 -40 0
-3142 -127 0
-3142 -160 0
-3142 -181 0
3142 40 127 160 181 0
42 129 -3143 0
-42 -129 -3143 0
42 -129 3143 0
-42 129 3143 0
3143 162 -3144 0
-3143 -162 -3144 0
3143 -162 3144 0
-3143 162 3144 0
3144 183 -3145 0
-3144 -183 -3145 0
3144 -183 3145 0
-3144 183 3145 0
3146 3147 3148 0
-3146 -3147 0
-3146 -3148 0
-3147 -3148 0
-3139 3142 3146 0
-3139 -3142 3145 3147 0
-3139 -3142 -3145 3148 0
-3140 3142 3147 0
-3140 -3142 3145 3148 0
-3140 -3142 -3145 3146 0
-3141 3142 3148 0
-3141 -3142 3145 3146 0
-3141 -3142 -3145 3147 0
-3149 -40 0
-3149 -133 0
-3149 -154 0
-3149 -181 0
3149 40 133 154 181 0
42 135 -3150 0
-42 -135 -3150 0
42 -135 3150 0
-42 135 3150 0
3150 156 -3151 0
-3150 -156 -3151 0
3150 -156 3151 0
-3150 156 3151 0
3151 183 -3152 0
-3151 -183 -3152 0
3151 -183 3152 0
-3151 183 3152 0
3153 3154 3155 0
-3153 -3154 0
-3153 -3155 0
-3154 -3155 0
-3146 3149 3153 0
-3146 -3149 3152 3154 0
-3146 -3149 -3152 3155 0
-3147 3149 3154 0
-3147 -3149 3152 3155 0
-3147 -3149 -3152 3153 0
-3148 3149 3155 0
-3148 -3149 3152 3153 0
-3148 -3149 -3152 3154 0
-3156 -52 0
-3156 -52 0
-3156 -121 0
-3156 -229 0
3156 52 52 121 229 0
54 54 -3157 0
-54 -54 -3157 0
54 -54 3157 0
-54 54 3157 0
3157 123 -3158 0
-3157 -123 -3158 0
3157 -123 3158 0
-3157 123 3158 0
3158 231 -3159 0
-3158 -231 -3159 0
3158 -231 3159 0
-3158 231 3159 0
3160 3161 3162 0
-3160 -3161 0
-3160 -3162 0
-3161 -3162 0
-3153 3156 3160 0
-3153 -3156 3159 3161 0
-3153 -3156 -3159 3162 0
-3154 3156 3161 0
-3154 -3156 3159 3162 0
-3154 -3156 -3159 3160 0
-3155 3156 3162 0
-3155 -3156 3159 3160 0
-3155 -3156 -3159 3161 0
-3163 -52 0
-3163 -52 0
-3163 -148 0
-3163 -202 0
3163 52 52 148 202 0
54 54 -3164 0
-54 -54 -3164 0
54 -54 3164 0
-54 54 3164 0
3164 150 -3165 0
-3164 -150 -3165 0
3164 -150 3165 0
-3164 150 3165 0
3165 204 -3166 0
-3165 -204 -3166 0
3165 -204 3166 0
-3165 204 3166 0
3167 3168 3169 0
-3167 -3168 0
-3167 -3169 0
-3168 -3169 0
-3160 3163 3167 0
-3160 -3163 3166 3168 0
-3160 -3163 -3166 3169 0
-3161 3163 3168 0
-3161 -3163 3166 3169 0
-3161 -3163 -3166 3167 0
-3162 3163 3169 0
-3162 -3163 3166 3167 0
-3162 -3163 -3166 3168 0
-3170 -52 0
-3170 -64 0
-3170 -100 0
-3170 -244 0
3170 52 64 100 244 0
54 66 -3171 0
-54 -66 -3171 0
54 -66 3171 0
-54 66 3171 0
3171 102 -3172 0
-3171 -102 -3172 0
3171 -102 3172 0
-3171 102 3172 0
3172 246 -3173 0
-3172 -246 -3173 0
3172 -246 3173 0
-3172 246 3173 0
3174 3175 3176 0
-3174 -3175 0
-3174 -3176 0
-3175 -3176 0
-3167 3170 3174 0
-3167 -3170 3173 3175 0
-3167 -3170 -3173 3176 0
-3168 3170 3175 0
-3168 -3170 3173 3176 0
-3168 -3170 -3173 3174 0
-3169 3170 3176 0
-3169 -3170 3173 3174 0
-3169 -3170 -3173 3175 0
-3177 -52 0
-3177 -64 0
-3177 -127 0
-3177 -229 0
3177 52 64 127 229 0
54 66 -3178 0
-54 -66 -3178 0
54 -66 3178 0
-54 66 3178 0
3178 129 -3179 0
-3178 -129 -3179 0
3178 -129 3179 0
-3178 129 3179 0
3179 231 -3180 0
-3179 -231 -3180 0
3179 -231 3180 0
-3179 231 3180 0
3181 3182 3183 0
-3181 -3182 0
-3181 -3183 0
-3182 -3183 0
-3174 3177 3181 0
-3174 -3177 3180 3182 0
-3174 -3177 -3180 3183 0
-3175 3177 3182 0
-3175 -3177 3180 3183 0
-3175 -3177 -3180 3181 0
-3176 3177 3183 0
-3176 -3177 3180 3181 0
-3176 -3177 -3180 3182 0
-3184 -52 0
-3184 -64 0
-3184 -154 0
-3184 -202 0
3184 52 64 154 202 0
54 66 -3185 0
-54 -66 -3185 0
54 -66 3185 0
-54 66 3185 0
3185 156 -3186 0
-3185 -156 -3186 0
3185 -156 3186 0
-3185 156 3186 0
3186 204 -3187 0
-3186 -204 -3187 0
3186 -204 3187 0
-3186 204 3187 0
3188 3189 3190 0
-3188 -3189 0
-3188 -3190 0
-3189 -3190 0
-3181 3184 3188 0
-3181 -3184 3187 3189 0
-3181 -3184 -3187 3190 0
-3182 3184 3189 0
-3182 -3184 3187 3190 0
-3182 -3184 -3187 3188 0
-3183 3184 3190 0
-3183 -3184 3187 3188 0
-3183 -3184 -3187 3189 0
-3191 -52 0
-3191 -79 0
-3191 -94 0
-3191 -244 0
3191 52 79 94 244 0
54 81 -3192 0
-54 -81 -3192 0
54 -81 3192 0
-54 81 3192 0
3192 96 -3193 0
-3192 -96 -3193 0
3192 -96 3193 0
-3192 96 3193 0
3193 246 -3194 0
-3193 -246 -3194 0
3193 -246 3194 0
-3193 246 3194 0
3195 3196 3197 0
-3195 -3196 0
-3195 -3197 0
-3196 -3197 0
-3188 3191 3195 0
-3188 -3191 3194 3196 0
-3188 -3191 -3194 3197 0
-3189 3191 3196 0
-3189 -3191 3194 3197 0
-3189 -3191 -3194 3195 0
-3190 3191 3197 0
-3190 -3191 3194 3195 0
-3190 -3191 -3194 3196 0
-3198 -52 0
-3198 -79 0
-3198 -121 0
-3198 -241 0
3198 52 79 121 241 0
54 81 -3199 0
-54 -81 -3199 0
54 -81 3199 0
-54 81 3199 0
3199 123 -3200 0
-3199 -123 -3200 0
3199 -123 3200 0
-3199 123 3200 0
3200 243 -3201 0
-3200 -243 -3201 0
3200 -243 3201 0
-3200 243 3201 0
3202 3203 3204 0
-3202 -3203 0
-3202 -3204 0
-3203 -3204 0
-3195 3198 3202 0
-3195 -3198 3201 3203 0
-3195 -3198 -3201 3204 0
-3196 3198 3203 0
-3196 -3198 3201 3204 0
-3196 -3198 -3201 3202 0
-3197 3198 3204 0
-3197 -3198 3201 3202 0
-3197 -3198 -3201 3203 0
-3205 -52 0
-3205 -79 0
-3205 -148 0
-3205 -214 0
3205 52 79 148 214 0
54 81 -3206 0
-54 -81 -3206 0
54 -81 3206 0
-54 81 3206 0
3206 150 -3207 0
-3206 -150 -3207 0
3206 -150 3207 0
-3206 150 3207 0
3207 216 -3208 0
-3207 -216 -3208 0
3207 -216 3208 0
-3207 216 3208 0
3209 3210 3211 0
-3209 -3210 0
-3209 -3211 0
-3210 -3211 0
-3202 3205 3209 0
-3202 -3205 3208 3210 0
-3202 -3205 -3208 3211 0
-3203 3205 3210 0
-3203 -3205 3208 3211 0
-3203 -3205 -3208 3209 0
-3204 3205 3211 0
-3204 -3205 3208 3209 0
-3204 -3205 -3208 3210 0
-3212 -52 0
-3212 -94 0
-3212 -133 0
-3212 -229 0
3212 52 94 133 229 0
54 96 -3213 0
-54 -96 -3213 0
54 -96 3213 0
-54 96 3213 0
3213 135 -3214 0
-3213 -135 -3214 0
3213 -135 3214 0
-3213 135 3214 0
3214 231 -3215 0
-3214 -231 -3215 0
3214 -231 3215 0
-3214 231 3215 0
3216 3217 3218 0
-3216 -3217 0
-3216 -3218 0
-3217 -3218 0
-3209 3212 3216 0
-3209 -3212 3215 3217 0
-3209 -3212 -3215 3218 0
-3210 3212 3217 0
-3210 -3212 3215 3218 0
-3210 -3212 -3215 3216 0
-3211 3212 3218 0
-3211 -3212 3215 3216 0
-3211 -3212 -3215 3217 0
-3219 -52 0
-3219 -94 0
-3219 -160 0
-3219 -202 0
3219 52 94 160 202 0
54 96 -3220 0
-54 -96 -3220 0
54 -96 3220 0
-54 96 3220 0
3220 162 -3221 0
-3220 -162 -3221 0
3220 -162 3221 0
-3220 162 3221 0
3221 204 -3222 0
-3221 -204 -3222 0
3221 -204 3222 0
-3221 204 3222 0
3223 3224 3225 0
-3223 -3224 0
-3223 -3225 0
-3224 -3225 0
-3216 3219 3223 0
-3216 -3219 3222 3224 0
-3216 -3219 -3222 3225 0
-3217 3219 3224 0
-3217 -3219 3222 3225 0
-3217 -3219 -3222 3223 0
-3218 3219 3225 0
-3218 -3219 3222 3223 0
-3218 -3219 -3222 3224 0
-3226 -52 0
-3226 -100 0
-3226 -121 0
-3226 -235 0
3226 52 100 121 235 0
54 102 -3227 0
-54 -102 -3227 0
54 -102 3227 0
-54 102 3227 0
3227 123 -3228 0
-3227 -123 -3228 0
3227 -123 3228 0
-3227 123 3228 0
3228 237 -3229 0
-3228 -237 -3229 0
3228 -237 3229 0
-3228 237 3229 0
3230 3231 3232 0
-3230 -3231 0
-3230 -3232 0
-3231 -3232 0
-3223 3226 3230 0
-3223 -3226 3229 3231 0
-3223 -3226 -3229 3232 0
-3224 3226 3231 0
-3224 -3226 3229 3232 0
-3224 -3226 -3229 3230 0
-3225 3226 3232 0
-3225 -3226 3229 3230 0
-3225 -3226 -3229 3231 0
-3233 -52 0
-3233 -100 0
-3233 -148 0
-3233 -208 0
3233 52 100 148 208 0
54 102 -3234 0
-54 -102 -3234 0
54 -102 3234 0
-54 102 3234 0
3234 150 -3235 0
-3234 -150 -3235 0
3234 -150 3235 0
-3234 150 3235 0
3235 210 -3236 0
-3235 -210 -3236 0
3235 -210 3236 0
-3235 210 3236 0
3237 3238 3239 0
-3237 -3238 0
-3237 -3239 0
-3238 -3239 0
-3230 3233 3237 0
-3230 -3233 3236 3238 0
-3230 -3233 -3236 3239 0
-3231 3233 3238 0
-3231 -3233 3236 3239 0
-3231 -3233 -3236 3237 0
-3232 3233 3239 0
-3232 -3233 3236 3237 0
-3232 -3233 -3236 3238 0
-3240 -52 0
-3240 -121 0
-3240 -154 0
-3240 -172 0
3240 52 121 154 172 0
54 123 -3241 0
-54 -123 -3241 0
54 -123 3241 0
-54 123 3241 0
3241 156 -3242 0
-3241 -156 -3242 0
3241 -156 3242 0
-3241 156 3242 0
3242 174 -3243 0
-3242 -174 -3243 0
3242 -174 3243 0
-3242 174 3243 0
3244 3245 3246 0
-3244 -3245 0
-3244 -3246 0
-3245 -3246 0
-3237 3240 3244 0
-3237 -3240 3243 3245 0
-3237 -3240 -3243 3246 0
-3238 3240 3245 0
-3238 -3240 3243 3246 0
-3238 -3240 -3243 3244 0
-3239 3240 3246 0
-3239 -3240 3243 3244 0
-3239 -3240 -3243 3245 0
-3247 -52 0
-3247 -121 0
-3247 -160 0
-3247 -187 0
3247 52 121 160 187 0
54 123 -3248 0
-54 -123 -3248 0
54 -123 3248 0
-54 123 3248 0
3248 162 -3249 0
-3248 -162 -3249 0
3248 -162 3249 0
-3248 162 3249 0
3249 189 -3250 0
-3249 -189 -3250 0
3249 -189 3250 0
-3249 189 3250 0
3251 3252 3253 0
-3251 -3252 0
-3251 -3253 0
-3252 -3253 0
-3244 3247 3251 0
-3244 -3247 3250 3252 0
-3244 -3247 -3250 3253 0
-3245 3247 3252 0
-3245 -3247 3250 3253 0
-3245 -3247 -3250 3251 0
-3246 3247 3253 0
-3246 -3247 3250 3251 0
-3246 -3247 -3250 3252 0
-3254 -52 0
-3254 -127 0
-3254 -148 0
-3254 -172 0
3254 52 127 148 172 0
54 129 -3255 0
-54 -129 -3255 0
54 -129 3255 0
-54 129 3255 0
3255 150 -3256 0
-3255 -150 -3256 0
3255 -150 3256 0
-3255 150 3256 0
3256 174 -3257 0
-3256 -174 -3257 0
3256 -174 3257 0
-3256 174 3257 0
3258 3259 3260 0
-3258 -3259 0
-3258 -3260 0
-3259 -3260 0
-3251 3254 3258 0
-3251 -3254 3257 3259 0
-3251 -3254 -3257 3260 0
-3252 3254 3259 0
-3252 -3254 3257 3260 0
-3252 -3254 -3257 3258 0
-3253 3254 3260 0
-3253 -3254 3257 3258 0
-3253 -3254 -3257 3259 0
-3261 -52 0
-3261 -133 0
-3261 -148 0
-3261 -187 0
3261 52 133 148 187 0
54 135 -3262 0
-54 -135 -3262 0
54 -135 3262 0
-54 135 3262 0
3262 150 -3263 0
-3262 -150 -3263 0
3262 -150 3263 0
-3262 150 3263 0
3263 189 -3264 0
-3263 -189 -3264 0
3263 -189 3264 0
-3263 189 3264 0
3265 3266 3267 0
-3265 -3266 0
-3265 -3267 0
-3266 -3267 0
-3258 3261 3265 0
-3258 -3261 3264 3266 0
-3258 -3261 -3264 3267 0
-3259 3261 3266 0
-3259 -3261 3264 3267 0
-3259 -3261 -3264 3265 0
-3260 3261 3267 0
-3260 -3261 3264 3265 0
-3260 -3261 -3264 3266 0
-3268 -64 0
-3268 -73 0
-3268 -79 0
-3268 -244 0
3268 64 73 79 244 0
66 75 -3269 0
-66 -75 -3269 0
66 -75 3269 0
-66 75 3269 0
3269 81 -3270 0
-3269 -81 -3270 0
3269 -81 3270 0
-3269 81 3270 0
3270 246 -3271 0
-3270 -246 -3271 0
3270 -246 3271 0
-3270 246 3271 0
3272 3273 3274 0
-3272 -3273 0
-3272 -3274 0
-3273 -3274 0
-3265 3268 3272 0
-3265 -3268 3271 3273 0
-3265 -3268 -3271 3274 0
-3266 3268 3273 0
-3266 -3268 3271 3274 0
-3266 -3268 -3271 3272 0
-3267 3268 3274 0
-3267 -3268 3271 3272 0
-3267 -3268 -3271 3273 0
-3275 -64 0
-3275 -73 0
-3275 -133 0
-3275 -229 0
3275 64 73 133 229 0
66 75 -3276 0
-66 -75 -3276 0
66 -75 3276 0
-66 75 3276 0
3276 135 -3277 0
-3276 -135 -3277 0
3276 -135 3277 0
-3276 135 3277 0
3277 231 -3278 0
-3277 -231 -3278 0
3277 -231 3278 0
-3277 231 3278 0
3279 3280 3281 0
-3279 -3280 0
-3279 -3281 0
-3280 -3281 0
-3272 3275 3279 0
-3272 -3275 3278 3280 0
-3272 -3275 -3278 3281 0
-3273 3275 3280 0
-3273 -3275 3278 3281 0
-3273 -3275 -3278 3279 0
-3274 3275 3281 0
-3274 -3275 3278 3279 0
-3274 -3275 -3278 3280 0
-3282 -64 0
-3282 -73 0
-3282 -160 0
-3282 -202 0
3282 64 73 160 202 0
66 75 -3283 0
-66 -75 -3283 0
66 -75 3283 0
-66 75 3283 0
3283 162 -3284 0
-3283 -162 -3284 0
3283 -162 3284 0
-3283 162 3284 0
3284 204 -3285 0
-3284 -204 -3285 0
3284 -204 3285 0
-3284 204 3285 0
3286 3287 3288 0
-3286 -3287 0
-3286 -3288 0
-3287 -3288 0
-3279 3282 3286 0
-3279 -3282 3285 3287 0
-3279 -3282 -3285 3288 0
-3280 3282 3287 0
-3280 -3282 3285 3288 0
-3280 -3282 -3285 3286 0
-3281 3282 3288 0
-3281 -3282 3285 3286 0
-3281 -3282 -3285 3287 0
-3289 -64 0
-3289 -79 0
-3289 -127 0
-3289 -241 0
3289 64 79 127 241 0
66 81 -3290 0
-66 -81 -3290 0
66 -81 3290 0
-66 81 3290 0
3290 129 -3291 0
-3290 -129 -3291 0
3290 -129 3291 0
-3290 129 3291 0
3291 243 -3292 0
-3291 -243 -3292 0
3291 -243 3292 0
-3291 243 3292 0
3293 3294 3295 0
-3293 -3294 0
-3293 -3295 0
-3294 -3295 0
-3286 3289 3293 0
-3286 -3289 3292 3294 0
-3286 -3289 -3292 3295 0
-3287 3289 3294 0
-3287 -3289 3292 3295 0
-3287 -3289 -3292 3293 0
-3288 3289 3295 0
-3288 -3289 3292 3293 0
-3288 -3289 -3292 3294 0
-3296 -64 0
-3296 -79 0
-3296 -154 0
-3296 -214 0
3296 64 79 154 214 0
66 81 -3297 0
-66 -81 -3297 0
66 -81 3297 0
-66 81 3297 0
3297 156 -3298 0
-3297 -156 -3298 0
3297 -156 3298 0
-3297 156 3298 0
3298 216 -3299 0
-3298 -216 -3299 0
3298 -216 3299 0
-3298 216 3299 0
3300 3301 3302 0
-3300 -3301 0
-3300 -3302 0
-3301 -3302 0
-3293 3296 3300 0
-3293 -3296 3299 3301 0
-3293 -3296 -3299 3302 0
-3294 3296 3301 0
-3294 -3296 3299 3302 0
-3294 -3296 -3299 3300 0
-3295 3296 3302 0
-3295 -3296 3299 3300 0
-3295 -3296 -3299 3301 0
-3303 -64 0
-3303 -100 0
-3303 -133 0
-3303 -241 0
3303 64 100 133 241 0
66 102 -3304 0
-66 -102 -3304 0
66 -102 3304 0
-66 102 3304 0
3304 135 -3305 0
-3304 -135 -3305 0
3304 -135 3305 0
-3304 135 3305 0
3305 243 -3306 0
-3305 -243 -3306 0
3305 -243 3306 0
-3305 243 3306 0
3307 3308 3309 0
-3307 -3308 0
-3307 -3309 0
-3308 -3309 0
-3300 3303 3307 0
-3300 -3303 3306 3308 0
-3300 -3303 -3306 3309 0
-3301 3303 3308 0
-3301 -3303 3306 3309 0
-3301 -3303 -3306 3307 0
-3302 3303 3309 0
-3302 -3303 3306 3307 0
-3302 -3303 -3306 3308 0
-3310 -64 0
-3310 -100 0
-3310 -160 0
-3310 -214 0
3310 64 100 160 214 0
66 102 -3311 0
-66 -102 -3311 0
66 -102 3311 0
-66 102 3311 0
3311 162 -3312 0
-3311 -162 -3312 0
3311 -162 3312 0
-3311 162 3312 0
3312 216 -3313 0
-3312 -216 -3313 0
3312 -216 3313 0
-3312 216 3313 0
3314 3315 3316 0
-3314 -3315 0
-3314 -3316 0
-3315 -3316 0
-3307 3310 3314 0
-3307 -3310 3313 3315 0
-3307 -3310 -3313 3316 0
-3308 3310 3315 0
-3308 -3310 3313 3316 0
-3308 -3310 -3313 3314 0
-3309 3310 3316 0
-3309 -3310 3313 3314 0
-3309 -3310 -3313 3315 0
-3317 -64 0
-3317 -127 0
-3317 -160 0
-3317 -187 0
3317 64 127 160 187 0
66 129 -3318 0
-66 -129 -3318 0
66 -129 3318 0
-66 129 3318 0
3318 162 -3319 0
-3318 -162 -3319 0
3318 -162 3319 0
-3318 162 3319 0
3319 189 -3320 0
-3319 -189 -3320 0
3319 -189 3320 0
-3319 189 3320 0
3321 3322 3323 0
-3321 -3322 0
-3321 -3323 0
-3322 -3323 0
-3314 3317 3321 0
-3314 -3317 3320 3322 0
-3314 -3317 -3320 3323 0
-3315 3317 3322 0
-3315 -3317 3320 3323 0
-3315 -3317 -3320 3321 0
-3316 3317 3323 0
-3316 -3317 3320 3321 0
-3316 -3317 -3320 3322 0
-3324 -64 0
-3324 -133 0
-3324 -154 0
-3324 -187 0
3324 64 133 154 187 0
66 135 -3325 0
-66 -135 -3325 0
66 -135 3325 0
-66 135 3325 0
3325 156 -3326 0
-3325 -156 -3326 0
3325 -156 3326 0
-3325 156 3326 0
3326 189 -3327 0
-3326 -189 -3327 0
3326 -189 3327 0
-3326 189 3327 0
3328 3329 3330 0
-3328 -3329 0
-3328 -3330 0
-3329 -3330 0
-3321 3324 3328 0
-3321 -3324 3327 3329 0
-3321 -3324 -3327 3330 0
-3322 3324 3329 0
-3322 -3324 3327 3330 0
-3322 -3324 -3327 3328 0
-3323 3324 3330 0
-3323 -3324 3327 3328 0
-3323 -3324 -3327 3329 0
-3331 -73 0
-3331 -79 0
-3331 -121 0
-3331 -235 0
3331 73 79 121 235 0
75 81 -3332 0
-75 -81 -3332 0
75 -81 3332 0
-75 81 3332 0
3332 123 -3333 0
-3332 -123 -3333 0
3332 -123 3333 0
-3332 123 3333 0
3333 237 -3334 0
-3333 -237 -3334 0
3333 -237 3334 0
-3333 237 3334 0
3335 3336 3337 0
-3335 -3336 0
-3335 -3337 0
-3336 -3337 0
-3328 3331 3335 0
-3328 -3331 3334 3336 0
-3328 -3331 -3334 3337 0
-3329 3331 3336 0
-3329 -3331 3334 3337 0
-3329 -3331 -3334 3335 0
-3330 3331 3337 0
-3330 -3331 3334 3335 0
-3330 -3331 -3334 3336 0
-3338 -73 0
-3338 -79 0
-3338 -148 0
-3338 -208 0
3338 73 79 148 208 0
75 81 -3339 0
-75 -81 -3339 0
75 -81 3339 0
-75 81 3339 0
3339 150 -3340 0
-3339 -150 -3340 0
3339 -150 3340 0
-3339 150 3340 0
3340 210 -3341 0
-3340 -210 -3341 0
3340 -210 3341 0
-3340 210 3341 0
3342 3343 3344 0
-3342 -3343 0
-3342 -3344 0
-3343 -3344 0
-3335 3338 3342 0
-3335 -3338 3341 3343 0
-3335 -3338 -3341 3344 0
-3336 3338 3343 0
-3336 -3338 3341 3344 0
-3336 -3338 -3341 3342 0
-3337 3338 3344 0
-3337 -3338 3341 3342 0
-3337 -3338 -3341 3343 0
-3345 -73 0
-3345 -103 0
-3345 -121 0
-3345 -229 0
3345 73 103 121 229 0
75 105 -3346 0
-75 -105 -3346 0
75 -105 3346 0
-75 105 3346 0
3346 123 -3347 0
-3346 -123 -3347 0
3346 -123 3347 0
-3346 123 3347 0
3347 231 -3348 0
-3347 -231 -3348 0
3347 -231 3348 0
-3347 231 3348 0
3349 3350 3351 0
-3349 -3350 0
-3349 -3351 0
-3350 -3351 0
-3342 3345 3349 0
-3342 -3345 3348 3350 0
-3342 -3345 -3348 3351 0
-3343 3345 3350 0
-3343 -3345 3348 3351 0
-3343 -3345 -3348 3349 0
-3344 3345 3351 0
-3344 -3345 3348 3349 0
-3344 -3345 -3348 3350 0
-3352 -73 0
-3352 -103 0
-3352 -148 0
-3352 -202 0
3352 73 103 148 202 0
75 105 -3353 0
-75 -105 -3353 0
75 -105 3353 0
-75 105 3353 0
3353 150 -3354 0
-3353 -150 -3354 0
3353 -150 3354 0
-3353 150 3354 0
3354 204 -3355 0
-3354 -204 -3355 0
3354 -204 3355 0
-3354 204 3355 0
3356 3357 3358 0
-3356 -3357 0
-3356 -3358 0
-3357 -3358 0
-3349 3352 3356 0
-3349 -3352 3355 3357 0
-3349 -3352 -3355 3358 0
-3350 3352 3357 0
-3350 -3352 3355 3358 0
-3350 -3352 -3355 3356 0
-3351 3352 3358 0
-3351 -3352 3355 3356 0
-3351 -3352 -3355 3357 0
-3359 -73 0
-3359 -121 0
-3359 -160 0
-3359 -172 0
3359 73 121 160 172 0
75 123 -3360 0
-75 -123 -3360 0
75 -123 3360 0
-75 123 3360 0
3360 162 -3361 0
-3360 -162 -3361 0
3360 -162 3361 0
-3360 162 3361 0
3361 174 -3362 0
-3361 -174 -3362 0
3361 -174 3362 0
-3361 174 3362 0
3363 3364 3365 0
-3363 -3364 0
-3363 -3365 0
-3364 -3365 0
-3356 3359 3363 0
-3356 -3359 3362 3364 0
-3356 -3359 -3362 3365 0
-3357 3359 3364 0
-3357 -3359 3362 3365 0
-3357 -3359 -3362 3363 0
-3358 3359 3365 0
-3358 -3359 3362 3363 0
-3358 -3359 -3362 3364 0
-3366 -73 0
-3366 -133 0
-3366 -148 0
-3366 -172 0
3366 73 133 148 172 0
75 135 -3367 0
-75 -135 -3367 0
75 -135 3367 0
-75 135 3367 0
3367 150 -3368 0
-3367 -150 -3368 0
3367 -150 3368 0
-3367 150 3368 0
3368 174 -3369 0
-3368 -174 -3369 0
3368 -174 3369 0
-3368 174 3369 0
3370 3371 3372 0
-3370 -3371 0
-3370 -3372 0
-3371 -3372 0
-3363 3366 3370 0
-3363 -3366 3369 3371 0
-3363 -3366 -3369 3372 0
-3364 3366 3371 0
-3364 -3366 3369 3372 0
-3364 -3366 -3369 3370 0
-3365 3366 3372 0
-3365 -3366 3369 3370 0
-3365 -3366 -3369 3371 0
-3373 -79 0
-3373 -94 0
-3373 -127 0
-3373 -235 0
3373 79 94 127 235 0
81 96 -3374 0
-81 -96 -3374 0
81 -96 3374 0
-81 96 3374 0
3374 129 -3375 0
-3374 -129 -3375 0
3374 -129 3375 0
-3374 129 3375 0
3375 237 -3376 0
-3375 -237 -3376 0
3375 -237 3376 0
-3375 237 3376 0
3377 3378 3379 0
-3377 -3378 0
-3377 -3379 0
-3378 -3379 0
-3370 3373 3377 0
-3370 -3373 3376 3378 0
-3370 -3373 -3376 3379 0
-3371 3373 3378 0
-3371 -3373 3376 3379 0
-3371 -3373 -3376 3377 0
-3372 3373 3379 0
-3372 -3373 3376 3377 0
-3372 -3373 -3376 3378 0
-3380 -79 0
-3380 -94 0
-3380 -154 0
-3380 -208 0
3380 79 94 154 208 0
81 96 -3381 0
-81 -96 -3381 0
81 -96 3381 0
-81 96 3381 0
3381 156 -3382 0
-3381 -156 -3382 0
3381 -156 3382 0
-3381 156 3382 0
3382 210 -3383 0
-3382 -210 -3383 0
3382 -210 3383 0
-3382 210 3383 0
3384 3385 3386 0
-3384 -3385 0
-3384 -3386 0
-3385 -3386 0
-3377 3380 3384 0
-3377 -3380 3383 3385 0
-3377 -3380 -3383 3386 0
-3378 3380 3385 0
-3378 -3380 3383 3386 0
-3378 -3380 -3383 3384 0
-3379 3380 3386 0
-3379 -3380 3383 3384 0
-3379 -3380 -3383 3385 0
-3387 -79 0
-3387 -121 0
-3387 -154 0
-3387 -181 0
3387 79 121 154 181 0
81 123 -3388 0
-81 -123 -3388 0
81 -123 3388 0
-81 123 3388 0
3388 156 -3389 0
-3388 -156 -3389 0
3388 -156 3389 0
-3388 156 3389 0
3389 183 -3390 0
-3389 -183 -3390 0
3389 -183 3390 0
-3389 183 3390 0
3391 3392 3393 0
-3391 -3392 0
-3391 -3393 0
-3392 -3393 0
-3384 3387 3391 0
-3384 -3387 3390 3392 0
-3384 -3387 -3390 3393 0
-3385 3387 3392 0
-3385 -3387 3390 3393 0
-3385 -3387 -3390 3391 0
-3386 3387 3393 0
-3386 -3387 3390 3391 0
-3386 -3387 -3390 3392 0
-3394 -79 0
-3394 -127 0
-3394 -148 0
-3394 -181 0
3394 79 127 148 181 0
81 129 -3395 0
-81 -129 -3395 0
81 -129 3395 0
-81 129 3395 0
3395 150 -3396 0
-3395 -150 -3396 0
3395 -150 3396 0
-3395 150 3396 0
3396 183 -3397 0
-3396 -183 -3397 0
3396 -183 3397 0
-3396 183 3397 0
3398 3399 3400 0
-3398 -3399 0
-3398 -3400 0
-3399 -3400 0
-3391 3394 3398 0
-3391 -3394 3397 3399 0
-3391 -3394 -3397 3400 0
-3392 3394 3399 0
-3392 -3394 3397 3400 0
-3392 -3394 -3397 3398 0
-3393 3394 3400 0
-3393 -3394 3397 3398 0
-3393 -3394 -3397 3399 0
-3401 -94 0
-3401 -100 0
-3401 -103 0
-3401 -244 0
3401 94 100 103 244 0
96 102 -3402 0
-96 -102 -3402 0
96 -102 3402 0
-96 102 3402 0
3402 105 -3403 0
-3402 -105 -3403 0
3402 -105 3403 0
-3402 105 3403 0
3403 246 -3404 0
-3403 -246 -3404 0
3403 -246 3404 0
-3403 246 3404 0
3405 3406 3407 0
-3405 -3406 0
-3405 -3407 0
-3406 -3407 0
-3398 3401 3405 0
-3398 -3401 3404 3406 0
-3398 -3401 -3404 3407 0
-3399 3401 3406 0
-3399 -3401 3404 3407 0
-3399 -3401 -3404 3405 0
-3400 3401 3407 0
-3400 -3401 3404 3405 0
-3400 -3401 -3404 3406 0
-3408 -94 0
-3408 -100 0
-3408 -133 0
-3408 -235 0
3408 94 100 133 235 0
96 102 -3409 0
-96 -102 -3409 0
96 -102 3409 0
-96 102 3409 0
3409 135 -3410 0
-3409 -135 -3410 0
3409 -135 3410 0
-3409 135 3410 0
3410 237 -3411 0
-3410 -237 -3411 0
3410 -237 3411 0
-3410 237 3411 0
3412 3413 3414 0
-3412 -3413 0
-3412 -3414 0
-3413 -3414 0
-3405 3408 3412 0
-3405 -3408 3411 3413 0
-3405 -3408 -3411 3414 0
-3406 3408 3413 0
-3406 -3408 3411 3414 0
-3406 -3408 -3411 3412 0
-3407 3408 3414 0
-3407 -3408 3411 3412 0
-3407 -3408 -3411 3413 0
-3415 -94 0
-3415 -100 0
-3415 -160 0
-3415 -208 0
3415 94 100 160 208 0
96 102 -3416 0
-96 -102 -3416 0
96 -102 3416 0
-96 102 3416 0
3416 162 -3417 0
-3416 -162 -3417 0
3416 -162 3417 0
-3416 162 3417 0
3417 210 -3418 0
-3417 -210 -3418 0
3417 -210 3418 0
-3417 210 3418 0
3419 3420 3421 0
-3419 -3420 0
-3419 -3421 0
-3420 -3421 0
-3412 3415 3419 0
-3412 -3415 3418 3420 0
-3412 -3415 -3418 3421 0
-3413 3415 3420 0
-3413 -3415 3418 3421 0
-3413 -3415 -3418 3419 0
-3414 3415 3421 0
-3414 -3415 3418 3419 0
-3414 -3415 -3418 3420 0
-3422 -94 0
-3422 -103 0
-3422 -127 0
-3422 -229 0
3422 94 103 127 229 0
96 105 -3423 0
-96 -105 -3423 0
96 -105 3423 0
-96 105 3423 0
3423 129 -3424 0
-3423 -129 -3424 0
3423 -129 3424 0
-3423 129 3424 0
3424 231 -3425 0
-3424 -231 -3425 0
3424 -231 3425 0
-3424 231 3425 0
3426 3427 3428 0
-3426 -3427 0
-3426 -3428 0
-3427 -3428 0
-3419 3422 3426 0
-3419 -3422 3425 3427 0
-3419 -3422 -3425 3428 0
-3420 3422 3427 0
-3420 -3422 3425 3428 0
-3420 -3422 -3425 3426 0
-3421 3422 3428 0
-3421 -3422 3425 3426 0
-3421 -3422 -3425 3427 0
-3429 -94 0
-3429 -103 0
-3429 -154 0
-3429 -202 0
3429 94 103 154 202 0
96 105 -3430 0
-96 -105 -3430 0
96 -105 3430 0
-96 105 3430 0
3430 156 -3431 0
-3430 -156 -3431 0
3430 -156 3431 0
-3430 156 3431 0
3431 204 -3432 0
-3431 -204 -3432 0
3431 -204 3432 0
-3431 204 3432 0
3433 3434 3435 0
-3433 -3434 0
-3433 -3435 0
-3434 -3435 0
-3426 3429 3433 0
-3426 -3429 3432 3434 0
-3426 -3429 -3432 3435 0
-3427 3429 3434 0
-3427 -3429 3432 3435 0
-3427 -3429 -3432 3433 0
-3428 3429 3435 0
-3428 -3429 3432 3433 0
-3428 -3429 -3432 3434 0
-3436 -94 0
-3436 -127 0
-3436 -160 0
-3436 -172 0
3436 94 127 160 172 0
96 129 -3437 0
-96 -129 -3437 0
96 -129 3437 0
-96 129 3437 0
3437 162 -3438 0
-3437 -162 -3438 0
3437 -162 3438 0
-3437 162 3438 0
3438 174 -3439 0
-3438 -174 -3439 0
3438 -174 3439 0
-3438 174 3439 0
3440 3441 3442 0
-3440 -3441 0
-3440 -3442 0
-3441 -3442 0
-3433 3436 3440 0
-3433 -3436 3439 3441 0
-3433 -3436 -3439 3442 0
-3434 3436 3441 0
-3434 -3436 3439 3442 0
-3434 -3436 -3439 3440 0
-3435 3436 3442 0
-3435 -3436 3439 3440 0
-3435 -3436 -3439 3441 0
-3443 -94 0
-3443 -133 0
-3443 -154 0
-3443 -172 0
3443 94 133 154 172 0
96 135 -3444 0
-96 -135 -3444 0
96 -135 3444 0
-96 135 3444 0
3444 156 -3445 0
-3444 -156 -3445 0
3444 -156 3445 0
-3444 156 3445 0
3445 174 -3446 0
-3445 -174 -3446 0
3445 -174 3446 0
-3445 174 3446 0
3447 3448 3449 0
-3447 -3448 0
-3447 -3449 0
-3448 -3449 0
-3440 3443 3447 0
-3440 -3443 3446 3448 0
-3440 -3443 -3446 3449 0
-3441 3443 3448 0
-3441 -3443 3446 3449 0
-3441 -3443 -3446 3447 0
-3442 3443 3449 0
-3442 -3443 3446 3447 0
-3442 -3443 -3446 3448 0
-3450 -100 0
-3450 -103 0
-3450 -121 0
-3450 -241 0
3450 100 103 121 241 0
102 105 -3451 0
-102 -105 -3451 0
102 -105 3451 0
-102 105 3451 0
3451 123 -3452 0
-3451 -123 -3452 0
3451 -123 3452 0
-3451 123 3452 0
3452 243 -3453 0
-3452 -243 -3453 0
3452 -243 3453 0
-3452 243 3453 0
3454 3455 3456 0
-3454 -3455 0
-3454 -3456 0
-3455 -3456 0
-3447 3450 3454 0
-3447 -3450 3453 3455 0
-3447 -3450 -3453 3456 0
-3448 3450 3455 0
-3448 -3450 3453 3456 0
-3448 -3450 -3453 3454 0
-3449 3450 3456 0
-3449 -3450 3453 3454 0
-3449 -3450 -3453 3455 0
-3457 -100 0
-3457 -103 0
-3457 -148 0
-3457 -214 0
3457 100 103 148 214 0
102 105 -3458 0
-102 -105 -3458 0
102 -105 3458 0
-102 105 3458 0
3458 150 -3459 0
-3458 -150 -3459 0
3458 -150 3459 0
-3458 150 3459 0
3459 216 -3460 0
-3459 -216 -3460 0
3459 -216 3460 0
-3459 216 3460 0
3461 3462 3463 0
-3461 -3462 0
-3461 -3463 0
-3462 -3463 0
-3454 3457 3461 0
-3454 -3457 3460 3462 0
-3454 -3457 -3460 3463 0
-3455 3457 3462 0
-3455 -3457 3460 3463 0
-3455 -3457 -3460 3461 0
-3456 3457 3463 0
-3456 -3457 3460 3461 0
-3456 -3457 -3460 3462 0
-3464 -100 0
-3464 -121 0
-3464 -160 0
-3464 -181 0
3464 100 121 160 181 0
102 123 -3465 0
-102 -123 -3465 0
102 -123 3465 0
-102 123 3465 0
3465 162 -3466 0
-3465 -162 -3466 0
3465 -162 3466 0
-3465 162 3466 0
3466 183 -3467 0
-3466 -183 -3467 0
3466 -183 3467 0
-3466 183 3467 0
3468 3469 3470 0
-3468 -3469 0
-3468 -3470 0
-3469 -3470 0
-3461 3464 3468 0
-3461 -3464 3467 3469 0
-3461 -3464 -3467 3470 0
-3462 3464 3469 0
-3462 -3464 3467 3470 0
-3462 -3464 -3467 3468 0
-3463 3464 3470 0
-3463 -3464 3467 3468 0
-3463 -3464 -3467 3469 0
-3471 -100 0
-3471 -133 0
-3471 -148 0
-3471 -181 0
3471 100 133 148 181 0
102 135 -3472 0
-102 -135 -3472 0
102 -135 3472 0
-102 135 3472 0
3472 150 -3473 0
-3472 -150 -3473 0
3472 -150 3473 0
-3472 150 3473 0
3473 183 -3474 0
-3473 -183 -3474 0
3473 -183 3474 0
-3473 183 3474 0
3475 3476 3477 0
-3475 -3476 0
-3475 -3477 0
-3476 -3477 0
-3468 3471 3475 0
-3468 -3471 3474 3476 0
-3468 -3471 -3474 3477 0
-3469 3471 3476 0
-3469 -3471 3474 3477 0
-3469 -3471 -3474 3475 0
-3470 3471 3477 0
-3470 -3471 3474 3475 0
-3470 -3471 -3474 3476 0
-3478 -103 0
-3478 -121 0
-3478 -154 0
-3478 -187 0
3478 103 121 154 187 0
105 123 -3479 0
-105 -123 -3479 0
105 -123 3479 0
-105 123 3479 0
3479 156 -3480 0
-3479 -156 -3480 0
3479 -156 3480 0
-3479 156 3480 0
3480 189 -3481 0
-3480 -189 -3481 0
3480 -189 3481 0
-3480 189 3481 0
3482 3483 3484 0
-3482 -3483 0
-3482 -3484 0
-3483 -3484 0
-3475 3478 3482 0
-3475 -3478 3481 3483 0
-3475 -3478 -3481 3484 0
-3476 3478 3483 0
-3476 -3478 3481 3484 0
-3476 -3478 -3481 3482 0
-3477 3478 3484 0
-3477 -3478 3481 3482 0
-3477 -3478 -3481 3483 0
-3485 -103 0
-3485 -127 0
-3485 -148 0
-3485 -187 0
3485 103 127 148 187 0
105 129 -3486 0
-105 -129 -3486 0
105 -129 3486 0
-105 129 3486 0
3486 150 -3487 0
-3486 -150 -3487 0
3486 -150 3487 0
-3486 150 3487 0
3487 189 -3488 0
-3487 -189 -3488 0
3487 -189 3488 0
-3487 189 3488 0
3489 3490 3491 0
-3489 -3490 0
-3489 -3491 0
-3490 -3491 0
-3482 3485 3489 0
-3482 -3485 3488 3490 0
-3482 -3485 -3488 3491 0
-3483 3485 3490 0
-3483 -3485 3488 3491 0
-3483 -3485 -3488 3489 0
-3484 3485 3491 0
-3484 -3485 3488 3489 0
-3484 -3485 -3488 3490 0
3489 0
29 0
53 0
122 0
-229 0
