p cnf 5592 747
128 0
256 0
-421 3 0
-422 5 0
-423 7 0
-15 423 422 421 0
-553 7 0
-554 11 0
-554 21 0
-555 19 0
-555 13 0
-31 553 554 555 0
-590 17 0
-591 15 0
-592 19 0
-593 12 0
-594 8 0
-32 593 590 591 592 594 0
-703 7 0
-704 11 0
-704 37 0
-705 35 0
13 -705 0
703 -47 705 704 0
-715 47 0
-716 3 0
-717 5 0
-718 40 0
-719 33 0
-48 718 716 717 715 719 0
7 -805 0
-805 49 0
-806 19 0
-806 37 0
-807 35 0
-807 21 0
807 806 805 -55 0
-834 7 0
-913 13 0
-914 21 0
-915 25 0
913 914 -61 915 0
-925 61 0
-926 5 0
-927 54 0
-928 17 0
-929 33 0
-62 927 926 925 928 929 0
-955 3 0
-956 5 0
-957 55 0
-958 17 0
-959 33 0
-63 957 956 955 958 959 0
-1123 7 0
-1124 69 0
-1125 67 0
1125 -79 1124 1123 0
-1145 3 0
-1146 77 0
-1147 7 0
-1148 70 0
-1149 67 0
-80 1149 1145 1148 1146 1147 0
-1177 3 0
-1178 17 0
-1179 65 0
-83 1177 1178 1179 0
-1225 7 0
-1226 19 0
-1226 69 0
-1227 67 0
-1227 21 0
1225 1226 -87 1227 0
-1252 5 0
-1253 83 0
7 -1254 0
-1255 21 0
-1255 68 0
-1256 69 0
-1256 20 0
1254 -88 1252 1253 1256 1255 0
-1259 70 0
-1333 13 0
-1334 21 0
-1335 69 0
1333 1334 -93 1335 0
-1471 5 0
-1472 33 0
-1473 65 0
-101 1471 1472 1473 0
67 -1504 0
-1504 37 0
-1505 69 0
-1505 35 0
-1506 97 0
-1506 7 0
1506 -103 1504 1505 0
-1519 7 0
-1521 67 0
-1645 3 0
-1646 5 0
-1647 103 0
-1648 33 0
-1649 65 0
-111 1647 1646 1645 1648 1649 0
-1650 3 0
-1651 7 0
-1652 101 0
-1653 77 0
-1654 67 0
-111 1653 1650 1652 1651 1654 0
-1730 35 0
-1735 35 0
-1735 81 0
-1736 67 0
-1737 19 0
1737 1736 -115 1735 0
-1763 35 0
-2035 7 0
-2036 11 0
-2036 117 0
-2037 19 0
-2037 109 0
-2038 35 0
-2038 93 0
-2039 67 0
-2039 61 0
2035 2038 -127 2036 2037 2039 0
-2040 7 0
-2040 121 0
13 -2041 0
-2041 115 0
107 -2042 0
-2043 37 0
-2043 91 0
-2044 69 0
-2044 59 0
2042 2040 -127 2041 2043 2044 0
-2045 11 0
-2045 117 0
13 -2046 0
-2046 115 0
-2047 103 0
41 -2048 0
-2048 87 0
-2049 55 0
2048 2046 -127 2045 2049 2047 0
-2050 19 0
-2050 109 0
21 -2051 0
107 -2051 0
-2052 25 0
-2052 103 0
-2053 49 0
-2053 79 0
-2054 81 0
-2054 47 0
2051 2050 -127 2053 2054 2052 0
93 -2055 0
-2056 37 0
91 -2056 0
41 -2057 0
-2057 87 0
-2058 49 0
-2058 79 0
-2059 31 0
2055 2057 -127 2059 2056 2058 0
67 -2060 0
61 -2060 0
-2061 69 0
-2061 59 0
73 -2062 0
55 -2062 0
-2063 81 0
-2063 47 0
-2064 31 0
2060 2061 -127 2064 2062 2063 0
-2100 17 0
-2101 111 0
19 -2102 0
-2103 108 0
-2104 104 0
-2105 80 0
-2106 48 0
2101 2102 2103 2104 2105 2106 -128 2100 0
-2114 65 0
-2115 63 0
-2116 67 0
62 -2116 0
-2117 69 0
-2118 56 0
-2119 48 0
-2120 97 0
-2120 32 0
2115 2116 2117 2118 2119 2120 -128 2114 0
-2145 130 0
-2146 133 0
-2147 134 0
-142 2147 2146 2145 0
-2283 138 0
-2284 141 0
-2285 134 0
-158 2284 2283 2285 0
-2343 130 0
-2344 133 0
-2345 161 0
-166 2343 2344 2345 0
-2379 130 0
-2380 162 0
-2381 161 0
-170 2380 2379 2381 0
-2427 134 0
-2428 138 0
-2429 162 0
-2429 141 0
-174 2428 2429 2427 0
-2451 130 0
-2452 174 0
-2453 133 0
-2454 168 0
-2455 161 0
-176 2454 2451 2453 2452 2455 0
-2461 174 0
-2462 132 0
-2462 173 0
-2463 170 0
-2464 166 0
-2465 142 0
-176 2465 2462 2461 2464 2463 0
-2466 133 0
-2467 134 0
-2468 170 0
-2469 164 0
-2470 165 0
-2470 140 0
-176 2470 2466 2467 2469 2468 0
-2529 134 0
-2529 177 0
-2530 146 0
-2530 165 0
-2531 162 0
2529 2531 -182 2530 0
-2596 146 0
-2598 138 0
-2599 162 0
-2600 146 0
-186 2600 2599 2598 0
-2763 130 0
-2764 133 0
-2765 193 0
-198 2763 2764 2765 0
-2799 130 0
-2800 194 0
-2801 193 0
-202 2800 2799 2801 0
-2847 134 0
-2848 138 0
-2848 197 0
-2849 194 0
-2849 141 0
-206 2849 2848 2847 0
-2881 206 0
-2882 132 0
-2882 205 0
-2883 202 0
-2884 198 0
-2885 142 0
-208 2883 2882 2885 2884 2881 0
-2886 133 0
-2887 134 0
-2888 202 0
-2889 141 0
-2889 196 0
-2890 140 0
-208 2890 2886 2887 2889 2888 0
-3107 194 0
-3171 130 0
-3172 161 0
-3173 193 0
-226 3171 3172 3173 0
-3207 133 0
-3208 161 0
-3209 193 0
-229 3207 3208 3209 0
-3219 134 0
-3219 225 0
-3220 162 0
197 -3220 0
194 -3221 0
165 -3221 0
3221 -230 3219 3220 0
-3248 130 0
-3249 229 0
-3250 134 0
-3250 227 0
-3251 162 0
-3251 199 0
-3252 194 0
-3252 167 0
3252 -232 3248 3249 3251 3250 0
-3285 138 0
-3285 225 0
-3286 162 0
194 -3287 0
-3287 169 0
-234 3285 3286 3287 0
-3324 228 0
-3325 138 0
-3326 226 0
-3327 196 0
-3328 164 0
3327 -236 3328 3326 3325 3324 0
-3334 193 0
-3335 194 0
-3336 170 0
-3337 164 0
-3338 225 0
-3338 140 0
3335 -236 3334 3336 3338 3337 0
-3351 130 0
-3352 133 0
-3353 230 0
-3354 161 0
-3355 193 0
-238 3353 3352 3351 3354 3355 0
-3361 133 0
-3362 134 0
-3363 226 0
-3364 202 0
-3365 170 0
-238 3364 3361 3363 3365 3362 0
-3453 146 0
-3453 225 0
-3454 162 0
209 -3454 0
-3455 194 0
3455 -242 3454 3453 0
-3539 161 0
-3540 162 0
-3541 165 0
-3542 198 0
-3543 225 0
-246 3541 3539 3540 3542 3543 0
-3741 134 0
-3741 249 0
-3742 138 0
-3742 245 0
-3743 146 0
-3743 237 0
-3744 162 0
-3744 221 0
-3745 194 0
-3745 189 0
3741 3744 -254 3745 3743 3742 0
-3746 134 0
-3746 249 0
141 -3747 0
-3747 242 0
-3748 234 0
-3749 218 0
-3750 186 0
3748 3747 -254 3750 3746 3749 0
-3751 138 0
-3751 245 0
-3752 141 0
-3752 242 0
-3753 230 0
-3754 169 0
-3754 214 0
-3755 201 0
182 -3755 0
3754 3753 -254 3752 3751 3755 0
-3756 146 0
-3756 237 0
149 -3757 0
-3757 234 0
-3758 230 0
-3759 177 0
-3759 206 0
209 -3760 0
-3760 174 0
3757 3758 -254 3759 3760 3756 0
-3761 162 0
-3761 221 0
-3762 165 0
-3762 218 0
-3763 169 0
-3763 214 0
-3764 177 0
-3764 206 0
-3765 225 0
-3765 158 0
3763 3761 -254 3765 3762 3764 0
-3766 194 0
-3766 189 0
197 -3767 0
-3767 186 0
201 -3768 0
182 -3768 0
-3769 174 0
-3770 158 0
3768 3766 -254 3767 3770 3769 0
-3829 248 0
-3830 138 0
-3831 246 0
-3832 244 0
-3833 232 0
-3834 216 0
-3835 201 0
3830 3831 3832 3833 3834 3835 -256 3829 0
-3836 240 0
-3837 146 0
-3838 238 0
149 -3839 0
-3839 236 0
-3840 232 0
-3841 177 0
-3841 208 0
-3842 176 0
3837 3838 3839 3840 3841 3842 -256 3836 0
-3844 162 0
-3846 165 0
-3850 193 0
-3851 194 0
-3852 190 0
-3853 197 0
-3854 184 0
-3855 176 0
-3856 225 0
3852 3851 3853 3854 3855 3856 -256 3850 0
260 -3989 0
-3989 281 0
266 -3990 0
-3990 275 0
274 -3991 0
267 -3991 0
3991 -284 3989 3990 0
-4139 260 0
-4139 297 0
-4140 291 0
-4141 290 0
-300 4140 4141 4139 0
-4241 260 0
-4331 266 0
-4331 305 0
-4332 274 0
-4332 297 0
-4333 290 0
-4333 281 0
-314 4331 4333 4332 0
-4343 267 0
-4344 275 0
-4344 297 0
-4345 291 0
-4345 281 0
-315 4343 4345 4344 0
-4559 260 0
-4559 329 0
-4560 266 0
-4560 323 0
-4561 322 0
-4561 267 0
-332 4559 4561 4560 0
-4661 337 0
-4662 274 0
-4663 322 0
-340 4662 4661 4663 0
-4751 266 0
-4752 274 0
-4753 322 0
-4753 281 0
-346 4751 4753 4752 0
-4763 267 0
-4764 275 0
-4765 281 0
-347 4765 4763 4764 0
-4982 328 0
-5033 267 0
-5034 291 0
-5034 329 0
-5035 323 0
-5035 297 0
-363 5033 5034 5035 0
-5120 335 0
-5201 275 0
337 -5202 0
-5203 323 0
-5203 305 0
5202 5201 5203 -371 0
-5345 281 0
-5346 297 0
-5347 329 0
-377 5346 5347 5345 0
-5417 260 0
-5417 377 0
266 -5418 0
371 -5418 0
-5419 274 0
-5419 363 0
-5420 290 0
-5420 347 0
-5421 322 0
-5421 315 0
5418 5417 -380 5421 5420 5419 0
-5422 377 0
-5423 370 0
-5424 275 0
-5424 362 0
291 -5425 0
-5425 346 0
-5426 323 0
-5426 314 0
5423 5424 -380 5426 5425 5422 0
-5427 266 0
-5427 371 0
-5428 267 0
-5428 370 0
-5429 281 0
-5429 356 0
-5430 297 0
-5430 340 0
-5431 329 0
-5431 308 0
5428 5427 -380 5429 5430 5431 0
-5432 274 0
-5432 363 0
-5433 275 0
-5433 362 0
-5434 281 0
-5434 356 0
-5435 332 0
-5436 337 0
-5436 300 0
5435 5436 -380 5434 5433 5432 0
-5437 347 0
-5438 346 0
-5439 340 0
-5440 332 0
284 -5441 0
5441 5439 -380 5440 5437 5438 0
-5442 322 0
-5442 315 0
-5443 323 0
-5443 314 0
-5444 329 0
-5444 308 0
-5445 337 0
-5445 300 0
353 -5446 0
-5446 284 0
5445 5446 -380 5444 5442 5443 0
-5577 336 0
-249 -264 0
-242 -271 0
-281 -232 0
-216 -297 0
-205 -308 0
-184 -329 0
-336 -177 0
-176 -337 0
-173 -340 0
-346 -167 0
-377 -136 0
-335 -177 -2 0
-347 -165 -2 0
-363 -149 -2 0
-141 -371 -2 0
-249 -8 0
-225 -8 -281 0
-177 -329 -8 0
-377 -8 0
-12 -245 0
-244 -13 0
-227 -13 -274 0
-305 -13 -196 0
-13 -164 -337 0
-20 -237 0
-329 -20 -165 0
-236 -21 0
-227 -266 -21 0
-297 -21 -196 0
-329 -164 -21 0
-140 -353 -21 0
-291 -22 -201 0
-363 -22 0
-25 -232 0
-32 -225 0
-35 -218 -261 0
-329 -36 -149 0
-36 -141 -337 0
-37 -281 -196 0
-140 -37 -337 0
-347 -38 0
-209 -41 -264 0
-199 -41 -274 0
-48 -209 0
-48 -337 0
-208 -49 0
-49 -271 -194 0
-136 -329 -49 0
-202 -55 0
-56 -201 0
-329 -56 0
-61 -196 0
-190 -67 0
-189 -68 0
-69 -164 -281 0
-315 -70 0
-177 -264 -73 0
-274 -167 -73 0
-77 -308 0
-80 -177 0
-176 -81 0
-81 -297 -136 0
-88 -169 0
-297 -88 0
-164 -93 0
-97 -146 -271 0
-104 -281 0
-146 -107 -261 0
-108 -149 0
-109 -274 -131 0
-142 -115 0
-115 -270 0
-140 -117 0
-118 -267 0
-121 -136 0
-121 -264 0
-3 0
-5 0
-17 0
-33 0
-65 0
2 0
127 0
-245 -267 0
-237 -275 0
-221 -291 0
-323 -189 0
-248 0
-245 -260 0
-275 -230 0
-214 -291 0
-308 -197 0
-323 -182 0
-328 -177 0
-340 -165 0
-371 -134 0
-117 118 0
-103 104 0
-104 103 0
-87 88 0
70 -69 0
-70 69 0
68 -67 0
67 -68 0
-55 56 0
-56 55 0
38 -37 0
-35 36 0
22 -21 0
20 -19 0
19 -20 0
8 -7 0
-8 7 0
-130 0
-133 0
-161 0
-193 0
131 0
254 0
-117 -266 0
-93 -290 0
-314 -69 0
-322 -61 0
-54 -329 0
-346 -37 0
-362 -21 0
-370 -13 0
-117 -260 0
-103 -274 0
-87 -290 0
-308 -69 0
-322 -55 0
-340 -37 0
-356 -21 0
-370 -7 0
-109 -260 0
-103 -266 0
-79 -290 0
-300 -69 0
-322 -47 0
-40 -329 0
-332 -37 0
-356 -13 0
-362 -7 0
232 -230 0
-232 230 0
-225 227 0
196 -194 0
194 -196 0
167 -165 0
-167 165 0
-162 164 0
-164 162 0
136 -134 0
261 0
380 0
-115 -138 0
-162 -91 0
-186 -67 0
-59 -194 0
-228 -25 0
-234 -19 0
-134 -107 0
-138 -103 0
-162 -79 0
-168 -73 0
-174 -67 0
-47 -194 0
-35 -206 0
-228 -13 0
-11 -230 0
-234 -7 0
-240 0
-132 -93 0
-134 -91 0
-138 -87 0
-79 -146 0
-158 -67 0
-31 -194 0
-206 -19 0
-11 -214 0
-218 -7 0
-132 -61 0
-59 -134 0
-138 -55 0
-47 -146 0
-35 -158 0
-31 -162 0
-174 -19 0
-11 -182 0
-186 -7 0
271 -267 0
270 -266 0
264 -260 0
