p cnf 5592 2071
128 0
256 0
384 0
-421 3 0
-422 5 0
-423 9 0
-15 421 422 423 0
-505 3 0
-506 9 0
-507 17 0
-27 505 506 507 0
-529 5 0
-530 9 0
-531 17 0
-29 529 530 531 0
-553 7 0
-553 25 0
-554 11 0
-554 21 0
-555 19 0
-31 553 555 554 0
-575 3 0
-576 29 0
-577 7 0
-577 26 0
-578 11 0
-578 22 0
-579 19 0
-32 577 579 578 575 576 0
-580 5 0
-581 27 0
-582 7 0
-583 20 0
-584 21 0
-584 12 0
-32 582 583 584 580 581 0
-590 17 0
-591 15 0
-592 19 0
-592 14 0
-593 21 0
-593 12 0
-594 25 0
-594 8 0
-32 594 593 592 590 591 0
-619 3 0
-620 5 0
-621 33 0
-39 619 620 621 0
-655 3 0
-656 9 0
-657 33 0
-43 655 656 657 0
-679 5 0
-680 9 0
-681 33 0
-45 679 680 681 0
-703 7 0
-703 41 0
-704 11 0
-704 37 0
-705 35 0
-705 13 0
-47 704 703 705 0
-740 33 0
-741 15 0
-742 35 0
-743 37 0
-744 41 0
-48 743 744 742 740 741 0
-757 3 0
-758 17 0
-759 33 0
-51 757 758 759 0
-781 5 0
-782 17 0
-783 33 0
-53 781 782 783 0
-805 7 0
-805 49 0
-806 19 0
-806 37 0
-807 35 0
-807 21 0
-55 805 806 807 0
-827 3 0
-828 53 0
-829 7 0
-830 19 0
-831 35 0
-56 829 831 830 827 828 0
-834 7 0
-837 17 0
-838 39 0
-839 19 0
-839 38 0
-840 36 0
-841 8 0
-56 840 841 839 837 838 0
-871 11 0
-871 49 0
-872 19 0
-872 41 0
35 -873 0
25 -873 0
873 871 -59 872 0
-898 9 0
-899 51 0
-900 11 0
-901 25 0
-901 36 0
-902 41 0
-902 20 0
901 900 -60 902 898 899 0
-913 13 0
-914 21 0
-915 37 0
915 -61 913 914 0
-947 21 0
-955 3 0
-956 5 0
-957 9 0
-958 17 0
-959 33 0
-63 955 956 957 958 959 0
-1039 3 0
-1040 5 0
-1041 65 0
-71 1039 1040 1041 0
-1099 5 0
-1100 9 0
-1101 65 0
-77 1099 1100 1101 0
-1123 7 0
-1123 73 0
-1124 11 0
-1124 69 0
-1125 67 0
-1125 13 0
-79 1124 1125 1123 0
-1148 11 0
-1149 67 0
-1153 68 0
-1157 70 0
-1158 68 0
-1160 65 0
-1161 15 0
-1162 67 0
-1163 12 0
-1164 73 0
-80 1162 1163 1164 1160 1161 0
-1177 3 0
-1178 17 0
-1179 65 0
-83 1177 1178 1179 0
-1201 5 0
-1202 17 0
-1203 65 0
-85 1201 1202 1203 0
-1225 7 0
-1225 81 0
-1226 19 0
-1226 69 0
-1227 67 0
-1227 21 0
-87 1226 1225 1227 0
-1249 82 0
-1252 5 0
-1253 83 0
-1254 7 0
-1254 82 0
-1255 21 0
-1255 68 0
-1256 69 0
-1256 20 0
-88 1256 1254 1255 1252 1253 0
-1259 19 0
-1259 70 0
-1260 21 0
-1260 68 0
-1267 9 0
-1268 17 0
-1269 65 0
-89 1267 1268 1269 0
-1291 11 0
-1291 81 0
-1292 19 0
-1292 73 0
-1293 67 0
-91 1293 1291 1292 0
-1301 73 0
-1315 82 0
-1318 9 0
-1319 83 0
-1320 11 0
-1320 82 0
-1321 25 0
-1321 68 0
-1322 73 0
-1322 20 0
-92 1321 1320 1322 1318 1319 0
-1325 19 0
-1325 74 0
-1326 68 0
-1328 65 0
-1329 27 0
-1330 67 0
-1330 26 0
-1331 73 0
-1331 20 0
-1332 81 0
-1332 12 0
-92 1330 1332 1331 1328 1329 0
-1333 13 0
-1334 21 0
-1355 5 0
-1356 89 0
-1357 82 0
-1358 21 0
-1359 69 0
-1359 26 0
-94 1358 1359 1357 1355 1356 0
-1360 9 0
-1361 85 0
-1362 13 0
-1362 82 0
-1363 25 0
-1364 73 0
-94 1363 1364 1362 1360 1361 0
-1365 17 0
-1366 77 0
-1367 21 0
-1367 74 0
-1368 25 0
-1368 70 0
-1369 81 0
-1369 14 0
-94 1368 1367 1369 1365 1366 0
-1375 3 0
-1376 5 0
-1377 9 0
-1378 17 0
-1379 65 0
-95 1375 1376 1377 1378 1379 0
-1447 3 0
-1448 33 0
-1449 65 0
-99 1447 1448 1449 0
-1471 5 0
-1472 33 0
-1473 65 0
-101 1471 1472 1473 0
-1495 97 0
-1496 35 0
-1496 69 0
-1497 67 0
-1497 37 0
-103 1496 1497 1495 0
-1517 3 0
-1518 101 0
-1519 7 0
-1519 98 0
-1520 35 0
-1520 70 0
-1521 67 0
-1521 38 0
-104 1520 1521 1519 1517 1518 0
-1522 5 0
-1523 99 0
-1524 7 0
-1524 98 0
-1525 37 0
-1525 68 0
-1526 69 0
-1526 36 0
-104 1526 1525 1524 1522 1523 0
-1527 33 0
-1528 71 0
-1529 35 0
-1530 37 0
-1530 68 0
-1531 8 0
-104 1529 1530 1531 1527 1528 0
-1534 67 0
-1561 11 0
-1561 97 0
-1562 35 0
-1562 73 0
-1563 67 0
-1563 41 0
-107 1562 1561 1563 0
-1588 9 0
-1589 99 0
-1590 11 0
-1590 98 0
-1591 41 0
-1591 68 0
-1592 36 0
-108 1592 1591 1590 1588 1589 0
-1598 65 0
-1599 43 0
-1600 67 0
-1601 73 0
-1602 97 0
-1602 12 0
-108 1602 1601 1600 1598 1599 0
-1603 13 0
-1640 65 0
-1641 45 0
-1642 69 0
-1643 73 0
-1643 38 0
-1644 97 0
-110 1642 1643 1644 1640 1641 0
-1645 3 0
-1646 5 0
-1647 9 0
-1648 33 0
-1649 65 0
-111 1645 1646 1647 1648 1649 0
-1729 19 0
-1729 97 0
-1730 35 0
-1730 81 0
-1731 67 0
-115 1730 1731 1729 0
-1753 19 0
-1755 50 0
-1759 68 0
-1771 21 0
-1771 97 0
-1772 37 0
-1772 81 0
-1773 69 0
-1773 49 0
-117 1772 1773 1771 0
-1805 37 0
-1806 49 0
-1812 22 0
-1813 3 0
-1814 5 0
-1815 17 0
-1816 33 0
-1817 65 0
-119 1813 1814 1815 1816 1817 0
-1873 25 0
-1873 97 0
-1874 41 0
-1874 81 0
-1875 73 0
-1875 49 0
-121 1875 1874 1873 0
-1902 98 0
-1912 73 0
-1914 26 0
-1915 3 0
-1916 9 0
-1917 17 0
-1918 33 0
-1919 65 0
-123 1915 1916 1917 1918 1919 0
-1975 5 0
-1976 9 0
-1977 17 0
-1978 33 0
-1979 65 0
-125 1975 1976 1977 1978 1979 0
-2035 7 0
-2035 121 0
-2036 11 0
-2036 117 0
-2037 19 0
-2037 109 0
-2038 35 0
-2038 93 0
-2039 67 0
-2039 61 0
2038 2039 2035 2037 2036 -127 0
-2040 7 0
-2040 121 0
-2041 13 0
-2041 115 0
-2042 21 0
-2042 107 0
-2043 37 0
-2043 91 0
-2044 69 0
-2044 59 0
2043 2040 2044 2042 2041 -127 0
-2045 11 0
-2045 117 0
-2046 115 0
-2047 25 0
-2047 103 0
-2048 41 0
-2048 87 0
-2049 73 0
-2049 55 0
2046 2045 2049 2047 2048 -127 0
-2050 19 0
-2050 109 0
-2051 21 0
-2051 107 0
-2052 25 0
-2052 103 0
-2053 49 0
-2053 79 0
-2054 81 0
-2054 47 0
2050 2052 2054 2053 2051 -127 0
-2055 35 0
-2055 93 0
-2056 37 0
-2056 91 0
-2057 41 0
-2057 87 0
-2058 49 0
-2058 79 0
-2059 97 0
-2059 31 0
2055 2059 2057 2056 2058 -127 0
-2060 67 0
-2060 61 0
69 -2061 0
-2061 59 0
-2062 73 0
-2062 55 0
-2063 81 0
-2063 47 0
-2064 97 0
-2064 31 0
2060 2061 2062 2063 2064 -127 0
-2079 3 0
-2080 125 0
-2081 7 0
-2081 122 0
-2082 11 0
-2082 118 0
-2083 19 0
-2083 110 0
-2084 35 0
-2084 94 0
-2085 67 0
-2085 62 0
2081 2082 2083 2084 2085 -128 2079 2080 0
-2086 5 0
-2087 123 0
-2088 7 0
-2088 122 0
-2089 116 0
-2090 21 0
-2090 108 0
-2091 37 0
-2091 92 0
-2092 69 0
-2092 60 0
2089 2088 2090 2091 2092 -128 2086 2087 0
-2093 9 0
-2094 119 0
-2095 11 0
-2095 118 0
-2096 13 0
-2096 116 0
-2097 25 0
-2097 104 0
-2098 41 0
-2098 88 0
-2099 73 0
-2099 56 0
2095 2096 2097 2098 2099 -128 2093 2094 0
-2100 17 0
-2101 111 0
-2102 19 0
-2102 110 0
-2103 21 0
-2103 108 0
-2104 104 0
-2105 49 0
-2105 80 0
-2106 81 0
-2106 48 0
2102 2103 2104 2105 2106 -128 2100 2101 0
-2107 33 0
-2108 95 0
-2109 35 0
-2109 94 0
-2110 37 0
-2110 92 0
-2111 41 0
-2111 88 0
-2112 49 0
-2112 80 0
-2113 97 0
-2113 32 0
2110 2109 2111 2112 2113 -128 2107 2108 0
-2114 65 0
-2115 63 0
-2116 67 0
-2117 69 0
-2117 60 0
-2118 73 0
-2118 56 0
-2119 81 0
-2119 48 0
-2120 32 0
2116 2117 2118 2119 2120 -128 2114 2115 0
-2145 130 0
-2146 133 0
-2147 137 0
-142 2145 2146 2147 0
-2193 130 0
-2194 133 0
-2195 145 0
-150 2193 2194 2195 0
-2229 130 0
-2230 137 0
-2231 145 0
-154 2229 2230 2231 0
-2277 134 0
-2277 153 0
-2278 138 0
-2278 149 0
-2279 141 0
-158 2277 2278 2279 0
-2321 137 0
-2322 138 0
-2322 151 0
-2323 150 0
-2324 141 0
-2325 136 0
-160 2325 2322 2324 2321 2323 0
-2343 130 0
-2344 133 0
-2345 161 0
-166 2343 2344 2345 0
-2379 130 0
-2380 137 0
-2381 161 0
-170 2379 2380 2381 0
-2415 133 0
-2416 137 0
-2417 161 0
-173 2415 2416 2417 0
-2427 134 0
-2427 169 0
-2428 138 0
-2428 165 0
-2429 162 0
-2429 141 0
2428 -174 2429 2427 0
-2460 162 0
-2466 133 0
-2467 171 0
-2468 170 0
-2469 141 0
-2470 165 0
2470 -176 2469 2467 2466 2468 0
-2471 137 0
-2472 138 0
-2472 167 0
-2473 166 0
-2474 141 0
-2474 164 0
-2475 169 0
2474 -176 2475 2472 2471 2473 0
-2476 161 0
-2477 162 0
-2477 143 0
-2478 142 0
-2479 140 0
-2480 136 0
2480 -176 2477 2479 2476 2478 0
-2481 130 0
-2482 145 0
-2483 161 0
-178 2481 2482 2483 0
134 -2529 0
177 -2529 0
-2530 146 0
-2530 165 0
-2531 162 0
-2531 149 0
2529 2530 2531 -182 0
-2561 146 0
-2561 167 0
-2568 133 0
-2569 179 0
-2570 178 0
-2571 149 0
-2571 164 0
-2572 165 0
-2572 148 0
2572 2569 -184 2571 2568 2570 0
-2582 136 0
-2583 137 0
-2584 145 0
-2585 161 0
-185 2583 2584 2585 0
-2595 138 0
-2595 177 0
-2596 146 0
-2596 169 0
-2597 162 0
-2597 153 0
-186 2595 2597 2596 0
-2604 162 0
-2604 153 0
-2605 169 0
-2605 146 0
-2606 177 0
-2606 138 0
-186 2606 2604 2605 0
-2635 138 0
-2639 145 0
-2640 146 0
-2641 170 0
-2642 164 0
-2643 140 0
-188 2643 2642 2640 2639 2641 0
-2645 162 0
-2648 177 0
-2648 140 0
-2649 141 0
-2649 177 0
-2650 149 0
-2650 169 0
-2651 165 0
-2651 153 0
-189 2651 2650 2649 0
-2661 130 0
-2662 133 0
-2663 137 0
-2664 145 0
-2665 161 0
-190 2661 2662 2663 2664 2665 0
-2701 133 0
-2702 185 0
-2703 141 0
-2704 171 0
-2705 165 0
-191 2705 2703 2704 2701 2702 0
-2708 141 0
-2709 167 0
-2710 169 0
-2711 145 0
-2712 173 0
-2713 171 0
-2714 153 0
-2714 167 0
-2715 177 0
-2715 143 0
-191 2714 2715 2713 2711 2712 0
-2763 130 0
-2764 133 0
-2765 193 0
-198 2763 2764 2765 0
-2799 130 0
-2800 137 0
-2801 193 0
-202 2799 2800 2801 0
-2835 133 0
-2836 137 0
-2837 193 0
-205 2835 2836 2837 0
-2849 141 0
-2878 134 0
-2891 137 0
-2892 138 0
-2892 199 0
-2893 198 0
-2894 141 0
-2894 196 0
-2895 201 0
-2895 136 0
-208 2895 2892 2894 2891 2893 0
-2897 143 0
-2937 133 0
-2938 145 0
-2939 193 0
-213 2937 2938 2939 0
-2949 134 0
-2949 209 0
-2950 146 0
-2950 197 0
-2951 194 0
-214 2949 2950 2951 0
-2978 130 0
-2979 213 0
-2980 211 0
-2981 146 0
-2982 194 0
2980 -216 2982 2981 2978 2979 0
-2991 196 0
-2994 146 0
-2996 196 0
-3015 138 0
-3015 209 0
-3016 146 0
-3016 201 0
-3017 194 0
-3017 153 0
-218 3015 3017 3016 0
-3055 138 0
-3057 153 0
-3059 145 0
-3060 203 0
-3061 202 0
-3062 196 0
-3063 140 0
-220 3063 3062 3060 3059 3061 0
-3064 193 0
-3065 194 0
-3066 154 0
-3067 148 0
-3068 140 0
-220 3068 3065 3067 3064 3066 0
-3069 141 0
-3069 209 0
-3070 149 0
-3070 201 0
-3071 197 0
-3071 153 0
3070 -221 3069 3071 0
-3081 130 0
-3082 133 0
-3083 137 0
-3084 145 0
-3085 193 0
-222 3081 3082 3083 3084 3085 0
-3128 211 0
-3131 145 0
-3132 205 0
-3133 149 0
-3134 153 0
-3135 143 0
3133 3134 -223 3135 3131 3132 0
-3221 194 0
-3222 134 0
-3222 225 0
-3223 165 0
-3223 194 0
-3224 197 0
-3224 162 0
-230 3222 3223 3224 0
-3264 162 0
-3266 196 0
-3271 197 0
-3273 137 0
-3274 161 0
-3275 193 0
-233 3273 3274 3275 0
-3285 138 0
-3285 225 0
162 -3286 0
-3286 201 0
-3287 194 0
-3287 169 0
3286 -234 3285 3287 0
-3314 130 0
-3315 233 0
-3316 138 0
-3317 162 0
-3318 194 0
-3318 171 0
3317 -236 3318 3316 3314 3315 0
-3325 138 0
-3327 196 0
-3329 161 0
-3330 203 0
-3331 202 0
-3332 196 0
-3333 140 0
3330 -236 3332 3333 3329 3331 0
-3339 141 0
165 -3340 0
-3340 201 0
-3341 197 0
-3341 169 0
3340 -237 3341 3339 0
-3348 197 0
-3348 169 0
-3349 201 0
-3349 165 0
-3350 225 0
-3350 141 0
3349 -237 3348 3350 0
-3351 130 0
-3352 133 0
-3353 137 0
-3354 161 0
-3355 193 0
-238 3351 3352 3353 3354 3355 0
-3453 146 0
-3453 225 0
-3454 162 0
-3454 209 0
-3455 194 0
3453 3454 3455 -242 0
-3507 149 0
-3507 225 0
165 -3508 0
209 -3508 0
-3509 197 0
-3509 177 0
3508 -245 3507 3509 0
-3519 130 0
-3520 133 0
-3521 145 0
-3522 161 0
-3523 193 0
-246 3519 3520 3521 3522 3523 0
-3568 209 0
-3576 179 0
-3609 153 0
-3609 225 0
-3610 169 0
-3610 209 0
-3611 201 0
-3611 177 0
-249 3609 3611 3610 0
-3615 169 0
-3615 209 0
-3616 177 0
-3616 201 0
-3617 225 0
-3617 153 0
-249 3616 3615 3617 0
-3621 130 0
-3622 137 0
-3623 145 0
-3624 161 0
-3625 193 0
-250 3621 3622 3623 3624 3625 0
-3665 179 0
-3668 153 0
-3670 209 0
-3674 203 0
-3680 155 0
-3711 133 0
-3712 137 0
-3713 145 0
-3714 161 0
-3715 193 0
-253 3711 3712 3713 3714 3715 0
-3741 134 0
-3741 249 0
-3742 138 0
-3742 245 0
146 -3743 0
237 -3743 0
-3744 162 0
-3744 221 0
-3745 194 0
-3745 189 0
3743 3744 3742 3745 3741 -254 0
-3746 134 0
-3746 249 0
-3747 141 0
-3747 242 0
149 -3748 0
234 -3748 0
-3749 165 0
-3749 218 0
-3750 197 0
-3750 186 0
3748 3747 3746 3750 3749 -254 0
-3751 138 0
-3751 245 0
-3752 141 0
242 -3752 0
153 -3753 0
-3753 230 0
-3754 169 0
-3754 214 0
-3755 201 0
182 -3755 0
3755 3752 3751 3753 3754 -254 0
-3756 146 0
-3756 237 0
-3757 234 0
-3758 230 0
-3759 177 0
-3759 206 0
-3760 209 0
-3760 174 0
3757 3756 3760 3758 3759 -254 0
-3761 221 0
-3762 218 0
-3763 169 0
-3763 214 0
-3764 177 0
-3764 206 0
-3765 225 0
-3765 158 0
3765 3764 3762 3763 3761 -254 0
-3766 194 0
-3766 189 0
-3767 186 0
-3768 201 0
-3768 182 0
209 -3769 0
-3769 174 0
-3770 225 0
-3770 158 0
3768 3770 3769 3766 3767 -254 0
-3808 255 0
-3809 253 0
-3810 134 0
-3810 251 0
-3811 138 0
-3811 247 0
-3812 146 0
239 -3812 0
-3813 162 0
-3813 223 0
-3814 194 0
-3814 191 0
3810 3811 3812 3813 3814 -256 3808 3809 0
-3822 133 0
-3823 134 0
-3823 251 0
-3824 250 0
-3825 244 0
-3826 236 0
-3827 165 0
-3827 220 0
-3828 197 0
-3828 188 0
3823 3825 3826 3827 3828 -256 3822 3824 0
-3829 137 0
-3830 138 0
-3830 247 0
-3831 246 0
-3832 244 0
-3833 153 0
-3833 232 0
-3834 216 0
-3835 201 0
3830 3832 3833 3834 3835 -256 3829 3831 0
-3836 145 0
-3837 146 0
-3837 239 0
-3838 238 0
-3839 149 0
-3839 236 0
-3840 153 0
-3840 232 0
-3841 177 0
-3841 208 0
-3842 176 0
3837 3839 3840 3841 3842 -256 3836 3838 0
-3843 161 0
-3844 162 0
-3844 223 0
-3845 222 0
-3846 165 0
-3846 220 0
-3847 169 0
-3847 216 0
-3848 177 0
-3848 208 0
-3849 160 0
3844 3846 3847 3848 3849 -256 3843 3845 0
-3850 193 0
-3851 194 0
-3851 191 0
-3852 190 0
-3853 197 0
-3853 188 0
201 -3854 0
-3854 184 0
209 -3855 0
-3855 176 0
-3856 225 0
-3856 160 0
3851 3853 3854 3855 3856 -256 3850 3852 0
-3869 258 0
-3870 259 0
-3871 260 0
-268 3871 3870 3869 0
-3917 258 0
-3918 259 0
-3919 273 0
-276 3917 3918 3919 0
-3953 260 0
-3954 262 0
-3955 274 0
-3955 263 0
3953 -280 3955 3954 0
-3977 259 0
-3978 275 0
-3979 273 0
-283 3978 3977 3979 0
-3989 260 0
-3989 281 0
-3990 266 0
-3990 275 0
-3991 274 0
-3991 267 0
3990 3989 3991 -284 0
-3998 274 0
-3998 267 0
-3999 275 0
-3999 266 0
281 -4000 0
260 -4000 0
4000 3999 3998 -284 0
-4037 258 0
-4038 259 0
-4039 284 0
280 -4040 0
-4041 273 0
4040 4039 -288 4037 4038 4041 0
-4042 258 0
-4043 260 0
-4043 285 0
-4044 283 0
-4045 279 0
-4046 274 0
-4046 271 0
-288 4043 4046 4045 4044 4042 0
-4052 284 0
-4053 283 0
282 -4054 0
-4055 276 0
-4056 268 0
4054 4056 -288 4053 4052 4055 0
-4062 273 0
-4063 274 0
-4064 275 0
-4065 277 0
-4065 268 0
-4066 264 0
4066 -288 4064 4065 4063 4062 0
-4067 258 0
-4068 259 0
-4069 289 0
-292 4067 4068 4069 0
-4115 258 0
-4116 290 0
-4117 289 0
-298 4116 4115 4117 0
-4127 259 0
-4128 291 0
-4129 289 0
-299 4128 4127 4129 0
-4139 260 0
-4139 297 0
-4140 266 0
-4140 291 0
-4141 290 0
-4141 267 0
-300 4139 4140 4141 0
-4148 267 0
-4149 266 0
-4150 297 0
-300 4150 4149 4148 0
-4202 300 0
-4203 262 0
-4204 263 0
-4205 292 0
-4206 268 0
-304 4202 4203 4204 4206 4205 0
-4217 258 0
-4218 273 0
-4219 289 0
-306 4217 4218 4219 0
-4229 259 0
-4230 273 0
-4231 289 0
-307 4229 4230 4231 0
-4241 260 0
-4241 305 0
-4242 274 0
-4242 291 0
-4243 290 0
-4243 275 0
4241 -308 4242 4243 0
-4265 305 0
-4266 293 0
-4267 290 0
-310 4266 4265 4267 0
-4283 275 0
-4284 277 0
-4285 305 0
-311 4284 4283 4285 0
-4300 309 0
-4302 275 0
-4309 273 0
-4310 274 0
-4310 295 0
-4311 275 0
-4311 294 0
-4312 292 0
-4313 305 0
-4313 264 0
4313 -312 4310 4311 4312 4309 0
-4314 289 0
-4315 290 0
-4316 291 0
-4316 278 0
-4317 276 0
-4318 305 0
4315 4318 4316 -312 4317 4314 0
-4319 305 0
-4320 273 0
-4321 289 0
-313 4319 4320 4321 0
-4331 305 0
-4332 274 0
-4333 290 0
-4333 281 0
-314 4331 4332 4333 0
-4355 258 0
-4356 259 0
-4357 308 0
-4358 273 0
-4359 289 0
-316 4357 4356 4355 4358 4359 0
-4363 299 0
-4365 259 0
-4366 313 0
-4367 306 0
-4368 275 0
-4369 291 0
-316 4369 4368 4366 4365 4367 0
-4397 258 0
-4398 314 0
-4399 310 0
-4400 273 0
-4401 289 0
-318 4399 4398 4397 4400 4401 0
-4402 258 0
-4403 313 0
-4404 309 0
-4405 274 0
-4406 290 0
-4406 285 0
-318 4403 4405 4406 4404 4402 0
-4417 273 0
-4418 274 0
301 -4418 0
-4419 298 0
-4420 294 0
-4421 305 0
-318 4421 4418 4419 4420 4417 0
-4423 285 0
-4424 293 0
-4426 305 0
-4427 259 0
-4428 315 0
-4429 311 0
-4430 273 0
-4431 289 0
-319 4428 4429 4427 4430 4431 0
-4432 259 0
-4433 313 0
-4434 309 0
-4435 275 0
-4436 291 0
-4436 285 0
-319 4436 4435 4434 4433 4432 0
-4438 263 0
-4440 299 0
-4442 311 0
-4443 267 0
-4443 309 0
-4444 307 0
-4445 281 0
-4445 295 0
-4446 279 0
-319 4443 4442 4446 4445 4444 0
-4487 258 0
-4488 259 0
-4489 321 0
-324 4487 4488 4489 0
-4523 260 0
-4524 262 0
-4525 263 0
-328 4524 4523 4525 0
-4547 259 0
-4548 323 0
-4549 321 0
-331 4548 4547 4549 0
-4559 260 0
-4559 329 0
-4560 266 0
-4560 323 0
-4561 322 0
-4561 267 0
-332 4559 4561 4560 0
-4612 258 0
-4613 260 0
-4614 331 0
-4615 327 0
-4616 322 0
-4616 271 0
-336 4613 4616 4614 4615 4612 0
-4620 267 0
-4649 259 0
-4650 273 0
-4651 321 0
-339 4649 4650 4651 0
-4661 260 0
-4661 337 0
-4662 274 0
-4662 323 0
-4663 322 0
-4663 275 0
4661 4662 -340 4663 0
-4685 337 0
-4686 274 0
-4686 325 0
-4687 322 0
-4687 277 0
-342 4685 4687 4686 0
-4697 263 0
-4697 337 0
-4698 275 0
-4699 323 0
-343 4699 4698 4697 0
-4715 341 0
-4720 341 0
-4729 273 0
-4730 274 0
-4730 327 0
-4731 275 0
-4731 326 0
-4732 324 0
-4733 337 0
-4733 264 0
4733 4730 -344 4731 4732 4729 0
-4734 321 0
-4735 322 0
-4735 279 0
-4736 323 0
-4736 278 0
-4737 276 0
337 -4738 0
264 -4738 0
4738 -344 4735 4736 4737 4734 0
-4739 337 0
-4740 273 0
-4741 321 0
-345 4739 4740 4741 0
-4751 266 0
-4751 337 0
-4752 274 0
-4752 329 0
-4753 322 0
-4753 281 0
-346 4751 4753 4752 0
-4760 322 0
-4761 329 0
-4762 337 0
-346 4761 4760 4762 0
-4763 267 0
-4763 337 0
-4764 275 0
-4765 323 0
-4765 281 0
-347 4765 4764 4763 0
-4775 258 0
-4776 259 0
-4777 340 0
-4778 273 0
-4779 321 0
-348 4777 4776 4775 4778 4779 0
-4780 258 0
-4781 260 0
-4782 339 0
-4783 274 0
-4783 331 0
-4784 322 0
-4784 283 0
-348 4781 4784 4783 4780 4782 0
-4795 273 0
-4796 331 0
-4797 275 0
-4798 324 0
-4799 337 0
-348 4797 4796 4799 4798 4795 0
-4817 258 0
-4818 346 0
-4819 342 0
-4820 273 0
-4821 321 0
-350 4818 4819 4817 4820 4821 0
-4839 277 0
-4847 259 0
-4848 347 0
-4849 343 0
-4850 273 0
-4851 321 0
-351 4848 4849 4847 4850 4851 0
-4860 331 0
-4867 273 0
-4868 275 0
-4869 331 0
-4870 327 0
-4871 337 0
-351 4868 4869 4871 4870 4867 0
-4872 321 0
-4873 323 0
-4873 285 0
-4874 283 0
-4875 279 0
-4876 337 0
-351 4876 4874 4873 4875 4872 0
-4907 258 0
-4908 289 0
-4909 321 0
-354 4907 4908 4909 0
-4919 259 0
-4920 289 0
-4921 321 0
-355 4919 4920 4921 0
-4931 260 0
-4931 353 0
-4932 290 0
-4932 323 0
-4933 322 0
-4933 291 0
4931 -356 4933 4932 0
-4940 291 0
-4941 290 0
-4942 353 0
4942 -356 4940 4941 0
-4967 353 0
-4968 325 0
-4969 323 0
-359 4967 4969 4968 0
-4984 258 0
-4985 260 0
-4986 355 0
-4987 327 0
-4988 322 0
4985 -360 4988 4987 4984 4986 0
-4989 259 0
-4990 260 0
-4990 357 0
-4991 354 0
-4992 291 0
-4992 326 0
-4993 323 0
-4993 294 0
4990 -360 4992 4993 4989 4991 0
-4999 289 0
-5000 290 0
-5000 327 0
-5001 291 0
-5001 326 0
-5002 324 0
-5003 353 0
-5003 264 0
-360 5000 5001 5003 5002 4999 0
-5004 321 0
-5005 322 0
-5005 295 0
-5006 323 0
-5007 292 0
-5008 353 0
-5008 264 0
-360 5008 5006 5005 5007 5004 0
-5009 353 0
-5010 289 0
-5011 321 0
-361 5009 5010 5011 0
-5021 266 0
-5021 353 0
-5022 290 0
-5022 329 0
-5023 322 0
-5023 297 0
-362 5021 5022 5023 0
-5033 353 0
-5034 291 0
-5034 329 0
-5035 323 0
-5035 297 0
-363 5033 5034 5035 0
-5045 258 0
-5046 259 0
-5047 356 0
-5048 289 0
-5049 321 0
-364 5047 5046 5045 5048 5049 0
-5069 353 0
-5093 361 0
-5094 357 0
-5112 321 0
-5113 322 0
-5114 325 0
-5115 329 0
-5116 353 0
5116 -366 5114 5113 5115 5112 0
-5117 259 0
-5118 363 0
-5119 359 0
-5120 289 0
-5121 321 0
5118 5119 -367 5117 5120 5121 0
-5177 273 0
-5178 289 0
-5179 321 0
-369 5177 5178 5179 0
-5189 353 0
-5190 290 0
-5190 337 0
-5191 322 0
-5191 305 0
-370 5189 5191 5190 0
-5201 275 0
-5201 353 0
-5202 291 0
-5202 337 0
-5203 323 0
-5203 305 0
-371 5203 5201 5202 0
-5213 258 0
-5214 259 0
-5215 273 0
-5216 289 0
-5217 321 0
-372 5213 5214 5215 5216 5217 0
-5270 273 0
-5271 274 0
-5271 357 0
-5272 354 0
-5273 305 0
-5273 326 0
-5274 337 0
-374 5274 5273 5271 5270 5272 0
-5290 259 0
-5291 369 0
-5292 275 0
-5293 291 0
-5294 309 0
-375 5294 5292 5293 5290 5291 0
-5300 273 0
-5301 275 0
-5301 357 0
-5302 355 0
-5303 305 0
-5303 327 0
-5304 337 0
-375 5303 5301 5304 5300 5302 0
-5319 322 0
-5319 311 0
-5329 308 0
-5330 359 0
-5331 358 0
-5332 356 0
-5333 305 0
-5334 337 0
-376 5330 5333 5331 5334 5332 0
-5335 343 0
-5336 342 0
-5337 340 0
-5338 328 0
-5339 353 0
-376 5339 5338 5335 5336 5337 0
-5345 353 0
-5346 297 0
-5346 337 0
-5347 305 0
-377 5345 5347 5346 0
-5364 361 0
-5372 273 0
-5373 274 0
-5374 354 0
-5375 305 0
-5376 337 0
-378 5375 5373 5376 5372 5374 0
-5392 259 0
-5393 369 0
-5394 275 0
-5395 345 0
-5396 313 0
-379 5395 5394 5396 5392 5393 0
-5417 260 0
-5417 377 0
-5418 266 0
-5418 371 0
-5419 274 0
-5419 363 0
-5420 290 0
-5420 347 0
-5421 322 0
-5421 315 0
5417 5418 5421 5419 5420 -380 0
-5422 260 0
-5422 377 0
-5423 267 0
-5423 370 0
-5424 275 0
-5424 362 0
-5425 291 0
-5425 346 0
-5426 323 0
-5426 314 0
5425 5422 5424 5423 5426 -380 0
-5427 266 0
-5427 371 0
-5428 267 0
-5428 370 0
-5429 281 0
-5429 356 0
-5430 297 0
-5430 340 0
-5431 329 0
-5431 308 0
5430 5427 5431 5429 5428 -380 0
-5432 274 0
-5432 363 0
-5433 275 0
-5433 362 0
-5434 281 0
-5434 356 0
-5435 305 0
-5435 332 0
-5436 337 0
-5436 300 0
5436 5433 5432 5434 5435 -380 0
-5437 290 0
-5437 347 0
-5438 291 0
-5438 346 0
-5439 297 0
-5439 340 0
-5440 305 0
-5440 332 0
353 -5441 0
-5441 284 0
5438 5440 5439 5441 5437 -380 0
-5442 322 0
-5442 315 0
-5443 323 0
-5443 314 0
-5444 329 0
-5444 308 0
-5445 337 0
-5445 300 0
-5446 353 0
-5446 284 0
5446 5445 5443 5444 5442 -380 0
-5452 377 0
-5453 369 0
-5454 277 0
-5455 345 0
-5456 313 0
-381 5454 5456 5455 5452 5453 0
-5467 289 0
-5468 345 0
-5469 341 0
-5470 305 0
-5471 285 0
-381 5471 5468 5470 5469 5467 0
-5544 383 0
-5545 260 0
-5545 381 0
-5546 379 0
-5547 375 0
-5548 274 0
-5548 367 0
-5549 290 0
-5549 351 0
-5550 322 0
-5550 319 0
5545 5546 5547 5548 5549 5550 -384 5544 0
-5551 382 0
-5552 260 0
-5552 381 0
-5553 263 0
-5553 378 0
-5554 374 0
-5555 275 0
366 -5555 0
-5556 291 0
-5556 350 0
-5557 323 0
-5557 318 0
5552 5553 5554 5555 5556 5557 -384 5551 0
-5565 376 0
-5566 375 0
-5567 374 0
-5568 372 0
-5569 360 0
-5570 297 0
-5571 312 0
5566 5565 5567 5569 5570 5571 5568 -384 0
-5572 273 0
-5573 274 0
-5573 367 0
-5574 275 0
-5574 366 0
-5575 277 0
-5575 364 0
-5576 360 0
-5577 336 0
-5578 337 0
-5578 304 0
5573 5574 5575 5576 5577 5578 -384 5572 0
-5579 289 0
-5580 290 0
-5580 351 0
-5581 291 0
-5581 350 0
-5582 293 0
-5582 348 0
297 -5583 0
344 -5583 0
-5584 305 0
-5584 336 0
-5585 353 0
-5585 288 0
5580 5581 5582 5583 5584 5585 -384 5579 0
-5586 321 0
-5587 322 0
-5587 319 0
-5588 323 0
-5588 318 0
-5589 325 0
-5589 316 0
-5590 329 0
-5590 312 0
-5591 337 0
-5591 304 0
353 -5592 0
288 -5592 0
5587 5588 5589 5590 5591 5592 -384 5586 0
-262 -251 0
-249 -264 0
-266 -247 0
-268 -245 0
-271 -242 0
-274 -239 0
-277 -236 0
-279 -234 0
-232 -281 0
-225 -288 0
-290 -223 0
-218 -295 0
-216 -297 0
-304 -209 0
-305 -208 0
-310 -203 0
-312 -201 0
-314 -199 0
-319 -194 0
-191 -322 0
-325 -188 0
-327 -186 0
-329 -184 0
-331 -182 0
-336 -177 0
-176 -337 0
-342 -171 0
-169 -344 0
-346 -167 0
-348 -165 0
-351 -162 0
-160 -353 0
-358 -155 0
-153 -360 0
-362 -151 0
-367 -146 0
-370 -143 0
-375 -138 0
-377 -136 0
-275 -237 -2 0
-315 -197 -2 0
-359 -153 -2 0
-313 -7 -194 0
-345 -7 -162 0
-8 -249 0
-225 -8 -281 0
-8 -209 -297 0
-305 -8 -201 0
-8 -329 -177 0
-8 -169 -337 0
-8 -153 -353 0
-377 -8 0
-11 -242 -261 0
-225 -278 -11 0
-294 -11 -209 0
-309 -11 -194 0
-326 -11 -177 0
-11 -162 -341 0
-11 -357 -146 0
-11 -374 0
-12 -245 0
-293 -12 -209 0
-305 -12 -197 0
-325 -12 -177 0
-12 -165 -337 0
-12 -353 -149 0
-13 -244 0
-227 -13 -274 0
-290 -13 -211 0
-305 -13 -196 0
-322 -13 -179 0
-13 -353 -148 0
-370 -13 -131 0
-225 -14 -275 0
-291 -14 -209 0
-323 -14 -177 0
-371 -14 0
-294 -19 -201 0
-301 -19 -194 0
-326 -19 -169 0
-19 -138 -357 0
-19 -366 0
-20 -237 0
-20 -197 -297 0
-20 -165 -329 0
-20 -141 -353 0
-21 -236 0
-227 -21 -266 0
-290 -21 -203 0
-21 -297 -196 0
-322 -21 -171 0
-21 -329 -164 0
-21 -140 -353 0
-225 -22 -267 0
-22 -291 -201 0
-323 -22 -169 0
-363 -22 0
-232 -25 0
-290 -199 -25 0
-293 -25 -196 0
-295 -25 -194 0
-322 -25 -167 0
-136 -353 -25 0
-360 -25 0
-291 -197 -26 0
-323 -165 -26 0
-32 -225 0
-32 -353 0
-218 -35 -261 0
-278 -35 -201 0
-285 -35 -194 0
-326 -35 -153 0
-138 -35 -341 0
-350 -35 0
-221 -36 0
-329 -149 -36 0
-141 -36 -337 0
-220 -37 0
-266 -37 -211 0
-37 -274 -203 0
-37 -281 -196 0
-322 -155 -37 0
-37 -329 -148 0
-37 -140 -337 0
-348 -37 0
-38 -209 -267 0
-38 -275 -201 0
-323 -153 -38 0
-347 -38 0
-41 -216 0
-41 -209 -264 0
-41 -199 -274 0
-277 -41 -196 0
-41 -279 -194 0
-322 -151 -41 0
-327 -41 -146 0
-41 -136 -337 0
-41 -344 0
-42 -197 -275 0
-323 -42 -149 0
-343 -42 0
-48 -209 0
-48 -337 0
-208 -49 0
-49 -264 -201 0
-266 -199 -49 0
-143 -322 -49 0
-325 -140 -49 0
-327 -138 -49 0
-136 -329 -49 0
-336 -49 0
-197 -50 -267 0
-323 -50 -141 0
-56 -201 0
-56 -329 0
-59 -194 -261 0
-326 -59 0
-197 -60 0
-325 -60 0
-61 -196 0
-323 -62 0
-278 -67 -169 0
-282 -165 -67 0
-285 -67 -162 0
-294 -153 -67 0
-309 -138 -67 0
-318 -67 0
-189 -68 0
-277 -68 -169 0
-165 -68 -281 0
-68 -149 -297 0
-305 -68 -141 0
-188 -69 0
-266 -179 -69 0
-274 -171 -69 0
-281 -164 -69 0
-283 -162 -69 0
-290 -155 -69 0
-305 -140 -69 0
-316 -69 0
-267 -177 -70 0
-275 -169 -70 0
-291 -153 -70 0
-315 -70 0
-73 -184 0
-73 -177 -264 0
-73 -167 -274 0
-73 -279 -162 0
-290 -73 -151 0
-73 -295 -146 0
-305 -73 -136 0
-73 -312 0
-74 -275 -165 0
-74 -291 -149 0
-311 -74 0
-80 -177 0
-305 -80 0
-81 -176 0
-262 -81 -171 0
-81 -169 -264 0
-266 -81 -167 0
-81 -271 -162 0
-290 -81 -143 0
-293 -81 -140 0
-81 -295 -138 0
-81 -136 -297 0
-304 -81 0
-263 -82 -169 0
-82 -165 -267 0
-82 -291 -141 0
-88 -169 0
-88 -297 0
-294 -91 0
-92 -165 0
-93 -164 0
-291 -94 0
-97 -160 0
-97 -153 -264 0
-266 -97 -151 0
-271 -97 -146 0
-97 -274 -143 0
-277 -97 -140 0
-97 -279 -138 0
-97 -281 -136 0
-97 -288 0
-263 -98 -153 0
-98 -267 -149 0
-98 -275 -141 0
-104 -153 0
-104 -281 0
-107 -278 0
-108 -149 0
-109 -148 0
-110 -275 0
-115 -138 -261 0
-116 -141 0
-117 -140 0
-118 -267 0
-121 -136 0
-121 -264 0
-3 0
-5 0
-9 0
-17 0
-33 0
-65 0
2 0
127 0
-255 0
-263 -249 0
-245 -267 0
-291 -221 0
-311 -201 0
-323 -189 0
-343 -169 0
-347 -165 0
-363 -149 0
-371 -141 0
-383 0
-122 121 0
-117 118 0
-118 117 0
-115 116 0
-116 115 0
-109 110 0
108 -107 0
-108 107 0
-103 104 0
-104 103 0
98 -97 0
-98 97 0
-93 94 0
-94 93 0
-91 92 0
-92 91 0
-87 88 0
-88 87 0
82 -81 0
-82 81 0
-79 80 0
-80 79 0
74 -73 0
-74 73 0
70 -69 0
-70 69 0
68 -67 0
-68 67 0
62 -61 0
-62 61 0
60 -59 0
-60 59 0
-55 56 0
-56 55 0
50 -49 0
-50 49 0
-47 48 0
-48 47 0
42 -41 0
38 -37 0
-38 37 0
36 -35 0
-36 35 0
-31 32 0
31 -32 0
26 -25 0
-26 25 0
22 -21 0
-22 21 0
-19 20 0
-20 19 0
14 -13 0
-14 13 0
-11 12 0
-12 11 0
-7 8 0
-8 7 0
-130 0
-133 0
-137 0
-145 0
-161 0
-193 0
131 0
254 0
-117 -266 0
-109 -274 0
-290 -93 0
-310 -73 0
-314 -69 0
-322 -61 0
-342 -41 0
-37 -346 0
-21 -362 0
-382 0
251 -249 0
-251 249 0
247 -245 0
-247 245 0
244 -242 0
-244 242 0
239 -237 0
-239 237 0
236 -234 0
-236 234 0
-230 232 0
-232 230 0
227 -225 0
223 -221 0
-223 221 0
-218 220 0
-220 218 0
-214 216 0
-216 214 0
211 -209 0
209 -211 0
-206 208 0
206 -208 0
203 -201 0
-203 201 0
199 -197 0
-199 197 0
196 -194 0
-196 194 0
-189 191 0
-191 189 0
-186 188 0
-188 186 0
184 -182 0
182 -184 0
179 -177 0
-179 177 0
-174 176 0
174 -176 0
171 -169 0
-171 169 0
167 -165 0
-167 165 0
164 -162 0
-164 162 0
-158 160 0
158 -160 0
155 -153 0
-155 153 0
151 -149 0
-151 149 0
148 -146 0
-148 146 0
143 -141 0
-143 141 0
140 -138 0
-140 138 0
136 -134 0
-136 134 0
-258 0
-259 0
-273 0
-289 0
-321 0
261 0
380 0
-107 -146 0
-91 -162 0
-186 -67 0
-19 -234 0
-115 -134 0
-103 -146 0
-87 -162 0
-67 -182 0
-55 -194 0
-35 -214 0
-19 -230 0
-7 -242 0
-371 375 0
-370 374 0
-374 370 0
-356 360 0
-360 356 0
357 -353 0
353 -357 0
-340 344 0
340 -344 0
341 -337 0
337 -341 0
-323 327 0
-327 323 0
-322 326 0
-326 322 0
-308 312 0
-312 308 0
-305 309 0
-309 305 0
295 -291 0
-295 291 0
-290 294 0
-294 290 0
279 -275 0
-279 275 0
-274 278 0
264 -260 0
260 -264 0
