p cnf 5592 1102
128 0
256 0
384 0
-469 3 0
-470 5 0
-471 17 0
-23 469 470 471 0
-505 3 0
-506 9 0
-507 17 0
-27 505 506 507 0
-580 5 0
-581 27 0
-582 7 0
-582 26 0
-583 13 0
-584 21 0
-584 12 0
584 582 580 581 -32 583 0
-655 3 0
-656 9 0
-657 33 0
-43 655 656 657 0
-679 5 0
-680 9 0
-681 33 0
-45 679 680 681 0
-730 5 0
-731 43 0
-732 7 0
-733 13 0
-733 36 0
-734 37 0
-734 12 0
-48 732 730 731 733 734 0
-757 3 0
-758 17 0
-759 33 0
-51 757 758 759 0
-805 49 0
-806 19 0
-807 35 0
806 805 -55 807 0
-832 5 0
-833 51 0
-834 7 0
-834 50 0
-835 21 0
-835 36 0
-836 20 0
836 -56 832 833 835 834 0
-842 33 0
-843 23 0
-844 35 0
22 -844 0
-845 37 0
-845 20 0
-846 49 0
-846 8 0
-56 844 842 843 845 846 0
-871 11 0
-871 49 0
-872 19 0
-873 25 0
872 -59 871 873 0
-1039 3 0
-1040 5 0
-1041 65 0
-71 1039 1040 1041 0
-1075 3 0
-1076 9 0
-1077 65 0
-75 1075 1076 1077 0
-1099 5 0
-1100 9 0
-1101 65 0
-77 1099 1100 1101 0
-1123 73 0
-1124 11 0
-1125 67 0
1124 -79 1123 1125 0
-1150 5 0
-1151 75 0
7 -1152 0
-1153 13 0
-1153 68 0
-1154 69 0
-1154 12 0
1152 -80 1150 1151 1154 1153 0
-1201 5 0
-1202 17 0
-1203 65 0
-85 1201 1202 1203 0
-1225 7 0
-1225 81 0
19 -1226 0
69 -1226 0
-1227 67 0
-1227 21 0
1226 1227 1225 -87 0
-1247 3 0
-1248 85 0
-1249 7 0
-1249 82 0
-1250 19 0
-1250 70 0
-1251 67 0
-1251 22 0
1250 1249 1247 1248 -88 1251 0
-1267 9 0
-1268 17 0
-1269 65 0
-89 1267 1268 1269 0
-1291 11 0
-1292 19 0
-1293 67 0
-1293 25 0
-91 1292 1293 1291 0
-1334 73 0
-1335 25 0
-1355 5 0
-1356 89 0
-1357 13 0
-1358 21 0
-1359 26 0
1358 -94 1355 1356 1357 1359 0
-1375 3 0
-1376 5 0
-1377 9 0
-1378 17 0
-1379 65 0
-95 1375 1376 1377 1378 1379 0
-1495 7 0
-1496 69 0
-1497 67 0
-103 1496 1495 1497 0
-1527 33 0
-1528 71 0
-1529 35 0
-1530 68 0
-1531 97 0
-1531 8 0
-104 1529 1527 1528 1531 1530 0
-1593 33 0
-1594 75 0
-1595 35 0
-1596 68 0
-1597 97 0
-1597 12 0
-108 1595 1593 1594 1596 1597 0
-1634 73 0
-1635 33 0
-1636 77 0
-1637 37 0
-1638 70 0
-1639 14 0
1638 -110 1635 1636 1639 1637 0
-1640 65 0
-1641 45 0
-1642 69 0
-1643 73 0
-1644 14 0
-110 1642 1640 1641 1643 1644 0
-1645 3 0
-1646 5 0
-1647 9 0
-1648 33 0
-1649 65 0
-111 1645 1646 1647 1648 1649 0
-1729 19 0
-1729 97 0
-1730 35 0
-1730 81 0
-1731 67 0
-115 1730 1731 1729 0
-1771 21 0
-1772 37 0
-1773 69 0
1773 -117 1772 1771 0
-1797 50 0
-1801 49 0
-1803 33 0
-1804 85 0
-1805 37 0
-1806 70 0
-1807 22 0
1806 -118 1803 1804 1807 1805 0
-1813 3 0
-1814 5 0
-1815 17 0
-1816 33 0
-1817 65 0
-119 1813 1814 1815 1816 1817 0
-1873 97 0
-1874 81 0
-1875 49 0
-121 1875 1873 1874 0
-1905 33 0
-1906 89 0
41 -1907 0
-1907 82 0
-1908 49 0
-1909 97 0
-122 1908 1905 1906 1907 1909 0
-1975 5 0
-1976 9 0
-1977 17 0
-1978 33 0
-1979 65 0
-125 1975 1976 1977 1978 1979 0
-2035 7 0
-2035 121 0
-2036 11 0
-2036 117 0
19 -2037 0
-2037 109 0
-2038 35 0
-2038 93 0
-2039 67 0
-2039 61 0
2039 2036 -127 2038 2037 2035 0
-2040 7 0
-2040 121 0
-2041 13 0
-2041 115 0
-2042 107 0
-2043 37 0
-2043 91 0
69 -2044 0
-2044 59 0
2040 2043 -127 2044 2042 2041 0
-2045 11 0
-2045 117 0
-2046 13 0
-2046 115 0
-2047 103 0
41 -2048 0
-2048 87 0
-2049 73 0
-2049 55 0
2047 2048 -127 2049 2045 2046 0
-2050 19 0
-2050 109 0
-2051 107 0
-2052 103 0
49 -2053 0
-2053 79 0
81 -2054 0
-2054 47 0
2050 2053 -127 2054 2051 2052 0
-2055 93 0
-2056 91 0
-2057 87 0
79 -2058 0
-2059 97 0
-2059 31 0
2055 2057 -127 2059 2056 2058 0
67 -2060 0
61 -2060 0
69 -2061 0
-2061 59 0
-2062 73 0
-2062 55 0
81 -2063 0
-2063 47 0
-2064 97 0
-2064 31 0
2060 2061 -127 2062 2063 2064 0
-2079 3 0
-2080 125 0
-2081 122 0
-2082 11 0
-2082 118 0
19 -2083 0
-2084 35 0
-2085 67 0
2081 2082 2083 2084 2085 -128 2079 2080 0
-2093 9 0
-2094 119 0
118 -2095 0
-2096 116 0
-2097 104 0
-2098 41 0
-2098 88 0
-2099 73 0
-2099 56 0
2096 2095 2097 2098 2099 -128 2093 2094 0
-2100 17 0
-2101 111 0
-2102 19 0
-2102 110 0
-2103 108 0
-2104 104 0
-2105 80 0
81 -2106 0
-2106 48 0
2103 2102 2104 2105 2106 -128 2100 2101 0
-2107 33 0
-2108 95 0
-2109 35 0
-2109 94 0
-2110 92 0
-2111 88 0
-2112 80 0
-2113 32 0
2110 2109 2111 2112 2113 -128 2107 2108 0
-2116 67 0
-2117 60 0
-2120 32 0
-2193 130 0
-2194 133 0
-2195 145 0
-150 2193 2194 2195 0
-2277 134 0
-2277 153 0
-2278 138 0
-2278 149 0
-2279 146 0
-2279 141 0
2277 2278 -158 2279 0
-2310 146 0
-2343 130 0
-2344 133 0
-2345 161 0
-166 2343 2344 2345 0
-2379 130 0
-2380 162 0
-2381 161 0
-170 2380 2379 2381 0
-2427 134 0
-2427 169 0
-2428 138 0
-2428 165 0
-2429 162 0
-2429 141 0
-174 2428 2427 2429 0
-2471 168 0
-2472 138 0
-2473 166 0
-2474 164 0
-2475 136 0
2471 -176 2474 2473 2472 2475 0
-2529 134 0
-2529 177 0
-2530 146 0
165 -2530 0
-2531 162 0
-2531 149 0
2530 -182 2531 2529 0
-2595 138 0
-2596 146 0
-2596 169 0
-2597 162 0
-2597 153 0
-186 2595 2596 2597 0
-2661 130 0
-2662 133 0
-2663 182 0
-2664 145 0
-2665 161 0
-190 2663 2662 2661 2664 2665 0
-2681 145 0
-2682 146 0
-2683 170 0
-2684 166 0
-2685 142 0
-190 2682 2681 2683 2684 2685 0
-2847 134 0
-2847 201 0
-2848 138 0
-2848 197 0
-2849 194 0
-2849 141 0
-206 2847 2848 2849 0
-2856 194 0
-2857 138 0
-2858 201 0
-206 2858 2857 2856 0
-2901 130 0
-2902 145 0
-2903 193 0
-210 2901 2902 2903 0
134 -2949 0
-2949 209 0
-2950 146 0
-2950 197 0
-2951 194 0
149 -2951 0
2949 -214 2950 2951 0
-2988 133 0
-2989 211 0
-2990 210 0
-2991 196 0
-2992 148 0
2989 -216 2988 2990 2992 2991 0
-2994 146 0
-2997 209 0
-2998 193 0
-2999 194 0
-3000 150 0
-3001 197 0
-3001 148 0
-3002 209 0
3002 -216 2998 3000 3001 2999 0
-3003 209 0
-3004 145 0
-3005 193 0
-217 3003 3004 3005 0
-3015 138 0
-3015 209 0
-3016 146 0
-3016 201 0
-3017 194 0
-3017 153 0
-218 3016 3015 3017 0
-3044 130 0
-3045 217 0
-3046 211 0
-3047 146 0
-3048 194 0
-220 3045 3044 3047 3046 3048 0
-3081 130 0
-3082 133 0
-3083 214 0
-3084 145 0
-3085 193 0
-222 3083 3082 3081 3084 3085 0
-3219 134 0
-3219 225 0
-3220 162 0
-3220 197 0
-3221 194 0
-230 3221 3219 3220 0
-3285 138 0
-3285 225 0
-3286 162 0
-3287 194 0
-234 3287 3285 3286 0
-3339 225 0
-3340 201 0
-3341 197 0
-237 3340 3339 3341 0
-3453 146 0
-3453 225 0
-3454 162 0
-3454 209 0
-3455 194 0
-242 3455 3453 3454 0
-3485 162 0
-3486 194 0
-3519 130 0
-3520 133 0
-3521 145 0
-3522 161 0
-3523 193 0
-246 3519 3520 3521 3522 3523 0
-3741 134 0
-3741 249 0
-3742 138 0
-3742 245 0
-3743 146 0
-3743 237 0
-3744 162 0
221 -3744 0
-3745 194 0
-3745 189 0
3743 3742 -254 3741 3744 3745 0
-3746 134 0
-3746 249 0
-3747 242 0
-3748 149 0
-3748 234 0
-3749 165 0
-3749 218 0
-3750 197 0
-3750 186 0
3749 3746 -254 3750 3748 3747 0
-3751 138 0
-3751 245 0
-3752 242 0
-3753 230 0
-3754 169 0
-3754 214 0
-3755 201 0
-3755 182 0
3751 3754 -254 3755 3753 3752 0
-3756 146 0
-3756 237 0
-3757 149 0
-3757 234 0
-3758 230 0
-3759 177 0
-3759 206 0
-3760 209 0
-3760 174 0
3756 3759 -254 3760 3757 3758 0
-3761 162 0
-3761 221 0
-3762 218 0
-3763 214 0
-3764 206 0
-3765 225 0
-3765 158 0
3764 3762 -254 3761 3765 3763 0
-3766 194 0
-3766 189 0
-3767 197 0
-3767 186 0
-3768 201 0
-3768 182 0
-3769 209 0
-3769 174 0
225 -3770 0
158 -3770 0
3770 3769 -254 3768 3766 3767 0
-3829 248 0
-3830 138 0
247 -3830 0
-3831 246 0
-3832 244 0
-3833 232 0
169 -3834 0
-3834 216 0
201 -3835 0
-3835 184 0
3832 3830 3833 3834 3835 -256 3829 3831 0
-3843 161 0
-3844 162 0
-3845 222 0
-3846 165 0
-3846 220 0
-3847 169 0
-3847 216 0
-3848 208 0
-3849 225 0
3844 3845 3846 3847 3848 3849 -256 3843 0
-3850 193 0
-3851 194 0
-3852 190 0
-3853 197 0
-3853 188 0
-3854 184 0
209 -3855 0
176 -3855 0
-3856 160 0
3851 3852 3853 3854 3855 3856 -256 3850 0
-3869 258 0
-3870 259 0
-3871 260 0
-268 3871 3870 3869 0
-3917 258 0
-3918 259 0
-3919 260 0
-276 3919 3918 3917 0
-3992 260 0
-3993 267 0
-3994 266 0
3992 -284 3994 3993 0
-3999 266 0
-4103 260 0
-4104 291 0
-4105 263 0
-296 4104 4105 4103 0
-4115 258 0
-4116 290 0
-4117 289 0
-298 4116 4115 4117 0
-4139 260 0
-4139 297 0
-4140 266 0
-4140 291 0
-4141 290 0
-4141 267 0
-300 4140 4141 4139 0
-4217 258 0
-4218 290 0
-4219 289 0
-306 4218 4217 4219 0
-4289 258 0
-4290 259 0
-4291 308 0
-4292 296 0
-4293 289 0
-312 4292 4290 4289 4291 4293 0
-4299 259 0
-4300 260 0
-4300 309 0
-4301 306 0
-4302 294 0
-4303 291 0
-312 4303 4299 4302 4301 4300 0
-4331 266 0
-4331 305 0
-4332 274 0
-4332 297 0
-4333 290 0
-314 4333 4331 4332 0
-4380 289 0
-4381 290 0
-4382 291 0
-4383 276 0
-4384 268 0
-316 4382 4380 4381 4383 4384 0
-4397 258 0
-4398 314 0
-4399 310 0
-4400 302 0
-4401 289 0
-318 4399 4397 4398 4400 4401 0
-4417 302 0
-4418 274 0
-4419 298 0
-4420 294 0
-4421 270 0
-318 4418 4419 4417 4420 4421 0
-4487 258 0
-4488 259 0
-4489 321 0
-324 4487 4488 4489 0
-4559 260 0
-4559 329 0
-4560 266 0
-4561 322 0
-4561 267 0
-332 4559 4561 4560 0
-4637 258 0
-4638 322 0
-4639 321 0
-338 4638 4637 4639 0
-4719 259 0
-4720 341 0
-4721 338 0
-4722 326 0
-4723 323 0
-4723 278 0
-344 4720 4719 4723 4721 4722 0
-4729 328 0
-4730 327 0
-4731 326 0
-4732 324 0
-4733 264 0
-344 4729 4731 4733 4732 4730 0
-4751 266 0
-4751 337 0
-4752 274 0
-4752 329 0
-4753 322 0
-346 4752 4753 4751 0
-4907 258 0
-4908 289 0
-4909 321 0
-354 4907 4908 4909 0
-4919 259 0
-4920 289 0
-4921 321 0
-355 4919 4920 4921 0
-4999 289 0
-5000 290 0
-5000 327 0
-5001 291 0
-5001 326 0
-5002 324 0
-5003 353 0
-5003 264 0
-360 5003 4999 5001 5002 5000 0
-5009 353 0
-5010 289 0
-5011 321 0
-361 5009 5010 5011 0
-5021 266 0
-5021 353 0
-5022 290 0
-5022 329 0
-5023 322 0
-5023 297 0
-362 5022 5021 5023 0
-5132 359 0
-5133 357 0
-5134 355 0
-5135 327 0
-5136 295 0
-367 5132 5133 5134 5135 5136 0
-5177 353 0
-5178 289 0
-5179 321 0
-369 5177 5178 5179 0
-5189 353 0
-5190 290 0
-5191 322 0
-370 5190 5189 5191 0
-5213 258 0
-5214 259 0
-5215 356 0
-5216 289 0
-5217 321 0
-372 5215 5214 5213 5216 5217 0
-5218 258 0
-5219 369 0
-5220 355 0
-5221 290 0
-5221 339 0
-5222 322 0
-5222 307 0
-372 5219 5218 5220 5222 5221 0
-5223 259 0
-5224 369 0
-5225 354 0
-5226 291 0
-5226 338 0
-5227 323 0
-5227 306 0
-372 5224 5223 5225 5227 5226 0
-5242 353 0
-5255 258 0
-5256 370 0
-5257 358 0
-5258 289 0
-5259 321 0
-374 5257 5255 5256 5258 5259 0
-5270 358 0
-5271 357 0
-5272 354 0
-5273 326 0
-5274 294 0
-374 5270 5271 5272 5274 5273 0
-5275 289 0
-5276 341 0
-5277 338 0
-5278 326 0
-5279 353 0
-374 5279 5275 5278 5276 5277 0
-5290 259 0
-5291 369 0
-5292 357 0
-5293 291 0
-5294 323 0
-375 5292 5290 5294 5291 5293 0
-5345 353 0
-5346 297 0
-5347 329 0
-377 5346 5345 5347 0
-5392 259 0
-5393 369 0
-5394 361 0
-5395 291 0
-5396 323 0
-379 5393 5392 5396 5394 5395 0
-5422 260 0
-5422 377 0
-5423 267 0
-5423 370 0
-5424 275 0
-5424 362 0
291 -5425 0
346 -5425 0
-5426 323 0
-5426 314 0
5425 5423 -380 5426 5424 5422 0
-5427 371 0
-5428 370 0
-5429 281 0
-5430 297 0
-5431 329 0
5429 5427 -380 5431 5430 5428 0
-5432 363 0
-5433 362 0
-5434 356 0
-5435 305 0
-5435 332 0
-5436 300 0
5434 5432 -380 5435 5436 5433 0
-5437 347 0
-5438 346 0
-5439 340 0
-5440 305 0
-5440 332 0
-5441 353 0
284 -5441 0
5439 5440 -380 5441 5437 5438 0
-5442 322 0
-5442 315 0
-5443 314 0
-5444 308 0
-5445 337 0
-5445 300 0
-5446 353 0
284 -5446 0
5445 5446 -380 5442 5443 5444 0
-5544 383 0
-5545 260 0
-5546 379 0
-5547 375 0
-5548 367 0
-5549 290 0
-5550 319 0
5545 5546 5547 5548 5549 5550 -384 5544 0
-5565 376 0
-5566 266 0
-5566 375 0
-5567 267 0
-5567 374 0
-5568 269 0
-5568 372 0
-5569 281 0
-5569 360 0
-5570 297 0
-5570 344 0
-5571 329 0
-5571 312 0
5566 5567 5568 5569 5570 5571 -384 5565 0
-5579 289 0
-5580 290 0
-5581 291 0
-5582 348 0
-5583 297 0
-5584 336 0
-5585 353 0
-5585 288 0
5580 5581 5582 5583 5584 5585 -384 5579 0
-5586 321 0
-5587 322 0
-5588 318 0
-5589 325 0
-5589 316 0
-5590 312 0
-5591 304 0
-5592 353 0
-5592 288 0
5587 5588 5589 5590 5591 5592 -384 5586 0
-264 -249 0
-266 -247 0
-288 -225 0
-218 -295 0
-297 -216 0
-302 -211 0
-304 -209 0
-305 -208 0
-307 -206 0
-199 -314 0
-319 -194 0
-190 -323 0
-327 -186 0
-329 -184 0
-337 -176 0
-339 -174 0
-344 -169 0
-346 -167 0
-348 -165 0
-160 -353 0
-360 -153 0
-151 -362 0
-375 -138 0
-377 -136 0
-237 -275 -2 0
-359 -153 -2 0
-363 -149 -2 0
-371 -141 -2 0
-369 -138 -7 0
-249 -8 0
-281 -8 -225 0
-297 -209 -8 0
-329 -177 -8 0
-337 -169 -8 0
-377 -8 0
-278 -11 -225 0
-11 -146 -357 0
-374 -11 0
-12 -245 0
-244 -13 0
-13 -290 -211 0
-13 -322 -179 0
-13 -148 -353 0
-372 -13 0
-14 -323 -177 0
-326 -169 -19 0
-142 -19 -353 0
-138 -19 -357 0
-237 -20 0
-269 -20 -225 0
-297 -197 -20 0
-325 -169 -20 0
-165 -329 -20 0
-21 -266 -227 0
-22 -267 -225 0
-323 -22 -169 0
-363 -22 0
-25 -232 0
-25 -264 -225 0
-25 -136 -353 0
-25 -360 0
-32 -225 0
-353 -32 0
-270 -35 -209 0
-341 -35 -138 0
-221 -36 0
-269 -36 -209 0
-266 -37 -211 0
-38 -267 -209 0
-347 -38 0
-216 -41 0
-327 -41 -146 0
-337 -136 -41 0
-275 -197 -42 0
-48 -209 0
-337 -48 0
-208 -49 0
-266 -199 -49 0
-327 -138 -49 0
-329 -136 -49 0
-336 -49 0
-197 -267 -50 0
-201 -56 0
-329 -56 0
-326 -59 0
-197 -60 0
-325 -60 0
-196 -61 0
-323 -62 0
-309 -138 -67 0
-318 -67 0
-189 -68 0
-297 -149 -68 0
-188 -69 0
-266 -179 -69 0
-267 -177 -70 0
-153 -291 -70 0
-315 -70 0
-73 -184 0
-305 -73 -136 0
-312 -73 0
-275 -74 -165 0
-177 -80 0
-305 -80 0
-81 -176 0
-266 -81 -167 0
-295 -81 -138 0
-82 -267 -165 0
-169 -88 0
-297 -88 0
-91 -162 -261 0
-91 -294 0
-92 -165 0
-93 -164 0
-290 -93 -131 0
-291 -94 0
-153 -97 -264 0
-266 -97 -151 0
-97 -288 0
-153 -104 0
-107 -146 -261 0
-149 -108 0
-109 -148 0
-274 -109 -131 0
-141 -116 0
-267 -118 0
-121 -136 0
-264 -121 0
-3 0
-5 0
-9 0
-17 0
-33 0
-65 0
2 0
127 0
-263 -249 0
-267 -245 0
-189 -323 0
-383 0
122 -121 0
-122 121 0
-117 118 0
117 -118 0
116 -115 0
-116 115 0
110 -109 0
-110 109 0
-107 108 0
-108 107 0
-103 104 0
-104 103 0
94 -93 0
-91 92 0
-92 91 0
88 -87 0
-88 87 0
80 -79 0
74 -73 0
70 -69 0
-70 69 0
68 -67 0
-68 67 0
62 -61 0
60 -59 0
-55 56 0
-56 55 0
-50 49 0
-47 48 0
42 -41 0
-42 41 0
38 -37 0
36 -35 0
-36 35 0
-31 32 0
-26 25 0
20 -19 0
-20 19 0
-11 12 0
-12 11 0
8 -7 0
-8 7 0
-130 0
-133 0
-145 0
-161 0
-193 0
131 0
254 0
-266 -117 0
-310 -73 0
-314 -69 0
-37 -346 0
-21 -362 0
-13 -370 0
-260 -117 0
-290 -87 0
-308 -69 0
-55 -322 0
-328 -49 0
-340 -37 0
-356 -21 0
-358 -19 0
-370 -7 0
-376 0
-245 247 0
245 -247 0
-242 244 0
-244 242 0
232 -230 0
-232 230 0
227 -225 0
-214 216 0
214 -216 0
211 -209 0
-211 209 0
-197 199 0
196 -194 0
-196 194 0
184 -182 0
-184 182 0
179 -177 0
167 -165 0
164 -162 0
-164 162 0
-149 151 0
148 -146 0
-148 146 0
136 -134 0
134 -136 0
-258 0
-259 0
-289 0
-321 0
261 0
380 0
-115 -138 0
-186 -67 0
-59 -194 0
-218 -35 0
-234 -19 0
-242 -11 0
-115 -134 0
-103 -146 0
-87 -162 0
-182 -67 0
-55 -194 0
-35 -214 0
-230 -19 0
-242 -7 0
-248 0
-107 -134 0
-103 -138 0
-79 -162 0
-168 -73 0
-174 -67 0
-47 -194 0
-206 -35 0
-230 -11 0
-234 -7 0
-356 360 0
-360 356 0
357 -353 0
-357 353 0
-323 327 0
-327 323 0
-322 326 0
-326 322 0
-291 295 0
294 -290 0
-294 290 0
-260 264 0
-264 260 0
