p cnf 5592 1609
128 0
256 0
384 0
-553 7 0
-553 25 0
-554 11 0
-554 21 0
-555 19 0
-555 13 0
-31 553 555 554 0
-679 5 0
-680 9 0
-681 33 0
-45 679 680 681 0
-703 7 0
-703 41 0
-704 37 0
-705 35 0
-47 703 704 705 0
-725 3 0
-726 45 0
-727 7 0
-727 42 0
-728 11 0
-728 38 0
-729 35 0
-729 14 0
-48 727 728 729 725 726 0
-737 11 0
-738 13 0
-805 7 0
-805 49 0
-806 19 0
-806 37 0
-807 35 0
-807 21 0
-55 805 806 807 0
-871 11 0
-871 49 0
-872 19 0
-872 41 0
-873 35 0
-873 25 0
-59 873 872 871 0
-900 11 0
-900 50 0
-901 25 0
-913 13 0
-913 49 0
-914 21 0
-914 41 0
-915 37 0
25 -915 0
-61 913 914 915 0
-945 17 0
-946 45 0
-947 42 0
-948 38 0
-949 49 0
947 -62 948 949 945 946 0
-952 37 0
-953 41 0
-955 3 0
-956 5 0
-957 9 0
-958 17 0
-959 33 0
-63 955 956 957 958 959 0
-1099 5 0
-1100 9 0
-1101 65 0
-77 1099 1100 1101 0
-1123 7 0
-1123 73 0
-1124 11 0
-1124 69 0
-1125 67 0
-1125 13 0
-79 1124 1123 1125 0
-1177 3 0
-1178 17 0
-1179 65 0
-83 1177 1178 1179 0
-1225 7 0
-1225 81 0
-1226 19 0
-1226 69 0
-1227 67 0
-1227 21 0
-87 1225 1226 1227 0
-1291 11 0
-1291 81 0
-1292 19 0
-1292 73 0
-1293 67 0
-1293 25 0
1293 -91 1292 1291 0
-1315 11 0
-1318 9 0
-1319 83 0
-1320 11 0
-1321 25 0
-1322 73 0
1321 -92 1320 1322 1318 1319 0
-1326 68 0
-1333 13 0
-1333 81 0
-1334 21 0
-1334 73 0
-1335 69 0
-1335 25 0
1335 -93 1334 1333 0
-1372 69 0
-1447 3 0
-1448 33 0
-1449 65 0
-99 1447 1448 1449 0
-1471 5 0
-1472 33 0
-1473 65 0
-101 1471 1472 1473 0
-1495 7 0
-1495 97 0
-1496 35 0
-1496 69 0
-1497 67 0
-1497 37 0
-103 1496 1495 1497 0
-1561 11 0
-1561 97 0
-1562 35 0
-1562 73 0
-1563 67 0
-1563 41 0
-107 1563 1561 1562 0
-1588 9 0
-1589 99 0
-1590 11 0
-1590 98 0
-1591 68 0
-1592 73 0
-1592 36 0
1591 -108 1592 1590 1588 1589 0
-1603 13 0
-1603 97 0
-1604 37 0
-1604 73 0
-1605 69 0
-1605 41 0
1605 -109 1604 1603 0
-1612 69 0
-1613 37 0
-1633 41 0
-1635 33 0
-1636 77 0
-1637 37 0
-1637 74 0
-1638 70 0
-1639 97 0
-1639 14 0
1638 -110 1637 1639 1635 1636 0
-1705 17 0
-1706 33 0
-1707 65 0
-113 1705 1706 1707 0
-1729 19 0
-1729 97 0
-1730 35 0
-1730 81 0
-1731 67 0
-1731 49 0
-115 1730 1729 1731 0
-1756 17 0
-1757 99 0
-1758 19 0
-1759 68 0
-1760 36 0
-116 1759 1758 1760 1756 1757 0
-1764 68 0
-1768 67 0
-1771 21 0
-1771 97 0
-1772 37 0
-1772 81 0
-1773 69 0
-1773 49 0
-117 1773 1772 1771 0
-1798 17 0
-1799 101 0
-1800 21 0
-1801 70 0
-1802 81 0
-1802 38 0
1801 -118 1802 1800 1798 1799 0
-1807 22 0
-1812 22 0
-1813 3 0
-1814 5 0
-1815 17 0
-1816 33 0
-1817 65 0
-119 1813 1814 1815 1816 1817 0
-1873 25 0
-1873 97 0
41 -1874 0
-1874 81 0
-1875 73 0
-1875 49 0
-121 1875 1873 1874 0
-1895 9 0
-1896 113 0
-1897 25 0
-1897 98 0
-1898 41 0
-1898 82 0
-1899 73 0
-1899 50 0
-122 1899 1897 1898 1895 1896 0
-1914 97 0
-1915 3 0
-1916 9 0
-1917 17 0
-1918 33 0
-1919 65 0
-123 1915 1916 1917 1918 1919 0
-1975 5 0
-1976 9 0
-1977 17 0
-1978 33 0
-1979 65 0
-125 1975 1976 1977 1978 1979 0
-2035 7 0
-2035 121 0
-2036 11 0
-2036 117 0
-2037 19 0
-2037 109 0
-2038 35 0
-2038 93 0
-2039 67 0
-2039 61 0
2039 2036 2037 2035 2038 -127 0
-2040 7 0
-2040 121 0
-2041 13 0
-2041 115 0
-2042 21 0
-2042 107 0
37 -2043 0
-2043 91 0
69 -2044 0
-2044 59 0
2044 2041 2042 2040 2043 -127 0
-2045 11 0
-2045 117 0
-2046 13 0
-2046 115 0
-2047 25 0
-2047 103 0
41 -2048 0
-2048 87 0
-2049 73 0
-2049 55 0
2048 2047 2049 2046 2045 -127 0
-2050 19 0
-2050 109 0
-2051 21 0
-2051 107 0
25 -2052 0
-2052 103 0
-2053 49 0
-2053 79 0
-2054 81 0
47 -2054 0
2052 2054 2050 2051 2053 -127 0
-2055 93 0
-2056 91 0
-2057 41 0
-2057 87 0
-2058 49 0
-2058 79 0
-2059 97 0
-2059 31 0
2055 2057 2056 2058 2059 -127 0
67 -2060 0
-2060 61 0
69 -2061 0
-2061 59 0
-2062 73 0
-2062 55 0
-2063 81 0
47 -2063 0
-2064 97 0
-2064 31 0
2060 2061 2062 2063 2064 -127 0
-2079 3 0
-2080 125 0
-2081 122 0
-2082 11 0
-2082 118 0
-2083 19 0
-2083 110 0
-2084 35 0
-2085 67 0
-2085 62 0
2082 2081 2083 2084 2085 -128 2079 2080 0
-2086 5 0
-2087 123 0
-2088 122 0
-2089 116 0
-2090 108 0
92 -2091 0
-2092 60 0
2088 2089 2090 2091 2092 -128 2086 2087 0
-2093 9 0
-2094 119 0
-2095 11 0
-2095 118 0
-2096 116 0
-2097 25 0
-2097 104 0
-2098 41 0
-2098 88 0
-2099 73 0
-2099 56 0
2095 2096 2097 2098 2099 -128 2093 2094 0
-2102 19 0
-2103 21 0
-2104 25 0
-2109 94 0
-2110 92 0
-2114 65 0
-2115 63 0
-2116 67 0
-2116 62 0
-2117 69 0
-2117 60 0
-2118 73 0
-2118 56 0
-2119 81 0
48 -2119 0
-2120 97 0
-2120 32 0
2116 2117 2118 2119 2120 -128 2114 2115 0
-2193 130 0
-2194 133 0
-2195 145 0
-150 2193 2194 2195 0
-2265 133 0
-2266 137 0
-2267 145 0
-157 2265 2266 2267 0
-2277 134 0
-2277 153 0
-2278 138 0
-2278 149 0
-2279 146 0
-2279 141 0
-158 2278 2277 2279 0
-2288 134 0
-2306 130 0
-2307 157 0
-2308 134 0
-2308 155 0
-2309 151 0
-2310 146 0
-160 2309 2308 2310 2306 2307 0
-2327 146 0
-2329 149 0
-2427 134 0
-2427 169 0
-2428 138 0
-2428 165 0
-2429 162 0
-2429 141 0
-174 2427 2428 2429 0
-2472 138 0
-2474 141 0
-2529 134 0
-2529 177 0
-2530 146 0
-2530 165 0
-2531 162 0
-2531 149 0
2529 2530 -182 2531 0
-2577 177 0
-2595 138 0
-2595 177 0
-2596 146 0
-2596 169 0
-2597 162 0
-2597 153 0
-186 2595 2597 2596 0
-2661 130 0
-2662 133 0
-2663 137 0
-2664 145 0
-2665 161 0
-190 2661 2662 2663 2664 2665 0
-2715 143 0
-2763 130 0
-2764 133 0
-2765 193 0
-198 2763 2764 2765 0
-2847 134 0
-2847 201 0
-2848 138 0
-2848 197 0
-2849 194 0
-2849 141 0
-206 2847 2849 2848 0
-2891 137 0
-2892 138 0
-2892 199 0
-2893 198 0
-2894 141 0
-2894 196 0
-2895 201 0
-2895 136 0
-208 2895 2894 2892 2891 2893 0
-2901 130 0
-2902 145 0
-2903 193 0
-210 2901 2902 2903 0
-2949 134 0
-2949 209 0
-2950 146 0
-2950 197 0
-2951 194 0
-2951 149 0
-214 2950 2951 2949 0
-2981 199 0
-2988 133 0
-2989 211 0
-2990 210 0
-2991 196 0
-2992 197 0
-2992 148 0
-216 2992 2991 2989 2988 2990 0
-2993 145 0
-2994 199 0
-2995 198 0
-2996 149 0
-2997 209 0
-2997 136 0
-216 2994 2996 2997 2993 2995 0
-2998 193 0
-2999 194 0
-2999 151 0
-3000 150 0
-3001 197 0
-3002 209 0
-3002 136 0
-216 3001 3002 2999 2998 3000 0
-3003 137 0
-3004 145 0
-3005 193 0
-217 3003 3004 3005 0
-3015 138 0
-3015 209 0
146 -3016 0
201 -3016 0
-3017 194 0
-3017 153 0
3016 -218 3017 3015 0
-3044 130 0
-3045 217 0
-3046 138 0
-3046 211 0
-3047 146 0
-3048 194 0
-3048 155 0
3047 -220 3048 3046 3044 3045 0
-3057 153 0
-3057 196 0
-3058 148 0
-3062 153 0
-3069 141 0
-3069 209 0
-3070 149 0
-3070 201 0
-3071 197 0
-3071 153 0
-221 3070 3071 3069 0
-3081 130 0
-3082 133 0
-3083 137 0
-3084 145 0
-3085 193 0
-222 3081 3082 3083 3084 3085 0
-3171 130 0
-3172 161 0
-3173 193 0
-226 3171 3172 3173 0
-3207 133 0
-3208 161 0
-3209 193 0
-229 3207 3208 3209 0
-3219 225 0
-3220 162 0
-3221 165 0
-230 3220 3219 3221 0
-3225 162 0
-3225 197 0
-3226 165 0
-3226 194 0
-3227 225 0
134 -3227 0
-230 3225 3227 3226 0
-3250 227 0
-3263 161 0
-3264 162 0
-3264 199 0
-3265 198 0
-3266 165 0
-3266 196 0
-3267 225 0
136 -3267 0
-232 3264 3267 3266 3263 3265 0
-3273 137 0
-3274 161 0
-3275 193 0
-233 3273 3274 3275 0
-3285 138 0
-3285 225 0
162 -3286 0
201 -3286 0
-3287 194 0
-3287 169 0
3286 -234 3285 3287 0
-3314 130 0
-3315 233 0
-3316 138 0
-3316 227 0
-3317 162 0
-3318 194 0
-3318 171 0
3317 3316 -236 3318 3314 3315 0
-3324 137 0
-3325 138 0
-3325 227 0
-3326 226 0
-3327 169 0
-3327 196 0
-3328 201 0
164 -3328 0
3328 3325 -236 3327 3324 3326 0
-3339 141 0
-3339 225 0
-3340 165 0
-3340 201 0
-3341 197 0
-3341 169 0
3340 -237 3339 3341 0
-3351 130 0
-3352 133 0
-3353 137 0
-3354 161 0
-3355 193 0
-238 3351 3352 3353 3354 3355 0
-3399 199 0
-3403 165 0
-3441 145 0
-3442 161 0
-3443 193 0
-241 3441 3442 3443 0
-3453 146 0
-3453 225 0
-3454 162 0
-3454 209 0
-3455 194 0
-3455 177 0
-242 3455 3453 3454 0
-3482 130 0
-3483 241 0
-3484 227 0
-3485 162 0
-3485 211 0
-3486 194 0
-244 3486 3485 3484 3482 3483 0
-3497 161 0
-3498 162 0
-3498 211 0
-3499 210 0
-3500 177 0
-3501 225 0
-3501 148 0
-244 3500 3501 3498 3497 3499 0
-3509 197 0
-3519 130 0
-3520 133 0
-3521 145 0
-3522 161 0
-3523 193 0
-246 3519 3520 3521 3522 3523 0
-3559 133 0
-3560 241 0
-3561 149 0
-3561 227 0
-3562 165 0
-3562 211 0
-3563 197 0
-247 3563 3562 3561 3559 3560 0
-3564 145 0
-3565 229 0
-3566 149 0
-3566 227 0
-3567 177 0
-3567 199 0
-3568 209 0
-247 3567 3566 3568 3564 3565 0
-3609 153 0
-3609 225 0
-3610 169 0
-3610 209 0
-3611 201 0
-3611 177 0
-249 3611 3610 3609 0
-3621 130 0
-3622 137 0
-3623 145 0
-3624 161 0
-3625 193 0
-250 3621 3622 3623 3624 3625 0
-3741 134 0
-3741 249 0
-3742 138 0
-3742 245 0
-3743 146 0
237 -3743 0
-3744 162 0
-3744 221 0
-3745 194 0
-3745 189 0
3744 3743 3745 3741 3742 -254 0
-3746 134 0
-3746 249 0
-3747 141 0
-3747 242 0
149 -3748 0
234 -3748 0
165 -3749 0
218 -3749 0
-3750 197 0
-3750 186 0
3749 3748 3746 3750 3747 -254 0
-3751 245 0
-3752 141 0
-3752 242 0
-3753 153 0
-3753 230 0
-3754 169 0
-3754 214 0
-3755 201 0
-3755 182 0
3755 3751 3754 3753 -254 3752 0
-3756 146 0
-3756 237 0
-3757 149 0
-3757 234 0
153 -3758 0
-3758 230 0
-3759 177 0
-3759 206 0
-3760 209 0
-3760 174 0
3759 3756 3758 3760 -254 3757 0
-3761 162 0
-3761 221 0
-3762 218 0
-3763 214 0
177 -3764 0
-3764 206 0
-3765 225 0
-3765 158 0
3761 3763 3765 3762 3764 -254 0
-3766 194 0
-3766 189 0
-3767 197 0
-3767 186 0
201 -3768 0
182 -3768 0
-3769 209 0
-3769 174 0
-3770 225 0
-3770 158 0
3767 3766 3770 3769 3768 -254 0
-3810 134 0
-3811 247 0
-3814 194 0
-3822 133 0
-3823 134 0
-3823 251 0
-3824 250 0
-3825 141 0
-3825 244 0
149 -3826 0
-3826 236 0
-3827 165 0
-3827 220 0
-3828 197 0
-3828 188 0
3825 3823 3826 3827 3828 -256 3822 3824 0
-3829 137 0
-3830 138 0
-3830 247 0
-3831 246 0
-3832 141 0
-3832 244 0
-3833 232 0
-3834 169 0
-3834 216 0
201 -3835 0
-3835 184 0
3832 3830 3833 3834 3835 -256 3829 3831 0
-3836 145 0
-3837 146 0
-3837 239 0
-3838 238 0
-3839 149 0
-3839 236 0
-3840 232 0
-3841 177 0
-3841 208 0
-3842 209 0
-3842 176 0
3839 3837 3840 3841 3842 -256 3836 3838 0
-3843 161 0
-3844 162 0
-3844 223 0
-3845 222 0
165 -3846 0
-3846 220 0
-3847 169 0
-3847 216 0
-3848 177 0
-3848 208 0
-3849 225 0
-3849 160 0
3846 3844 3847 3848 3849 -256 3843 3845 0
-3850 193 0
-3851 194 0
-3852 190 0
-3853 197 0
-3853 188 0
201 -3854 0
184 -3854 0
-3855 209 0
-3855 176 0
-3856 225 0
-3856 160 0
3851 3853 3854 3855 3856 -256 3850 3852 0
-3869 258 0
-3870 259 0
-3871 265 0
-268 3869 3870 3871 0
-3917 258 0
-3918 259 0
-3919 273 0
-276 3917 3918 3919 0
-3965 258 0
-3966 265 0
-3967 273 0
-282 3965 3966 3967 0
-3977 259 0
-3978 265 0
-3979 273 0
-283 3977 3978 3979 0
-3989 260 0
281 -3989 0
-3990 275 0
-3991 274 0
-3991 267 0
3991 -284 3990 3989 0
-4042 258 0
-4043 260 0
285 -4043 0
-4044 283 0
-4045 266 0
-4045 279 0
-4046 274 0
-4046 271 0
4046 -288 4045 4043 4042 4044 0
-4047 259 0
-4048 260 0
-4048 285 0
-4049 282 0
-4050 278 0
-4051 275 0
-4051 270 0
4050 -288 4051 4048 4047 4049 0
-4058 279 0
-4059 267 0
-4062 273 0
-4063 274 0
-4064 275 0
-4065 268 0
-4066 281 0
-4066 264 0
4063 -288 4064 4066 4065 4062 0
-4067 258 0
-4068 259 0
-4069 289 0
-292 4067 4068 4069 0
-4127 259 0
-4128 265 0
-4129 289 0
-299 4127 4128 4129 0
-4139 260 0
-4139 297 0
-4140 266 0
-4140 291 0
-4141 290 0
-4141 267 0
4141 4139 4140 -300 0
-4192 258 0
-4193 260 0
-4193 301 0
-4194 299 0
-4195 266 0
-4195 295 0
-4196 290 0
4196 4193 -304 4195 4192 4194 0
-4207 265 0
-4208 266 0
-4209 267 0
-4210 292 0
-4211 297 0
-4211 264 0
4208 4209 -304 4211 4210 4207 0
-4212 289 0
-4213 290 0
-4213 271 0
-4214 291 0
270 -4214 0
-4215 268 0
-4216 297 0
-4216 264 0
4213 4216 -304 4214 4215 4212 0
-4229 259 0
-4230 273 0
-4231 289 0
-307 4229 4230 4231 0
-4241 260 0
-4241 305 0
-4242 274 0
-4242 291 0
-4243 290 0
-4243 275 0
-308 4241 4243 4242 0
-4244 260 0
-4245 290 0
-4246 291 0
-308 4245 4244 4246 0
-4294 258 0
-4295 260 0
-4296 307 0
-4297 274 0
-4297 295 0
-4298 279 0
-312 4295 4297 4298 4294 4296 0
-4309 273 0
-4310 274 0
-4310 295 0
-4311 275 0
-4311 294 0
-4312 292 0
-4313 264 0
-312 4313 4310 4311 4312 4309 0
-4314 289 0
-4315 290 0
-4315 279 0
-4316 291 0
-4317 276 0
-4318 305 0
-312 4318 4315 4316 4317 4314 0
-4319 265 0
-4320 273 0
-4321 289 0
-313 4319 4320 4321 0
-4331 266 0
-4332 274 0
-4333 290 0
-4333 281 0
-314 4331 4333 4332 0
-4343 267 0
-4344 275 0
-4344 297 0
-4345 291 0
-4345 281 0
-315 4343 4344 4345 0
-4355 258 0
-4356 259 0
-4357 265 0
-4358 273 0
-4359 289 0
-316 4355 4356 4357 4358 4359 0
-4420 281 0
-4487 258 0
-4488 259 0
-4489 321 0
-324 4487 4488 4489 0
-4535 258 0
-4536 265 0
-4537 321 0
-330 4535 4536 4537 0
-4547 259 0
-4548 265 0
-4549 321 0
-331 4547 4548 4549 0
-4559 260 0
-4559 329 0
-4560 266 0
-4560 323 0
-4561 322 0
-4561 267 0
-332 4560 4559 4561 0
-4612 258 0
-4613 260 0
-4613 333 0
-4614 331 0
-4615 327 0
-4616 322 0
-336 4615 4613 4616 4612 4614 0
-4661 260 0
-4661 337 0
-4662 274 0
-4662 323 0
-4663 322 0
-4663 275 0
-340 4661 4662 4663 0
-4715 341 0
-4729 273 0
-4730 274 0
-4730 327 0
-4731 275 0
-4731 326 0
-4732 324 0
-4733 337 0
-4733 264 0
-344 4733 4731 4730 4732 4729 0
-4734 321 0
-4735 279 0
-4736 323 0
-4737 276 0
-4738 337 0
-4738 264 0
-344 4738 4735 4736 4737 4734 0
-4739 265 0
-4740 273 0
-4741 321 0
-345 4739 4740 4741 0
-4751 266 0
-4751 337 0
-4752 274 0
-4752 329 0
-4753 322 0
-4753 281 0
-346 4751 4752 4753 0
-4762 266 0
-4763 267 0
-4763 337 0
-4764 275 0
-4764 329 0
-4765 323 0
-4765 281 0
-347 4763 4764 4765 0
-4775 258 0
-4776 259 0
-4777 265 0
-4778 273 0
-4779 321 0
-348 4775 4776 4777 4778 4779 0
-4852 259 0
-4853 345 0
-4854 267 0
-4855 275 0
-4856 323 0
-4856 285 0
-351 4854 4855 4856 4852 4853 0
-4907 258 0
-4908 289 0
-4909 321 0
-354 4907 4908 4909 0
-4931 260 0
-4931 353 0
-4932 290 0
-4932 323 0
-4933 322 0
-4933 291 0
-356 4931 4932 4933 0
-4989 259 0
-4990 260 0
-4990 357 0
-4991 354 0
-4992 291 0
-4992 326 0
-4993 323 0
-4993 294 0
-360 4990 4993 4992 4989 4991 0
-5021 266 0
-5033 267 0
-5034 291 0
-5034 329 0
-5035 323 0
-363 5033 5034 5035 0
-5045 258 0
-5046 259 0
-5047 265 0
-5048 289 0
-5049 321 0
-364 5045 5046 5047 5048 5049 0
-5103 266 0
-5106 329 0
-5107 289 0
-5108 290 0
-5108 333 0
-5109 330 0
-5110 297 0
-5110 326 0
-5111 353 0
-5111 270 0
-366 5111 5110 5108 5107 5109 0
-5116 270 0
-5201 275 0
-5202 291 0
-5202 337 0
-5203 323 0
-371 5203 5202 5201 0
-5213 258 0
-5214 259 0
-5215 273 0
-5216 289 0
-5217 321 0
-372 5213 5214 5215 5216 5217 0
-5345 281 0
-5357 258 0
-5358 265 0
-5359 273 0
-5360 289 0
-5361 321 0
-378 5357 5358 5359 5360 5361 0
-5387 259 0
-5388 265 0
-5389 273 0
-5390 289 0
-5391 321 0
-379 5387 5388 5389 5390 5391 0
-5417 260 0
-5417 377 0
-5418 266 0
-5418 371 0
-5419 274 0
-5419 363 0
-5420 290 0
-5420 347 0
-5421 322 0
-5421 315 0
5418 5417 5419 5421 5420 -380 0
-5422 260 0
-5422 377 0
-5423 267 0
-5423 370 0
-5424 275 0
-5424 362 0
-5425 291 0
-5425 346 0
-5426 323 0
-5426 314 0
5422 5423 5425 5426 5424 -380 0
-5427 266 0
-5427 371 0
-5428 267 0
-5428 370 0
-5429 281 0
-5429 356 0
-5430 297 0
-5430 340 0
-5431 329 0
-5431 308 0
5427 5428 5431 5430 5429 -380 0
-5432 274 0
-5432 363 0
-5433 275 0
-5433 362 0
-5434 281 0
-5434 356 0
-5435 305 0
-5435 332 0
337 -5436 0
-5436 300 0
5436 5435 5433 5434 5432 -380 0
-5437 290 0
-5437 347 0
-5438 291 0
-5438 346 0
-5439 297 0
-5439 340 0
-5440 305 0
-5440 332 0
-5441 353 0
-5441 284 0
5441 5440 5438 5439 5437 -380 0
-5442 322 0
-5442 315 0
-5443 323 0
-5443 314 0
-5444 329 0
-5444 308 0
-5445 300 0
-5446 353 0
-5446 284 0
5445 5446 5443 5444 5442 -380 0
-5470 333 0
-5472 321 0
-5473 313 0
-5474 329 0
-5475 337 0
-5475 301 0
-5476 353 0
-5476 285 0
-381 5476 5474 5475 5472 5473 0
-5544 383 0
-5545 381 0
-5546 379 0
-5547 266 0
-5548 367 0
-5549 290 0
-5550 319 0
5545 5547 5548 5549 5550 -384 5544 5546 0
-5551 382 0
-5552 260 0
-5552 381 0
-5553 378 0
-5554 267 0
-5554 374 0
-5555 275 0
-5555 366 0
-5556 291 0
-5556 350 0
-5557 323 0
-5557 318 0
5552 5554 5555 5556 5557 -384 5551 5553 0
-5565 265 0
-5566 266 0
-5567 267 0
-5567 374 0
-5568 372 0
-5569 281 0
-5569 360 0
-5570 297 0
-5570 344 0
-5571 329 0
-5571 312 0
5567 5566 5569 5570 5571 -384 5565 5568 0
-5572 273 0
-5573 274 0
-5573 367 0
-5574 275 0
-5574 366 0
-5575 364 0
-5576 281 0
-5576 360 0
-5577 305 0
-5577 336 0
-5578 337 0
-5578 304 0
5573 5574 5576 5577 5578 -384 5572 5575 0
-5579 289 0
-5580 290 0
-5580 351 0
-5581 291 0
-5581 350 0
-5582 348 0
-5583 297 0
-5583 344 0
-5584 305 0
-5584 336 0
-5585 353 0
-5585 288 0
5581 5580 5583 5584 5585 -384 5579 5582 0
-5586 321 0
-5587 322 0
-5587 319 0
-5588 323 0
-5588 318 0
-5589 316 0
-5590 329 0
-5590 312 0
-5591 337 0
-5591 304 0
353 -5592 0
288 -5592 0
5588 5587 5590 5591 5592 -384 5586 5589 0
-249 -264 0
-266 -247 0
-271 -242 0
-274 -239 0
-279 -234 0
-232 -281 0
-225 -288 0
-290 -223 0
-295 -218 0
-216 -297 0
-209 -304 0
-208 -305 0
-312 -201 0
-314 -199 0
-319 -194 0
-191 -322 0
-186 -327 0
-329 -184 0
-177 -336 0
-176 -337 0
-344 -169 0
-346 -167 0
-351 -162 0
-160 -353 0
-360 -153 0
-362 -151 0
-367 -146 0
-370 -143 0
-375 -138 0
-377 -136 0
-275 -237 -2 0
-291 -221 -2 0
-347 -165 -2 0
-249 -8 0
-8 -225 -281 0
-209 -297 -8 0
-8 -305 -201 0
-8 -177 -329 0
-8 -169 -337 0
-8 -153 -353 0
-377 -8 0
-242 -11 -261 0
-11 -278 -225 0
-11 -309 -194 0
-11 -357 -146 0
-374 -11 0
-12 -245 0
-12 -305 -197 0
-12 -337 -165 0
-12 -353 -149 0
-244 -13 0
-274 -227 -13 0
-211 -290 -13 0
-305 -13 -196 0
-322 -179 -13 0
-337 -164 -13 0
-13 -353 -148 0
-370 -13 -131 0
-225 -275 -14 0
-209 -291 -14 0
-371 -14 0
-19 -225 -270 0
-19 -294 -201 0
-19 -301 -194 0
-19 -169 -326 0
-19 -333 -162 0
-19 -138 -357 0
-366 -19 0
-20 -237 0
-20 -197 -297 0
-20 -329 -165 0
-20 -141 -353 0
-21 -236 0
-227 -266 -21 0
-290 -21 -203 0
-297 -21 -196 0
-171 -322 -21 0
-329 -164 -21 0
-140 -21 -353 0
-362 -21 -131 0
-267 -225 -22 0
-291 -22 -201 0
-169 -22 -323 0
-363 -22 0
-232 -25 0
-225 -25 -264 0
-290 -199 -25 0
-25 -295 -194 0
-25 -162 -327 0
-136 -25 -353 0
-360 -25 0
-291 -197 -26 0
-26 -165 -323 0
-32 -225 0
-32 -353 0
-209 -270 -35 0
-35 -278 -201 0
-35 -285 -194 0
-326 -35 -153 0
-35 -333 -146 0
-341 -35 -138 0
-350 -35 0
-36 -221 0
-36 -197 -281 0
-36 -329 -149 0
-36 -141 -337 0
-37 -220 0
-211 -266 -37 0
-274 -37 -203 0
-37 -281 -196 0
-322 -37 -155 0
-329 -37 -148 0
-140 -337 -37 0
-209 -267 -38 0
-275 -38 -201 0
-38 -153 -323 0
-347 -38 0
-216 -41 0
-209 -41 -264 0
-274 -41 -199 0
-41 -279 -194 0
-322 -41 -151 0
-41 -146 -327 0
-41 -136 -337 0
-344 -41 0
-42 -197 -275 0
-42 -149 -323 0
-209 -48 0
-48 -337 0
-208 -49 0
-49 -264 -201 0
-49 -199 -266 0
-271 -49 -194 0
-143 -322 -49 0
-138 -49 -327 0
-49 -329 -136 0
-336 -49 0
-267 -50 -197 0
-141 -50 -323 0
-56 -201 0
-56 -329 0
-326 -59 0
-197 -60 0
-61 -196 0
-322 -61 -131 0
-62 -323 0
-186 -67 -261 0
-177 -270 -67 0
-169 -278 -67 0
-285 -67 -162 0
-294 -153 -67 0
-301 -67 -146 0
-138 -309 -67 0
-318 -67 0
-189 -68 0
-297 -68 -149 0
-141 -305 -68 0
-188 -69 0
-179 -266 -69 0
-171 -274 -69 0
-164 -69 -281 0
-69 -297 -148 0
-314 -69 -131 0
-267 -177 -70 0
-169 -275 -70 0
-291 -153 -70 0
-315 -70 0
-73 -184 0
-177 -73 -264 0
-279 -73 -162 0
-290 -73 -151 0
-305 -136 -73 0
-312 -73 0
-74 -275 -165 0
-291 -74 -149 0
-80 -177 0
-176 -81 0
-169 -81 -264 0
-81 -266 -167 0
-143 -290 -81 0
-138 -81 -295 0
-297 -81 -136 0
-81 -304 0
-267 -82 -165 0
-141 -82 -291 0
-88 -297 0
-294 -91 0
-92 -165 0
-93 -164 0
-291 -94 0
-97 -160 0
-97 -153 -264 0
-97 -266 -151 0
-97 -143 -274 0
-97 -138 -279 0
-97 -281 -136 0
-97 -288 0
-98 -267 -149 0
-98 -141 -275 0
-153 -104 0
-104 -281 0
-107 -146 -261 0
-107 -278 0
-108 -149 0
-109 -148 0
-274 -109 -131 0
-275 -110 0
-115 -270 0
-116 -141 0
-140 -117 0
-267 -118 0
-121 -136 0
-121 -264 0
-3 0
-5 0
-9 0
-17 0
-33 0
-65 0
2 0
127 0
-267 -245 0
-315 -197 0
-189 -323 0
-363 -149 0
-371 -141 0
-383 0
122 -121 0
-122 121 0
118 -117 0
-118 117 0
-115 116 0
-116 115 0
-109 110 0
-110 109 0
-107 108 0
104 -103 0
-104 103 0
-97 98 0
-98 97 0
-93 94 0
-94 93 0
-91 92 0
-92 91 0
-87 88 0
-88 87 0
82 -81 0
-82 81 0
-79 80 0
74 -73 0
-74 73 0
70 -69 0
-70 69 0
68 -67 0
-68 67 0
-61 62 0
-62 61 0
60 -59 0
-60 59 0
-55 56 0
-56 55 0
50 -49 0
-50 49 0
48 -47 0
42 -41 0
-42 41 0
38 -37 0
-38 37 0
-35 36 0
-36 35 0
-31 32 0
-32 31 0
26 -25 0
22 -21 0
-22 21 0
-19 20 0
-20 19 0
14 -13 0
-14 13 0
-11 12 0
-7 8 0
-130 0
-133 0
-137 0
-145 0
-161 0
-193 0
131 0
254 0
-117 -266 0
-290 -93 0
-346 -37 0
-382 0
-251 249 0
-245 247 0
-247 245 0
-242 244 0
-244 242 0
239 -237 0
-239 237 0
236 -234 0
234 -236 0
-230 232 0
230 -232 0
227 -225 0
-227 225 0
223 -221 0
-223 221 0
220 -218 0
-220 218 0
-214 216 0
-216 214 0
211 -209 0
-211 209 0
-206 208 0
-208 206 0
203 -201 0
-203 201 0
199 -197 0
-199 197 0
196 -194 0
-196 194 0
-189 191 0
-186 188 0
-188 186 0
184 -182 0
182 -184 0
179 -177 0
-174 176 0
171 -169 0
-171 169 0
167 -165 0
164 -162 0
-164 162 0
-158 160 0
-160 158 0
155 -153 0
-155 153 0
151 -149 0
-151 149 0
148 -146 0
-148 146 0
143 -141 0
-143 141 0
-138 140 0
-134 136 0
-258 0
-259 0
-265 0
-273 0
-289 0
-321 0
261 0
380 0
-115 -138 0
-91 -162 0
-59 -194 0
-35 -218 0
-19 -234 0
-377 381 0
-381 377 0
-371 375 0
-370 374 0
-374 370 0
-363 367 0
-367 363 0
-362 366 0
-366 362 0
-356 360 0
-360 356 0
357 -353 0
-357 353 0
-347 351 0
-351 347 0
-346 350 0
-350 346 0
-340 344 0
-344 340 0
341 -337 0
-341 337 0
-332 336 0
-336 332 0
333 -329 0
-333 329 0
327 -323 0
-327 323 0
-322 326 0
-326 322 0
-315 319 0
-319 315 0
-314 318 0
-318 314 0
-308 312 0
308 -312 0
309 -305 0
304 -300 0
300 -304 0
301 -297 0
-301 297 0
-291 295 0
-295 291 0
-290 294 0
-294 290 0
288 -284 0
284 -288 0
285 -281 0
-285 281 0
-275 279 0
-279 275 0
278 -274 0
-267 271 0
-271 267 0
-266 270 0
-270 266 0
-260 264 0
