p cnf 5592 289
128 0
384 0
-703 7 0
11 -704 0
-705 35 0
704 -47 703 705 0
-1123 7 0
-1124 69 0
-1125 13 0
-79 1125 1124 1123 0
-1471 5 0
-1472 33 0
-1473 65 0
-101 1471 1472 1473 0
-1495 7 0
-1496 69 0
-1497 67 0
1497 -103 1496 1495 0
-1603 13 0
37 -1604 0
-1605 69 0
1604 1603 -109 1605 0
-1630 9 0
-1631 101 0
-1632 13 0
-1633 70 0
38 -1634 0
1634 1632 1630 1631 1633 -110 0
-1975 5 0
-1976 9 0
-1977 17 0
-1978 33 0
-1979 65 0
-125 1975 1976 1977 1978 1979 0
-2035 7 0
121 -2035 0
-2038 35 0
-2050 109 0
21 -2051 0
-2051 107 0
-2052 25 0
-2052 103 0
-2053 79 0
-2054 47 0
2054 2050 -127 2053 2051 2052 0
-2055 35 0
91 -2056 0
-2057 87 0
-2058 79 0
97 -2059 0
-2059 31 0
2056 2057 -127 2059 2055 2058 0
-2079 3 0
-2080 125 0
-2081 7 0
122 -2081 0
-2082 11 0
-2083 110 0
-2084 35 0
67 -2085 0
-2085 62 0
2082 2081 2083 2084 2085 -128 2079 2080 0
134 -2280 0
153 -2280 0
-2281 146 0
-2282 149 0
-2282 138 0
2280 2282 -158 2281 0
-2949 134 0
-2949 209 0
-2950 146 0
-2951 194 0
-2951 149 0
-214 2951 2949 2950 0
-3015 209 0
-3016 146 0
-3017 194 0
-218 3017 3015 3016 0
-3741 249 0
-3742 245 0
-3743 146 0
162 -3744 0
221 -3744 0
-3745 189 0
3741 3742 -254 3743 3744 3745 0
-3746 249 0
-3747 242 0
-3748 234 0
-3749 165 0
-3749 218 0
-3750 186 0
3748 3746 -254 3749 3747 3750 0
-3751 245 0
-3752 242 0
-3753 230 0
-3754 169 0
-3754 214 0
-3755 182 0
3751 3752 -254 3754 3753 3755 0
162 -3761 0
-3761 221 0
-3762 165 0
-3762 218 0
-3763 169 0
-3763 214 0
-3764 177 0
-3764 206 0
-3765 158 0
3761 3764 -254 3763 3765 3762 0
-3766 189 0
-3767 186 0
-3768 182 0
-3769 174 0
-3770 158 0
3766 3768 -254 3770 3769 3767 0
-3989 260 0
-3990 275 0
-3991 274 0
-284 3989 3990 3991 0
-4139 260 0
-4140 291 0
-4141 267 0
-300 4139 4140 4141 0
-4250 290 0
-4250 275 0
-4251 274 0
-4252 305 0
-4252 260 0
-308 4250 4251 4252 0
-4334 305 0
-4335 290 0
-4336 274 0
4335 4334 -314 4336 0
-4661 260 0
-4662 274 0
-4663 275 0
-340 4663 4661 4662 0
-4847 259 0
-4848 347 0
-4849 343 0
-4850 335 0
-4851 287 0
-351 4850 4847 4849 4848 4851 0
-5422 377 0
-5423 370 0
-5424 362 0
-5425 291 0
323 -5426 0
-5426 314 0
5425 5422 -380 5426 5423 5424 0
-5427 371 0
-5428 370 0
-5429 356 0
-5430 340 0
-5431 308 0
5427 5430 -380 5428 5429 5431 0
-5432 363 0
-5433 362 0
-5434 356 0
-5435 332 0
-5436 300 0
5433 5434 -380 5436 5432 5435 0
-5437 347 0
-5438 346 0
-5439 340 0
-5440 332 0
-5441 284 0
5440 5438 -380 5439 5437 5441 0
-5442 315 0
-5443 314 0
-5444 308 0
-5445 300 0
-5446 284 0
5442 5443 -380 5444 5445 5446 0
-5579 352 0
-5580 351 0
-5581 291 0
-5582 348 0
-5583 344 0
-5584 336 0
-5585 288 0
5580 5581 5582 5583 5584 5585 -384 5579 0
-295 -218 0
-336 -177 0
-344 -169 0
-348 -165 0
-267 -245 -2 0
-189 -323 -2 0
-335 -177 -2 0
-343 -169 -2 0
-347 -165 -2 0
-249 -8 0
-377 -8 0
-245 -12 0
-371 -14 0
-169 -22 -323 0
-363 -22 0
-26 -165 -323 0
-36 -221 0
-347 -38 0
-209 -48 0
-62 -323 0
-189 -68 0
-315 -70 0
-305 -80 0
-88 -169 0
-165 -92 0
-288 -97 0
-287 -98 0
-153 -104 0
-146 -107 -261 0
-149 -108 0
-274 -109 -131 0
-275 -110 0
-264 -121 0
-3 0
-5 0
-9 0
-17 0
-33 0
-65 0
2 0
127 0
121 -122 0
110 -109 0
-110 109 0
108 -107 0
104 -103 0
98 -97 0
92 -91 0
-87 88 0
80 -79 0
70 -69 0
-70 69 0
68 -67 0
48 -47 0
47 -48 0
-35 36 0
-25 26 0
22 -21 0
14 -13 0
12 -11 0
8 -7 0
131 0
254 0
-314 -69 0
-346 -37 0
-370 -13 0
-308 -69 0
-356 -21 0
-370 -7 0
-260 -109 0
-290 -79 0
-300 -69 0
-332 -37 0
-356 -13 0
-362 -7 0
-274 -79 0
-284 -69 0
-332 -21 0
-340 -13 0
-352 0
-259 0
261 0
380 0
-91 -162 0
-186 -67 0
-218 -35 0
-242 -11 0
-146 -103 0
-87 -162 0
-182 -67 0
-214 -35 0
-242 -7 0
-107 -134 0
-138 -103 0
-79 -162 0
-174 -67 0
-194 -47 0
-206 -35 0
-230 -11 0
-234 -7 0
-146 -47 0
-158 -35 0
-31 -162 0
-182 -11 0
-186 -7 0
-291 295 0
-260 264 0
