p cnf 5592 798
128 0
384 0
-397 11 0
-398 3 0
-399 4 0
-12 397 398 399 0
-445 19 0
-446 3 0
-447 4 0
-20 445 446 447 0
-469 3 0
-470 5 0
-471 7 0
-23 471 470 469 0
-655 3 0
-656 35 0
-657 33 0
-43 656 655 657 0
-703 7 0
11 -704 0
-704 37 0
-705 35 0
-705 13 0
-47 704 703 705 0
-725 3 0
-726 4 0
-727 7 0
-727 42 0
-728 38 0
-729 35 0
-729 14 0
-48 728 725 726 727 729 0
-730 5 0
-731 43 0
-732 7 0
42 -732 0
-733 36 0
-734 37 0
-734 12 0
-48 734 730 732 733 731 0
-757 3 0
-758 35 0
-759 33 0
-51 758 757 759 0
-781 5 0
-782 37 0
-783 33 0
-53 782 781 783 0
-805 7 0
-806 19 0
-806 37 0
-807 35 0
-807 21 0
-55 806 805 807 0
-817 55 0
-818 3 0
-819 5 0
-820 40 0
-821 33 0
-56 820 818 819 817 821 0
-827 3 0
-828 4 0
-829 7 0
-830 19 0
-830 38 0
-831 35 0
-831 22 0
-56 830 827 828 829 831 0
-832 5 0
-833 6 0
-833 51 0
-834 7 0
-835 36 0
-836 37 0
-56 836 832 835 834 833 0
-842 33 0
-843 23 0
-844 35 0
-844 22 0
-845 20 0
-846 8 0
-56 845 842 843 844 846 0
-1039 3 0
-1040 5 0
-1041 65 0
-71 1039 1040 1041 0
-1051 4 0
-1052 67 0
-1053 7 0
-72 1052 1051 1053 0
-1075 3 0
-1076 67 0
-1077 65 0
-75 1076 1075 1077 0
-1099 5 0
-1100 69 0
-1101 65 0
-77 1100 1099 1101 0
-1135 79 0
-1136 3 0
-1137 5 0
-1138 72 0
-1139 65 0
-80 1138 1136 1137 1135 1139 0
-1140 79 0
-1141 4 0
-1142 75 0
-1143 71 0
-1144 15 0
-80 1142 1141 1140 1143 1144 0
-1148 70 0
-1150 5 0
-1151 75 0
-1152 7 0
-1153 68 0
-1154 69 0
12 -1154 0
1154 -80 1150 1151 1153 1152 0
-1177 3 0
-1178 67 0
-1179 65 0
-83 1178 1177 1179 0
-1201 5 0
-1202 69 0
-1203 65 0
-85 1202 1201 1203 0
-1225 7 0
19 -1226 0
-1226 69 0
-1227 67 0
-87 1226 1225 1227 0
-1237 87 0
-1238 3 0
-1239 5 0
-1240 72 0
-1241 65 0
-88 1240 1238 1239 1237 1241 0
-1242 87 0
-1243 4 0
-1244 83 0
-1245 71 0
-1246 23 0
-88 1244 1243 1242 1245 1246 0
-1252 5 0
-1253 83 0
-1254 7 0
-1255 68 0
-1256 20 0
-88 1256 1252 1254 1255 1253 0
-1318 84 0
-1319 83 0
-1320 11 0
-1321 68 0
-1322 20 0
1318 -92 1319 1322 1321 1320 0
-1323 76 0
-1324 75 0
-1325 19 0
-1326 68 0
-1327 12 0
1323 -92 1324 1327 1326 1325 0
-1345 93 0
-1346 5 0
-1347 86 0
-1348 78 0
-1349 65 0
-94 1347 1346 1345 1348 1349 0
-1375 3 0
-1376 5 0
-1377 87 0
-1378 79 0
-1379 65 0
-95 1377 1376 1375 1378 1379 0
-1390 87 0
-1391 85 0
-1392 83 0
-1393 71 0
-1394 23 0
-95 1391 1394 1392 1393 1390 0
-1447 3 0
-1448 33 0
-1449 65 0
-99 1447 1448 1449 0
-1459 4 0
-1460 67 0
-1461 35 0
-100 1460 1459 1461 0
-1471 5 0
-1472 33 0
-1473 65 0
-101 1471 1472 1473 0
-1517 3 0
-1518 101 0
-1519 7 0
-1520 35 0
-1520 70 0
-1521 67 0
-104 1521 1517 1518 1520 1519 0
-1522 5 0
-1523 99 0
-1524 7 0
-1525 68 0
-1526 69 0
-104 1525 1522 1523 1524 1526 0
-1561 11 0
-1561 97 0
-1562 35 0
-1563 67 0
-107 1563 1562 1561 0
-1573 107 0
-1574 3 0
-1575 100 0
-1576 33 0
-1577 65 0
-108 1575 1574 1573 1576 1577 0
-1593 33 0
-1594 75 0
-1595 35 0
-1596 68 0
-1597 12 0
-108 1597 1593 1595 1596 1594 0
-1615 109 0
-1616 5 0
9 -1617 0
-1617 102 0
-1618 33 0
-1619 65 0
-110 1617 1616 1615 1618 1619 0
-1635 33 0
-1636 77 0
-1637 37 0
-1638 70 0
-1639 14 0
-110 1638 1635 1639 1637 1636 0
-1645 3 0
-1646 5 0
-1647 103 0
-1648 33 0
-1649 65 0
-111 1647 1646 1645 1648 1649 0
-1653 77 0
-1729 19 0
-1730 35 0
-1731 67 0
-115 1729 1730 1731 0
-1741 115 0
-1742 3 0
-1743 100 0
-1744 33 0
-1745 65 0
-116 1743 1742 1741 1744 1745 0
-1783 117 0
-1784 5 0
-1785 102 0
-1786 33 0
-1787 65 0
1783 1785 1784 -118 1786 1787 0
-1788 117 0
-1789 6 0
-1790 101 0
-1791 85 0
-1792 53 0
1788 -118 1791 1790 1789 1792 0
-1813 3 0
-1814 5 0
-1815 103 0
-1816 33 0
-1817 65 0
-119 1815 1814 1813 1816 1817 0
-1935 33 0
-1936 35 0
-1937 83 0
-1938 75 0
-1939 97 0
-123 1939 1935 1937 1938 1936 0
-2040 7 0
-2041 13 0
-2041 115 0
-2042 21 0
-2042 107 0
-2043 37 0
-2043 91 0
69 -2044 0
-2044 59 0
2040 2043 -127 2044 2041 2042 0
117 -2045 0
-2046 115 0
-2047 103 0
-2048 87 0
73 -2049 0
-2049 55 0
2045 2046 -127 2049 2048 2047 0
-2050 109 0
-2051 107 0
-2052 103 0
-2053 79 0
81 -2054 0
-2054 47 0
2050 2052 -127 2053 2051 2054 0
-2055 35 0
-2056 91 0
-2057 87 0
-2058 79 0
97 -2059 0
2055 2056 -127 2059 2058 2057 0
-2060 61 0
-2061 59 0
-2062 55 0
-2063 47 0
-2064 31 0
2060 2061 -127 2062 2064 2063 0
-2079 3 0
-2080 4 0
-2081 7 0
-2082 11 0
-2082 118 0
110 -2083 0
-2084 35 0
-2084 94 0
-2085 67 0
2081 2080 2082 2083 2084 2085 -128 2079 0
-2086 5 0
-2087 123 0
-2088 7 0
-2089 116 0
-2090 108 0
-2091 92 0
69 -2092 0
2088 2087 2089 2090 2091 2092 -128 2086 0
-2093 120 0
-2094 119 0
11 -2095 0
118 -2095 0
-2096 13 0
-2096 116 0
-2097 104 0
-2098 41 0
-2098 88 0
-2099 56 0
2094 2095 2096 2097 2098 2099 -128 2093 0
-2100 112 0
-2101 111 0
19 -2102 0
-2102 110 0
-2103 108 0
-2104 104 0
-2105 80 0
-2106 48 0
2101 2102 2103 2104 2105 2106 -128 2100 0
-2107 33 0
-2108 95 0
-2109 35 0
-2109 94 0
-2110 37 0
-2110 92 0
-2111 41 0
-2111 88 0
80 -2112 0
-2113 32 0
2109 2108 2110 2111 2112 2113 -128 2107 0
-2277 134 0
-2278 138 0
-2286 146 0
-2286 141 0
-2287 149 0
-2287 138 0
-2288 153 0
-2288 134 0
-158 2287 2286 2288 0
-2529 134 0
-2529 177 0
-2530 146 0
-2530 165 0
-2531 162 0
-2531 149 0
2529 -182 2531 2530 0
-2595 138 0
-2595 177 0
-2596 146 0
169 -2596 0
-2597 162 0
-2597 153 0
-186 2595 2596 2597 0
-2847 134 0
-2848 138 0
-2849 194 0
-206 2847 2848 2849 0
-2949 134 0
-2949 209 0
-2950 146 0
-2951 194 0
-214 2949 2950 2951 0
-3015 138 0
-3016 146 0
-3017 194 0
3015 3016 -218 3017 0
-3285 138 0
-3285 225 0
-3286 162 0
-3287 194 0
-234 3286 3285 3287 0
-3453 146 0
-3453 225 0
-3454 162 0
-3454 209 0
-3455 194 0
-242 3454 3453 3455 0
-3507 149 0
-3508 209 0
-3509 197 0
-3509 177 0
3508 -245 3507 3509 0
-3741 134 0
-3741 249 0
-3742 138 0
-3742 245 0
-3743 146 0
-3743 237 0
162 -3744 0
221 -3744 0
-3745 194 0
3744 3743 -254 3741 3742 3745 0
-3746 134 0
-3746 249 0
-3747 141 0
-3747 242 0
-3748 149 0
-3748 234 0
-3749 165 0
-3749 218 0
-3750 197 0
-3750 186 0
3750 3749 -254 3746 3748 3747 0
-3751 245 0
-3752 141 0
-3752 242 0
-3753 153 0
-3753 230 0
-3754 214 0
201 -3755 0
-3755 182 0
3754 3755 -254 3751 3752 3753 0
-3756 146 0
-3756 237 0
-3757 149 0
-3757 234 0
-3758 230 0
-3759 177 0
-3759 206 0
209 -3760 0
174 -3760 0
3760 3759 -254 3756 3757 3758 0
-3761 162 0
-3761 221 0
165 -3762 0
-3762 218 0
-3763 214 0
-3764 206 0
-3765 225 0
-3765 158 0
3763 3762 -254 3765 3764 3761 0
-3766 194 0
-3767 186 0
-3768 182 0
174 -3769 0
-3770 225 0
-3770 158 0
3769 3768 -254 3766 3770 3767 0
-3869 258 0
-3870 259 0
-3871 260 0
-268 3871 3870 3869 0
-3989 260 0
-3990 266 0
-3990 275 0
-3991 267 0
3991 -284 3989 3990 0
-4062 272 0
271 -4063 0
-4064 275 0
-4065 268 0
-4066 264 0
4063 4065 -288 4062 4064 4066 0
-4067 258 0
-4068 259 0
-4069 260 0
-292 4069 4068 4067 0
-4139 260 0
-4140 266 0
-4141 267 0
4141 4140 -300 4139 0
-4289 258 0
-4290 259 0
-4291 308 0
-4292 296 0
-4293 280 0
-312 4292 4290 4289 4293 4291 0
-4487 258 0
-4488 259 0
-4489 321 0
-324 4487 4488 4489 0
-4535 258 0
-4536 322 0
-4537 321 0
-330 4536 4535 4537 0
-4559 260 0
-4559 329 0
-4560 266 0
-4561 267 0
-332 4561 4560 4559 0
-4617 259 0
-4618 260 0
-4618 333 0
-4619 330 0
-4620 326 0
-4621 270 0
-336 4621 4617 4619 4620 4618 0
-4907 258 0
-4908 322 0
-4909 321 0
-354 4908 4907 4909 0
-5050 258 0
-5051 260 0
-5052 355 0
-5053 290 0
-5053 331 0
-5054 322 0
-364 5053 5050 5054 5051 5052 0
-5060 356 0
-5061 355 0
-5062 354 0
-5063 324 0
-5064 292 0
-364 5061 5062 5060 5063 5064 0
-5201 275 0
-5202 291 0
-5203 323 0
-371 5203 5202 5201 0
-5417 260 0
-5417 377 0
-5418 371 0
-5419 363 0
-5420 290 0
-5420 347 0
315 -5421 0
5421 5420 -380 5419 5418 5417 0
-5422 260 0
-5422 377 0
-5423 267 0
-5423 370 0
-5424 275 0
362 -5424 0
-5425 291 0
-5425 346 0
-5426 323 0
-5426 314 0
5423 5422 -380 5425 5424 5426 0
-5427 266 0
-5427 371 0
-5428 267 0
-5428 370 0
-5429 356 0
-5430 340 0
-5431 329 0
-5431 308 0
5429 5431 -380 5427 5430 5428 0
-5432 363 0
-5433 275 0
-5433 362 0
-5434 356 0
-5435 332 0
-5436 337 0
-5436 300 0
5436 5433 -380 5432 5435 5434 0
-5437 347 0
-5438 291 0
346 -5438 0
-5439 340 0
-5440 332 0
-5441 353 0
-5441 284 0
5441 5440 -380 5438 5439 5437 0
-5442 315 0
-5443 314 0
-5444 308 0
337 -5445 0
300 -5445 0
353 -5446 0
-5446 284 0
5445 5446 -380 5443 5442 5444 0
-5572 368 0
-5573 367 0
-5574 275 0
-5575 364 0
-5576 281 0
-5577 336 0
-5578 304 0
5574 5573 5575 5576 5577 5578 -384 5572 0
-5586 321 0
-5587 322 0
-5588 323 0
-5589 316 0
-5590 329 0
-5590 312 0
-5591 304 0
353 -5592 0
-5592 288 0
5587 5588 5589 5590 5591 5592 -384 5586 0
-264 -249 0
-225 -288 0
-304 -209 0
-199 -314 0
-327 -186 0
-355 -158 0
-151 -362 0
-367 -146 0
-377 -136 0
-245 -267 -2 0
-275 -237 -2 0
-291 -221 -2 0
-197 -315 -2 0
-347 -165 -2 0
-149 -363 -2 0
-141 -371 -2 0
-249 -8 0
-377 -8 0
-280 -9 -225 0
-9 -323 -182 0
-12 -245 0
-13 -353 -148 0
-14 -225 -275 0
-14 -209 -291 0
-15 -353 -146 0
-270 -19 -225 0
-333 -19 -162 0
-20 -237 0
-20 -141 -353 0
-22 -225 -267 0
-23 -353 -138 0
-23 -362 0
-32 -225 0
-32 -353 0
-36 -221 0
-329 -149 -36 0
-141 -337 -36 0
-329 -37 -148 0
-331 -37 -146 0
-275 -201 -38 0
-347 -38 0
-41 -327 -146 0
-41 -337 -136 0
-42 -275 -197 0
-209 -48 0
-48 -337 0
-56 -201 0
-329 -56 0
-326 -59 0
-61 -196 0
-316 -69 0
-153 -291 -70 0
-70 -315 0
-264 -177 -73 0
-177 -80 0
-271 -81 -162 0
-304 -81 0
-85 -300 0
-91 -162 -261 0
-92 -165 0
-94 -291 0
-153 -264 -97 0
-288 -97 0
-102 -281 -131 0
-153 -104 0
-107 -146 -261 0
-108 -149 0
-109 -148 0
-110 -275 0
-116 -141 0
-267 -118 0
-3 0
-5 0
-33 0
-65 0
2 0
127 0
-260 -245 0
-230 -275 0
-214 -291 0
-296 -209 0
-308 -197 0
-323 -182 0
-340 -165 0
-356 -149 0
-371 -134 0
-260 -237 0
-230 -267 0
-206 -291 0
-197 -300 0
-323 -174 0
-332 -165 0
-356 -141 0
-363 -134 0
-368 0
-103 104 0
-104 103 0
70 -69 0
-70 69 0
-68 67 0
38 -37 0
-38 37 0
-35 36 0
-36 35 0
8 -7 0
-8 7 0
131 0
254 0
-266 -117 0
-93 -290 0
-314 -69 0
-37 -346 0
-13 -370 0
-120 0
-260 -117 0
-102 -275 0
-280 -97 0
-290 -87 0
-296 -81 0
-308 -69 0
-40 -337 0
-340 -37 0
-356 -21 0
-370 -7 0
-266 -87 0
-86 -267 0
-272 -81 0
-78 -275 0
-284 -69 0
-21 -332 0
-340 -13 0
-346 -7 0
-6 -347 0
199 -197 0
196 -194 0
-149 151 0
148 -146 0
136 -134 0
-258 0
-259 0
-321 0
261 0
380 0
-115 -138 0
-153 -100 0
-76 -177 0
-186 -67 0
-59 -194 0
-218 -35 0
-19 -234 0
-242 -11 0
-249 -4 0
-115 -134 0
-103 -146 0
-100 -149 0
-87 -162 0
-72 -177 0
-182 -67 0
-55 -194 0
-214 -35 0
-230 -19 0
-242 -7 0
-245 -4 0
-112 0
-107 -134 0
-103 -138 0
-100 -141 0
-79 -162 0
-72 -169 0
-174 -67 0
-47 -194 0
-206 -35 0
-230 -11 0
-234 -7 0
-237 -4 0
-91 -134 0
-87 -138 0
-141 -84 0
-79 -146 0
-153 -72 0
-158 -67 0
-31 -194 0
-19 -206 0
-214 -11 0
-7 -218 0
-221 -4 0
327 -323 0
-322 326 0
-260 264 0
-264 260 0
