p cnf 5592 1216
128 0
256 0
384 0
-469 3 0
-470 5 0
-471 17 0
-23 469 470 471 0
-553 7 0
-554 11 0
-554 21 0
-555 19 0
-555 13 0
-31 553 555 554 0
-619 3 0
-620 5 0
-621 33 0
-39 619 620 621 0
-655 3 0
-656 9 0
-657 33 0
-43 655 656 657 0
-703 7 0
-703 41 0
-704 11 0
-704 37 0
-705 35 0
-705 13 0
705 704 -47 703 0
-728 38 0
-781 5 0
-782 17 0
-783 33 0
-53 781 782 783 0
-805 7 0
-806 19 0
-806 37 0
-807 35 0
-807 21 0
805 -55 806 807 0
-808 7 0
-809 35 0
-810 37 0
-810 19 0
808 -55 810 809 0
-827 3 0
-828 53 0
-829 7 0
-829 50 0
-830 19 0
-830 38 0
-831 35 0
-831 22 0
829 -56 831 830 827 828 0
-834 7 0
-840 36 0
-871 11 0
-871 49 0
-872 19 0
-872 41 0
-873 35 0
-873 25 0
-59 873 871 872 0
-902 20 0
-903 17 0
-904 43 0
-905 42 0
-906 36 0
-907 12 0
-60 905 907 906 903 904 0
-913 13 0
49 -913 0
-914 21 0
-914 41 0
-915 37 0
-915 25 0
914 915 913 -61 0
-1039 3 0
-1040 5 0
-1041 65 0
-71 1039 1040 1041 0
-1075 3 0
-1076 9 0
-1077 65 0
-75 1075 1076 1077 0
-1123 7 0
-1123 73 0
-1124 11 0
69 -1124 0
-1125 67 0
-1125 13 0
1124 1125 1123 -79 0
-1177 3 0
-1178 17 0
-1179 65 0
-83 1177 1178 1179 0
-1225 7 0
-1225 81 0
-1226 19 0
-1226 69 0
-1227 67 0
-1227 21 0
1225 -87 1227 1226 0
-1249 7 0
-1251 67 0
-1254 7 0
-1255 68 0
-1257 17 0
-1258 71 0
-1259 70 0
-1260 21 0
-1261 8 0
-88 1261 1259 1260 1257 1258 0
-1262 65 0
-1263 23 0
-1264 67 0
-1264 22 0
-1265 69 0
-1265 20 0
-1266 8 0
1266 -88 1264 1265 1262 1263 0
-1291 11 0
-1292 19 0
-1293 25 0
-91 1293 1291 1292 0
-1318 9 0
-1319 83 0
-1320 82 0
-1321 68 0
-1322 20 0
1320 -92 1321 1322 1318 1319 0
-1447 3 0
-1448 33 0
-1449 65 0
-99 1447 1448 1449 0
-1471 5 0
-1472 33 0
-1473 65 0
-101 1471 1472 1473 0
-1495 7 0
-1495 97 0
-1496 35 0
-1496 69 0
-1497 67 0
-1497 37 0
-103 1497 1495 1496 0
-1519 7 0
-1520 35 0
-1520 70 0
-1526 69 0
-1530 37 0
-1532 65 0
-1533 39 0
-1534 67 0
-1534 38 0
-1535 69 0
-1535 36 0
-1536 8 0
-104 1536 1535 1534 1532 1533 0
-1561 11 0
-1561 97 0
-1562 35 0
-1562 73 0
-1563 67 0
-1563 41 0
-107 1563 1561 1562 0
-1593 33 0
-1594 75 0
-1595 35 0
-1595 74 0
-1596 41 0
-1596 68 0
-1597 97 0
-1597 12 0
-108 1596 1597 1595 1593 1594 0
-1601 36 0
-1705 17 0
-1706 33 0
-1707 65 0
-113 1705 1706 1707 0
-1729 19 0
-1730 35 0
-1731 67 0
-115 1731 1730 1729 0
-1756 17 0
-1757 99 0
-1758 19 0
-1759 68 0
-1760 81 0
-116 1759 1760 1758 1756 1757 0
-1771 21 0
-1772 37 0
-1773 69 0
-117 1772 1773 1771 0
-1798 17 0
-1799 101 0
-1800 21 0
-1801 70 0
-1802 38 0
-118 1802 1801 1800 1798 1799 0
-1813 3 0
-1814 5 0
-1815 17 0
-1816 33 0
-1817 65 0
-119 1813 1814 1815 1816 1817 0
-1895 9 0
-1896 113 0
-1897 25 0
-1898 41 0
-1899 50 0
1899 1898 -122 1897 1895 1896 0
-1915 3 0
-1916 9 0
-1917 17 0
-1918 33 0
-1919 65 0
-123 1915 1916 1917 1918 1919 0
-2035 7 0
-2035 121 0
-2036 117 0
-2037 19 0
-2037 109 0
-2038 35 0
-2038 93 0
67 -2039 0
-2039 61 0
2035 2038 2039 2037 -127 2036 0
-2040 7 0
121 -2040 0
-2041 115 0
-2042 21 0
-2042 107 0
-2043 37 0
-2043 91 0
-2044 69 0
-2044 59 0
2040 2042 2044 2043 2041 -127 0
-2045 11 0
-2045 117 0
-2046 115 0
-2047 25 0
-2047 103 0
-2048 41 0
-2048 87 0
-2049 73 0
-2049 55 0
2048 2045 2047 2049 -127 2046 0
-2050 19 0
-2050 109 0
-2051 107 0
-2052 103 0
49 -2053 0
79 -2053 0
-2054 81 0
-2054 47 0
2053 2051 2054 2050 2052 -127 0
-2055 35 0
-2055 93 0
-2056 37 0
-2056 91 0
-2057 41 0
-2057 87 0
49 -2058 0
79 -2058 0
-2059 97 0
-2059 31 0
2058 2057 2059 2055 2056 -127 0
67 -2060 0
-2060 61 0
-2061 69 0
-2061 59 0
-2062 55 0
-2063 81 0
-2063 47 0
-2064 97 0
-2064 31 0
2060 2062 2063 2064 2061 -127 0
-2086 5 0
-2087 123 0
-2088 122 0
-2089 116 0
-2090 21 0
-2090 108 0
-2091 37 0
-2091 92 0
-2092 60 0
2089 2088 2090 2091 2092 -128 2086 2087 0
-2093 9 0
-2094 119 0
-2095 118 0
-2096 116 0
-2097 25 0
-2097 104 0
-2098 41 0
-2098 88 0
-2099 73 0
-2099 56 0
2096 2095 2097 2098 2099 -128 2093 2094 0
-2118 56 0
-2277 134 0
-2277 153 0
-2278 138 0
-2278 149 0
-2279 146 0
-2279 141 0
-158 2277 2278 2279 0
-2343 130 0
-2344 133 0
-2345 161 0
-166 2343 2344 2345 0
-2427 134 0
169 -2427 0
-2428 138 0
-2428 165 0
162 -2429 0
141 -2429 0
2429 -174 2427 2428 0
-2481 130 0
-2482 145 0
-2483 161 0
-178 2481 2482 2483 0
-2568 133 0
-2569 134 0
-2570 178 0
-2571 164 0
-2572 148 0
2571 2572 2569 -184 2568 2570 0
-2595 138 0
-2595 177 0
-2596 146 0
-2596 169 0
-2597 162 0
-2597 153 0
-186 2596 2597 2595 0
-2763 130 0
-2764 133 0
-2765 193 0
-198 2763 2764 2765 0
-2847 134 0
-2847 201 0
-2848 138 0
-2848 197 0
-2849 194 0
141 -2849 0
-206 2848 2849 2847 0
-2937 133 0
-2938 145 0
-2939 193 0
-213 2937 2938 2939 0
-2949 134 0
209 -2949 0
-2950 146 0
-2950 197 0
-2951 194 0
2950 -214 2949 2951 0
-2978 130 0
-2979 213 0
-2980 134 0
-2981 146 0
-2982 194 0
2981 -216 2980 2982 2978 2979 0
-2993 145 0
146 -2994 0
199 -2994 0
-2995 198 0
-2996 196 0
-2997 209 0
-2997 136 0
2994 -216 2996 2997 2993 2995 0
-2999 194 0
-3001 148 0
-3002 136 0
138 -3015 0
-3015 209 0
-3016 146 0
-3016 201 0
-3017 194 0
-3017 153 0
3015 -218 3017 3016 0
-3252 194 0
-3268 193 0
-3269 194 0
-3270 166 0
-3271 197 0
-3271 164 0
-3272 136 0
3271 -232 3272 3269 3268 3270 0
-3285 138 0
-3285 225 0
-3286 162 0
-3286 201 0
-3287 194 0
-3287 169 0
-234 3286 3285 3287 0
-3339 225 0
-3340 165 0
-3341 197 0
-237 3341 3339 3340 0
-3351 130 0
-3352 133 0
-3353 230 0
-3354 161 0
-3355 193 0
-238 3353 3352 3351 3354 3355 0
-3453 146 0
-3453 225 0
-3454 162 0
-3454 209 0
-3455 194 0
3454 3455 -242 3453 0
-3503 194 0
-3505 164 0
-3506 148 0
-3510 225 0
-3511 197 0
-3512 165 0
3512 3511 -245 3510 0
-3519 130 0
-3520 133 0
-3521 145 0
-3522 161 0
-3523 193 0
-246 3519 3520 3521 3522 3523 0
-3571 211 0
-3612 153 0
-3613 177 0
-3614 169 0
-249 3614 3613 3612 0
-3741 134 0
-3741 249 0
-3742 138 0
-3742 245 0
146 -3743 0
-3743 237 0
-3744 162 0
221 -3744 0
-3745 194 0
-3745 189 0
3744 3742 3745 3741 -254 3743 0
-3746 134 0
-3746 249 0
-3747 141 0
-3747 242 0
-3748 149 0
-3748 234 0
165 -3749 0
218 -3749 0
-3750 197 0
-3750 186 0
3749 3746 3750 3748 3747 -254 0
-3751 138 0
-3751 245 0
-3752 242 0
-3753 153 0
-3753 230 0
-3754 169 0
-3754 214 0
-3755 201 0
-3755 182 0
3753 3754 3755 3751 -254 3752 0
-3756 146 0
-3756 237 0
-3757 234 0
-3758 153 0
-3758 230 0
-3759 177 0
-3759 206 0
-3760 209 0
-3760 174 0
3757 3756 3759 3760 3758 -254 0
-3761 221 0
-3762 218 0
-3763 169 0
-3763 214 0
-3764 177 0
-3764 206 0
-3765 225 0
-3765 158 0
3761 3762 3765 3763 3764 -254 0
194 -3766 0
189 -3766 0
-3767 197 0
-3767 186 0
-3768 201 0
-3768 182 0
209 -3769 0
174 -3769 0
-3770 225 0
-3770 158 0
3766 3767 3770 3769 3768 -254 0
-3829 248 0
-3830 138 0
-3830 247 0
-3831 246 0
-3832 141 0
-3832 244 0
232 -3833 0
169 -3834 0
216 -3834 0
-3835 184 0
3830 3832 3833 3834 3835 -256 3829 3831 0
-3836 145 0
-3837 146 0
-3838 238 0
-3839 149 0
-3839 236 0
-3840 232 0
-3841 177 0
-3841 208 0
-3842 209 0
-3842 176 0
3838 3837 3839 3840 3841 3842 -256 3836 0
-3869 258 0
-3870 259 0
-3871 260 0
-268 3871 3870 3869 0
-3917 258 0
-3918 259 0
-3919 273 0
-276 3917 3918 3919 0
-3953 260 0
-3954 262 0
-3955 263 0
-280 3955 3954 3953 0
-3989 260 0
-3989 281 0
-3990 266 0
-3991 274 0
-3991 267 0
-284 3989 3990 3991 0
-4052 284 0
-4053 262 0
-4054 263 0
-4055 276 0
-4056 268 0
4052 4056 -288 4054 4053 4055 0
-4057 280 0
-4058 266 0
-4059 278 0
-4060 276 0
-4061 264 0
4059 4057 -288 4058 4061 4060 0
-4062 273 0
-4063 274 0
-4064 275 0
-4065 277 0
-4066 264 0
4064 4063 -288 4066 4065 4062 0
-4139 260 0
-4139 297 0
-4140 266 0
-4140 291 0
-4141 290 0
-4141 267 0
-300 4141 4140 4139 0
-4229 259 0
-4230 273 0
-4231 289 0
-307 4229 4230 4231 0
-4294 258 0
-4295 260 0
-4295 309 0
-4296 307 0
-4297 274 0
-4297 295 0
290 -4298 0
-4298 279 0
4298 -312 4295 4297 4294 4296 0
-4313 264 0
-4319 305 0
-4320 273 0
-4321 289 0
-313 4319 4320 4321 0
-4331 266 0
-4331 305 0
-4332 274 0
-4332 297 0
-4333 290 0
-4333 281 0
-314 4332 4331 4333 0
-4343 267 0
-4343 305 0
-4344 275 0
-4344 297 0
-4345 281 0
-315 4345 4343 4344 0
-4355 258 0
-4356 259 0
-4357 308 0
-4358 273 0
-4359 289 0
-316 4357 4356 4355 4358 4359 0
-4397 258 0
-4398 314 0
-4399 310 0
-4400 273 0
-4401 289 0
-318 4399 4398 4397 4400 4401 0
-4417 273 0
-4418 274 0
-4419 277 0
-4420 294 0
-4421 270 0
-318 4420 4421 4419 4418 4417 0
-4487 258 0
-4488 259 0
-4489 321 0
-324 4487 4488 4489 0
-4547 259 0
-4548 323 0
-4549 321 0
-331 4548 4547 4549 0
-4559 260 0
-4559 329 0
-4560 266 0
-4560 323 0
-4561 322 0
-4561 267 0
-332 4559 4560 4561 0
-4661 260 0
-4715 341 0
-4717 274 0
-4729 273 0
-4730 274 0
-4730 327 0
-4731 275 0
-4731 326 0
-4732 324 0
-4733 337 0
-4733 264 0
-344 4731 4733 4730 4732 4729 0
-4736 278 0
-4739 337 0
-4740 273 0
-4741 321 0
-345 4739 4740 4741 0
-4751 266 0
-4751 337 0
-4752 274 0
-4752 329 0
-4753 322 0
-4753 281 0
-346 4753 4751 4752 0
-4763 267 0
-4763 337 0
-4764 275 0
-4764 329 0
-4765 323 0
-4765 281 0
-347 4765 4763 4764 0
-4775 258 0
-4776 259 0
-4777 340 0
-4778 273 0
-4779 321 0
-348 4777 4776 4775 4778 4779 0
-4786 345 0
-4907 258 0
-4908 289 0
-4909 321 0
-354 4907 4908 4909 0
-4919 259 0
-4920 289 0
-4921 321 0
-355 4919 4920 4921 0
-4984 258 0
-4985 260 0
-4986 355 0
-4987 290 0
-4988 322 0
-360 4988 4985 4987 4984 4986 0
-4999 289 0
-5000 290 0
-5000 327 0
-5001 291 0
-5001 326 0
-5002 324 0
-5003 353 0
-5003 264 0
-360 5001 5003 5000 5002 4999 0
-5009 353 0
-5010 289 0
-5011 321 0
-361 5009 5010 5011 0
-5021 266 0
-5021 353 0
-5022 290 0
-5022 329 0
-5023 322 0
-5023 297 0
5022 -362 5021 5023 0
-5033 267 0
-5045 258 0
-5046 259 0
-5047 356 0
-5048 289 0
-5049 321 0
-364 5047 5046 5045 5048 5049 0
-5087 258 0
-5088 362 0
-5089 358 0
-5090 289 0
-5091 321 0
-366 5089 5088 5087 5090 5091 0
-5137 289 0
-5138 291 0
-5139 331 0
-5140 327 0
-5141 353 0
-367 5141 5139 5140 5138 5137 0
-5177 273 0
-5178 289 0
-5179 321 0
-369 5177 5178 5179 0
-5189 274 0
-5190 290 0
-5190 337 0
-5191 322 0
-370 5190 5189 5191 0
-5213 258 0
-5214 259 0
-5215 273 0
-5216 289 0
-5217 321 0
-372 5213 5214 5215 5216 5217 0
-5262 274 0
-5270 273 0
-5271 274 0
-5272 354 0
-5273 326 0
-5274 294 0
-374 5274 5271 5273 5270 5272 0
-5345 281 0
-5345 353 0
-5346 297 0
-5346 337 0
-5347 329 0
-5347 305 0
-377 5345 5347 5346 0
-5387 259 0
-5388 371 0
-5389 273 0
-5390 289 0
-5391 321 0
-379 5388 5387 5389 5390 5391 0
-5417 260 0
-5417 377 0
-5418 266 0
-5418 371 0
274 -5419 0
363 -5419 0
-5420 290 0
-5420 347 0
-5421 322 0
-5421 315 0
5419 5418 5421 5417 5420 -380 0
-5422 260 0
-5422 377 0
-5423 267 0
-5423 370 0
275 -5424 0
362 -5424 0
-5425 291 0
-5425 346 0
-5426 323 0
-5426 314 0
5424 5425 5423 5426 5422 -380 0
-5427 266 0
-5427 371 0
-5428 267 0
-5428 370 0
-5429 281 0
356 -5429 0
-5430 297 0
-5430 340 0
-5431 329 0
-5431 308 0
5427 5429 5431 5430 5428 -380 0
-5432 274 0
-5432 363 0
-5433 275 0
-5433 362 0
-5434 281 0
-5434 356 0
-5435 305 0
-5435 332 0
-5436 337 0
-5436 300 0
5433 5432 5434 5435 5436 -380 0
-5437 290 0
-5437 347 0
-5438 291 0
-5438 346 0
-5439 297 0
-5439 340 0
-5440 305 0
-5440 332 0
353 -5441 0
-5441 284 0
5441 5437 5440 5439 5438 -380 0
-5442 315 0
-5443 314 0
-5444 308 0
-5445 337 0
-5445 300 0
-5446 353 0
-5446 284 0
5446 5445 5443 5444 5442 -380 0
-5447 377 0
-5448 373 0
-5449 273 0
-5450 289 0
-5451 321 0
-381 5447 5448 5449 5450 5451 0
-5452 377 0
-5453 369 0
-5454 361 0
-5455 345 0
-5456 313 0
-381 5454 5452 5455 5456 5453 0
-5462 273 0
-5463 361 0
-5464 357 0
-5465 305 0
-5466 337 0
-381 5464 5465 5466 5463 5462 0
-5472 321 0
-5473 313 0
-5474 309 0
-5475 337 0
-5476 285 0
-381 5476 5474 5475 5473 5472 0
-5544 383 0
-5545 260 0
-5545 381 0
-5546 379 0
-5547 375 0
-5548 274 0
-5548 367 0
-5549 351 0
-5550 322 0
5546 5545 5547 5548 5549 5550 -384 5544 0
-5551 382 0
-5552 260 0
-5553 263 0
-5554 374 0
-5555 275 0
-5556 350 0
-5557 318 0
5552 5553 5554 5555 5556 5557 -384 5551 0
-5565 376 0
-5566 375 0
-5567 267 0
-5567 374 0
-5568 372 0
-5569 281 0
360 -5569 0
-5570 297 0
-5570 344 0
329 -5571 0
-5571 312 0
5567 5566 5569 5570 5571 -384 5565 5568 0
-5572 273 0
-5573 274 0
-5573 367 0
-5574 275 0
-5574 366 0
-5575 364 0
-5576 281 0
-5576 360 0
-5577 305 0
-5577 336 0
-5578 337 0
-5578 304 0
5573 5574 5575 5576 5577 5578 -384 5572 0
-5579 289 0
-5580 290 0
-5580 351 0
-5581 291 0
-5581 350 0
-5582 293 0
-5582 348 0
-5583 297 0
-5583 344 0
-5584 305 0
-5584 336 0
-5585 353 0
-5585 288 0
5581 5580 5582 5583 5584 5585 -384 5579 0
-5586 321 0
-5587 322 0
-5588 323 0
-5588 318 0
-5589 316 0
-5590 329 0
-5590 312 0
-5591 337 0
-5591 304 0
-5592 353 0
288 -5592 0
5587 5588 5589 5590 5591 5592 -384 5586 0
-249 -264 0
-266 -247 0
-238 -275 0
-234 -279 0
-281 -232 0
-225 -288 0
-295 -218 0
-297 -216 0
-304 -209 0
-208 -305 0
-201 -312 0
-314 -199 0
-186 -327 0
-184 -329 0
-336 -177 0
-176 -337 0
-344 -169 0
-346 -167 0
-348 -165 0
-351 -162 0
-153 -360 0
-367 -146 0
-375 -138 0
-377 -136 0
-267 -245 -2 0
-237 -275 -2 0
-315 -197 -2 0
-347 -165 -2 0
-371 -141 -2 0
-345 -162 -7 0
-249 -8 0
-225 -281 -8 0
-297 -8 -209 0
-201 -305 -8 0
-177 -329 -8 0
-337 -169 -8 0
-377 -8 0
-294 -209 -11 0
-309 -11 -194 0
-341 -162 -11 0
-11 -357 -146 0
-374 -11 0
-245 -12 0
-337 -165 -12 0
-373 -12 0
-13 -244 0
-13 -305 -196 0
-13 -322 -179 0
-13 -337 -164 0
-13 -353 -148 0
-13 -370 -131 0
-371 -14 0
-201 -294 -19 0
-326 -19 -169 0
-19 -138 -357 0
-366 -19 0
-237 -20 0
-197 -297 -20 0
-20 -165 -329 0
-20 -141 -353 0
-236 -21 0
-266 -227 -21 0
-297 -21 -196 0
-21 -164 -329 0
-225 -22 -267 0
-22 -363 0
-25 -232 0
-225 -25 -264 0
-290 -25 -199 0
-293 -25 -196 0
-295 -25 -194 0
-322 -167 -25 0
-327 -25 -162 0
-25 -136 -353 0
-360 -25 0
-32 -225 0
-32 -353 0
-35 -218 -261 0
-270 -35 -209 0
-201 -35 -278 0
-35 -341 -138 0
-350 -35 0
-36 -221 0
-197 -36 -281 0
-149 -36 -329 0
-36 -337 -141 0
-266 -37 -211 0
-38 -267 -209 0
-347 -38 0
-41 -216 0
-41 -264 -209 0
-199 -41 -274 0
-337 -41 -136 0
-41 -344 0
-42 -197 -275 0
-209 -48 0
-201 -264 -49 0
-266 -199 -49 0
-327 -138 -49 0
-136 -329 -49 0
-267 -197 -50 0
-323 -141 -50 0
-201 -56 0
-56 -329 0
-59 -194 -261 0
-326 -59 0
-60 -197 0
-61 -196 0
-322 -61 -131 0
-323 -62 0
-169 -278 -67 0
-285 -162 -67 0
-309 -138 -67 0
-318 -67 0
-189 -68 0
-165 -281 -68 0
-149 -297 -68 0
-305 -141 -68 0
-266 -179 -69 0
-281 -164 -69 0
-297 -69 -148 0
-315 -70 0
-184 -73 0
-177 -264 -73 0
-167 -73 -274 0
-162 -73 -279 0
-293 -73 -148 0
-295 -73 -146 0
-305 -73 -136 0
-73 -312 0
-74 -165 -275 0
-177 -80 0
-305 -80 0
-81 -264 -169 0
-266 -81 -167 0
-81 -295 -138 0
-88 -169 0
-88 -297 0
-91 -162 -261 0
-92 -165 0
-93 -164 0
-94 -291 0
-153 -97 -264 0
-97 -138 -279 0
-97 -281 -136 0
-97 -288 0
-153 -104 0
-104 -281 0
-107 -278 0
-149 -108 0
-277 -108 0
-109 -148 0
-110 -275 0
-115 -138 -261 0
-116 -141 0
-118 -267 0
-136 -121 0
-262 -121 -131 0
-264 -121 0
-263 -122 0
-3 0
-5 0
-9 0
-17 0
-33 0
-65 0
2 0
127 0
-263 -249 0
-291 -221 0
-189 -323 0
-383 0
122 -121 0
-122 121 0
-117 118 0
-118 117 0
-115 116 0
-116 115 0
-109 110 0
108 -107 0
-108 107 0
-103 104 0
-104 103 0
94 -93 0
-91 92 0
-92 91 0
-87 88 0
-88 87 0
-82 81 0
80 -79 0
74 -73 0
-74 73 0
70 -69 0
-70 69 0
68 -67 0
67 -68 0
62 -61 0
-59 60 0
-60 59 0
-55 56 0
-56 55 0
50 -49 0
-50 49 0
48 -47 0
42 -41 0
-42 41 0
-37 38 0
-38 37 0
-35 36 0
-36 35 0
-31 32 0
-21 22 0
-22 21 0
20 -19 0
-20 19 0
14 -13 0
12 -11 0
-12 11 0
8 -7 0
-8 7 0
-130 0
-133 0
-145 0
-161 0
-193 0
131 0
254 0
-266 -117 0
-109 -274 0
-93 -290 0
-310 -73 0
-314 -69 0
-346 -37 0
-358 -25 0
-21 -362 0
-382 0
-117 -260 0
-103 -274 0
-87 -290 0
-308 -69 0
-322 -55 0
-340 -37 0
-21 -356 0
-370 -7 0
-376 0
-245 247 0
-247 245 0
244 -242 0
-244 242 0
-230 232 0
230 -232 0
227 -225 0
-214 216 0
214 -216 0
211 -209 0
209 -211 0
-197 199 0
196 -194 0
-196 194 0
-182 184 0
-184 182 0
179 -177 0
167 -165 0
164 -162 0
-164 162 0
148 -146 0
-148 146 0
-134 136 0
134 -136 0
-258 0
-259 0
-273 0
-289 0
-321 0
261 0
380 0
-107 -146 0
-186 -67 0
-234 -19 0
-11 -242 0
-115 -134 0
-103 -146 0
-87 -162 0
-182 -67 0
-55 -194 0
-35 -214 0
-19 -230 0
-7 -242 0
-248 0
-371 375 0
-375 371 0
-370 374 0
-374 370 0
-356 360 0
-360 356 0
357 -353 0
-357 353 0
-340 344 0
-344 340 0
-337 341 0
-323 327 0
-327 323 0
-322 326 0
-326 322 0
-308 312 0
-312 308 0
-305 309 0
-309 305 0
-291 295 0
294 -290 0
-294 290 0
279 -275 0
278 -274 0
-278 274 0
-260 264 0
