p cnf 5592 1108
128 0
256 0
384 0
-553 7 0
-553 25 0
-554 21 0
-555 19 0
-31 554 555 553 0
-679 5 0
-680 37 0
-681 33 0
-45 680 679 681 0
-703 7 0
-703 41 0
-704 11 0
-704 37 0
-705 13 0
704 -47 705 703 0
-781 5 0
-782 17 0
-783 33 0
-53 781 782 783 0
-827 3 0
-828 53 0
50 -829 0
-830 19 0
-831 35 0
829 -56 827 828 830 831 0
-839 19 0
-847 49 0
-848 17 0
-849 33 0
-57 847 848 849 0
11 -871 0
49 -871 0
-872 19 0
-872 41 0
-873 35 0
-873 25 0
871 873 -59 872 0
-913 13 0
-913 49 0
-914 21 0
-915 37 0
-915 25 0
913 -61 915 914 0
-936 57 0
-937 50 0
-966 57 0
-1099 5 0
-1100 69 0
-1101 65 0
-77 1100 1099 1101 0
-1126 7 0
-1127 13 0
-1128 11 0
-79 1126 1127 1128 0
-1225 81 0
-1226 19 0
-1226 69 0
-1227 67 0
-87 1227 1226 1225 0
-1291 11 0
-1292 19 0
-1292 73 0
-1293 25 0
-91 1291 1292 1293 0
-1333 13 0
-1333 81 0
-1334 21 0
-1334 73 0
-1335 69 0
-1335 25 0
-93 1334 1333 1335 0
-1471 5 0
-1472 33 0
-1473 65 0
-101 1471 1472 1473 0
-1495 97 0
-1496 35 0
-1497 67 0
-103 1497 1496 1495 0
-1517 3 0
-1518 101 0
-1519 7 0
-1520 70 0
-1521 38 0
-104 1519 1517 1518 1520 1521 0
-1603 13 0
-1603 97 0
-1604 37 0
-1604 73 0
-1605 69 0
-1605 41 0
-109 1604 1603 1605 0
-1606 13 0
-1607 69 0
-1608 73 0
-1608 37 0
-109 1608 1607 1606 0
-1650 3 0
-1651 7 0
-1652 101 0
-1653 77 0
-1654 45 0
-111 1651 1650 1652 1653 1654 0
-1729 19 0
-1730 35 0
-1731 67 0
-115 1731 1730 1729 0
-1771 21 0
-1771 97 0
37 -1772 0
-1772 81 0
-1773 69 0
-1773 49 0
-117 1771 1772 1773 0
-1797 69 0
-1810 69 0
-1873 25 0
-1873 97 0
-1874 81 0
-1875 73 0
-1875 49 0
1875 1874 1873 -121 0
-1910 65 0
-1911 57 0
-1912 50 0
-1913 42 0
-1914 26 0
1911 -122 1910 1914 1913 1912 0
-1915 3 0
-1916 115 0
-1917 17 0
-1918 33 0
-1919 65 0
-123 1916 1915 1917 1918 1919 0
-1975 5 0
-1976 117 0
-1977 17 0
-1978 33 0
-1979 65 0
-125 1976 1975 1977 1978 1979 0
-1984 69 0
7 -2035 0
121 -2035 0
11 -2036 0
-2036 117 0
-2037 19 0
-2037 109 0
-2038 35 0
-2038 93 0
-2039 67 0
-2039 61 0
2035 2036 -127 2037 2038 2039 0
-2040 7 0
-2040 121 0
-2041 115 0
-2042 21 0
-2042 107 0
37 -2043 0
-2043 91 0
-2044 69 0
-2044 59 0
2042 2043 -127 2044 2040 2041 0
-2045 117 0
-2046 13 0
-2046 115 0
-2047 25 0
-2047 103 0
-2048 41 0
-2048 87 0
-2049 73 0
-2049 55 0
2046 2048 -127 2049 2045 2047 0
-2050 19 0
-2050 109 0
-2051 21 0
-2052 103 0
49 -2053 0
79 -2053 0
-2054 81 0
-2054 47 0
2053 2051 -127 2050 2054 2052 0
-2055 35 0
-2055 93 0
-2056 37 0
-2056 91 0
-2057 87 0
-2058 49 0
79 -2058 0
-2059 97 0
31 -2059 0
2058 2056 -127 2059 2055 2057 0
67 -2060 0
-2060 61 0
-2061 69 0
-2061 59 0
73 -2062 0
55 -2062 0
-2063 81 0
-2063 47 0
-2064 97 0
2060 2061 -127 2064 2062 2063 0
-2079 3 0
-2080 125 0
122 -2081 0
-2082 118 0
-2083 19 0
-2083 110 0
-2084 35 0
-2084 94 0
-2085 67 0
2080 2081 2082 2083 2084 2085 -128 2079 0
-2086 5 0
-2087 123 0
-2088 7 0
-2089 116 0
-2090 108 0
-2091 37 0
-2092 69 0
2087 2088 2089 2090 2091 2092 -128 2086 0
-2097 25 0
-2100 17 0
-2101 111 0
-2102 110 0
-2103 21 0
-2104 104 0
-2105 80 0
-2106 48 0
2101 2102 2103 2104 2105 2106 -128 2100 0
-2107 33 0
-2108 95 0
-2109 94 0
-2110 37 0
-2111 41 0
-2112 49 0
-2113 32 0
2109 2108 2110 2111 2112 2113 -128 2107 0
-2114 65 0
-2115 63 0
-2116 67 0
-2116 62 0
-2117 69 0
-2117 60 0
-2118 56 0
-2119 81 0
-2120 32 0
2116 2115 2117 2118 2119 2120 -128 2114 0
-2145 130 0
-2146 133 0
-2147 134 0
-142 2147 2146 2145 0
-2193 130 0
-2194 133 0
-2195 134 0
-150 2195 2194 2193 0
-2277 134 0
153 -2277 0
-2278 138 0
-2278 149 0
-2279 146 0
-2279 141 0
-158 2277 2279 2278 0
-2343 130 0
-2344 133 0
-2345 161 0
-166 2343 2344 2345 0
-2367 132 0
-2367 165 0
-2368 134 0
-2368 163 0
-2369 162 0
-2369 135 0
-168 2369 2367 2368 0
-2379 130 0
-2380 162 0
-2381 161 0
-170 2380 2379 2381 0
-2427 134 0
-2427 169 0
-2428 138 0
-2428 165 0
-2429 162 0
-2429 141 0
-174 2427 2429 2428 0
-2451 130 0
-2452 174 0
-2453 133 0
-2454 168 0
-2455 161 0
-176 2454 2451 2453 2452 2455 0
-2466 133 0
-2467 134 0
-2468 170 0
-2469 164 0
-2470 165 0
-2470 140 0
-176 2468 2466 2467 2469 2470 0
-2481 130 0
-2482 162 0
-2483 161 0
-178 2482 2481 2483 0
-2553 130 0
-2554 182 0
-2555 133 0
-2556 168 0
-2557 161 0
-184 2556 2553 2555 2554 2557 0
-2563 182 0
-2564 181 0
-2565 178 0
-2566 166 0
-2567 150 0
-184 2565 2563 2567 2566 2564 0
-2568 133 0
-2569 134 0
-2570 178 0
-2571 164 0
-2572 165 0
-2572 148 0
-184 2571 2568 2569 2572 2570 0
-2578 161 0
151 -2579 0
-2580 150 0
-2581 165 0
-2581 148 0
-2582 177 0
-2582 136 0
-184 2581 2578 2582 2579 2580 0
-2595 138 0
-2595 177 0
-2596 146 0
-2596 169 0
-2597 162 0
-2597 153 0
2597 2596 -186 2595 0
-2671 133 0
-2672 134 0
-2673 178 0
-2674 170 0
-2675 165 0
-2675 154 0
2675 -190 2671 2672 2673 2674 0
-2763 130 0
-2764 133 0
-2765 193 0
-198 2763 2764 2765 0
-2787 132 0
-2788 134 0
-2789 194 0
-200 2788 2789 2787 0
134 -2847 0
-2847 201 0
-2848 138 0
-2848 197 0
-2849 194 0
-2849 141 0
-206 2848 2849 2847 0
-2871 130 0
-2872 206 0
-2873 133 0
-2874 200 0
-2875 193 0
-208 2874 2871 2873 2872 2875 0
-2937 133 0
-2938 197 0
-2939 193 0
-213 2938 2937 2939 0
-2949 134 0
-2950 197 0
-2951 194 0
2950 -214 2949 2951 0
-2973 130 0
-2974 214 0
-2975 133 0
-2976 200 0
-2977 193 0
-216 2976 2973 2975 2974 2977 0
-2978 130 0
-2979 132 0
-2979 213 0
-2980 134 0
-2981 199 0
-2982 194 0
151 -2982 0
-216 2981 2978 2982 2980 2979 0
-2983 214 0
-2984 132 0
-2985 210 0
-2986 198 0
-2987 150 0
-216 2987 2983 2985 2986 2984 0
-2998 193 0
-2999 194 0
-2999 151 0
-3000 195 0
-3000 150 0
-3001 148 0
-3002 136 0
-216 3001 2998 3002 3000 2999 0
-3106 193 0
-3107 194 0
-3108 197 0
-3108 154 0
-3109 150 0
-3110 142 0
-222 3108 3106 3110 3109 3107 0
-3207 133 0
-3208 161 0
-3209 193 0
-229 3207 3208 3209 0
-3248 130 0
-3249 229 0
-3250 134 0
-3251 162 0
-3251 199 0
-3252 194 0
3251 3250 3248 3249 -232 3252 0
-3285 225 0
-3286 201 0
-3287 194 0
-234 3286 3287 3285 0
-3334 193 0
-3335 194 0
-3336 170 0
-3337 164 0
-3338 225 0
-3338 140 0
-236 3336 3334 3338 3335 3337 0
-3356 130 0
-3357 134 0
-3358 229 0
-3359 162 0
-3360 194 0
-238 3359 3356 3358 3357 3360 0
-3477 130 0
-3478 242 0
-3479 228 0
-3480 161 0
-3481 193 0
-244 3479 3477 3478 3480 3481 0
-3519 130 0
-3520 133 0
-3521 230 0
-3522 161 0
-3523 193 0
-246 3521 3520 3519 3522 3523 0
-3524 130 0
-3525 134 0
-3526 229 0
-3527 213 0
-3528 194 0
-246 3527 3524 3526 3525 3528 0
-3539 161 0
-3540 213 0
-3541 165 0
-3542 198 0
-3543 150 0
-246 3541 3539 3543 3542 3540 0
-3741 134 0
-3741 249 0
-3742 138 0
-3742 245 0
-3743 146 0
-3743 237 0
-3744 162 0
-3745 194 0
3744 3741 -254 3743 3745 3742 0
-3746 134 0
-3746 249 0
-3747 141 0
-3747 242 0
-3748 234 0
-3749 165 0
-3749 218 0
-3750 197 0
-3750 186 0
3746 3749 -254 3750 3748 3747 0
-3751 138 0
-3751 245 0
-3752 141 0
-3752 242 0
-3753 153 0
-3753 230 0
-3754 169 0
-3754 214 0
-3755 201 0
-3755 182 0
3751 3754 -254 3755 3752 3753 0
-3756 237 0
-3757 234 0
-3758 230 0
177 -3759 0
-3759 206 0
-3760 209 0
-3760 174 0
3756 3759 -254 3760 3758 3757 0
221 -3761 0
-3762 218 0
-3763 214 0
-3764 206 0
-3765 225 0
158 -3765 0
3761 3764 -254 3765 3762 3763 0
-3766 194 0
197 -3767 0
-3767 186 0
-3768 201 0
-3768 182 0
-3769 209 0
-3769 174 0
-3770 225 0
158 -3770 0
3770 3766 -254 3767 3768 3769 0
-3829 248 0
247 -3830 0
-3831 246 0
-3832 141 0
-3832 244 0
-3833 153 0
-3833 232 0
-3834 169 0
-3834 216 0
-3835 201 0
-3835 184 0
3831 3830 3832 3833 3834 3835 -256 3829 0
-3836 240 0
-3837 146 0
-3838 238 0
-3839 236 0
-3840 232 0
-3841 208 0
-3842 176 0
3837 3838 3839 3840 3841 3842 -256 3836 0
-3843 161 0
-3844 162 0
-3845 222 0
-3846 165 0
-3846 220 0
-3847 169 0
-3847 216 0
177 -3848 0
-3848 208 0
-3849 160 0
3845 3844 3846 3847 3848 3849 -256 3843 0
-3850 193 0
-3851 194 0
-3852 190 0
-3853 197 0
-3853 188 0
-3854 184 0
-3855 209 0
-3855 176 0
-3856 160 0
3851 3852 3853 3854 3855 3856 -256 3850 0
-3881 258 0
-3882 266 0
-3883 262 0
-270 3883 3881 3882 0
-3953 260 0
-3954 262 0
-3955 263 0
-280 3955 3954 3953 0
-3989 260 0
281 -3989 0
-3990 266 0
-3990 275 0
-3991 274 0
-3991 267 0
-284 3989 3991 3990 0
280 -4057 0
-4115 258 0
-4116 290 0
-4117 289 0
-298 4116 4115 4117 0
-4139 260 0
-4140 266 0
-4140 291 0
-4141 290 0
-4141 267 0
-300 4141 4140 4139 0
-4187 258 0
-4188 259 0
-4189 300 0
265 -4190 0
-4190 296 0
-4191 289 0
4190 4189 4188 4187 -304 4191 0
-4207 296 0
-4241 260 0
-4242 274 0
-4243 290 0
-4243 275 0
-308 4241 4243 4242 0
-4253 305 0
-4289 258 0
-4290 259 0
-4291 308 0
-4292 296 0
-4293 289 0
-312 4292 4290 4289 4291 4293 0
-4331 266 0
-4332 274 0
-4333 290 0
-314 4332 4333 4331 0
-4487 258 0
-4488 259 0
-4489 321 0
-324 4487 4488 4489 0
-4526 260 0
-4526 325 0
-4527 322 0
-4528 323 0
-4528 262 0
-328 4526 4527 4528 0
-4535 258 0
-4536 322 0
-4537 321 0
-330 4536 4535 4537 0
-4559 260 0
-4560 266 0
-4560 323 0
-4561 322 0
-4561 267 0
-332 4559 4561 4560 0
-4607 258 0
-4608 259 0
-4609 332 0
-4610 328 0
-4611 321 0
-336 4610 4608 4607 4609 4611 0
-4617 259 0
-4618 260 0
-4618 333 0
-4619 330 0
-4620 326 0
-4621 323 0
-4621 270 0
-336 4618 4617 4619 4621 4620 0
-4637 258 0
-4638 322 0
-4639 321 0
-338 4638 4637 4639 0
-4661 260 0
-4662 274 0
-4662 323 0
-4663 322 0
-4663 275 0
-340 4662 4663 4661 0
-4709 258 0
-4710 259 0
-4711 340 0
-4712 328 0
-4713 321 0
4711 -344 4710 4709 4712 4713 0
-4719 259 0
-4720 260 0
-4721 338 0
-4722 326 0
-4723 323 0
-344 4723 4719 4722 4720 4721 0
-4827 346 0
-4828 262 0
-4829 338 0
-4830 330 0
-4831 325 0
-350 4831 4827 4828 4830 4829 0
-4907 258 0
-4908 289 0
-4909 321 0
-354 4907 4908 4909 0
-4919 259 0
-4920 289 0
-4921 321 0
-355 4919 4920 4921 0
-4931 260 0
-4932 290 0
-4932 323 0
-4933 322 0
-356 4932 4931 4933 0
-4989 259 0
-4990 260 0
-4991 354 0
-4992 326 0
-4993 294 0
-360 4993 4989 4991 4990 4992 0
-4999 289 0
-5000 290 0
-5001 326 0
-5002 324 0
-5003 264 0
-360 5000 4999 5003 5002 5001 0
-5045 258 0
-5046 259 0
-5047 356 0
-5048 289 0
-5049 321 0
-364 5047 5046 5045 5048 5049 0
-5097 362 0
-5098 262 0
-5099 354 0
-5100 330 0
-5101 298 0
-366 5101 5100 5099 5098 5097 0
-5218 258 0
-5219 260 0
-5220 355 0
-5221 290 0
-5221 339 0
-5222 322 0
-5222 307 0
-372 5221 5218 5220 5222 5219 0
-5295 371 0
-5296 263 0
-5297 355 0
-5298 293 0
-5299 307 0
-375 5296 5295 5297 5298 5299 0
-5417 260 0
-5417 377 0
-5418 266 0
-5418 371 0
274 -5419 0
363 -5419 0
-5420 290 0
347 -5420 0
-5421 322 0
-5421 315 0
5419 5420 -380 5418 5417 5421 0
-5422 260 0
-5422 377 0
-5423 267 0
-5423 370 0
-5424 362 0
-5425 291 0
346 -5425 0
-5426 323 0
-5426 314 0
5424 5426 -380 5425 5422 5423 0
-5427 266 0
-5427 371 0
-5428 267 0
-5428 370 0
-5429 356 0
-5430 297 0
-5430 340 0
-5431 329 0
-5431 308 0
5430 5429 -380 5428 5431 5427 0
-5432 274 0
363 -5432 0
-5433 275 0
-5433 362 0
-5434 356 0
-5435 332 0
-5436 300 0
5432 5434 -380 5433 5436 5435 0
-5437 290 0
-5437 347 0
-5438 346 0
-5439 340 0
-5440 305 0
-5440 332 0
-5441 353 0
-5441 284 0
5438 5441 -380 5437 5439 5440 0
-5442 322 0
-5442 315 0
-5443 314 0
-5444 308 0
-5445 337 0
-5445 300 0
-5446 353 0
-5446 284 0
5446 5445 -380 5442 5444 5443 0
-5565 376 0
-5566 266 0
-5566 375 0
-5567 267 0
-5568 372 0
-5569 360 0
344 -5570 0
-5571 312 0
5566 5567 5568 5569 5570 5571 -384 5565 0
-5572 368 0
-5573 274 0
367 -5573 0
-5574 366 0
-5575 364 0
-5576 360 0
-5577 336 0
-5578 337 0
-5578 304 0
5574 5573 5575 5576 5577 5578 -384 5572 0
-5579 289 0
-5580 290 0
-5581 291 0
-5581 350 0
-5582 293 0
-5582 348 0
-5583 297 0
-5583 344 0
305 -5584 0
-5584 336 0
-5585 353 0
-5585 288 0
5580 5581 5582 5583 5584 5585 -384 5579 0
-5586 321 0
-5587 322 0
-5588 323 0
-5588 318 0
-5589 325 0
-5589 316 0
-5590 329 0
-5590 312 0
337 -5591 0
-5591 304 0
353 -5592 0
288 -5592 0
5588 5587 5589 5590 5591 5592 -384 5586 0
-264 -249 0
-266 -247 0
-246 -267 0
-225 -288 0
-222 -291 0
-218 -295 0
-216 -297 0
-213 -300 0
-209 -304 0
-305 -208 0
-307 -206 0
-312 -201 0
-314 -199 0
-318 -195 0
-190 -323 0
-325 -188 0
-327 -186 0
-184 -329 0
-336 -177 0
-339 -174 0
-169 -344 0
-167 -346 0
-348 -165 0
-160 -353 0
-146 -367 0
-377 -136 0
-245 -267 -2 0
-291 -221 -2 0
-315 -197 -2 0
-165 -347 -2 0
-149 -363 -2 0
-154 -7 -353 0
-249 -8 0
-281 -225 -8 0
-305 -201 -8 0
-337 -169 -8 0
-153 -8 -353 0
-377 -8 0
-246 -11 0
-209 -294 -11 0
-150 -353 -11 0
-146 -357 -11 0
-244 -13 0
-13 -227 -274 0
-210 -13 -291 0
-305 -13 -196 0
-178 -13 -323 0
-148 -13 -353 0
-294 -201 -19 0
-326 -169 -19 0
-138 -19 -357 0
-366 -19 0
-237 -20 0
-293 -201 -20 0
-297 -197 -20 0
-325 -169 -20 0
-165 -329 -20 0
-141 -20 -353 0
-21 -266 -227 0
-21 -297 -196 0
-21 -140 -353 0
-22 -225 -267 0
-22 -201 -291 0
-323 -22 -169 0
-22 -363 0
-25 -232 0
-262 -227 -25 0
-225 -264 -25 0
-290 -25 -199 0
-293 -25 -196 0
-295 -25 -194 0
-322 -25 -167 0
-327 -162 -25 0
-25 -136 -353 0
-132 -25 -357 0
-26 -291 -197 0
-32 -353 0
-222 -35 0
-325 -154 -35 0
-333 -146 -35 0
-350 -35 0
-221 -36 0
-149 -329 -36 0
-220 -37 0
-210 -37 -267 0
-348 -37 0
-209 -38 -267 0
-275 -38 -201 0
-38 -347 0
-216 -41 0
-41 -274 -199 0
-150 -323 -41 0
-146 -327 -41 0
-337 -41 -136 0
-41 -344 0
-42 -275 -197 0
-48 -337 0
-208 -49 0
-266 -199 -49 0
-327 -138 -49 0
-329 -136 -49 0
-336 -49 0
-267 -197 -50 0
-141 -323 -50 0
-201 -56 0
-59 -194 -261 0
-326 -59 0
-60 -197 0
-61 -196 0
-322 -61 -131 0
-62 -323 0
-63 -194 0
-190 -67 0
-181 -266 -67 0
-153 -294 -67 0
-318 -67 0
-281 -165 -68 0
-149 -297 -68 0
-188 -69 0
-281 -164 -69 0
-148 -297 -69 0
-305 -140 -69 0
-316 -69 0
-267 -177 -70 0
-275 -169 -70 0
-163 -281 -70 0
-315 -70 0
-184 -73 0
-264 -177 -73 0
-150 -291 -73 0
-312 -73 0
-178 -79 0
-80 -177 0
-176 -81 0
-266 -167 -81 0
-295 -138 -81 0
-81 -304 0
-82 -165 -267 0
-141 -82 -291 0
-88 -169 0
-91 -294 0
-93 -164 0
-93 -290 -131 0
-94 -291 0
-95 -162 0
-97 -151 -266 0
-150 -97 -267 0
-97 -288 0
-141 -98 -275 0
-107 -146 -261 0
-108 -149 0
-148 -109 0
-109 -274 -131 0
-110 -275 0
-115 -138 -261 0
-115 -270 0
-116 -141 0
-267 -118 0
-136 -121 0
-132 -121 -261 0
-262 -121 -131 0
-264 -121 0
-263 -122 0
-3 0
-5 0
-17 0
-33 0
-65 0
2 0
127 0
-263 -249 0
-135 -377 0
-248 0
-245 -260 0
-214 -291 0
-296 -209 0
-200 -305 0
-308 -197 0
-323 -182 0
-328 -177 0
-337 -168 0
-340 -165 0
-356 -149 0
-371 -134 0
-376 0
118 -117 0
-118 117 0
-115 116 0
-116 115 0
98 -97 0
-87 88 0
82 -81 0
70 -69 0
-70 69 0
68 -67 0
56 -55 0
-56 55 0
50 -49 0
49 -50 0
-37 38 0
-38 37 0
36 -35 0
-21 22 0
20 -19 0
8 -7 0
7 -8 0
-130 0
-133 0
-161 0
-193 0
131 0
254 0
-266 -117 0
-314 -69 0
-37 -346 0
-362 -21 0
-370 -13 0
-260 -117 0
-274 -103 0
-87 -290 0
-308 -69 0
-322 -55 0
-328 -49 0
-340 -37 0
-356 -21 0
-370 -7 0
-260 -109 0
-266 -103 0
-79 -290 0
-296 -73 0
-69 -300 0
-322 -47 0
-332 -37 0
-356 -13 0
-362 -7 0
-368 0
232 -230 0
-232 230 0
227 -225 0
199 -197 0
-199 197 0
196 -194 0
167 -165 0
164 -162 0
-164 162 0
-134 136 0
-136 134 0
-258 0
-259 0
-289 0
-321 0
261 0
380 0
-91 -162 0
-186 -67 0
-218 -35 0
-228 -25 0
-234 -19 0
-242 -11 0
-115 -134 0
-146 -103 0
-87 -162 0
-182 -67 0
-55 -194 0
-214 -35 0
-19 -230 0
-242 -7 0
-132 -109 0
-107 -134 0
-138 -103 0
-162 -79 0
-168 -73 0
-174 -67 0
-47 -194 0
-206 -35 0
-11 -230 0
-234 -7 0
-240 0
-360 356 0
357 -353 0
353 -357 0
-323 327 0
-322 326 0
-326 322 0
295 -291 0
-290 294 0
-260 264 0
