p cnf 5592 1065
128 0
256 0
384 0
-505 3 0
-506 9 0
-507 17 0
-27 505 506 507 0
-553 7 0
-554 11 0
-554 21 0
-555 13 0
-31 555 554 553 0
-703 41 0
-704 11 0
-705 35 0
-705 13 0
-47 703 705 704 0
-805 7 0
49 -805 0
-806 19 0
37 -806 0
-807 35 0
-807 21 0
805 -55 807 806 0
-840 36 0
-845 20 0
-955 3 0
-956 5 0
-957 9 0
-958 17 0
-959 33 0
-63 955 956 957 958 959 0
-1039 3 0
-1040 5 0
-1041 65 0
-71 1039 1040 1041 0
-1099 5 0
-1100 9 0
-1101 65 0
-77 1099 1100 1101 0
-1145 3 0
-1146 77 0
-1147 7 0
-1148 11 0
-1149 67 0
14 -1149 0
1147 1149 1145 1146 1148 -80 0
-1225 7 0
-1225 81 0
-1226 19 0
-1226 69 0
-1227 67 0
-87 1227 1225 1226 0
-1257 17 0
-1258 71 0
-1259 19 0
-1259 70 0
-1260 68 0
-1261 8 0
-88 1260 1257 1258 1261 1259 0
-1291 11 0
-1291 81 0
-1328 65 0
-1329 27 0
-1330 67 0
-1331 20 0
-1332 81 0
-1332 12 0
-92 1330 1328 1329 1332 1331 0
-1333 13 0
-1334 21 0
-1335 25 0
1334 1335 -93 1333 0
-1363 25 0
-1364 22 0
-1375 3 0
-1376 5 0
-1377 9 0
-1378 17 0
-1379 65 0
-95 1375 1376 1377 1378 1379 0
-1471 5 0
-1472 33 0
-1473 65 0
-101 1471 1472 1473 0
-1495 97 0
-1496 69 0
-1497 67 0
-103 1497 1496 1495 0
-1517 3 0
-1518 101 0
-1519 7 0
-1519 98 0
-1520 35 0
-1520 70 0
-1521 67 0
-1521 38 0
-104 1519 1517 1518 1520 1521 0
-1525 68 0
-1561 11 0
-1561 97 0
-1562 35 0
-1563 67 0
-1563 41 0
-107 1563 1562 1561 0
-1705 17 0
-1706 33 0
-1707 65 0
-113 1705 1706 1707 0
-1729 19 0
-1729 97 0
-1730 35 0
-1730 81 0
-1731 67 0
-115 1731 1730 1729 0
-1751 3 0
-1752 113 0
-1753 98 0
-1754 35 0
-1755 67 0
-116 1755 1751 1752 1753 1754 0
-1771 21 0
-1771 97 0
-1772 37 0
-1773 69 0
-117 1773 1772 1771 0
-1813 3 0
-1814 5 0
-1815 17 0
-1816 33 0
-1817 65 0
-119 1813 1814 1815 1816 1817 0
-1875 49 0
-1915 3 0
-1916 9 0
-1917 17 0
-1918 33 0
-1919 65 0
-123 1915 1916 1917 1918 1919 0
-2035 7 0
-2035 121 0
-2036 11 0
-2036 117 0
-2037 19 0
-2037 109 0
-2038 35 0
-2038 93 0
-2039 67 0
2035 2037 -127 2038 2036 2039 0
-2040 7 0
-2041 115 0
-2042 21 0
-2042 107 0
-2043 37 0
-2043 91 0
-2044 69 0
2040 2042 -127 2044 2041 2043 0
-2045 11 0
-2045 117 0
-2046 115 0
-2047 25 0
-2047 103 0
-2048 41 0
-2048 87 0
73 -2049 0
-2049 55 0
2047 2045 -127 2049 2048 2046 0
-2050 19 0
-2050 109 0
-2051 21 0
-2051 107 0
-2052 103 0
-2053 79 0
-2054 47 0
2052 2053 -127 2054 2051 2050 0
35 -2055 0
-2055 93 0
-2056 37 0
-2056 91 0
-2057 41 0
-2057 87 0
49 -2058 0
79 -2058 0
-2059 97 0
-2059 31 0
2055 2057 -127 2058 2059 2056 0
67 -2060 0
61 -2060 0
-2061 69 0
-2061 59 0
73 -2062 0
55 -2062 0
-2063 81 0
-2063 47 0
-2064 97 0
2060 2061 -127 2063 2064 2062 0
-2086 5 0
-2087 123 0
-2088 7 0
122 -2088 0
-2089 116 0
-2090 21 0
-2090 108 0
-2091 37 0
-2091 92 0
-2092 69 0
-2092 60 0
2089 2088 2090 2091 2092 -128 2086 2087 0
-2093 9 0
-2094 119 0
-2095 11 0
-2095 118 0
-2096 116 0
-2097 25 0
-2097 104 0
-2098 88 0
73 -2099 0
-2099 56 0
2096 2095 2097 2098 2099 -128 2093 2094 0
-2103 21 0
-2107 33 0
-2108 95 0
-2109 35 0
-2109 94 0
-2110 37 0
-2110 92 0
-2111 41 0
-2111 88 0
49 -2112 0
-2112 80 0
-2113 97 0
-2113 32 0
2109 2110 2111 2112 2113 -128 2107 2108 0
-2114 65 0
-2115 63 0
-2116 67 0
-2117 60 0
-2118 56 0
-2119 81 0
-2119 48 0
-2120 32 0
2117 2116 2118 2119 2120 -128 2114 2115 0
-2193 130 0
-2194 133 0
-2195 134 0
-150 2195 2194 2193 0
-2277 134 0
-2278 138 0
-2278 149 0
-2279 146 0
-2279 141 0
-158 2277 2278 2279 0
-2343 130 0
-2344 133 0
-2345 161 0
-166 2343 2344 2345 0
-2427 134 0
-2427 169 0
-2428 138 0
-2428 165 0
-2429 162 0
-2429 141 0
2427 2429 -174 2428 0
-2481 130 0
-2482 162 0
-2483 161 0
-178 2482 2481 2483 0
-2505 177 0
-2506 163 0
-2507 162 0
-180 2507 2505 2506 0
-2529 134 0
-2529 177 0
-2530 146 0
-2530 165 0
-2531 162 0
-2531 149 0
-182 2531 2529 2530 0
-2553 130 0
-2554 182 0
-2555 133 0
-2556 168 0
-2557 161 0
-184 2556 2553 2555 2554 2557 0
-2595 138 0
-2595 177 0
-2596 146 0
-2596 169 0
-2597 162 0
-186 2597 2595 2596 0
-2619 130 0
-2620 186 0
-2621 180 0
-2622 172 0
-2623 161 0
-188 2621 2619 2620 2622 2623 0
-2763 130 0
-2764 133 0
-2765 193 0
-198 2763 2764 2765 0
-2847 134 0
-2847 201 0
-2848 138 0
197 -2848 0
-2849 194 0
-2849 141 0
2848 2849 -206 2847 0
-2901 130 0
-2902 194 0
-2903 193 0
-210 2902 2901 2903 0
-2949 134 0
-2949 209 0
146 -2950 0
197 -2950 0
-2951 194 0
2950 -214 2949 2951 0
-2983 214 0
-2984 132 0
-2985 210 0
-2986 198 0
-2987 150 0
-216 2987 2985 2983 2986 2984 0
-2999 194 0
-3002 209 0
-3015 138 0
-3015 209 0
-3016 146 0
-3016 201 0
-3017 194 0
-218 3015 3016 3017 0
-3195 225 0
-3196 162 0
-3197 194 0
-228 3196 3195 3197 0
-3207 133 0
-3208 161 0
-3209 193 0
-229 3207 3208 3209 0
-3219 134 0
-3219 225 0
-3220 162 0
-3220 197 0
-3221 194 0
-3221 165 0
-230 3220 3221 3219 0
-3231 225 0
-3232 163 0
-3233 165 0
-231 3232 3231 3233 0
-3268 193 0
-3269 194 0
-3269 167 0
-3270 166 0
-3271 197 0
-3271 164 0
-3272 136 0
-232 3271 3268 3270 3269 3272 0
-3273 225 0
-3274 161 0
-3275 193 0
-233 3273 3274 3275 0
-3285 138 0
-3285 225 0
-3286 162 0
-3286 201 0
-3287 194 0
-3287 169 0
-234 3287 3285 3286 0
-3314 130 0
-3315 233 0
-3316 227 0
-3317 162 0
-3318 194 0
-236 3317 3314 3316 3318 3315 0
-3351 130 0
-3352 133 0
-3353 230 0
-3354 161 0
-3355 193 0
-238 3353 3352 3351 3354 3355 0
-3421 235 0
-3422 234 0
-3423 228 0
-3424 165 0
-3425 172 0
-240 3421 3423 3422 3424 3425 0
-3453 225 0
-3454 162 0
-3454 209 0
-3455 194 0
-242 3454 3455 3453 0
-3490 210 0
-3491 178 0
-3502 193 0
-3503 194 0
-3504 178 0
-3505 164 0
-3506 225 0
-244 3504 3502 3506 3503 3505 0
-3507 225 0
-3508 165 0
-3509 197 0
-3509 177 0
3508 -245 3509 3507 0
-3519 130 0
-3520 133 0
-3521 230 0
-3522 161 0
-3523 193 0
-246 3521 3520 3519 3522 3523 0
-3524 130 0
-3525 134 0
-3526 229 0
-3527 162 0
-3528 194 0
-246 3525 3524 3526 3528 3527 0
-3549 245 0
-3550 133 0
-3551 231 0
-3552 161 0
-3553 193 0
-247 3551 3550 3549 3552 3553 0
-3554 245 0
-3562 165 0
-3574 193 0
-3575 195 0
-3576 197 0
-3577 167 0
-3578 225 0
3575 3576 3574 3577 -247 3578 0
-3609 225 0
-3610 169 0
-3610 209 0
-3611 201 0
-3611 177 0
-249 3610 3611 3609 0
-3741 134 0
-3742 245 0
-3743 237 0
-3744 162 0
-3745 194 0
3741 3742 -254 3745 3744 3743 0
-3746 134 0
-3746 249 0
-3747 141 0
-3747 242 0
-3748 149 0
-3748 234 0
-3749 165 0
-3749 218 0
197 -3750 0
-3750 186 0
3746 3748 -254 3750 3749 3747 0
-3751 138 0
245 -3751 0
-3752 141 0
-3752 242 0
-3753 153 0
-3753 230 0
169 -3754 0
-3754 214 0
-3755 201 0
-3755 182 0
3751 3753 -254 3754 3755 3752 0
-3756 237 0
-3757 234 0
-3758 230 0
-3759 206 0
-3760 209 0
174 -3760 0
3759 3758 -254 3756 3760 3757 0
-3761 162 0
-3761 221 0
165 -3762 0
-3762 218 0
169 -3763 0
-3763 214 0
-3764 177 0
-3764 206 0
-3765 225 0
-3765 158 0
3764 3761 -254 3765 3762 3763 0
-3766 189 0
-3767 186 0
-3768 182 0
209 -3769 0
174 -3769 0
-3770 225 0
-3770 158 0
3769 3768 -254 3767 3770 3766 0
-3813 162 0
-3829 248 0
-3830 247 0
-3831 246 0
-3832 141 0
-3832 244 0
-3833 232 0
-3834 169 0
216 -3834 0
-3835 201 0
-3835 184 0
3831 3830 3832 3833 3834 3835 -256 3829 0
-3836 240 0
-3837 239 0
-3838 238 0
-3839 236 0
-3840 232 0
-3841 208 0
-3842 176 0
3837 3836 3838 3839 3840 3841 3842 -256 0
-3850 193 0
-3851 194 0
-3852 190 0
-3853 197 0
-3853 188 0
-3854 201 0
-3854 184 0
-3855 176 0
-3856 160 0
3851 3852 3853 3854 3855 3856 -256 3850 0
-3869 258 0
-3870 259 0
-3871 260 0
-268 3871 3870 3869 0
-3893 259 0
-3894 267 0
-3895 263 0
-271 3895 3893 3894 0
-3977 259 0
-3978 275 0
-3979 273 0
-283 3978 3977 3979 0
-3989 260 0
281 -3989 0
-3990 266 0
-3990 275 0
-3991 274 0
-3991 267 0
-284 3989 3990 3991 0
-3992 260 0
-3992 281 0
-3993 267 0
-3994 275 0
-3994 266 0
-284 3992 3994 3993 0
-4042 258 0
285 -4043 0
-4044 283 0
-4045 279 0
-4046 274 0
4043 4046 4042 -288 4045 4044 0
-4047 259 0
-4048 260 0
-4049 263 0
-4050 267 0
275 -4051 0
270 -4051 0
4051 -288 4047 4050 4048 4049 0
-4062 273 0
-4063 274 0
-4063 271 0
-4064 275 0
270 -4064 0
-4065 277 0
-4065 268 0
281 -4066 0
-4066 264 0
4064 4063 4062 -288 4066 4065 0
-4067 258 0
-4068 259 0
-4069 260 0
-292 4069 4068 4067 0
-4139 260 0
-4140 266 0
-4140 291 0
-4141 290 0
-4141 267 0
-300 4139 4140 4141 0
-4229 259 0
-4230 273 0
-4231 275 0
-307 4231 4230 4229 0
-4241 305 0
-4242 291 0
-4243 290 0
-308 4242 4241 4243 0
-4331 266 0
-4331 305 0
274 -4332 0
-4333 290 0
-4333 281 0
4332 -314 4331 4333 0
-4349 275 0
-4350 281 0
-4350 291 0
-4351 267 0
-315 4350 4351 4349 0
-4360 258 0
-4361 260 0
-4361 313 0
-4362 307 0
-4363 274 0
-4364 283 0
-316 4364 4360 4361 4362 4363 0
-4375 273 0
-4376 274 0
-4377 275 0
-4378 292 0
-4379 305 0
-316 4376 4375 4377 4378 4379 0
-4487 258 0
-4488 259 0
-4489 321 0
-324 4487 4488 4489 0
-4559 260 0
-4559 329 0
-4560 266 0
-4561 267 0
-332 4559 4560 4561 0
-4637 258 0
-4638 273 0
-4639 321 0
-338 4637 4638 4639 0
-4649 259 0
-4650 273 0
-4651 321 0
-339 4649 4650 4651 0
-4719 259 0
-4720 260 0
-4721 338 0
-4722 326 0
-4723 323 0
-344 4723 4719 4721 4720 4722 0
-4730 327 0
-4751 266 0
-4751 337 0
-4752 274 0
-4752 329 0
-4753 322 0
-4753 281 0
-346 4751 4753 4752 0
-4763 267 0
-4763 337 0
-4764 275 0
-4765 281 0
-347 4764 4763 4765 0
-4919 259 0
-4920 323 0
-4921 321 0
-355 4920 4919 4921 0
-4967 353 0
-4968 291 0
-4969 293 0
-359 4967 4969 4968 0
-4986 355 0
-4987 327 0
-4989 259 0
-4990 260 0
-4991 263 0
-4992 326 0
-4993 323 0
-360 4993 4989 4990 4991 4992 0
-4994 356 0
-4995 262 0
-4996 354 0
-4997 324 0
-4998 292 0
-360 4994 4996 4995 4997 4998 0
-5117 259 0
-5118 363 0
-5119 359 0
-5120 335 0
-5121 321 0
-367 5119 5117 5120 5118 5121 0
-5201 275 0
-5202 291 0
-5203 305 0
-371 5202 5203 5201 0
-5220 355 0
-5255 258 0
-5256 370 0
-5257 273 0
-5258 342 0
-5259 321 0
-374 5256 5255 5257 5258 5259 0
-5295 371 0
-5296 263 0
-5297 355 0
-5298 339 0
-5299 307 0
-375 5297 5296 5295 5298 5299 0
-5417 260 0
-5417 377 0
-5418 266 0
-5418 371 0
-5419 274 0
363 -5419 0
-5420 290 0
-5420 347 0
-5421 322 0
-5421 315 0
5419 5417 -380 5418 5420 5421 0
-5422 260 0
377 -5422 0
-5423 267 0
-5423 370 0
-5424 275 0
362 -5424 0
-5425 291 0
-5425 346 0
323 -5426 0
-5426 314 0
5424 5425 -380 5422 5426 5423 0
-5427 371 0
-5428 267 0
-5429 281 0
-5430 340 0
-5431 308 0
5429 5430 -380 5431 5428 5427 0
-5432 274 0
-5432 363 0
-5433 275 0
-5433 362 0
-5434 281 0
-5434 356 0
-5435 305 0
-5435 332 0
-5436 337 0
-5436 300 0
5434 5432 -380 5436 5435 5433 0
-5437 290 0
-5437 347 0
-5438 346 0
-5439 340 0
-5440 305 0
-5440 332 0
-5441 353 0
284 -5441 0
5441 5439 -380 5440 5438 5437 0
-5442 322 0
-5442 315 0
-5443 314 0
-5444 329 0
-5444 308 0
-5445 337 0
-5445 300 0
353 -5446 0
284 -5446 0
5446 5445 -380 5442 5444 5443 0
-5551 382 0
-5552 260 0
-5553 263 0
-5554 374 0
-5555 366 0
-5556 291 0
-5557 323 0
5553 5552 5554 5555 5556 5557 -384 5551 0
-5565 376 0
-5566 375 0
-5567 374 0
-5568 372 0
-5569 360 0
-5570 344 0
-5571 312 0
5567 5566 5568 5569 5570 5571 -384 5565 0
-5572 368 0
367 -5573 0
-5574 366 0
-5575 364 0
-5576 360 0
-5577 336 0
-5578 304 0
5574 5573 5575 5576 5577 5578 -384 5572 0
-5586 321 0
-5587 322 0
-5588 318 0
-5589 325 0
-5589 316 0
-5590 329 0
-5590 312 0
-5591 304 0
353 -5592 0
288 -5592 0
5587 5588 5589 5590 5591 5592 -384 5586 0
-249 -264 0
-247 -266 0
-271 -242 0
-239 -274 0
-235 -278 0
-234 -279 0
-232 -281 0
-225 -288 0
-292 -221 0
-304 -209 0
-305 -208 0
-307 -206 0
-314 -199 0
-316 -197 0
-327 -186 0
-336 -177 0
-176 -337 0
-344 -169 0
-346 -167 0
-160 -353 0
-136 -377 0
-237 -275 -2 0
-291 -221 -2 0
-335 -177 -2 0
-149 -363 -2 0
-249 -8 0
-225 -281 -8 0
-337 -169 -8 0
-377 -8 0
-11 -341 -162 0
-374 -11 0
-12 -245 0
-293 -12 -209 0
-305 -12 -197 0
-337 -12 -165 0
-149 -12 -353 0
-372 -13 0
-225 -14 -275 0
-291 -14 -209 0
-14 -323 -177 0
-371 -14 0
-366 -19 0
-237 -20 0
-325 -169 -20 0
-141 -353 -20 0
-227 -266 -21 0
-364 -21 0
-225 -267 -22 0
-201 -22 -291 0
-22 -169 -323 0
-363 -22 0
-232 -25 0
-225 -264 -25 0
-322 -25 -167 0
-25 -136 -353 0
-26 -291 -197 0
-354 -31 0
-32 -225 0
-32 -353 0
-201 -278 -35 0
-138 -341 -35 0
-221 -36 0
-337 -141 -36 0
-38 -201 -275 0
-347 -38 0
-41 -216 0
-41 -264 -209 0
-41 -274 -199 0
-195 -41 -278 0
-41 -279 -194 0
-210 -47 0
-48 -209 0
-337 -48 0
-208 -49 0
-266 -49 -199 0
-327 -138 -49 0
-267 -50 -197 0
-141 -323 -50 0
-201 -56 0
-329 -56 0
-60 -197 0
-325 -60 0
-196 -61 0
-322 -61 -131 0
-190 -67 0
-270 -177 -67 0
-169 -278 -67 0
-285 -162 -67 0
-313 -134 -67 0
-318 -67 0
-189 -68 0
-277 -169 -68 0
-281 -165 -68 0
-305 -141 -68 0
-268 -69 -177 0
-69 -281 -164 0
-316 -69 0
-70 -169 -275 0
-315 -70 0
-184 -73 0
-264 -177 -73 0
-167 -274 -73 0
-277 -73 -164 0
-279 -73 -162 0
-305 -136 -73 0
-312 -73 0
-263 -74 -177 0
-165 -275 -74 0
-149 -291 -74 0
-177 -80 0
-305 -80 0
-176 -81 0
-81 -169 -264 0
-268 -81 -165 0
-163 -81 -270 0
-271 -81 -162 0
-263 -82 -169 0
-267 -82 -165 0
-88 -169 0
-92 -165 0
-93 -164 0
-290 -93 -131 0
-291 -94 0
-160 -97 0
-97 -279 -138 0
-97 -281 -136 0
-97 -288 0
-98 -141 -275 0
-153 -104 0
-104 -281 0
-146 -107 -261 0
-107 -278 0
-149 -108 0
-110 -275 0
-115 -270 0
-116 -141 0
-118 -267 0
-121 -136 0
-121 -264 0
-3 0
-5 0
-9 0
-17 0
-33 0
-65 0
2 0
127 0
-249 -263 0
-267 -245 0
-371 -141 0
-122 121 0
-117 118 0
-118 117 0
-115 116 0
-116 115 0
-109 110 0
-108 107 0
-103 104 0
-104 103 0
98 -97 0
-98 97 0
-93 94 0
-94 93 0
-91 92 0
-92 91 0
-87 88 0
-88 87 0
82 -81 0
-82 81 0
80 -79 0
79 -80 0
74 -73 0
-69 70 0
-70 69 0
68 -67 0
-68 67 0
-59 60 0
-60 59 0
56 -55 0
-56 55 0
50 -49 0
-47 48 0
47 -48 0
38 -37 0
-38 37 0
36 -35 0
-31 32 0
-32 31 0
-25 26 0
22 -21 0
-22 21 0
20 -19 0
-20 19 0
-13 14 0
-11 12 0
8 -7 0
-8 7 0
-130 0
-133 0
-161 0
-193 0
131 0
254 0
-117 -266 0
-109 -274 0
-69 -314 0
-37 -346 0
-21 -362 0
-13 -370 0
-382 0
-117 -260 0
-103 -274 0
-308 -69 0
-322 -55 0
-340 -37 0
-342 -35 0
-356 -21 0
-370 -7 0
-376 0
-109 -260 0
-262 -107 0
-103 -266 0
-290 -79 0
-300 -69 0
-322 -47 0
-332 -37 0
-7 -362 0
-368 0
-230 232 0
-232 230 0
227 -225 0
-227 225 0
199 -197 0
196 -194 0
167 -165 0
-167 165 0
164 -162 0
-164 162 0
-134 136 0
-136 134 0
-258 0
-259 0
-273 0
-321 0
261 0
380 0
-115 -138 0
-91 -162 0
-172 -81 0
-180 -73 0
-186 -67 0
-59 -194 0
-218 -35 0
-234 -19 0
-11 -242 0
-115 -134 0
-87 -162 0
-168 -81 0
-182 -67 0
-55 -194 0
-214 -35 0
-230 -19 0
-242 -7 0
-248 0
-132 -93 0
-134 -91 0
-87 -138 0
-146 -79 0
-158 -67 0
-31 -194 0
-206 -19 0
-11 -214 0
-218 -7 0
-340 344 0
-337 341 0
-323 327 0
-326 322 0
279 -275 0
278 -274 0
-260 264 0
