p cnf 5592 1445
128 0
256 0
384 0
-421 3 0
-422 5 0
-423 9 0
-15 421 422 423 0
-469 3 0
-470 5 0
-471 17 0
-23 469 470 471 0
-529 5 0
-530 9 0
-531 17 0
-29 529 530 531 0
-553 7 0
-553 25 0
-554 11 0
-554 21 0
-555 19 0
-31 555 554 553 0
-575 3 0
-576 29 0
-577 7 0
-578 11 0
-578 22 0
-579 19 0
-32 579 578 577 575 576 0
-588 20 0
-590 17 0
-591 15 0
-592 19 0
-592 14 0
-593 21 0
-593 12 0
-594 25 0
-594 8 0
-32 593 592 594 590 591 0
-619 3 0
-620 5 0
-621 33 0
-39 619 620 621 0
-703 7 0
-703 41 0
-704 11 0
-704 37 0
-705 35 0
-705 13 0
-47 704 705 703 0
-739 8 0
-757 3 0
-758 17 0
-759 33 0
-51 757 758 759 0
-781 5 0
-782 17 0
-783 33 0
-53 781 782 783 0
-805 7 0
-805 49 0
-806 19 0
-806 37 0
35 -807 0
-807 21 0
807 805 -55 806 0
-827 3 0
-828 53 0
-829 7 0
-829 50 0
-830 19 0
22 -831 0
831 830 -56 829 827 828 0
-832 5 0
-833 51 0
-834 7 0
-835 21 0
-836 20 0
834 835 -56 836 832 833 0
-837 17 0
-838 39 0
-839 19 0
-840 21 0
-841 8 0
841 840 -56 839 837 838 0
-842 33 0
-843 23 0
-844 35 0
-844 22 0
37 -845 0
-845 20 0
-846 8 0
846 844 -56 845 842 843 0
-871 11 0
-872 19 0
-873 25 0
871 -59 873 872 0
-902 20 0
-913 13 0
-913 49 0
-914 21 0
-914 41 0
-915 37 0
-915 25 0
-61 915 913 914 0
-940 9 0
-941 53 0
-942 50 0
-943 25 0
-944 22 0
-62 942 944 943 940 941 0
-955 3 0
-956 5 0
-957 9 0
-958 17 0
-959 33 0
-63 955 956 957 958 959 0
-1123 7 0
-1123 73 0
-1124 11 0
-1124 69 0
-1125 67 0
-1125 13 0
1123 -79 1125 1124 0
-1149 67 0
-1152 74 0
-1157 11 0
-1158 13 0
-1158 68 0
-1159 8 0
-1201 5 0
-1202 17 0
-1203 65 0
-85 1201 1202 1203 0
-1225 7 0
-1225 81 0
-1226 19 0
-1226 69 0
-1227 67 0
-1227 21 0
-87 1227 1225 1226 0
-1247 3 0
-1248 85 0
-1249 7 0
-1249 82 0
-1250 19 0
-1251 22 0
1251 1250 1249 -88 1247 1248 0
-1254 7 0
-1256 20 0
-1259 70 0
-1260 68 0
-1262 65 0
-1263 23 0
-1264 67 0
-1265 69 0
-1265 20 0
-1266 8 0
1266 -88 1264 1265 1262 1263 0
-1291 11 0
-1291 81 0
-1292 19 0
73 -1292 0
-1293 25 0
-91 1293 1292 1291 0
-1320 82 0
-1322 20 0
-1333 13 0
-1333 81 0
-1334 21 0
-1334 73 0
-1335 25 0
1335 1334 -93 1333 0
-1336 13 0
-1337 25 0
-1338 21 0
1336 1337 -93 1338 0
-1368 25 0
-1495 7 0
-1495 97 0
-1496 35 0
-1496 69 0
-1497 67 0
-1497 37 0
-103 1496 1495 1497 0
-1519 7 0
-1520 35 0
-1521 38 0
-1525 37 0
-1526 36 0
-1534 67 0
-1535 69 0
11 -1561 0
-1562 35 0
-1563 67 0
1561 -107 1562 1563 0
-1603 13 0
-1603 97 0
-1604 37 0
-1604 73 0
-1605 69 0
-1605 41 0
-109 1604 1605 1603 0
-1638 70 0
-1705 17 0
-1706 33 0
-1707 65 0
-113 1705 1706 1707 0
-1730 35 0
-1738 67 0
-1739 81 0
-1739 35 0
-1740 97 0
-1740 19 0
-115 1738 1739 1740 0
-1753 19 0
-1754 35 0
-1793 5 0
-1794 113 0
-1795 21 0
-1796 37 0
-1797 69 0
1797 1795 -118 1796 1793 1794 0
-1808 65 0
-1809 53 0
-1810 69 0
-1811 38 0
-1812 22 0
1810 1811 -118 1812 1808 1809 0
-1813 3 0
-1814 5 0
-1815 17 0
-1816 33 0
-1817 65 0
-119 1813 1814 1815 1816 1817 0
-1873 25 0
-1873 97 0
-1874 81 0
73 -1875 0
49 -1875 0
1875 1874 -121 1873 0
-1902 25 0
-1914 97 0
-1915 3 0
-1916 9 0
-1917 17 0
-1918 33 0
-1919 65 0
-123 1915 1916 1917 1918 1919 0
-2035 7 0
-2035 121 0
-2036 11 0
-2036 117 0
-2037 19 0
-2037 109 0
35 -2038 0
93 -2038 0
67 -2039 0
-2039 61 0
2035 2036 2038 2039 2037 -127 0
-2040 7 0
-2040 121 0
-2041 13 0
-2041 115 0
-2042 21 0
-2042 107 0
-2043 37 0
-2043 91 0
-2044 69 0
-2044 59 0
2040 2043 2044 2041 -127 2042 0
-2045 11 0
-2045 117 0
-2046 13 0
-2046 115 0
-2047 25 0
-2047 103 0
-2048 41 0
-2048 87 0
73 -2049 0
-2049 55 0
2048 2045 2047 2046 2049 -127 0
-2050 19 0
-2050 109 0
21 -2051 0
107 -2051 0
-2052 25 0
-2052 103 0
-2053 49 0
79 -2053 0
-2054 81 0
-2054 47 0
2051 2052 2053 2050 -127 2054 0
-2055 35 0
-2055 93 0
-2056 91 0
41 -2057 0
87 -2057 0
-2058 49 0
-2058 79 0
-2059 97 0
-2059 31 0
2057 2056 2058 2055 2059 -127 0
-2060 67 0
-2060 61 0
69 -2061 0
-2061 59 0
73 -2062 0
-2062 55 0
-2063 81 0
-2063 47 0
-2064 97 0
-2064 31 0
2060 2061 2062 2063 2064 -127 0
-2083 19 0
-2085 67 0
-2086 5 0
-2087 123 0
-2088 7 0
-2089 13 0
-2089 116 0
-2090 108 0
-2091 37 0
-2091 92 0
-2092 60 0
2088 2089 2090 2091 2092 -128 2086 2087 0
-2093 9 0
-2094 119 0
-2095 11 0
-2095 118 0
-2096 13 0
-2096 116 0
-2097 25 0
-2097 104 0
-2098 88 0
-2099 56 0
2096 2095 2097 2098 2099 -128 2093 2094 0
-2102 19 0
-2102 110 0
-2103 108 0
-2104 25 0
-2104 104 0
-2105 80 0
-2114 65 0
-2115 63 0
-2116 67 0
-2116 62 0
-2117 69 0
-2117 60 0
73 -2118 0
-2118 56 0
-2119 48 0
-2120 97 0
-2120 32 0
2117 2116 2118 2119 2120 -128 2114 2115 0
-2277 134 0
-2277 153 0
-2278 138 0
-2278 149 0
-2279 146 0
-2279 141 0
-158 2278 2279 2277 0
-2343 130 0
-2344 133 0
-2345 161 0
-166 2343 2344 2345 0
-2379 130 0
-2380 162 0
-2381 161 0
-170 2380 2379 2381 0
-2427 134 0
-2427 169 0
-2428 138 0
-2428 165 0
-2429 162 0
-2429 141 0
2428 -174 2429 2427 0
-2529 134 0
-2529 177 0
-2530 146 0
-2530 165 0
-2531 162 0
-2531 149 0
-182 2530 2529 2531 0
-2562 162 0
-2562 151 0
-2576 149 0
-2576 164 0
-2595 138 0
-2595 177 0
-2596 146 0
-2596 169 0
-2597 162 0
-2597 153 0
-186 2595 2597 2596 0
-2606 177 0
-2635 138 0
-2639 145 0
-2640 146 0
-2641 170 0
-2642 164 0
-2643 177 0
-188 2641 2643 2640 2642 2639 0
-2649 141 0
-2651 153 0
-2681 145 0
-2682 146 0
-2683 170 0
-2684 166 0
-2685 177 0
-190 2683 2685 2682 2684 2681 0
-2763 130 0
-2764 133 0
-2765 193 0
-198 2763 2764 2765 0
-2799 130 0
-2800 194 0
-2801 193 0
-202 2800 2799 2801 0
-2847 134 0
-2847 201 0
-2848 138 0
-2848 197 0
-2849 194 0
-2849 141 0
-206 2848 2849 2847 0
-2949 134 0
-2949 209 0
-2950 146 0
197 -2950 0
-2951 194 0
-2951 149 0
2951 2950 2949 -214 0
-2996 149 0
-3003 209 0
-3004 145 0
-3005 193 0
-217 3003 3004 3005 0
138 -3015 0
-3015 209 0
-3016 146 0
-3016 201 0
-3017 194 0
-3017 153 0
-218 3017 3015 3016 0
-3069 141 0
-3069 209 0
-3070 149 0
-3070 201 0
-3071 197 0
-3071 153 0
-221 3070 3069 3071 0
-3121 133 0
-3122 217 0
-3123 211 0
-3124 149 0
-3125 197 0
-223 3125 3123 3124 3122 3121 0
-3171 130 0
-3172 161 0
-3173 193 0
-226 3171 3172 3173 0
-3207 133 0
-3208 161 0
-3209 193 0
-229 3207 3208 3209 0
-3219 134 0
-3219 225 0
-3220 162 0
-3220 197 0
-3221 194 0
-230 3220 3219 3221 0
-3262 197 0
-3263 161 0
-3264 162 0
-3265 198 0
165 -3266 0
-3267 136 0
3266 3264 3267 -232 3263 3265 0
-3273 225 0
-3274 161 0
-3275 193 0
-233 3273 3274 3275 0
-3285 138 0
-3285 225 0
-3286 162 0
-3286 201 0
-3287 194 0
-234 3287 3286 3285 0
-3319 234 0
-3320 132 0
-3321 226 0
-3322 202 0
-3323 170 0
-236 3323 3322 3320 3319 3321 0
-3324 228 0
-3325 138 0
-3326 226 0
-3327 196 0
-3328 164 0
-236 3324 3328 3325 3327 3326 0
-3329 161 0
-3330 162 0
-3331 202 0
-3332 196 0
-3333 225 0
-3333 140 0
-236 3333 3330 3331 3332 3329 0
-3339 141 0
-3339 225 0
-3340 165 0
-3341 169 0
-237 3340 3341 3339 0
-3351 130 0
-3352 133 0
-3353 230 0
-3354 161 0
-3355 193 0
-238 3353 3352 3351 3354 3355 0
-3381 237 0
-3382 133 0
-3383 231 0
-3384 161 0
-3385 193 0
-239 3383 3381 3382 3384 3385 0
-3441 145 0
-3442 161 0
-3443 193 0
-241 3441 3442 3443 0
-3453 225 0
-3492 145 0
-3493 146 0
-3493 227 0
-3494 226 0
-3495 177 0
-3495 196 0
-3496 209 0
-3496 164 0
-244 3495 3496 3494 3492 3493 0
-3564 145 0
-3565 229 0
-3566 149 0
-3567 199 0
-3568 209 0
-247 3567 3568 3565 3564 3566 0
-3609 153 0
-3609 225 0
-3610 169 0
-3610 209 0
-3611 201 0
-3611 177 0
-249 3609 3610 3611 0
-3637 233 0
-3639 202 0
-3651 249 0
-3711 133 0
-3712 245 0
-3713 145 0
-3714 161 0
-3715 193 0
-253 3712 3711 3713 3714 3715 0
-3716 133 0
-3717 241 0
-3718 149 0
-3719 217 0
-3720 197 0
-253 3720 3719 3717 3718 3716 0
-3741 249 0
-3742 245 0
-3743 146 0
-3743 237 0
-3744 162 0
-3744 221 0
194 -3745 0
-3745 189 0
3742 3745 3744 3741 3743 -254 0
-3746 134 0
-3746 249 0
-3747 141 0
-3747 242 0
-3748 149 0
-3748 234 0
165 -3749 0
-3749 218 0
-3750 197 0
-3750 186 0
3750 3749 3746 3748 3747 -254 0
138 -3751 0
-3751 245 0
-3752 141 0
-3752 242 0
-3753 153 0
-3753 230 0
-3754 169 0
-3754 214 0
-3755 201 0
-3755 182 0
3751 3752 3754 3755 3753 -254 0
-3756 146 0
-3756 237 0
-3757 149 0
-3757 234 0
-3758 153 0
-3758 230 0
-3759 177 0
-3759 206 0
-3760 209 0
-3760 174 0
3758 3756 3759 3760 -254 3757 0
-3761 162 0
-3761 221 0
-3762 165 0
-3762 218 0
169 -3763 0
214 -3763 0
-3764 177 0
-3764 206 0
-3765 225 0
-3765 158 0
3763 3764 3765 3761 3762 -254 0
-3766 194 0
-3766 189 0
-3767 197 0
-3767 186 0
-3768 201 0
-3768 182 0
-3769 209 0
174 -3769 0
-3770 225 0
-3770 158 0
3767 3770 3769 3768 3766 -254 0
-3808 255 0
-3809 253 0
-3810 134 0
-3811 247 0
-3812 239 0
-3813 162 0
-3813 223 0
-3814 194 0
-3814 191 0
3809 3810 3811 3812 3813 3814 -256 3808 0
-3825 141 0
-3827 220 0
-3836 145 0
-3837 146 0
-3837 239 0
-3838 238 0
-3839 149 0
-3839 236 0
-3840 232 0
-3841 177 0
-3841 208 0
-3842 209 0
3838 3837 3839 3840 3841 3842 -256 3836 0
-3848 177 0
-3852 190 0
-3853 188 0
-3854 184 0
-3856 225 0
-3869 258 0
-3870 259 0
-3871 265 0
-268 3869 3870 3871 0
-3977 259 0
-3978 265 0
-3979 267 0
-283 3979 3978 3977 0
-3989 260 0
-3989 281 0
-3990 266 0
-3990 275 0
-3991 274 0
-3991 267 0
-284 3991 3989 3990 0
-3998 274 0
-3999 275 0
-4000 281 0
-4000 260 0
3999 3998 4000 -284 0
-4042 258 0
-4043 285 0
-4044 283 0
-4045 279 0
-4046 271 0
4043 4045 -288 4044 4046 4042 0
-4127 259 0
-4128 265 0
-4129 289 0
-299 4127 4128 4129 0
-4139 297 0
-4140 266 0
-4140 291 0
-4141 267 0
4139 4141 -300 4140 0
-4192 258 0
-4193 260 0
-4194 299 0
-4195 295 0
-4196 290 0
4195 4196 4193 -304 4192 4194 0
-4201 270 0
-4208 266 0
-4212 289 0
-4213 290 0
-4213 271 0
-4214 291 0
-4214 270 0
-4215 268 0
297 -4216 0
-4216 264 0
4213 4214 -304 4216 4215 4212 0
-4241 260 0
-4241 305 0
-4242 274 0
-4243 290 0
-4243 275 0
-308 4242 4241 4243 0
-4250 275 0
-4251 274 0
-4252 260 0
-308 4251 4252 4250 0
-4316 291 0
-4319 265 0
-4320 297 0
-4321 289 0
-313 4320 4319 4321 0
-4331 266 0
-4331 305 0
-4332 274 0
-4332 297 0
-4333 290 0
-4333 281 0
-314 4331 4333 4332 0
-4343 267 0
-4343 305 0
-4344 275 0
-4344 297 0
-4345 291 0
-4345 281 0
-315 4343 4344 4345 0
-4346 267 0
-4347 291 0
-4348 275 0
-315 4348 4347 4346 0
-4355 258 0
-4356 259 0
-4357 265 0
-4358 300 0
-4359 289 0
-316 4358 4356 4357 4355 4359 0
-4397 258 0
-4398 314 0
-4399 265 0
-4400 302 0
-4401 289 0
-318 4400 4398 4399 4397 4401 0
-4427 259 0
-4428 315 0
-4429 265 0
-4430 303 0
-4431 289 0
-319 4430 4428 4429 4427 4431 0
-4432 259 0
-4433 313 0
-4434 267 0
-4435 301 0
-4436 285 0
-319 4436 4434 4435 4433 4432 0
-4454 283 0
-4456 271 0
-4487 258 0
-4488 259 0
-4489 321 0
-324 4487 4488 4489 0
-4535 258 0
-4536 265 0
-4537 321 0
-330 4535 4536 4537 0
-4559 260 0
-4559 329 0
-4560 266 0
-4560 323 0
-4561 322 0
-4561 267 0
-332 4561 4559 4560 0
-4613 333 0
-4616 271 0
-4618 333 0
-4620 267 0
-4629 267 0
-4649 259 0
-4650 323 0
-4651 321 0
-339 4650 4649 4651 0
-4661 260 0
-4661 337 0
-4662 274 0
-4662 323 0
-4663 322 0
-4663 275 0
-340 4663 4662 4661 0
-4714 258 0
-4715 260 0
-4715 341 0
-4716 339 0
-4717 274 0
-4717 327 0
-4718 322 0
-4718 279 0
-344 4716 4715 4717 4718 4714 0
-4739 265 0
-4740 329 0
-4741 321 0
-345 4740 4739 4741 0
-4751 337 0
-4752 329 0
-4753 322 0
-346 4751 4752 4753 0
-4763 267 0
-4763 337 0
-4764 275 0
-4764 329 0
-4765 323 0
-4765 281 0
-347 4765 4763 4764 0
-4837 334 0
-4838 333 0
-4839 330 0
-4840 326 0
-4841 337 0
-350 4837 4841 4838 4840 4839 0
-4847 259 0
-4848 347 0
-4849 265 0
-4850 335 0
-4851 321 0
-351 4848 4850 4849 4847 4851 0
-4873 323 0
-4919 259 0
-4920 289 0
-4921 321 0
-355 4919 4920 4921 0
-4931 260 0
-4931 353 0
-4932 290 0
-4932 323 0
-4933 322 0
-4933 291 0
-356 4933 4931 4932 0
-4955 353 0
-4956 325 0
-4957 322 0
4955 -358 4957 4956 0
-4990 357 0
-4993 294 0
-4999 289 0
-5000 290 0
-5001 326 0
-5002 324 0
-5003 353 0
-5003 264 0
-360 5000 5003 5001 5002 4999 0
-5009 265 0
-5010 289 0
-5011 321 0
-361 5009 5010 5011 0
-5021 266 0
353 -5021 0
-5022 290 0
-5022 329 0
-5023 322 0
-5023 297 0
-362 5023 5021 5022 0
-5025 322 0
-5033 267 0
-5034 329 0
-5035 323 0
-5035 297 0
-363 5035 5033 5034 0
-5132 265 0
-5133 267 0
-5133 357 0
-5134 355 0
-5135 297 0
-5135 327 0
-5136 329 0
-367 5136 5133 5135 5132 5134 0
-5147 260 0
-5148 262 0
-5149 359 0
-5150 335 0
-5151 322 0
-368 5148 5147 5149 5151 5150 0
-5165 328 0
-5177 353 0
-5178 289 0
-5179 321 0
-369 5177 5178 5179 0
275 -5201 0
353 -5201 0
-5202 291 0
-5202 337 0
-5203 323 0
-5203 305 0
5201 5203 5202 -371 0
-5213 258 0
-5214 259 0
-5215 356 0
-5216 289 0
-5217 321 0
-372 5215 5214 5213 5216 5217 0
-5255 258 0
-5256 370 0
-5257 358 0
-5258 289 0
-5259 321 0
-374 5257 5256 5255 5258 5259 0
-5285 259 0
-5286 371 0
-5287 359 0
-5288 289 0
-5289 321 0
-375 5287 5286 5285 5288 5289 0
-5305 289 0
-5306 341 0
-5307 293 0
-5307 339 0
-5308 327 0
-5309 279 0
-375 5306 5307 5308 5309 5305 0
-5345 281 0
-5345 353 0
-5346 297 0
-5347 329 0
-377 5346 5347 5345 0
-5357 258 0
-5358 265 0
-5359 362 0
-5360 289 0
-5361 321 0
-378 5359 5358 5357 5360 5361 0
-5362 258 0
-5363 369 0
-5364 361 0
-5365 345 0
-5366 322 0
-5366 313 0
-378 5363 5366 5365 5362 5364 0
-5411 283 0
-5417 260 0
-5417 377 0
-5418 266 0
-5418 371 0
274 -5419 0
-5419 363 0
-5420 290 0
347 -5420 0
-5421 322 0
-5421 315 0
5419 5420 5418 5417 5421 -380 0
-5422 260 0
-5422 377 0
-5423 267 0
-5423 370 0
275 -5424 0
-5424 362 0
-5425 291 0
-5425 346 0
-5426 323 0
-5426 314 0
5424 5425 5426 5422 5423 -380 0
-5427 266 0
-5427 371 0
-5428 267 0
-5428 370 0
281 -5429 0
-5429 356 0
-5430 297 0
-5430 340 0
-5431 329 0
-5431 308 0
5427 5428 5430 5429 5431 -380 0
-5432 274 0
-5432 363 0
-5433 275 0
-5433 362 0
-5434 281 0
-5434 356 0
-5435 305 0
-5435 332 0
-5436 337 0
-5436 300 0
5436 5432 5435 5434 -380 5433 0
-5437 290 0
-5437 347 0
-5438 291 0
-5438 346 0
-5439 297 0
-5439 340 0
-5440 332 0
-5441 353 0
284 -5441 0
5441 5438 5440 5439 5437 -380 0
-5442 322 0
-5442 315 0
-5443 323 0
-5443 314 0
-5444 329 0
-5444 308 0
-5445 337 0
-5445 300 0
353 -5446 0
284 -5446 0
5446 5445 5443 5442 5444 -380 0
-5452 377 0
-5453 369 0
-5454 361 0
-5455 293 0
-5455 345 0
-5456 325 0
-5456 313 0
-381 5453 5455 5456 5452 5454 0
-5464 281 0
-5551 382 0
-5552 260 0
-5552 381 0
-5553 263 0
-5553 378 0
-5554 374 0
-5555 275 0
-5555 366 0
-5556 291 0
-5556 350 0
-5557 323 0
-5557 318 0
5552 5553 5554 5555 5556 5557 -384 5551 0
-5565 376 0
-5566 266 0
-5566 375 0
-5567 267 0
-5567 374 0
-5568 372 0
-5569 360 0
-5570 297 0
-5570 344 0
-5571 329 0
-5571 312 0
5566 5567 5568 5569 5570 5571 -384 5565 0
-5572 368 0
-5574 366 0
-5577 336 0
-5579 289 0
-5580 351 0
-5581 291 0
-5582 348 0
-5583 297 0
-5584 336 0
-5585 288 0
5581 5580 5582 5583 5584 5585 -384 5579 0
-5586 321 0
-5587 322 0
-5587 319 0
-5588 323 0
-5588 318 0
-5589 325 0
-5589 316 0
-5590 329 0
-5590 312 0
-5591 337 0
-5591 304 0
353 -5592 0
288 -5592 0
5587 5588 5589 5590 5591 5592 -384 5586 0
-253 -260 0
-249 -264 0
-247 -266 0
-242 -271 0
-239 -274 0
-279 -234 0
-232 -281 0
-283 -230 0
-225 -288 0
-295 -218 0
-297 -216 0
-302 -211 0
-209 -304 0
-208 -305 0
-312 -201 0
-314 -199 0
-191 -322 0
-186 -327 0
-329 -184 0
-334 -179 0
-336 -177 0
-346 -167 0
-348 -165 0
-153 -360 0
-151 -362 0
-367 -146 0
-375 -138 0
-377 -136 0
-267 -245 -2 0
-237 -275 -2 0
-221 -291 -2 0
-303 -209 -2 0
-189 -323 -2 0
-335 -177 -2 0
-371 -141 -2 0
-249 -8 0
-225 -281 -8 0
-297 -8 -209 0
-201 -305 -8 0
-329 -177 -8 0
-337 -8 -169 0
-153 -8 -353 0
-377 -8 0
-294 -11 -209 0
-326 -177 -11 0
-341 -162 -11 0
-11 -146 -357 0
-369 -134 -11 0
-374 -11 0
-245 -12 0
-293 -12 -209 0
-325 -177 -12 0
-149 -12 -353 0
-244 -13 0
-227 -274 -13 0
-290 -211 -13 0
-305 -13 -196 0
-322 -179 -13 0
-164 -337 -13 0
-148 -353 -13 0
-372 -13 0
-225 -275 -14 0
-291 -209 -14 0
-177 -323 -14 0
-371 -14 0
-225 -19 -270 0
-201 -294 -19 0
-301 -19 -194 0
-326 -19 -169 0
-162 -333 -19 0
-19 -138 -357 0
-19 -366 0
-237 -20 0
-297 -20 -197 0
-329 -20 -165 0
-20 -353 -141 0
-236 -21 0
-227 -21 -266 0
-297 -21 -196 0
-164 -329 -21 0
-225 -22 -267 0
-22 -323 -169 0
-363 -22 0
-25 -232 0
-25 -225 -264 0
-25 -290 -199 0
-293 -25 -196 0
-295 -25 -194 0
-322 -25 -167 0
-325 -164 -25 0
-25 -162 -327 0
-25 -136 -353 0
-25 -360 0
-231 -26 0
-26 -291 -197 0
-26 -165 -323 0
-359 -26 0
-32 -225 0
-32 -353 0
-270 -209 -35 0
-326 -153 -35 0
-146 -333 -35 0
-341 -138 -35 0
-350 -35 0
-221 -36 0
-281 -36 -197 0
-325 -153 -36 0
-329 -149 -36 0
-337 -141 -36 0
-220 -37 0
-37 -266 -211 0
-148 -329 -37 0
-38 -267 -209 0
-201 -275 -38 0
-153 -38 -323 0
-347 -38 0
-41 -216 0
-264 -41 -209 0
-274 -41 -199 0
-322 -151 -41 0
-146 -41 -327 0
-337 -136 -41 0
-344 -41 0
-275 -42 -197 0
-149 -42 -323 0
-48 -209 0
-48 -337 0
-208 -49 0
-201 -264 -49 0
-266 -49 -199 0
-271 -49 -194 0
-138 -327 -49 0
-329 -136 -49 0
-336 -49 0
-267 -50 -197 0
-323 -141 -50 0
-335 -50 0
-202 -55 0
-201 -56 0
-329 -56 0
-326 -59 0
-60 -197 0
-61 -196 0
-322 -61 -131 0
-62 -323 0
-177 -67 -270 0
-285 -162 -67 0
-294 -153 -67 0
-146 -301 -67 0
-318 -67 0
-68 -189 0
-68 -281 -165 0
-149 -297 -68 0
-305 -68 -141 0
-179 -266 -69 0
-164 -281 -69 0
-148 -297 -69 0
-177 -70 -267 0
-70 -275 -169 0
-291 -70 -153 0
-315 -70 0
-184 -73 0
-262 -179 -73 0
-177 -264 -73 0
-274 -167 -73 0
-295 -146 -73 0
-305 -136 -73 0
-312 -73 0
-275 -165 -74 0
-149 -291 -74 0
-177 -80 0
-305 -80 0
-81 -264 -169 0
-266 -81 -167 0
-162 -271 -81 0
-81 -295 -138 0
-81 -297 -136 0
-81 -304 0
-267 -82 -165 0
-82 -291 -141 0
-88 -169 0
-297 -88 0
-91 -294 0
-92 -165 0
-164 -93 0
-291 -94 0
-97 -153 -264 0
-97 -151 -266 0
-146 -97 -271 0
-97 -136 -281 0
-97 -288 0
-98 -149 -267 0
-98 -275 -141 0
-104 -153 0
-104 -281 0
-149 -108 0
-148 -109 0
-109 -274 -131 0
-110 -275 0
-115 -270 0
-140 -117 0
-266 -117 -131 0
-267 -118 0
-136 -121 0
-264 -121 0
-3 0
-5 0
-9 0
-17 0
-33 0
-65 0
2 0
127 0
-255 0
-263 -249 0
-231 -281 0
-315 -197 0
-347 -165 0
-149 -363 0
118 -117 0
-118 117 0
-116 115 0
-109 110 0
-110 109 0
108 -107 0
-108 107 0
-103 104 0
-104 103 0
98 -97 0
-98 97 0
94 -93 0
-94 93 0
-91 92 0
-92 91 0
-87 88 0
-88 87 0
82 -81 0
-82 81 0
80 -79 0
-80 79 0
74 -73 0
-74 73 0
70 -69 0
-70 69 0
-67 68 0
-68 67 0
-61 62 0
-62 61 0
-59 60 0
-60 59 0
56 -55 0
-56 55 0
50 -49 0
-50 49 0
-47 48 0
-48 47 0
42 -41 0
38 -37 0
-38 37 0
36 -35 0
-36 35 0
-31 32 0
-25 26 0
22 -21 0
21 -22 0
-19 20 0
-20 19 0
14 -13 0
-14 13 0
12 -11 0
-12 11 0
8 -7 0
7 -8 0
-130 0
-133 0
-145 0
-161 0
-193 0
131 0
254 0
-290 -93 0
-302 -81 0
-314 -69 0
-346 -37 0
-25 -358 0
-362 -21 0
-370 -13 0
-382 0
-260 -117 0
-103 -274 0
-290 -87 0
-308 -69 0
-322 -55 0
-328 -49 0
-340 -37 0
-356 -21 0
-370 -7 0
-376 0
-245 247 0
-242 244 0
-230 232 0
-232 230 0
227 -225 0
-227 225 0
216 -214 0
211 -209 0
-211 209 0
199 -197 0
-199 197 0
196 -194 0
-196 194 0
-182 184 0
-184 182 0
179 -177 0
167 -165 0
-167 165 0
-162 164 0
-164 162 0
-149 151 0
-151 149 0
148 -146 0
-148 146 0
-134 136 0
-136 134 0
-258 0
-259 0
-265 0
-289 0
-321 0
380 0
-132 -121 0
-115 -138 0
-107 -146 0
-162 -91 0
-186 -67 0
-59 -194 0
-218 -35 0
-228 -25 0
-234 -19 0
-242 -11 0
-134 -107 0
-103 -138 0
-162 -79 0
-67 -174 0
-47 -194 0
-206 -35 0
-230 -11 0
-234 -7 0
-363 367 0
366 -362 0
-366 362 0
360 -356 0
-360 356 0
357 -353 0
-357 353 0
-332 336 0
333 -329 0
-333 329 0
327 -323 0
-327 323 0
-322 326 0
304 -300 0
300 -304 0
301 -297 0
-301 297 0
-291 295 0
294 -290 0
-267 271 0
-271 267 0
-266 270 0
-270 266 0
-260 264 0
-264 260 0
