p cnf 5592 1346
128 0
256 0
384 0
-505 3 0
-506 9 0
-507 17 0
-27 505 506 507 0
-553 7 0
-554 11 0
21 -554 0
-555 19 0
-555 13 0
-31 554 553 555 0
-580 5 0
-581 27 0
-582 7 0
26 -582 0
-583 13 0
-584 12 0
-32 584 582 583 580 581 0
-619 3 0
-620 5 0
-621 33 0
-39 619 620 621 0
7 -703 0
41 -703 0
-704 11 0
-705 35 0
-705 13 0
703 704 -47 705 0
-735 9 0
-736 39 0
-737 11 0
-738 13 0
8 -739 0
739 737 -48 738 735 736 0
-757 3 0
-758 17 0
-759 33 0
-51 757 758 759 0
-805 7 0
-806 37 0
-807 35 0
-55 805 807 806 0
-832 5 0
-833 51 0
-834 7 0
-835 36 0
-836 37 0
-836 20 0
-56 834 835 836 832 833 0
-871 11 0
-871 49 0
-872 19 0
41 -872 0
-873 35 0
-873 25 0
-59 873 871 872 0
-898 9 0
-899 51 0
-900 11 0
50 -900 0
-901 25 0
-901 36 0
-902 41 0
-902 20 0
902 901 900 -60 898 899 0
-907 12 0
-912 12 0
-913 13 0
21 -914 0
-914 41 0
-915 37 0
-61 914 913 915 0
-955 3 0
-956 5 0
-957 9 0
-958 17 0
-959 33 0
-63 955 956 957 958 959 0
-1039 3 0
-1040 5 0
-1041 65 0
-71 1039 1040 1041 0
-1075 3 0
-1076 9 0
-1077 65 0
-75 1075 1076 1077 0
-1099 5 0
-1100 9 0
-1101 65 0
-77 1099 1100 1101 0
-1123 7 0
-1123 73 0
-1124 11 0
-1124 69 0
-1125 67 0
-1125 13 0
-79 1123 1124 1125 0
-1150 5 0
-1151 75 0
-1152 7 0
-1152 74 0
-1153 68 0
-1154 69 0
-1154 12 0
-80 1152 1154 1153 1150 1151 0
-1155 9 0
-1156 71 0
-1157 11 0
-1158 68 0
-1159 8 0
-80 1158 1157 1159 1155 1156 0
-1177 3 0
-1178 17 0
-1179 65 0
-83 1177 1178 1179 0
-1225 7 0
-1225 81 0
19 -1226 0
-1226 69 0
-1227 67 0
-1227 21 0
-87 1225 1226 1227 0
-1267 9 0
-1268 17 0
-1269 65 0
-89 1267 1268 1269 0
-1291 11 0
-1291 81 0
19 -1292 0
73 -1292 0
-1293 67 0
-1293 25 0
1292 1291 -91 1293 0
-1320 11 0
-1365 17 0
-1366 77 0
-1367 21 0
-1368 70 0
-1369 81 0
-1369 14 0
-94 1367 1368 1369 1365 1366 0
-1471 5 0
-1472 33 0
-1473 65 0
-101 1471 1472 1473 0
-1517 3 0
-1518 101 0
-1519 7 0
-1519 98 0
-1520 35 0
-1520 70 0
-1521 67 0
-104 1521 1519 1520 1517 1518 0
-1527 33 0
-1528 71 0
-1529 35 0
-1530 37 0
-1530 68 0
-1531 97 0
-1531 8 0
-104 1529 1531 1530 1527 1528 0
-1537 9 0
-1538 33 0
-1539 65 0
-105 1537 1538 1539 0
-1583 3 0
-1584 105 0
-1585 11 0
-1585 98 0
-1586 35 0
-1586 74 0
-1587 67 0
-108 1586 1587 1585 1583 1584 0
-1625 5 0
-1626 105 0
-1627 13 0
-1627 98 0
-1628 37 0
-1628 74 0
-1629 69 0
-1629 42 0
-110 1628 1629 1627 1625 1626 0
-1635 33 0
-1636 77 0
-1637 37 0
-1637 74 0
-1638 70 0
-1639 14 0
-110 1637 1638 1639 1635 1636 0
-1645 3 0
-1646 5 0
-1647 9 0
-1648 33 0
-1649 65 0
-111 1645 1646 1647 1648 1649 0
-1729 19 0
-1729 97 0
-1730 35 0
-1730 81 0
-1731 67 0
1730 -115 1731 1729 0
-1761 33 0
-1762 83 0
-1763 35 0
-1764 68 0
20 -1765 0
1765 -116 1763 1764 1761 1762 0
-1813 3 0
-1814 5 0
-1815 17 0
-1816 33 0
-1817 65 0
-119 1813 1814 1815 1816 1817 0
-1873 25 0
-1873 97 0
-1874 81 0
-1875 73 0
1874 1875 -121 1873 0
-1876 25 0
-1876 97 0
-1877 49 0
-1877 73 0
-1878 81 0
41 -1878 0
1878 1877 -121 1876 0
-1905 33 0
-1906 89 0
-1907 82 0
-1908 49 0
-1908 74 0
-1909 26 0
1907 1909 -122 1908 1905 1906 0
-1912 73 0
-1975 5 0
-1976 9 0
-1977 17 0
-1978 33 0
-1979 65 0
-125 1975 1976 1977 1978 1979 0
-2035 7 0
-2035 121 0
-2036 11 0
-2037 19 0
-2037 109 0
-2038 35 0
-2038 93 0
-2039 67 0
-2039 61 0
2035 2039 2036 2037 2038 -127 0
7 -2040 0
-2040 121 0
-2041 13 0
-2041 115 0
-2042 107 0
-2043 37 0
-2043 91 0
-2044 69 0
-2044 59 0
2040 2044 2043 2042 2041 -127 0
-2045 11 0
-2045 117 0
-2046 13 0
-2046 115 0
-2047 25 0
-2047 103 0
-2048 41 0
-2048 87 0
-2049 73 0
-2049 55 0
2049 2045 2048 2047 2046 -127 0
-2050 19 0
-2050 109 0
-2051 107 0
-2052 25 0
-2052 103 0
49 -2053 0
-2053 79 0
-2054 81 0
-2054 47 0
2050 2052 2053 2054 2051 -127 0
35 -2055 0
93 -2055 0
37 -2056 0
-2056 91 0
-2057 87 0
-2058 49 0
-2058 79 0
-2059 97 0
-2059 31 0
2055 2057 2056 2059 2058 -127 0
-2060 67 0
-2060 61 0
-2061 69 0
-2061 59 0
-2062 73 0
55 -2062 0
81 -2063 0
-2063 47 0
-2064 97 0
-2064 31 0
2060 2061 2062 2064 2063 -127 0
-2079 3 0
-2080 125 0
7 -2081 0
122 -2081 0
-2082 11 0
-2082 118 0
-2083 19 0
-2083 110 0
-2084 35 0
-2084 94 0
-2085 67 0
-2085 62 0
2082 2081 2083 2084 2085 -128 2079 2080 0
-2091 37 0
-2093 9 0
-2094 119 0
-2095 11 0
-2096 13 0
-2096 116 0
-2097 104 0
-2098 41 0
-2098 88 0
-2099 73 0
-2099 56 0
2096 2095 2097 2098 2099 -128 2093 2094 0
-2100 17 0
-2101 111 0
-2102 19 0
-2102 110 0
21 -2103 0
-2103 108 0
-2104 104 0
49 -2105 0
-2105 80 0
-2106 81 0
-2106 48 0
2102 2103 2104 2105 2106 -128 2100 2101 0
-2110 37 0
-2112 80 0
-2114 65 0
-2115 63 0
-2116 67 0
-2117 69 0
-2118 56 0
-2119 48 0
-2120 97 0
2116 2117 2118 2119 2120 -128 2114 2115 0
-2193 130 0
-2194 133 0
-2195 145 0
-150 2193 2194 2195 0
-2277 134 0
-2277 153 0
-2278 138 0
-2278 149 0
-2279 146 0
-2279 141 0
2278 2279 -158 2277 0
-2309 138 0
-2319 148 0
-2329 149 0
-2329 140 0
-2330 153 0
-2330 136 0
-2343 130 0
-2344 133 0
-2345 161 0
-166 2343 2344 2345 0
-2415 133 0
-2416 137 0
-2417 161 0
-173 2415 2416 2417 0
-2427 134 0
-2427 169 0
-2428 165 0
-2429 162 0
-174 2427 2428 2429 0
-2459 138 0
-2471 137 0
-2472 138 0
-2472 167 0
-2473 166 0
-2474 141 0
-2474 164 0
-2475 136 0
-176 2475 2472 2474 2471 2473 0
-2517 133 0
-2518 145 0
-2519 161 0
-181 2517 2518 2519 0
-2532 134 0
-2532 177 0
-2533 162 0
-2534 165 0
-2534 146 0
2532 -182 2533 2534 0
-2558 130 0
-2559 181 0
-2560 134 0
179 -2560 0
-2561 146 0
-2561 167 0
-2562 162 0
2560 -184 2562 2561 2558 2559 0
-2572 148 0
-2578 161 0
-2579 162 0
-2579 151 0
-2580 150 0
-2581 165 0
-2581 148 0
177 -2582 0
-2582 136 0
2582 -184 2579 2581 2578 2580 0
-2583 137 0
-2584 145 0
-2585 161 0
-185 2583 2584 2585 0
-2624 130 0
-2625 185 0
-2626 138 0
-2627 146 0
-2628 162 0
-2628 155 0
2626 2627 -188 2628 2624 2625 0
-2647 148 0
-2661 130 0
-2662 133 0
-2663 137 0
-2664 145 0
-2665 161 0
-190 2661 2662 2663 2664 2665 0
-2835 133 0
-2836 137 0
-2837 193 0
-205 2835 2836 2837 0
-2847 134 0
-2848 138 0
-2848 197 0
-2949 134 0
-2949 209 0
-2950 146 0
-2950 197 0
-2951 194 0
-2951 149 0
-214 2950 2949 2951 0
-3003 137 0
-3004 145 0
-3005 193 0
-217 3003 3004 3005 0
-3017 153 0
-3044 130 0
-3045 217 0
-3046 138 0
-3046 211 0
-3047 146 0
203 -3047 0
-3048 155 0
-220 3046 3047 3048 3044 3045 0
-3081 130 0
-3082 133 0
-3083 137 0
-3084 145 0
-3085 193 0
-222 3081 3082 3083 3084 3085 0
-3130 201 0
-3131 145 0
-3132 205 0
-3133 203 0
-3134 199 0
-3135 143 0
-223 3133 3135 3134 3131 3132 0
-3207 133 0
-3208 161 0
-3209 193 0
-229 3207 3208 3209 0
-3225 162 0
-3225 197 0
-3226 165 0
-3226 194 0
-3227 225 0
-3227 134 0
-230 3227 3226 3225 0
-3248 130 0
-3249 229 0
-3250 134 0
-3251 162 0
-3252 194 0
-3252 167 0
-232 3250 3252 3251 3248 3249 0
-3285 138 0
-3285 225 0
-3286 162 0
-3287 194 0
-234 3285 3287 3286 0
-3351 130 0
-3352 133 0
-3353 137 0
-3354 161 0
-3355 193 0
-238 3351 3352 3353 3354 3355 0
-3400 201 0
-3403 203 0
-3406 193 0
-3407 173 0
-3408 197 0
-3409 167 0
-3410 225 0
-3410 143 0
-239 3408 3410 3409 3406 3407 0
-3453 225 0
-3454 162 0
-3455 194 0
-242 3453 3455 3454 0
-3507 149 0
-3507 225 0
-3508 165 0
-3509 197 0
-3509 177 0
-245 3509 3507 3508 0
-3519 130 0
-3520 133 0
-3521 145 0
-3522 161 0
-3523 193 0
-246 3519 3520 3521 3522 3523 0
-3564 145 0
-3565 229 0
149 -3566 0
-3566 227 0
-3567 199 0
-3568 209 0
-3568 167 0
-247 3567 3566 3568 3564 3565 0
-3609 153 0
-3609 225 0
-3610 169 0
-3610 209 0
201 -3611 0
-3611 177 0
3611 -249 3610 3609 0
-3621 130 0
-3622 137 0
-3623 145 0
-3624 161 0
-3625 193 0
-250 3621 3622 3623 3624 3625 0
-3675 225 0
-3675 155 0
-3711 133 0
-3712 137 0
-3713 145 0
-3714 161 0
-3715 193 0
-253 3711 3712 3713 3714 3715 0
-3741 134 0
-3741 249 0
-3742 138 0
-3742 245 0
-3743 146 0
-3743 237 0
-3744 162 0
-3744 221 0
-3745 194 0
-3745 189 0
3742 3743 3745 3741 3744 -254 0
-3746 249 0
-3747 242 0
-3748 149 0
-3748 234 0
-3749 165 0
-3750 197 0
-3750 186 0
3750 3746 3749 3747 3748 -254 0
-3751 138 0
-3751 245 0
-3752 141 0
-3752 242 0
-3753 153 0
-3753 230 0
-3754 169 0
-3754 214 0
-3755 182 0
3755 3751 3752 3754 -254 3753 0
-3757 234 0
-3760 174 0
-3761 162 0
-3761 221 0
-3762 165 0
-3762 218 0
-3763 169 0
-3763 214 0
-3764 177 0
-3764 206 0
158 -3765 0
3765 3764 3761 3762 3763 -254 0
-3766 194 0
-3766 189 0
-3767 197 0
-3767 186 0
-3768 182 0
-3769 209 0
-3769 174 0
-3770 225 0
-3770 158 0
3768 3767 3769 3770 -254 3766 0
-3808 255 0
-3809 253 0
-3810 134 0
-3810 251 0
-3811 138 0
-3811 247 0
-3812 146 0
-3812 239 0
-3813 162 0
-3813 223 0
-3814 194 0
-3814 191 0
3811 3810 3812 3813 3814 -256 3808 3809 0
-3822 133 0
134 -3823 0
-3823 251 0
-3824 250 0
-3825 244 0
-3826 236 0
-3827 165 0
-3827 220 0
-3828 197 0
-3828 188 0
3825 3823 3826 3827 3828 -256 3822 3824 0
-3829 137 0
-3830 138 0
-3830 247 0
-3831 246 0
-3832 141 0
-3832 244 0
-3833 153 0
-3833 232 0
-3834 169 0
-3834 216 0
-3835 184 0
3832 3830 3833 3834 3835 -256 3829 3831 0
-3836 145 0
-3837 146 0
-3837 239 0
-3838 238 0
-3839 149 0
-3839 236 0
-3840 153 0
-3840 232 0
177 -3841 0
-3841 208 0
-3842 209 0
-3842 176 0
3839 3837 3840 3841 3842 -256 3836 3838 0
-3843 161 0
-3844 162 0
-3845 222 0
-3846 220 0
-3847 169 0
-3847 216 0
-3848 177 0
-3848 208 0
-3849 225 0
-3849 160 0
3846 3844 3847 3848 3849 -256 3843 3845 0
-3850 193 0
-3851 194 0
-3851 191 0
-3852 190 0
-3853 197 0
-3853 188 0
-3854 184 0
-3855 209 0
-3855 176 0
-3856 160 0
3851 3853 3854 3855 3856 -256 3850 3852 0
-3869 258 0
-3870 259 0
-3871 260 0
-268 3871 3870 3869 0
-3917 258 0
-3918 259 0
-3919 260 0
-276 3919 3918 3917 0
-3941 259 0
-3942 275 0
-3943 263 0
-279 3942 3943 3941 0
-3989 260 0
281 -3989 0
-3990 266 0
-3990 275 0
274 -3991 0
267 -3991 0
3991 3990 3989 -284 0
-3998 274 0
-3998 267 0
-3999 275 0
-3999 266 0
-4000 260 0
3998 3999 4000 -284 0
284 -4052 0
-4053 262 0
-4054 263 0
-4055 276 0
-4056 268 0
4052 4055 -288 4053 4054 4056 0
-4067 258 0
-4068 259 0
-4069 289 0
-292 4067 4068 4069 0
-4139 260 0
-4139 297 0
-4140 266 0
-4140 291 0
-4141 290 0
-4141 267 0
-300 4139 4141 4140 0
-4175 263 0
-4176 267 0
-4176 293 0
-4177 291 0
-303 4177 4175 4176 0
-4195 266 0
-4202 300 0
-4203 262 0
-4204 263 0
-4205 292 0
-4206 268 0
-304 4202 4203 4204 4206 4205 0
-4241 260 0
-4241 305 0
-4242 274 0
-4243 275 0
-308 4242 4241 4243 0
-4247 274 0
-4247 291 0
-4248 275 0
-4248 290 0
-4249 305 0
-4249 260 0
-308 4247 4249 4248 0
-4277 263 0
-4278 293 0
-4279 291 0
-311 4277 4278 4279 0
-4314 289 0
-4315 290 0
-4315 279 0
-4316 291 0
-4317 293 0
-4318 264 0
-312 4318 4317 4315 4316 4314 0
-4331 266 0
-4331 305 0
-4332 274 0
-4332 297 0
-4333 290 0
-314 4332 4333 4331 0
-4397 258 0
-4398 314 0
-4399 310 0
-4400 302 0
-4401 289 0
-318 4399 4398 4400 4397 4401 0
-4422 289 0
-4423 290 0
-4424 293 0
-4425 297 0
-4426 305 0
-318 4425 4423 4426 4424 4422 0
-4427 259 0
-4428 315 0
-4429 311 0
-4430 303 0
-4431 289 0
-319 4428 4430 4429 4427 4431 0
-4559 260 0
-4559 329 0
-4560 266 0
-4560 323 0
-4561 322 0
-4561 267 0
-332 4559 4560 4561 0
-4649 259 0
-4650 323 0
-4651 321 0
-339 4650 4649 4651 0
-4661 260 0
-4661 337 0
-4662 274 0
-4662 323 0
-4663 322 0
-4663 275 0
-340 4663 4662 4661 0
-4685 337 0
-4686 325 0
-4687 322 0
-342 4687 4685 4686 0
-4714 258 0
-4715 260 0
-4716 262 0
-4717 274 0
-4718 279 0
-344 4717 4718 4716 4715 4714 0
-4751 266 0
-4751 337 0
-4752 274 0
-4752 329 0
-4753 322 0
-346 4752 4751 4753 0
-4763 267 0
-4763 337 0
-4764 275 0
-4765 323 0
-347 4764 4765 4763 0
-4817 258 0
-4818 346 0
-4819 342 0
-4820 334 0
-4821 321 0
-350 4819 4818 4820 4817 4821 0
-4919 259 0
-4920 289 0
-4921 321 0
-355 4919 4920 4921 0
-4931 260 0
-4931 353 0
-4932 290 0
-4932 323 0
-4933 322 0
-4933 291 0
-356 4933 4931 4932 0
-4992 326 0
-5009 353 0
-5010 289 0
-5011 321 0
-361 5009 5010 5011 0
-5021 266 0
-5021 353 0
-5022 290 0
-5022 329 0
-5023 322 0
-5023 297 0
-362 5023 5022 5021 0
-5177 353 0
-5178 289 0
-5179 321 0
-369 5177 5178 5179 0
-5189 274 0
-5189 353 0
-5190 290 0
-5190 337 0
-5191 322 0
-5191 305 0
-370 5191 5190 5189 0
-5201 275 0
-5201 353 0
-5202 291 0
-5202 337 0
-5203 323 0
-5203 305 0
-371 5202 5201 5203 0
-5271 274 0
-5295 371 0
-5296 369 0
-5297 355 0
-5298 339 0
-5299 307 0
-375 5299 5295 5296 5298 5297 0
-5322 275 0
-5328 340 0
-5329 308 0
-5345 353 0
-5346 297 0
-5346 337 0
-5347 329 0
-5347 305 0
-377 5346 5345 5347 0
-5397 371 0
-5398 369 0
-5399 355 0
-5400 339 0
-5401 307 0
-379 5397 5400 5401 5398 5399 0
-5417 260 0
-5417 377 0
-5418 266 0
-5418 371 0
-5419 274 0
363 -5419 0
-5420 290 0
-5420 347 0
-5421 322 0
-5421 315 0
5419 5418 5417 5421 5420 -380 0
-5422 260 0
-5422 377 0
-5423 267 0
370 -5423 0
-5424 275 0
-5424 362 0
-5425 291 0
-5425 346 0
-5426 323 0
-5426 314 0
5423 5424 5422 5426 -380 5425 0
-5427 266 0
-5427 371 0
-5428 267 0
-5428 370 0
281 -5429 0
-5429 356 0
-5430 297 0
-5430 340 0
-5431 329 0
-5431 308 0
5428 5427 5431 5430 5429 -380 0
-5432 363 0
-5433 362 0
-5434 356 0
-5435 305 0
-5435 332 0
-5436 337 0
5432 5433 5436 5434 5435 -380 0
-5437 290 0
-5437 347 0
-5438 291 0
-5438 346 0
-5439 297 0
-5439 340 0
-5440 305 0
-5440 332 0
-5441 353 0
-5441 284 0
5439 5440 5441 5437 5438 -380 0
-5442 322 0
-5442 315 0
-5443 323 0
-5443 314 0
-5444 329 0
-5444 308 0
-5445 337 0
-5445 300 0
-5446 353 0
284 -5446 0
5442 5445 5446 5443 5444 -380 0
-5462 365 0
-5463 361 0
-5464 357 0
-5465 305 0
-5466 301 0
-381 5462 5465 5466 5464 5463 0
-5544 383 0
-5545 260 0
-5545 381 0
-5546 262 0
-5546 379 0
-5547 266 0
-5547 375 0
-5548 274 0
-5549 290 0
-5550 322 0
-5550 319 0
5545 5546 5547 5548 5549 5550 -384 5544 0
-5570 344 0
-5571 312 0
-5579 289 0
-5580 290 0
-5581 350 0
-5582 348 0
-5583 297 0
-5583 344 0
-5584 305 0
-5584 336 0
-5585 353 0
5580 5581 5582 5583 5584 5585 -384 5579 0
-5586 321 0
-5587 322 0
-5587 319 0
-5588 323 0
-5588 318 0
-5589 325 0
-5589 316 0
-5590 329 0
-5590 312 0
-5591 337 0
-5591 304 0
-5592 353 0
288 -5592 0
5588 5587 5589 5590 5591 5592 -384 5586 0
-262 -251 0
-264 -249 0
-247 -266 0
-239 -274 0
-232 -281 0
-225 -288 0
-223 -290 0
-293 -220 0
-295 -218 0
-297 -216 0
-302 -211 0
-305 -208 0
-312 -201 0
-314 -199 0
-316 -197 0
-319 -194 0
-191 -322 0
-327 -186 0
-329 -184 0
-334 -179 0
-336 -177 0
-337 -176 0
-342 -171 0
-344 -169 0
-346 -167 0
-353 -160 0
-153 -360 0
-362 -151 0
-143 -370 0
-377 -136 0
-315 -197 -2 0
-363 -149 -2 0
-141 -371 -2 0
-249 -8 0
-281 -225 -8 0
-305 -201 -8 0
-329 -177 -8 0
-337 -169 -8 0
-377 -8 0
-11 -294 -209 0
-326 -11 -177 0
-11 -357 -146 0
-245 -12 0
-305 -197 -12 0
-325 -12 -177 0
-12 -337 -165 0
-244 -13 0
-227 -274 -13 0
-290 -211 -13 0
-305 -13 -196 0
-307 -13 -194 0
-322 -13 -179 0
-337 -13 -164 0
-13 -353 -148 0
-14 -225 -275 0
-291 -209 -14 0
-323 -14 -177 0
-371 -14 0
-201 -294 -19 0
-301 -19 -194 0
-326 -169 -19 0
-138 -19 -357 0
-237 -20 0
-297 -197 -20 0
-329 -165 -20 0
-365 -20 0
-236 -21 0
-21 -227 -266 0
-322 -21 -171 0
-22 -225 -267 0
-363 -22 0
-232 -25 0
-25 -225 -264 0
-25 -322 -167 0
-25 -327 -162 0
-25 -360 0
-26 -291 -197 0
-26 -323 -165 0
-32 -225 0
-32 -353 0
-221 -36 0
-149 -329 -36 0
-141 -337 -36 0
-220 -37 0
-211 -266 -37 0
-281 -37 -196 0
-155 -322 -37 0
-329 -37 -148 0
-337 -140 -37 0
-348 -37 0
-209 -267 -38 0
-275 -38 -201 0
-153 -323 -38 0
-347 -38 0
-216 -41 0
-209 -264 -41 0
-199 -274 -41 0
-327 -41 -146 0
-41 -337 -136 0
-197 -275 -42 0
-149 -323 -42 0
-209 -48 0
-337 -48 0
-49 -199 -266 0
-143 -322 -49 0
-327 -49 -138 0
-136 -329 -49 0
-50 -197 -267 0
-141 -323 -50 0
-56 -201 0
-329 -56 0
-59 -194 -261 0
-326 -59 0
-197 -60 0
-61 -196 0
-322 -61 -131 0
-62 -323 0
-189 -68 0
-69 -188 0
-266 -69 -179 0
-171 -69 -274 0
-155 -290 -69 0
-297 -69 -148 0
-305 -140 -69 0
-316 -69 0
-70 -267 -177 0
-169 -275 -70 0
-153 -291 -70 0
-315 -70 0
-184 -73 0
-262 -179 -73 0
-264 -177 -73 0
-274 -167 -73 0
-151 -290 -73 0
-295 -73 -146 0
-305 -136 -73 0
-312 -73 0
-263 -177 -74 0
-74 -165 -275 0
-149 -291 -74 0
-311 -74 0
-80 -177 0
-305 -80 0
-176 -81 0
-169 -264 -81 0
-167 -266 -81 0
-143 -290 -81 0
-295 -138 -81 0
-297 -136 -81 0
-304 -81 0
-267 -165 -82 0
-141 -291 -82 0
-303 -82 0
-169 -88 0
-297 -88 0
-91 -162 -261 0
-294 -91 0
-165 -92 0
-293 -92 0
-93 -164 0
-94 -291 0
-97 -160 0
-97 -153 -264 0
-151 -97 -266 0
-143 -97 -274 0
-97 -288 0
-149 -98 -267 0
-141 -98 -275 0
-104 -153 0
-107 -146 -261 0
-149 -108 0
-109 -148 0
-110 -275 0
-115 -138 -261 0
-141 -116 0
-117 -140 0
-117 -266 -131 0
-118 -267 0
-136 -121 0
-262 -121 -131 0
-264 -121 0
-263 -122 0
-3 0
-5 0
-9 0
-17 0
-33 0
-65 0
2 0
127 0
-255 0
-263 -249 0
-267 -245 0
-237 -275 0
-221 -291 0
-189 -323 0
-347 -165 0
-383 0
122 -121 0
121 -122 0
-117 118 0
-118 117 0
116 -115 0
-116 115 0
-109 110 0
-110 109 0
-107 108 0
-108 107 0
-103 104 0
-104 103 0
98 -97 0
-98 97 0
-94 93 0
92 -91 0
88 -87 0
-88 87 0
82 -81 0
-82 81 0
-79 80 0
-80 79 0
74 -73 0
-74 73 0
-69 70 0
-70 69 0
68 -67 0
-68 67 0
-61 62 0
-62 61 0
60 -59 0
-60 59 0
-55 56 0
50 -49 0
48 -47 0
-48 47 0
42 -41 0
-42 41 0
38 -37 0
36 -35 0
-36 35 0
-31 32 0
26 -25 0
22 -21 0
20 -19 0
14 -13 0
12 -11 0
-12 11 0
8 -7 0
7 -8 0
-130 0
-133 0
-137 0
-145 0
-161 0
-193 0
131 0
254 0
-109 -274 0
-290 -93 0
-310 -73 0
-314 -69 0
-346 -37 0
-362 -21 0
-13 -370 0
251 -249 0
-251 249 0
-245 247 0
-247 245 0
-242 244 0
-244 242 0
-237 239 0
-239 237 0
-236 234 0
-230 232 0
-232 230 0
227 -225 0
-227 225 0
-221 223 0
-223 221 0
-220 218 0
-214 216 0
-216 214 0
211 -209 0
-206 208 0
-208 206 0
201 -203 0
199 -197 0
-199 197 0
196 -194 0
-189 191 0
-191 189 0
-186 188 0
186 -188 0
-182 184 0
182 -184 0
179 -177 0
-174 176 0
-176 174 0
171 -169 0
167 -165 0
-167 165 0
164 -162 0
-164 162 0
160 -158 0
-160 158 0
155 -153 0
-155 153 0
151 -149 0
-151 149 0
148 -146 0
-148 146 0
-141 143 0
-143 141 0
140 -138 0
-140 138 0
136 -134 0
-136 134 0
-258 0
-259 0
-289 0
-321 0
261 0
380 0
-67 -186 0
-218 -35 0
-234 -19 0
-11 -242 0
-115 -134 0
-103 -146 0
-87 -162 0
-67 -182 0
-55 -194 0
-214 -35 0
-230 -19 0
-242 -7 0
-107 -134 0
-103 -138 0
-79 -162 0
-174 -67 0
-47 -194 0
-206 -35 0
-230 -11 0
-234 -7 0
360 -356 0
357 -353 0
-357 353 0
-323 327 0
-322 326 0
-326 322 0
-291 295 0
-290 294 0
-260 264 0
