p cnf 5592 1415
128 0
256 0
384 0
-421 3 0
-422 5 0
-423 7 0
-15 423 422 421 0
-469 3 0
-470 5 0
-471 7 0
-23 471 470 469 0
-590 16 0
-591 15 0
-592 14 0
-593 12 0
-594 8 0
-32 592 590 593 591 594 0
-631 4 0
-632 35 0
-633 7 0
-40 633 632 631 0
-655 3 0
-656 35 0
-657 33 0
-43 656 655 657 0
-679 5 0
-680 37 0
-681 33 0
-45 680 679 681 0
-703 7 0
-703 41 0
-704 11 0
-704 37 0
-705 35 0
-705 13 0
-47 704 703 705 0
-715 47 0
-716 3 0
-717 5 0
-718 40 0
-719 33 0
-48 718 715 717 716 719 0
-730 5 0
-731 6 0
-731 43 0
-732 7 0
-733 36 0
-734 37 0
-48 734 732 733 731 730 0
-805 7 0
-805 49 0
-806 19 0
-806 37 0
-807 35 0
-807 21 0
-55 806 807 805 0
-815 37 0
-842 33 0
-843 23 0
-844 35 0
-845 37 0
-846 8 0
-56 845 846 844 843 842 0
-871 11 0
-871 49 0
-872 41 0
-873 35 0
-873 25 0
-59 872 873 871 0
-913 49 0
-914 21 0
-914 41 0
-915 37 0
-61 914 915 913 0
-1039 3 0
-1040 5 0
-1041 65 0
-71 1039 1040 1041 0
-1051 69 0
-1052 6 0
-1052 67 0
-1053 7 0
-72 1052 1053 1051 0
-1075 3 0
-1076 67 0
-1077 65 0
-75 1076 1075 1077 0
-1099 5 0
-1100 69 0
-1101 65 0
-77 1100 1099 1101 0
-1123 7 0
-1124 11 0
-1124 69 0
-1125 67 0
-1125 13 0
-79 1125 1124 1123 0
-1140 79 0
-1141 4 0
-1141 77 0
-1142 75 0
-1143 71 0
-1144 15 0
-80 1144 1142 1140 1141 1143 0
-1145 3 0
-1146 4 0
-1146 77 0
-1147 7 0
-1148 11 0
-1148 70 0
-1149 67 0
-1149 14 0
-80 1149 1147 1148 1146 1145 0
-1160 65 0
-1161 15 0
-1162 67 0
-1163 69 0
-1163 12 0
-1164 8 0
1162 1163 1164 1161 -80 1160 0
-1177 3 0
-1178 67 0
-1179 65 0
-83 1178 1177 1179 0
-1201 5 0
-1202 69 0
-1203 65 0
-85 1202 1201 1203 0
-1225 7 0
-1225 81 0
-1226 19 0
-1226 69 0
67 -1227 0
-1227 21 0
1227 1225 -87 1226 0
-1237 87 0
-1238 3 0
-1239 5 0
-1240 72 0
-1241 65 0
-88 1240 1237 1239 1238 1241 0
-1252 5 0
-1253 83 0
-1254 7 0
-1254 82 0
-1255 21 0
-1255 68 0
-1256 69 0
-1256 20 0
-88 1253 1254 1256 1255 1252 0
-1291 11 0
-1291 81 0
-1292 19 0
-1293 67 0
1293 -91 1291 1292 0
-1318 84 0
-1319 83 0
-1320 11 0
-1321 68 0
-1322 20 0
-92 1322 1320 1319 1321 1318 0
-1334 21 0
-1375 3 0
-1376 5 0
-1377 87 0
-1378 79 0
-1379 65 0
-95 1377 1378 1375 1376 1379 0
-1381 7 0
-1383 77 0
-1386 7 0
-1387 83 0
-1395 79 0
-1396 77 0
-1397 75 0
-1398 71 0
-1399 15 0
-95 1399 1395 1397 1396 1398 0
-1400 65 0
-1401 29 0
-1402 27 0
-1403 23 0
-1404 15 0
-95 1401 1404 1402 1403 1400 0
-1447 3 0
-1448 33 0
-1449 65 0
-99 1447 1448 1449 0
-1459 4 0
-1460 67 0
-1461 35 0
-100 1460 1459 1461 0
-1471 5 0
-1472 33 0
-1473 65 0
-101 1471 1472 1473 0
-1495 7 0
-1495 97 0
-1496 35 0
-1496 69 0
-1497 67 0
-1497 37 0
-103 1497 1496 1495 0
-1521 67 0
-1522 5 0
-1523 99 0
-1524 98 0
-1525 37 0
-1525 68 0
-1526 69 0
-1526 36 0
-104 1524 1526 1525 1522 1523 0
-1537 97 0
-1538 33 0
-1539 65 0
-105 1537 1538 1539 0
-1561 97 0
-1562 35 0
-1562 73 0
-1563 67 0
41 -1563 0
1563 -107 1562 1561 0
-1573 107 0
-1574 3 0
-1575 100 0
-1576 33 0
-1577 65 0
-108 1575 1573 1574 1576 1577 0
-1578 107 0
-1579 105 0
-1580 99 0
-1581 75 0
-1582 43 0
-108 1578 1581 1582 1579 1580 0
-1588 100 0
-1589 99 0
-1590 11 0
-1591 68 0
-1592 36 0
-108 1588 1592 1591 1590 1589 0
-1593 33 0
-1594 75 0
-1595 35 0
-1596 68 0
-1597 12 0
-108 1596 1597 1594 1595 1593 0
-1603 97 0
-1604 37 0
-1604 73 0
-1605 69 0
-1605 41 0
1605 1604 -109 1603 0
-1635 33 0
-1636 77 0
-1637 37 0
-1638 70 0
-1639 14 0
-110 1638 1637 1639 1636 1635 0
-1645 3 0
-1646 5 0
-1647 103 0
-1648 33 0
-1649 65 0
-111 1647 1646 1645 1648 1649 0
-1650 3 0
-1651 7 0
-1651 105 0
-1652 101 0
-1653 35 0
-1654 67 0
-1654 45 0
-111 1654 1653 1651 1650 1652 0
-1655 5 0
-1656 7 0
-1657 99 0
-1658 75 0
-1659 43 0
-111 1656 1658 1659 1655 1657 0
-1665 33 0
-1666 77 0
-1667 75 0
-1668 71 0
-1669 15 0
-111 1669 1667 1666 1668 1665 0
-1729 97 0
-1730 35 0
-1730 81 0
67 -1731 0
-1731 49 0
-115 1729 1731 1730 0
-1771 21 0
-1771 97 0
-1772 37 0
-1773 69 0
-1773 49 0
-117 1771 1772 1773 0
-1785 102 0
-1813 3 0
-1814 5 0
-1815 103 0
-1816 33 0
-1817 65 0
-119 1815 1814 1813 1816 1817 0
-1818 3 0
-1819 7 0
-1820 101 0
-1821 85 0
-1822 67 0
-119 1822 1821 1819 1818 1820 0
-1873 97 0
-1875 73 0
-1882 49 0
-1883 41 0
-1884 25 0
-121 1882 1883 1884 0
-1930 107 0
-1931 105 0
-1932 99 0
-1933 75 0
-1934 43 0
-123 1930 1933 1934 1931 1932 0
-2035 7 0
-2035 121 0
11 -2036 0
-2036 117 0
19 -2037 0
109 -2037 0
-2038 35 0
-2038 93 0
-2039 67 0
-2039 61 0
2039 2037 2038 2036 2035 -127 0
-2040 7 0
-2040 121 0
-2041 13 0
-2041 115 0
21 -2042 0
-2042 107 0
-2043 37 0
-2043 91 0
-2044 69 0
-2044 59 0
2041 2044 2040 2043 2042 -127 0
11 -2045 0
-2045 117 0
-2046 13 0
-2046 115 0
-2047 103 0
-2048 41 0
-2048 87 0
73 -2049 0
-2049 55 0
2045 2048 2049 2047 2046 -127 0
-2050 19 0
-2050 109 0
-2051 107 0
25 -2052 0
-2052 103 0
-2053 49 0
-2053 79 0
-2054 81 0
-2054 47 0
2050 2051 2054 2052 2053 -127 0
-2055 35 0
-2055 93 0
-2056 37 0
-2056 91 0
41 -2057 0
87 -2057 0
-2058 49 0
-2058 79 0
-2059 97 0
-2059 31 0
2057 2056 2055 2059 2058 -127 0
-2060 67 0
-2060 61 0
-2061 69 0
-2061 59 0
73 -2062 0
-2062 55 0
-2063 81 0
-2063 47 0
-2064 97 0
-2064 31 0
2060 2061 2062 2063 2064 -127 0
-2079 3 0
-2080 4 0
-2081 7 0
-2082 11 0
-2082 118 0
-2083 110 0
-2084 35 0
-2085 67 0
2080 2081 2082 2083 2084 2085 -128 2079 0
-2086 5 0
-2087 6 0
-2087 123 0
-2088 7 0
-2089 13 0
-2090 108 0
-2091 37 0
-2091 92 0
-2092 69 0
2087 2088 2089 2090 2091 2092 -128 2086 0
-2093 120 0
-2094 119 0
-2095 11 0
-2095 118 0
-2096 13 0
-2096 116 0
-2097 104 0
-2098 41 0
-2098 88 0
-2099 56 0
2094 2095 2096 2097 2098 2099 -128 2093 0
-2100 112 0
-2101 111 0
-2102 19 0
-2102 110 0
-2103 21 0
-2103 108 0
-2104 104 0
-2105 49 0
-2105 80 0
-2106 81 0
-2106 48 0
2101 2102 2103 2104 2105 2106 -128 2100 0
-2107 33 0
-2108 34 0
-2108 95 0
-2109 35 0
-2109 94 0
-2110 37 0
-2110 92 0
-2111 41 0
-2111 88 0
-2112 80 0
-2113 97 0
-2113 32 0
2109 2108 2110 2111 2112 2113 -128 2107 0
-2114 65 0
-2115 63 0
-2116 67 0
-2117 69 0
-2118 56 0
-2119 48 0
-2120 32 0
2115 2116 2117 2118 2119 2120 -128 2114 0
-2145 130 0
-2146 133 0
-2147 134 0
-142 2147 2146 2145 0
-2229 130 0
-2230 146 0
-2231 145 0
-154 2230 2229 2231 0
-2277 134 0
-2277 153 0
-2278 138 0
-2278 149 0
-2279 146 0
-2279 141 0
-158 2279 2278 2277 0
-2318 154 0
-2319 148 0
-2343 130 0
-2344 133 0
-2345 134 0
-166 2345 2344 2343 0
-2427 134 0
-2428 138 0
-2428 165 0
-2429 162 0
-2429 141 0
-174 2427 2428 2429 0
-2529 134 0
-2529 177 0
-2530 146 0
-2530 165 0
162 -2531 0
149 -2531 0
2531 2530 -182 2529 0
-2553 130 0
-2554 182 0
-2555 133 0
-2556 145 0
-2557 152 0
-184 2554 2557 2555 2556 2553 0
-2573 145 0
-2574 146 0
-2575 166 0
-2576 164 0
-2577 136 0
-184 2576 2574 2575 2577 2573 0
-2596 146 0
-2649 141 0
-2650 149 0
-2651 165 0
-2651 153 0
-189 2649 2651 2650 0
-2763 130 0
-2764 133 0
-2765 193 0
-198 2763 2764 2765 0
-2799 130 0
-2800 194 0
-2801 193 0
-202 2800 2799 2801 0
-2835 133 0
-2836 197 0
-2837 193 0
-205 2836 2835 2837 0
-2847 134 0
-2848 138 0
197 -2848 0
-2849 194 0
-2849 141 0
-206 2849 2848 2847 0
-2871 130 0
-2872 206 0
-2873 133 0
-2874 200 0
-2875 193 0
-208 2874 2872 2873 2871 2875 0
-2881 206 0
-2882 205 0
-2883 202 0
-2884 198 0
-2885 142 0
-208 2882 2881 2885 2883 2884 0
-2886 133 0
-2887 134 0
203 -2887 0
-2888 202 0
-2889 141 0
-2889 196 0
-2890 197 0
-2890 140 0
-208 2889 2890 2887 2888 2886 0
-2891 200 0
-2892 138 0
-2893 198 0
-2894 196 0
-2895 136 0
-208 2894 2891 2892 2895 2893 0
-2896 193 0
-2897 194 0
143 -2897 0
-2898 142 0
-2899 197 0
-2899 140 0
-2900 136 0
-208 2898 2899 2900 2897 2896 0
-2901 130 0
-2902 145 0
-2903 193 0
-210 2901 2902 2903 0
-2949 134 0
-2950 146 0
-2950 197 0
-2951 194 0
-2951 149 0
-214 2951 2950 2949 0
-2980 134 0
-2981 146 0
-2981 199 0
-2988 133 0
-2989 134 0
-2989 211 0
-2990 210 0
-2991 149 0
-2991 196 0
-2992 197 0
-2992 148 0
-216 2989 2992 2991 2988 2990 0
-2994 199 0
-2996 196 0
-3002 136 0
-3003 209 0
-3004 145 0
-3005 193 0
-217 3003 3004 3005 0
-3015 209 0
146 -3016 0
-3017 194 0
3016 3015 3017 -218 0
-3039 130 0
-3040 218 0
-3041 212 0
-3042 145 0
-3043 193 0
3041 -220 3040 3039 3042 3043 0
-3044 130 0
-3045 217 0
-3046 211 0
-3047 146 0
-3048 194 0
-220 3047 3046 3045 3048 3044 0
-3069 141 0
-3069 209 0
149 -3070 0
-3071 197 0
-3071 153 0
3070 -221 3069 3071 0
-3081 130 0
-3082 133 0
-3083 214 0
-3084 145 0
-3085 193 0
-222 3083 3082 3081 3084 3085 0
-3089 205 0
-3091 133 0
-3092 134 0
-3093 210 0
-3094 149 0
-3095 197 0
-222 3095 3092 3094 3091 3093 0
-3101 145 0
-3102 146 0
-3103 202 0
-3104 198 0
-3105 209 0
-222 3102 3105 3103 3104 3101 0
-3171 130 0
-3172 194 0
-3173 193 0
-226 3172 3171 3173 0
-3207 133 0
-3208 197 0
-3209 193 0
-229 3208 3207 3209 0
-3219 134 0
-3219 225 0
-3220 162 0
-3220 197 0
-3221 194 0
-3221 165 0
-230 3221 3219 3220 0
-3243 130 0
-3244 230 0
-3245 133 0
-3246 200 0
-3247 193 0
-232 3244 3246 3245 3243 3247 0
-3248 130 0
-3249 229 0
-3250 134 0
-3251 162 0
-3251 199 0
-3252 194 0
-232 3250 3252 3249 3251 3248 0
-3268 193 0
-3269 194 0
-3270 166 0
-3271 164 0
-3272 136 0
-232 3271 3270 3269 3272 3268 0
-3285 225 0
-3286 162 0
-3287 194 0
-234 3286 3285 3287 0
-3324 228 0
-3325 227 0
-3326 226 0
-3327 196 0
-3328 164 0
-236 3325 3328 3324 3327 3326 0
-3339 141 0
-3339 225 0
-3340 165 0
-3341 197 0
-237 3340 3339 3341 0
-3345 165 0
-3346 197 0
-3347 141 0
3346 3345 3347 -237 0
-3351 130 0
-3352 133 0
-3353 230 0
-3354 206 0
-3355 193 0
-238 3353 3354 3351 3352 3355 0
-3453 146 0
-3453 225 0
-3454 162 0
-3454 209 0
-3455 177 0
-242 3455 3454 3453 0
-3509 197 0
-3519 130 0
-3520 133 0
-3521 145 0
-3522 214 0
-3523 193 0
-246 3522 3520 3521 3519 3523 0
-3549 245 0
-3550 133 0
-3551 145 0
-3552 215 0
-3553 193 0
-247 3552 3549 3551 3550 3553 0
-3741 134 0
-3741 249 0
-3742 138 0
-3742 245 0
-3743 146 0
-3743 237 0
162 -3744 0
-3744 221 0
-3745 194 0
-3745 189 0
3741 3744 3742 3745 3743 -254 0
-3746 134 0
-3746 249 0
-3747 141 0
-3747 242 0
-3748 149 0
-3748 234 0
-3749 165 0
-3749 218 0
-3750 197 0
-3750 186 0
3749 3750 3748 3746 3747 -254 0
-3751 245 0
-3752 242 0
-3753 153 0
-3753 230 0
-3754 214 0
-3755 201 0
-3755 182 0
3755 3752 3754 3753 3751 -254 0
-3756 146 0
-3756 237 0
-3757 149 0
-3757 234 0
-3758 153 0
-3758 230 0
-3759 177 0
-3759 206 0
-3760 209 0
-3760 174 0
3756 3757 3759 3760 3758 -254 0
162 -3761 0
-3761 221 0
165 -3762 0
-3762 218 0
-3763 214 0
-3764 177 0
-3764 206 0
-3765 225 0
-3765 158 0
3761 3762 3763 3764 3765 -254 0
-3766 194 0
-3766 189 0
-3767 197 0
-3767 186 0
201 -3768 0
182 -3768 0
-3769 209 0
-3769 174 0
-3770 225 0
-3770 158 0
3768 3770 3769 3767 3766 -254 0
-3808 255 0
-3809 253 0
-3810 134 0
-3811 247 0
-3812 146 0
-3813 162 0
-3814 194 0
3810 3809 3811 3812 3813 3814 -256 3808 0
-3823 134 0
-3824 250 0
-3828 197 0
-3829 248 0
-3830 138 0
-3830 247 0
-3831 139 0
-3831 246 0
-3832 141 0
-3832 244 0
-3833 153 0
-3833 232 0
-3834 216 0
-3835 184 0
3831 3830 3832 3833 3834 3835 -256 3829 0
-3836 240 0
-3837 146 0
-3837 239 0
-3838 147 0
-3838 238 0
-3839 149 0
-3839 236 0
-3840 153 0
-3840 232 0
-3841 177 0
-3841 208 0
-3842 209 0
-3842 176 0
3838 3837 3839 3840 3841 3842 -256 3836 0
-3843 224 0
-3844 162 0
-3844 223 0
-3845 222 0
-3846 165 0
-3846 220 0
-3847 216 0
-3848 177 0
-3848 208 0
-3849 225 0
-3849 160 0
3845 3844 3846 3847 3848 3849 -256 3843 0
-3869 258 0
-3870 259 0
-3871 265 0
-268 3869 3870 3871 0
-3905 269 0
262 -3906 0
-3907 266 0
3906 -272 3907 3905 0
-3917 258 0
-3918 259 0
-3919 260 0
-276 3919 3918 3917 0
-3965 258 0
-3966 265 0
-3967 266 0
-282 3967 3966 3965 0
-3977 259 0
-3978 265 0
-3979 267 0
-283 3979 3978 3977 0
-3989 260 0
281 -3989 0
-3990 266 0
275 -3990 0
-3991 274 0
-3991 267 0
3989 -284 3991 3990 0
-4047 259 0
-4048 260 0
-4048 285 0
-4049 282 0
-4050 267 0
-4050 278 0
-4051 270 0
-288 4050 4048 4051 4049 4047 0
-4052 284 0
-4053 262 0
-4053 283 0
-4054 282 0
-4055 276 0
-4056 268 0
4052 -288 4053 4054 4055 4056 0
-4057 265 0
-4058 266 0
-4058 279 0
-4059 267 0
-4059 278 0
-4060 276 0
-4061 264 0
-288 4061 4058 4060 4059 4057 0
-4067 258 0
-4068 259 0
-4069 260 0
-292 4069 4068 4067 0
-4127 259 0
-4128 265 0
-4129 267 0
-299 4129 4128 4127 0
-4139 260 0
297 -4139 0
-4140 266 0
-4140 291 0
-4141 290 0
-4141 267 0
-300 4139 4141 4140 0
-4187 258 0
-4188 259 0
-4189 300 0
-4190 265 0
272 -4191 0
4191 4189 -304 4187 4190 4188 0
-4241 260 0
-4242 274 0
-4242 291 0
-4243 290 0
-308 4241 4242 4243 0
-4331 266 0
-4332 297 0
-4333 290 0
-4333 281 0
-314 4332 4331 4333 0
-4487 258 0
-4488 259 0
-4489 321 0
-324 4487 4488 4489 0
-4547 259 0
-4548 265 0
-4549 321 0
-331 4547 4548 4549 0
-4559 260 0
-4559 329 0
-4560 266 0
-4560 323 0
-4561 322 0
-4561 267 0
4561 4559 -332 4560 0
-4612 258 0
-4613 333 0
-4614 331 0
-4615 327 0
-4616 322 0
4616 4613 -336 4615 4612 4614 0
-4618 333 0
-4633 322 0
-4634 270 0
-4637 258 0
-4638 322 0
-4639 321 0
-338 4638 4637 4639 0
-4649 259 0
-4650 323 0
-4651 321 0
-339 4650 4649 4651 0
-4662 323 0
-4724 340 0
-4725 262 0
-4726 338 0
-4730 327 0
-4775 258 0
-4776 259 0
-4777 265 0
-4778 332 0
-4779 321 0
-348 4778 4776 4777 4775 4779 0
-4907 258 0
-4908 322 0
-4909 321 0
-354 4908 4907 4909 0
-4919 259 0
-4920 323 0
-4921 321 0
-355 4920 4919 4921 0
-4931 260 0
-4931 353 0
-4932 290 0
-4932 323 0
-4933 322 0
-4933 291 0
-356 4931 4932 4933 0
-4984 258 0
-4985 260 0
-4985 357 0
-4986 355 0
-4987 327 0
-4988 322 0
-4988 295 0
-360 4988 4986 4985 4987 4984 0
-4994 356 0
-4995 355 0
-4996 354 0
-4997 324 0
-4998 292 0
-360 4998 4995 4994 4996 4997 0
-5000 327 0
-5021 266 0
-5022 290 0
-5022 329 0
-5023 297 0
-362 5023 5021 5022 0
-5045 258 0
-5046 259 0
-5047 265 0
-5048 332 0
-5049 321 0
-364 5048 5046 5047 5045 5049 0
-5060 265 0
-5061 355 0
-5062 354 0
-5063 324 0
-5064 292 0
-364 5062 5061 5064 5063 5060 0
-5117 259 0
-5118 363 0
-5119 265 0
-5120 335 0
-5121 321 0
-367 5118 5120 5119 5117 5121 0
-5142 321 0
-5143 323 0
-5144 299 0
-5145 295 0
-5146 271 0
-367 5146 5145 5144 5143 5142 0
-5189 274 0
-5190 290 0
-5190 337 0
-5191 322 0
-370 5191 5190 5189 0
-5201 353 0
-5202 337 0
-5203 323 0
5201 5202 5203 -371 0
-5220 355 0
-5221 339 0
-5233 340 0
-5234 339 0
-5235 338 0
-5272 354 0
-5273 326 0
-5274 294 0
-5345 281 0
-5346 337 0
260 -5417 0
377 -5417 0
-5418 266 0
371 -5418 0
-5419 274 0
-5419 363 0
-5420 290 0
-5420 347 0
-5421 322 0
-5421 315 0
5417 5418 5419 5420 5421 -380 0
-5422 260 0
-5422 377 0
-5423 267 0
-5423 370 0
275 -5424 0
-5424 362 0
-5425 291 0
-5425 346 0
-5426 323 0
-5426 314 0
5422 5424 5425 5423 5426 -380 0
-5427 266 0
371 -5427 0
-5428 267 0
-5428 370 0
-5429 281 0
-5429 356 0
-5430 297 0
-5430 340 0
-5431 329 0
-5431 308 0
5428 5431 5430 5427 5429 -380 0
363 -5432 0
-5433 275 0
-5433 362 0
-5434 281 0
-5434 356 0
-5435 332 0
-5436 337 0
-5436 300 0
5432 5434 5436 5433 5435 -380 0
-5437 290 0
-5437 347 0
-5438 291 0
346 -5438 0
297 -5439 0
-5439 340 0
-5440 332 0
353 -5441 0
-5441 284 0
5439 5438 5440 5441 5437 -380 0
-5442 322 0
-5442 315 0
-5443 323 0
-5443 314 0
-5444 329 0
-5444 308 0
337 -5445 0
-5445 300 0
353 -5446 0
284 -5446 0
5446 5445 5443 5444 5442 -380 0
-5569 281 0
-5571 312 0
-5572 368 0
-5573 274 0
-5573 367 0
-5574 275 0
-5574 366 0
-5575 364 0
-5576 281 0
-5576 360 0
-5577 336 0
337 -5578 0
-5578 304 0
5573 5574 5575 5576 5577 5578 -384 5572 0
-5582 348 0
-5584 336 0
-5586 321 0
-5587 322 0
-5588 323 0
-5589 316 0
-5590 329 0
-5590 312 0
-5591 304 0
353 -5592 0
288 -5592 0
5588 5587 5589 5590 5591 5592 -384 5586 0
-253 -260 0
-249 -264 0
-247 -266 0
-242 -271 0
-239 -274 0
-238 -275 0
-276 -237 0
-232 -281 0
-229 -284 0
-225 -288 0
-223 -290 0
-295 -218 0
-297 -216 0
-209 -304 0
-312 -201 0
-314 -199 0
-316 -197 0
-327 -186 0
-184 -329 0
-336 -177 0
-176 -337 0
-160 -353 0
-355 -158 0
-151 -362 0
-364 -149 0
-367 -146 0
-370 -143 0
-136 -377 0
-245 -267 -2 0
-237 -275 -2 0
-291 -221 -2 0
-189 -323 -2 0
-335 -177 -2 0
-363 -149 -2 0
-4 -333 -177 0
-6 -297 -211 0
-250 -7 0
-249 -8 0
-297 -209 -8 0
-329 -8 -177 0
-153 -8 -353 0
-8 -377 0
-326 -11 -177 0
-12 -245 0
-12 -337 -165 0
-244 -13 0
-227 -13 -274 0
-290 -211 -13 0
-13 -353 -148 0
-14 -371 0
-15 -242 0
-238 -19 0
-225 -270 -19 0
-333 -162 -19 0
-354 -141 -19 0
-357 -138 -19 0
-366 -19 0
-20 -237 0
-236 -21 0
-203 -290 -21 0
-297 -21 -196 0
-140 -21 -353 0
-362 -21 -131 0
-232 -25 0
-327 -25 -162 0
-27 -230 0
-29 -356 0
-32 -225 0
-32 -353 0
-34 -329 -151 0
-222 -35 0
-209 -270 -35 0
-333 -146 -35 0
-221 -36 0
-281 -197 -36 0
-329 -149 -36 0
-141 -337 -36 0
-220 -37 0
-211 -266 -37 0
-37 -281 -196 0
-329 -37 -148 0
-140 -337 -37 0
-209 -38 -267 0
-323 -153 -38 0
-139 -337 -38 0
-347 -38 0
-216 -41 0
-209 -264 -41 0
-274 -199 -41 0
-322 -151 -41 0
-147 -326 -41 0
-327 -146 -41 0
-136 -337 -41 0
-43 -214 0
-209 -48 0
-48 -337 0
-208 -49 0
-49 -264 -201 0
-49 -266 -199 0
-49 -271 -194 0
-329 -136 -49 0
-49 -336 0
-202 -55 0
-56 -201 0
-56 -329 0
-326 -59 0
-61 -196 0
-63 -194 0
-186 -67 -261 0
-270 -177 -67 0
-285 -162 -67 0
-189 -68 0
-269 -177 -68 0
-281 -165 -68 0
-297 -149 -68 0
-283 -69 -162 0
-297 -69 -148 0
-316 -69 0
-70 -267 -177 0
-153 -70 -291 0
-315 -70 0
-184 -73 0
-279 -73 -162 0
-290 -151 -73 0
-312 -73 0
-75 -182 0
-77 -146 -291 0
-80 -177 0
-176 -81 0
-81 -271 -162 0
-295 -81 -138 0
-297 -136 -81 0
-81 -304 0
-82 -267 -165 0
-85 -300 0
-88 -297 0
-91 -162 -261 0
-294 -91 0
-92 -165 0
-164 -93 0
-290 -93 -131 0
-94 -291 0
-160 -97 0
-153 -97 -264 0
-151 -97 -266 0
-97 -271 -146 0
-97 -136 -281 0
-97 -288 0
-98 -267 -149 0
-98 -141 -275 0
-282 -103 0
-153 -104 0
-104 -281 0
-105 -134 -275 0
-278 -107 0
-108 -149 0
-148 -109 0
-274 -109 -131 0
-110 -275 0
-115 -270 0
-116 -141 0
-140 -117 0
-118 -267 0
-136 -121 0
-121 -262 -131 0
-121 -264 0
-3 0
-5 0
-33 0
-65 0
2 0
127 0
-255 0
-215 -297 0
-315 -197 0
-347 -165 0
-141 -371 0
-248 0
-245 -260 0
-230 -275 0
-214 -291 0
-308 -197 0
-323 -182 0
-340 -165 0
-152 -353 0
-356 -149 0
-134 -371 0
-240 0
-237 -260 0
-230 -267 0
-206 -291 0
-297 -200 0
-300 -197 0
-323 -174 0
-332 -165 0
-356 -141 0
-363 -134 0
-368 0
-103 104 0
-104 103 0
98 -97 0
-98 97 0
70 -69 0
-70 69 0
68 -67 0
67 -68 0
38 -37 0
36 -35 0
-36 35 0
-7 8 0
-8 7 0
-130 0
-133 0
-145 0
-193 0
131 0
254 0
-117 -266 0
-314 -69 0
-322 -61 0
-37 -346 0
-370 -13 0
-120 0
-117 -260 0
-115 -262 0
-103 -274 0
-102 -275 0
-290 -87 0
-308 -69 0
-322 -55 0
-340 -37 0
-356 -21 0
-370 -7 0
-6 -371 0
-93 -260 0
-91 -262 0
-266 -87 0
-79 -274 0
-72 -281 0
-69 -284 0
-31 -322 0
-21 -332 0
-16 -337 0
-340 -13 0
-346 -7 0
-214 216 0
-216 214 0
-209 211 0
-211 209 0
199 -197 0
197 -199 0
196 -194 0
-196 194 0
151 -149 0
-146 148 0
-148 146 0
-134 136 0
-136 134 0
-258 0
-259 0
-265 0
-321 0
261 0
380 0
-138 -115 0
-107 -146 0
-100 -153 0
-59 -194 0
-218 -35 0
-234 -19 0
-242 -11 0
-4 -249 0
-112 0
-134 -107 0
-103 -138 0
-100 -141 0
-79 -162 0
-174 -67 0
-47 -194 0
-200 -41 0
-206 -35 0
-228 -13 0
-11 -230 0
-234 -7 0
-4 -237 0
-134 -91 0
-138 -87 0
-84 -141 0
-79 -146 0
-158 -67 0
-31 -194 0
-200 -25 0
-206 -19 0
-212 -13 0
-11 -214 0
-7 -218 0
-4 -221 0
-224 0
-332 336 0
-336 332 0
-329 333 0
-333 329 0
-323 327 0
-327 323 0
-322 326 0
-326 322 0
271 -267 0
-271 267 0
-266 270 0
-270 266 0
264 -260 0
-264 260 0
