p cnf 5592 174
128 0
-421 3 0
-422 5 0
-423 9 0
-15 421 422 423 0
-505 3 0
-506 9 0
-507 17 0
-27 505 506 507 0
-529 5 0
-530 9 0
-531 17 0
-29 529 530 531 0
-575 3 0
-576 29 0
-577 7 0
-578 11 0
-579 19 0
-32 579 575 576 577 578 0
-580 5 0
-581 27 0
-582 7 0
-583 20 0
-584 12 0
-32 583 580 581 582 584 0
-703 7 0
-704 11 0
-705 35 0
-47 705 703 704 0
-740 33 0
-741 15 0
-742 35 0
-743 12 0
-744 8 0
-48 742 740 741 743 744 0
-781 5 0
-782 17 0
-783 33 0
-53 781 782 783 0
-827 3 0
-828 53 0
-829 7 0
-830 19 0
-831 35 0
831 830 827 828 829 -56 0
-955 3 0
-956 5 0
-957 9 0
-958 17 0
-959 33 0
-63 955 956 957 958 959 0
-2060 61 0
-2061 59 0
-2062 55 0
-2063 47 0
31 -2064 0
2060 2061 -127 2063 2062 2064 0
-2114 65 0
-2115 63 0
67 -2116 0
69 -2117 0
-2118 56 0
-2119 48 0
-2120 32 0
2117 2116 2118 2119 2120 -128 2114 2115 0
-2949 209 0
-2950 146 0
-2951 194 0
2949 2950 -214 2951 0
209 -3015 0
-3016 146 0
-3017 194 0
3015 3016 -218 3017 0
209 -3459 0
-3460 194 0
-3461 146 0
3459 3461 3460 -242 0
-3746 249 0
-3747 242 0
-3748 234 0
-3749 218 0
-3750 186 0
3746 3747 -254 3748 3749 3750 0
-3751 245 0
-3752 242 0
-3753 230 0
-3754 214 0
-3755 182 0
3751 3753 -254 3752 3754 3755 0
-3756 237 0
-3757 234 0
-3758 230 0
-3759 206 0
-3760 174 0
3758 3756 -254 3757 3759 3760 0
-3761 221 0
-3762 218 0
-3763 214 0
-3764 206 0
-3765 158 0
3761 3763 -254 3762 3764 3765 0
-3766 194 0
197 -3767 0
-3767 186 0
201 -3768 0
-3768 182 0
-3769 174 0
225 -3770 0
-3770 158 0
3766 3770 -254 3768 3769 3767 0
-5442 315 0
-5443 314 0
-5444 308 0
-5445 300 0
-5446 284 0
5444 5443 -380 5442 5445 5446 0
-315 -197 -2 0
-249 -8 0
-245 -12 0
-237 -20 0
-32 -225 0
-221 -36 0
-48 -209 0
-56 -201 0
-59 -194 -261 0
-61 -196 0
-315 -70 0
-3 0
-5 0
-9 0
-17 0
-33 0
-65 0
2 0
127 0
70 -69 0
-48 47 0
36 -35 0
20 -19 0
-20 19 0
8 -7 0
-8 7 0
254 0
-314 -69 0
-308 -69 0
-300 -69 0
-284 -69 0
196 -194 0
261 0
380 0
-186 -67 0
-218 -35 0
-234 -19 0
-242 -11 0
-182 -67 0
-55 -194 0
-35 -214 0
-230 -19 0
-242 -7 0
-174 -67 0
-47 -194 0
-206 -35 0
-230 -11 0
-234 -7 0
-158 -67 0
-31 -194 0
-206 -19 0
-11 -214 0
-218 -7 0
-146 -47 0
-35 -158 0
-174 -19 0
-11 -182 0
-186 -7 0
