p cnf 5592 645
128 0
256 0
384 0
-553 7 0
-554 11 0
-554 21 0
-555 19 0
-555 13 0
-31 554 555 553 0
-679 5 0
-680 37 0
-681 33 0
-45 680 679 681 0
-703 7 0
41 -703 0
-704 11 0
-704 37 0
35 -705 0
13 -705 0
705 703 704 -47 0
-725 3 0
-726 45 0
-727 42 0
-728 11 0
-729 35 0
-48 727 725 728 729 726 0
-874 11 0
-875 35 0
-876 19 0
-59 874 876 875 0
-1075 3 0
-1076 67 0
-1077 65 0
-75 1076 1075 1077 0
-1123 7 0
-1124 11 0
-1124 69 0
-1125 67 0
-1125 13 0
1123 1124 1125 -79 0
-1151 75 0
-1153 68 0
-1177 3 0
-1178 67 0
-1179 65 0
-83 1178 1177 1179 0
-1225 7 0
-1226 69 0
-1227 67 0
-1227 21 0
1225 1227 -87 1226 0
-1253 83 0
-1255 68 0
11 -1291 0
-1292 19 0
-1293 67 0
1291 1293 -91 1292 0
-1387 83 0
-1388 75 0
-1495 7 0
-1495 97 0
-1496 69 0
-1497 67 0
-1497 37 0
1496 1495 1497 -103 0
-1561 11 0
-1562 35 0
-1563 41 0
1562 -107 1563 1561 0
13 -1603 0
-1604 37 0
-1605 69 0
-109 1605 1603 1604 0
-1645 3 0
-1646 5 0
-1647 103 0
-1648 33 0
-1649 65 0
-111 1647 1646 1645 1648 1649 0
-1729 19 0
-1730 35 0
-1731 67 0
-115 1730 1731 1729 0
-1771 97 0
-1772 37 0
-1773 69 0
1773 1772 -117 1771 0
-2035 7 0
-2035 121 0
-2036 11 0
-2036 117 0
-2037 19 0
-2037 109 0
-2038 35 0
-2038 93 0
-2039 67 0
-2039 61 0
2036 2035 -127 2038 2037 2039 0
-2040 7 0
-2041 13 0
-2041 115 0
21 -2042 0
107 -2042 0
-2043 91 0
-2044 69 0
-2044 59 0
2042 2040 -127 2041 2044 2043 0
11 -2045 0
117 -2045 0
-2046 13 0
-2046 115 0
25 -2047 0
-2047 103 0
-2048 41 0
-2048 87 0
-2049 55 0
2045 2047 -127 2049 2046 2048 0
-2050 19 0
109 -2050 0
-2051 21 0
-2051 107 0
-2052 103 0
-2053 79 0
-2054 47 0
2051 2052 -127 2050 2054 2053 0
35 -2055 0
-2055 93 0
-2056 37 0
-2056 91 0
87 -2057 0
49 -2058 0
-2058 79 0
-2059 31 0
2057 2058 -127 2055 2056 2059 0
-2060 61 0
69 -2061 0
59 -2061 0
-2062 55 0
81 -2063 0
47 -2063 0
-2064 97 0
-2064 31 0
2061 2060 -127 2063 2062 2064 0
-2100 112 0
-2101 111 0
-2102 19 0
-2103 21 0
-2104 104 0
-2105 80 0
48 -2106 0
2101 2102 2103 2104 2105 2106 -128 2100 0
-2113 32 0
-2193 130 0
-2194 133 0
-2195 134 0
-150 2195 2194 2193 0
-2277 134 0
-2278 138 0
-2279 146 0
-2279 141 0
-158 2279 2278 2277 0
-2343 130 0
-2344 133 0
-2345 161 0
-166 2343 2344 2345 0
-2427 134 0
-2428 138 0
-2429 162 0
-2429 141 0
-174 2427 2428 2429 0
-2529 134 0
-2530 146 0
-2531 162 0
-182 2529 2531 2530 0
-2578 161 0
-2579 162 0
-2579 151 0
-2580 150 0
-2581 165 0
-2581 148 0
-2582 136 0
-184 2581 2578 2579 2580 2582 0
-2787 132 0
-2788 134 0
-2789 194 0
-200 2789 2788 2787 0
-2847 134 0
-2848 138 0
-2849 194 0
-2849 141 0
2849 2847 -206 2848 0
-2901 130 0
-2902 194 0
-2903 193 0
-210 2902 2901 2903 0
-2949 134 0
-2950 146 0
-2951 194 0
-214 2951 2949 2950 0
-2973 130 0
-2974 214 0
-2975 133 0
-2976 200 0
-2977 193 0
-216 2976 2973 2975 2974 2977 0
-2988 133 0
-2989 134 0
-2990 210 0
-2991 196 0
-2992 148 0
-216 2991 2988 2989 2992 2990 0
-2998 193 0
-2999 151 0
-3000 150 0
-3001 197 0
-3001 148 0
-3002 136 0
-216 2999 2998 3000 3001 3002 0
-3219 134 0
-3220 162 0
-3220 197 0
-3221 194 0
-3221 165 0
-230 3219 3221 3220 0
-3285 138 0
-3285 225 0
-3286 162 0
-3286 201 0
-3287 194 0
-3287 169 0
3287 -234 3285 3286 0
-3519 130 0
-3520 133 0
-3521 230 0
-3522 161 0
-3523 193 0
-246 3521 3520 3519 3522 3523 0
-3544 193 0
-3545 194 0
-3546 178 0
-3547 166 0
-3548 150 0
-246 3548 3544 3545 3547 3546 0
-3741 134 0
-3741 249 0
-3742 138 0
-3742 245 0
-3743 146 0
-3743 237 0
-3744 162 0
-3744 221 0
194 -3745 0
189 -3745 0
3745 3741 -254 3744 3742 3743 0
-3746 249 0
-3747 242 0
149 -3748 0
-3748 234 0
-3749 218 0
-3750 186 0
3750 3748 -254 3749 3747 3746 0
-3751 138 0
245 -3751 0
141 -3752 0
-3752 242 0
-3753 153 0
-3753 230 0
-3754 214 0
-3755 201 0
-3755 182 0
3752 3753 -254 3751 3754 3755 0
-3756 146 0
-3756 237 0
-3757 234 0
-3758 230 0
-3759 206 0
-3760 174 0
3759 3757 -254 3756 3758 3760 0
-3761 221 0
-3762 165 0
-3762 218 0
-3763 214 0
206 -3764 0
225 -3765 0
-3765 158 0
3764 3763 -254 3765 3761 3762 0
-3766 194 0
-3766 189 0
-3767 197 0
-3767 186 0
-3768 201 0
-3768 182 0
209 -3769 0
-3769 174 0
225 -3770 0
-3770 158 0
3766 3767 -254 3770 3769 3768 0
-3829 248 0
-3830 138 0
-3831 246 0
-3832 141 0
-3832 244 0
-3833 232 0
-3834 169 0
-3834 216 0
-3835 201 0
-3835 184 0
3831 3830 3832 3833 3834 3835 -256 3829 0
-3847 216 0
-3917 258 0
-3918 259 0
-3919 273 0
-276 3917 3918 3919 0
-3989 260 0
-3989 281 0
-3990 266 0
275 -3990 0
-3991 274 0
-3991 267 0
3989 3990 -284 3991 0
-4000 260 0
-4067 258 0
-4068 259 0
-4069 260 0
-292 4069 4068 4067 0
-4229 259 0
-4230 273 0
-4231 275 0
-307 4231 4230 4229 0
-4241 260 0
-4241 305 0
-4242 274 0
-4242 291 0
-4243 290 0
-4243 275 0
-308 4241 4242 4243 0
-4294 258 0
-4295 260 0
-4296 307 0
-4297 295 0
-4298 279 0
-312 4296 4294 4295 4297 4298 0
-4314 280 0
-4315 279 0
-4316 278 0
-4317 276 0
-4318 264 0
-312 4314 4318 4316 4317 4315 0
-4331 266 0
-4331 305 0
-4332 274 0
-4333 281 0
-314 4333 4331 4332 0
-4343 267 0
-4344 275 0
-4345 281 0
4343 4345 -315 4344 0
-4487 258 0
-4488 259 0
-4489 260 0
-324 4489 4488 4487 0
-4649 259 0
-4650 273 0
-4651 275 0
-339 4651 4650 4649 0
-4661 260 0
-4661 337 0
-4662 274 0
-4662 323 0
-4663 322 0
-4663 275 0
-340 4661 4663 4662 0
-4734 280 0
-4735 279 0
-4736 278 0
-4737 276 0
-4738 264 0
-344 4734 4738 4736 4737 4735 0
-4751 266 0
-4752 274 0
-4753 281 0
-346 4753 4751 4752 0
-4763 267 0
-4764 275 0
-4765 281 0
4763 -347 4765 4764 0
-4979 258 0
-4980 259 0
-4981 356 0
-4982 328 0
-4983 296 0
-360 4982 4980 4979 4981 4983 0
-5228 273 0
-5229 274 0
-5230 275 0
-5231 324 0
-5232 292 0
-372 5230 5228 5229 5231 5232 0
-5233 340 0
-5234 339 0
-5235 338 0
-5236 324 0
-5237 276 0
-372 5234 5233 5236 5235 5237 0
-5417 377 0
-5418 371 0
-5419 363 0
-5420 290 0
-5420 347 0
322 -5421 0
-5421 315 0
5417 5420 -380 5421 5419 5418 0
-5422 260 0
-5422 377 0
-5423 267 0
-5423 370 0
-5424 275 0
-5424 362 0
-5425 291 0
-5425 346 0
-5426 323 0
-5426 314 0
5424 5422 -380 5426 5423 5425 0
-5427 266 0
-5427 371 0
-5428 267 0
-5428 370 0
-5429 281 0
-5429 356 0
-5430 297 0
-5430 340 0
329 -5431 0
-5431 308 0
5430 5428 -380 5427 5431 5429 0
347 -5437 0
-5438 346 0
-5439 340 0
-5440 332 0
-5441 284 0
5437 5440 -380 5441 5438 5439 0
-5442 322 0
-5442 315 0
-5443 323 0
-5443 314 0
-5444 308 0
337 -5445 0
-5445 300 0
284 -5446 0
5446 5445 -380 5444 5442 5443 0
-5565 376 0
-5566 375 0
-5567 267 0
-5567 374 0
-5568 372 0
-5569 281 0
-5569 360 0
-5570 344 0
-5571 312 0
5566 5567 5568 5569 5570 5571 -384 5565 0
-5572 368 0
-5573 274 0
-5574 275 0
-5575 277 0
-5576 360 0
-5577 336 0
-5578 337 0
5574 5573 5575 5576 5577 5578 -384 5572 0
-249 -264 0
-234 -279 0
-281 -232 0
-216 -297 0
-199 -314 0
-184 -329 0
-344 -169 0
-167 -346 0
-151 -362 0
-375 -138 0
-377 -136 0
-237 -275 -2 0
-221 -291 -2 0
-371 -141 -2 0
-249 -8 0
-281 -225 -8 0
-377 -8 0
-278 -225 -11 0
-374 -11 0
-244 -13 0
-274 -227 -13 0
-305 -13 -196 0
-164 -13 -337 0
-227 -266 -21 0
-360 -25 0
-32 -225 0
-201 -278 -35 0
-221 -36 0
-277 -201 -36 0
-141 -337 -36 0
-281 -37 -196 0
-153 -323 -38 0
-347 -38 0
-216 -41 0
-209 -41 -264 0
-42 -323 -149 0
-338 -47 0
-201 -49 -264 0
-336 -49 0
-59 -194 -261 0
-61 -196 0
-61 -322 -131 0
-68 -189 0
-169 -275 -70 0
-315 -70 0
-178 -79 0
-80 -305 0
-169 -264 -81 0
-295 -138 -81 0
-93 -164 0
-93 -290 -131 0
-97 -279 -138 0
-281 -104 0
-278 -107 0
-148 -109 0
-274 -109 -131 0
-266 -117 -131 0
-121 -136 0
-121 -264 0
-3 0
-5 0
-33 0
-65 0
2 0
127 0
-267 -245 0
-323 -189 0
-248 0
-260 -245 0
-230 -275 0
-280 -225 0
-214 -291 0
-197 -308 0
-182 -323 0
-165 -340 0
-371 -134 0
-376 0
-237 -260 0
-230 -267 0
-291 -206 0
-296 -201 0
-197 -300 0
-174 -323 0
-332 -165 0
-356 -141 0
-363 -134 0
-368 0
104 -103 0
-104 103 0
70 -69 0
-67 68 0
-68 67 0
38 -37 0
36 -35 0
8 -7 0
-130 0
-133 0
-161 0
-193 0
131 0
254 0
-314 -69 0
-346 -37 0
-362 -21 0
-370 -13 0
-274 -103 0
-280 -97 0
-87 -290 0
-308 -69 0
-55 -322 0
-328 -49 0
-340 -37 0
-356 -21 0
-7 -370 0
-112 0
-260 -109 0
-266 -103 0
-79 -290 0
-300 -69 0
-47 -322 0
-332 -37 0
-356 -13 0
-7 -362 0
232 -230 0
-232 230 0
227 -225 0
-197 199 0
196 -194 0
-196 194 0
-165 167 0
164 -162 0
-164 162 0
136 -134 0
-136 134 0
-258 0
-259 0
-273 0
261 0
380 0
-115 -138 0
-146 -107 0
-162 -91 0
-186 -67 0
-218 -35 0
-234 -19 0
-242 -11 0
-132 -117 0
-115 -134 0
-146 -103 0
-162 -87 0
-182 -67 0
-55 -194 0
-200 -49 0
-214 -35 0
-230 -19 0
-242 -7 0
-91 -134 0
-138 -87 0
-79 -146 0
-67 -158 0
-31 -194 0
-200 -25 0
-19 -206 0
-214 -11 0
-218 -7 0
-59 -134 0
-55 -138 0
-146 -47 0
-158 -35 0
-31 -162 0
-174 -19 0
-182 -11 0
-186 -7 0
279 -275 0
-279 275 0
-274 278 0
264 -260 0
-264 260 0
