p cnf 5592 1310
128 0
256 0
384 0
-421 3 0
-422 5 0
-423 7 0
-15 423 422 421 0
-469 3 0
-470 5 0
-471 17 0
-23 469 470 471 0
-553 7 0
-553 25 0
-554 11 0
-554 21 0
-555 13 0
-31 555 554 553 0
-585 24 0
-586 23 0
-587 11 0
-588 20 0
-589 8 0
-32 587 585 588 589 586 0
-703 7 0
41 -703 0
-704 11 0
-704 37 0
-705 35 0
-705 13 0
-47 705 704 703 0
-757 3 0
-758 17 0
-759 33 0
-51 757 758 759 0
-805 7 0
-805 49 0
-806 19 0
-806 37 0
-807 35 0
21 -807 0
807 805 -55 806 0
-847 49 0
-848 17 0
-849 33 0
-57 847 848 849 0
-871 11 0
-871 49 0
-872 19 0
41 -872 0
-873 35 0
-873 25 0
-59 872 871 873 0
-883 59 0
-884 3 0
-885 52 0
-886 17 0
-887 33 0
-60 885 883 884 886 887 0
-893 3 0
-894 57 0
-895 50 0
-896 19 0
-897 35 0
-60 897 894 896 895 893 0
-898 52 0
-899 51 0
-900 11 0
-900 50 0
-901 25 0
-901 36 0
-902 20 0
-60 902 898 901 900 899 0
-913 13 0
-913 49 0
21 -914 0
-915 37 0
-915 25 0
914 -61 915 913 0
-925 61 0
-926 5 0
-927 54 0
-928 17 0
-929 33 0
-62 925 927 926 928 929 0
-1039 3 0
-1040 5 0
-1041 65 0
-71 1039 1040 1041 0
-1075 3 0
-1076 67 0
-1077 65 0
-75 1076 1075 1077 0
-1099 5 0
-1100 69 0
-1101 65 0
-77 1100 1099 1101 0
-1123 7 0
-1124 11 0
-1125 67 0
-1125 13 0
1125 -79 1124 1123 0
79 -1135 0
-1136 3 0
-1137 5 0
-1138 72 0
-1139 65 0
1135 -80 1138 1137 1136 1139 0
-1145 3 0
-1146 77 0
-1147 7 0
-1148 11 0
-1148 70 0
-1149 67 0
1149 1147 1146 1148 -80 1145 0
-1160 65 0
-1161 15 0
-1162 67 0
-1163 69 0
-1164 8 0
1162 1161 1163 -80 1164 1160 0
-1177 3 0
-1178 17 0
-1179 65 0
-83 1177 1178 1179 0
-1201 5 0
-1202 17 0
-1203 65 0
-85 1201 1202 1203 0
-1225 7 0
-1225 81 0
-1226 19 0
-1226 69 0
67 -1227 0
21 -1227 0
1227 -87 1226 1225 0
-1247 3 0
-1248 85 0
-1249 7 0
-1250 19 0
-1251 67 0
1251 -88 1250 1249 1247 1248 0
-1255 68 0
-1259 70 0
-1265 69 0
-1266 81 0
-1303 91 0
-1304 3 0
-1305 84 0
-1306 17 0
-1307 65 0
-92 1303 1305 1304 1306 1307 0
-1318 84 0
-1319 83 0
-1320 11 0
-1321 68 0
-1322 20 0
-92 1321 1320 1322 1318 1319 0
-1333 13 0
-1333 81 0
21 -1334 0
-1335 69 0
1334 -93 1335 1333 0
-1345 93 0
-1346 5 0
-1347 86 0
-1348 17 0
-1349 65 0
-94 1345 1347 1346 1348 1349 0
-1360 86 0
-1361 85 0
-1362 13 0
-1363 70 0
-1364 22 0
1364 1360 1363 1362 -94 1361 0
-1375 3 0
-1376 5 0
-1377 87 0
-1378 17 0
-1379 65 0
-95 1377 1376 1375 1378 1379 0
-1447 3 0
-1448 33 0
-1449 65 0
-99 1447 1448 1449 0
-1471 5 0
-1472 33 0
-1473 65 0
-101 1471 1472 1473 0
-1495 7 0
-1495 97 0
-1496 35 0
-1496 69 0
-1497 67 0
-1497 37 0
-103 1497 1496 1495 0
-1519 7 0
-1521 67 0
-1524 7 0
-1537 97 0
-1538 33 0
-1539 65 0
-105 1537 1538 1539 0
-1561 97 0
-1562 35 0
-1563 67 0
1563 1562 -107 1561 0
-1573 107 0
-1574 3 0
-1575 100 0
-1576 33 0
-1577 65 0
-108 1573 1575 1574 1576 1577 0
-1578 107 0
-1579 105 0
-1580 99 0
-1581 75 0
-1582 43 0
-108 1581 1582 1578 1579 1580 0
-1588 100 0
-1589 99 0
-1590 11 0
-1591 68 0
-1592 36 0
-108 1591 1592 1588 1590 1589 0
-1603 13 0
-1603 97 0
37 -1604 0
-1605 69 0
1604 1603 1605 -109 0
-1615 109 0
-1616 5 0
-1617 102 0
-1618 33 0
-1619 65 0
-110 1615 1617 1616 1618 1619 0
-1645 3 0
-1646 5 0
-1647 103 0
-1648 33 0
-1649 65 0
-111 1647 1646 1645 1648 1649 0
-1650 3 0
-1651 7 0
-1652 101 0
-1653 77 0
-1654 67 0
-111 1654 1651 1653 1650 1652 0
-1665 33 0
-1666 35 0
-1667 75 0
-1668 71 0
-1669 15 0
-111 1666 1669 1667 1668 1665 0
-1705 17 0
-1706 33 0
-1707 65 0
-113 1705 1706 1707 0
-1729 19 0
-1730 35 0
-1731 67 0
-1731 49 0
-115 1731 1730 1729 0
-1756 17 0
-1757 99 0
-1758 19 0
-1758 98 0
-1759 49 0
-1759 68 0
-1760 81 0
-1760 36 0
-116 1759 1760 1758 1756 1757 0
-1771 97 0
-1772 81 0
-1773 49 0
1773 -117 1771 1772 0
-1793 5 0
-1794 113 0
-1795 98 0
37 -1796 0
-1797 69 0
-1797 50 0
1796 -118 1797 1795 1793 1794 0
-1873 25 0
-1873 97 0
-1874 41 0
-1874 81 0
-1875 49 0
-121 1875 1874 1873 0
-1895 114 0
-1896 113 0
-1897 25 0
-1898 41 0
-1899 50 0
-122 1895 1898 1897 1899 1896 0
-1900 17 0
-1901 105 0
-1902 98 0
-1903 49 0
-1904 81 0
-122 1903 1904 1901 1902 1900 0
-1910 65 0
-1911 57 0
-1912 50 0
-1913 81 0
-1914 26 0
-122 1911 1913 1914 1912 1910 0
-1915 3 0
-1916 115 0
-1917 17 0
-1918 33 0
-1919 65 0
-123 1916 1915 1917 1918 1919 0
-1930 17 0
-1931 105 0
-1932 99 0
-1933 49 0
-1934 81 0
-123 1933 1934 1931 1930 1932 0
-1975 5 0
-1976 117 0
-1977 17 0
-1978 33 0
-1979 65 0
-125 1976 1975 1977 1978 1979 0
-2035 7 0
-2035 121 0
-2036 11 0
-2036 117 0
19 -2037 0
-2037 109 0
35 -2038 0
-2038 93 0
67 -2039 0
-2039 61 0
2035 2038 2036 2039 2037 -127 0
-2040 7 0
-2040 121 0
-2041 13 0
-2041 115 0
-2042 21 0
-2042 107 0
-2043 37 0
-2043 91 0
-2044 69 0
-2044 59 0
2042 2043 2044 2040 2041 -127 0
-2045 11 0
-2045 117 0
-2046 13 0
-2046 115 0
-2047 25 0
-2047 103 0
-2048 87 0
73 -2049 0
-2049 55 0
2046 2048 2049 2045 2047 -127 0
-2050 19 0
-2050 109 0
21 -2051 0
107 -2051 0
-2052 25 0
-2052 103 0
-2053 49 0
-2053 79 0
-2054 81 0
-2054 47 0
2051 2053 2054 2052 2050 -127 0
-2055 35 0
-2055 93 0
37 -2056 0
91 -2056 0
-2057 87 0
-2058 49 0
-2058 79 0
-2059 97 0
-2059 31 0
2056 2057 2055 2059 2058 -127 0
-2060 67 0
-2060 61 0
-2061 69 0
-2061 59 0
-2062 55 0
-2063 81 0
-2063 47 0
-2064 31 0
2060 2061 2063 2062 2064 -127 0
-2079 3 0
-2080 4 0
-2080 125 0
-2081 7 0
-2081 122 0
-2082 11 0
-2082 118 0
-2083 19 0
-2083 110 0
-2084 35 0
-2084 94 0
-2085 67 0
-2085 62 0
2080 2081 2082 2083 2084 2085 -128 2079 0
-2086 5 0
-2087 123 0
-2088 7 0
-2088 122 0
-2089 116 0
-2090 108 0
-2091 37 0
92 -2091 0
-2092 69 0
-2092 60 0
2087 2088 2089 2090 2091 2092 -128 2086 0
-2100 17 0
-2101 111 0
-2102 19 0
-2102 110 0
-2103 21 0
-2103 108 0
-2104 104 0
49 -2105 0
80 -2105 0
-2106 81 0
48 -2106 0
2101 2102 2103 2104 2105 2106 -128 2100 0
-2107 33 0
-2108 95 0
-2109 35 0
-2109 94 0
-2110 37 0
-2110 92 0
-2111 88 0
-2112 49 0
-2112 80 0
-2113 97 0
-2113 32 0
2108 2109 2110 2111 2112 2113 -128 2107 0
-2277 134 0
-2277 153 0
-2278 138 0
-2278 149 0
-2279 146 0
-2279 141 0
-158 2279 2278 2277 0
-2379 130 0
-2380 137 0
-2381 138 0
-170 2381 2380 2379 0
-2427 134 0
-2427 169 0
-2428 138 0
-2428 165 0
-2429 162 0
-2429 141 0
-174 2428 2427 2429 0
-2529 134 0
177 -2529 0
-2530 146 0
-2530 165 0
-2531 162 0
-2531 149 0
2530 -182 2531 2529 0
-2595 138 0
-2596 146 0
-2596 169 0
-2597 162 0
-2597 153 0
-186 2595 2597 2596 0
-2649 177 0
-2650 169 0
-2651 153 0
-189 2649 2650 2651 0
-2799 130 0
-2800 137 0
-2801 193 0
-202 2799 2800 2801 0
-2835 133 0
-2836 137 0
-2837 193 0
-205 2835 2836 2837 0
-2847 134 0
-2848 138 0
-2849 194 0
-2849 141 0
-206 2849 2847 2848 0
-2949 134 0
-2949 209 0
-2950 146 0
-2950 197 0
-2951 194 0
149 -2951 0
2949 -214 2950 2951 0
-3015 138 0
-3016 146 0
-3017 194 0
-218 3016 3015 3017 0
-3086 130 0
-3087 134 0
-3088 138 0
-3089 205 0
-3090 194 0
-222 3088 3090 3087 3089 3086 0
-3219 134 0
-3219 225 0
-3220 162 0
-3220 197 0
-3221 194 0
-3221 165 0
-230 3219 3220 3221 0
-3244 230 0
-3249 229 0
-3250 134 0
-3251 162 0
-3285 138 0
-3285 225 0
-3286 162 0
-3286 201 0
-3287 194 0
-3287 169 0
3285 3286 3287 -234 0
-3309 130 0
-3310 234 0
-3311 137 0
-3312 204 0
-3313 193 0
-236 3310 3312 3311 3309 3313 0
-3339 225 0
-3341 169 0
-3361 133 0
-3362 134 0
-3363 141 0
-3364 202 0
-3365 170 0
-238 3363 3362 3361 3364 3365 0
-3453 146 0
-3453 225 0
-3454 162 0
-3454 209 0
-3455 194 0
-242 3455 3454 3453 0
-3609 153 0
-3609 225 0
-3610 169 0
-3611 177 0
-249 3609 3610 3611 0
-3741 134 0
-3741 249 0
-3742 138 0
-3742 245 0
-3743 146 0
-3743 237 0
-3744 162 0
-3744 221 0
-3745 194 0
-3745 189 0
3744 3743 3742 3745 -254 3741 0
-3746 134 0
-3746 249 0
141 -3747 0
-3747 242 0
149 -3748 0
-3748 234 0
-3749 165 0
-3749 218 0
-3750 197 0
-3750 186 0
3749 3748 3746 3747 -254 3750 0
-3751 138 0
-3751 245 0
-3752 141 0
-3752 242 0
-3753 153 0
-3753 230 0
-3754 169 0
-3754 214 0
-3755 201 0
182 -3755 0
3754 3753 3755 3752 -254 3751 0
-3756 146 0
-3756 237 0
-3757 149 0
-3757 234 0
153 -3758 0
230 -3758 0
-3759 206 0
-3760 209 0
-3760 174 0
3758 3757 3759 3756 3760 -254 0
-3761 162 0
-3761 221 0
-3762 165 0
-3762 218 0
169 -3763 0
214 -3763 0
-3764 177 0
-3764 206 0
-3765 225 0
-3765 158 0
3763 3765 3761 3762 3764 -254 0
-3766 189 0
-3767 186 0
-3768 201 0
182 -3768 0
-3769 174 0
-3770 225 0
-3770 158 0
3766 3770 3768 3769 3767 -254 0
-3822 133 0
-3823 134 0
-3824 250 0
-3825 244 0
-3826 236 0
-3827 165 0
-3828 197 0
3824 3823 3825 3826 3827 3828 -256 3822 0
-3829 248 0
-3830 138 0
-3831 246 0
-3832 141 0
-3833 153 0
-3833 232 0
-3834 169 0
-3835 184 0
3830 3831 3832 3833 3834 3835 -256 3829 0
-3836 240 0
-3837 146 0
-3838 238 0
-3839 236 0
-3840 232 0
-3841 208 0
-3842 209 0
3838 3837 3839 3840 3841 3842 -256 3836 0
-3843 224 0
-3844 162 0
-3845 222 0
-3846 220 0
-3847 169 0
-3848 208 0
-3849 225 0
3845 3844 3846 3847 3848 3849 -256 3843 0
-3852 190 0
-3869 258 0
-3870 259 0
-3871 265 0
-268 3869 3870 3871 0
-3905 260 0
-3906 262 0
267 -3906 0
-3907 263 0
3906 3907 -272 3905 0
-3917 258 0
-3918 259 0
-3919 260 0
-276 3919 3918 3917 0
-3929 258 0
-3930 274 0
-3931 262 0
-278 3930 3931 3929 0
-3965 258 0
-3966 265 0
-3967 266 0
-282 3967 3966 3965 0
-3977 259 0
-3978 265 0
-3979 267 0
-283 3979 3978 3977 0
-3989 260 0
281 -3989 0
-3990 266 0
-3990 275 0
-3991 274 0
-3991 267 0
3991 3990 3989 -284 0
-4037 258 0
-4038 259 0
-4039 284 0
-4040 265 0
-4041 272 0
4041 -288 4039 4037 4040 4038 0
-4047 259 0
-4048 260 0
285 -4048 0
-4049 263 0
-4049 282 0
-4050 267 0
-4050 278 0
-4051 275 0
-4051 270 0
-288 4050 4048 4051 4049 4047 0
-4052 284 0
-4053 262 0
-4053 283 0
-4054 282 0
-4055 276 0
-4056 268 0
-288 4054 4055 4052 4053 4056 0
-4057 265 0
-4058 279 0
-4059 267 0
-4059 278 0
-4060 276 0
-4061 264 0
-288 4059 4061 4060 4058 4057 0
-4067 258 0
-4068 259 0
-4069 260 0
-292 4069 4068 4067 0
-4094 259 0
-4095 263 0
-4096 291 0
-295 4096 4095 4094 0
-4115 258 0
-4116 265 0
-4117 266 0
-298 4117 4116 4115 0
-4127 259 0
-4128 265 0
-4129 267 0
-299 4129 4128 4127 0
-4139 260 0
-4139 297 0
-4140 266 0
-4140 291 0
-4141 290 0
-4141 267 0
4140 4141 4139 -300 0
-4192 258 0
-4193 260 0
-4193 301 0
-4194 299 0
-4195 266 0
295 -4195 0
-4196 290 0
-4196 271 0
-304 4195 4196 4193 4194 4192 0
-4197 259 0
-4198 260 0
-4199 298 0
-4200 294 0
-4201 270 0
4199 -304 4200 4198 4201 4197 0
-4203 299 0
-4204 298 0
-4241 260 0
-4241 305 0
-4242 274 0
-4242 291 0
-4243 290 0
-4243 275 0
-308 4242 4241 4243 0
-4331 266 0
-4332 274 0
-4332 297 0
-4333 290 0
-4333 281 0
-314 4333 4331 4332 0
-4355 258 0
-4356 259 0
-4357 265 0
-4358 300 0
-4359 284 0
-316 4359 4358 4357 4355 4356 0
-4365 259 0
-4366 260 0
-4366 313 0
-4367 267 0
-4368 298 0
-4369 291 0
-4369 282 0
-316 4368 4366 4367 4369 4365 0
-4427 259 0
-4428 315 0
-4429 265 0
-4430 303 0
287 -4431 0
4431 -319 4430 4428 4427 4429 0
-4535 258 0
-4536 265 0
-4537 321 0
-330 4535 4536 4537 0
-4547 259 0
-4548 265 0
-4549 321 0
-331 4547 4548 4549 0
-4612 258 0
-4613 260 0
-4614 331 0
-4615 266 0
-4615 327 0
-4616 322 0
-4616 271 0
-336 4616 4613 4615 4612 4614 0
-4617 259 0
-4618 260 0
-4619 330 0
-4620 267 0
-4621 270 0
-336 4621 4618 4620 4617 4619 0
-4628 266 0
-4629 267 0
-4649 259 0
-4650 323 0
-4651 321 0
-339 4650 4649 4651 0
-4661 260 0
-4662 274 0
-4662 323 0
-4663 275 0
-340 4663 4661 4662 0
-4714 258 0
-4715 260 0
-4716 339 0
-4717 327 0
-4718 322 0
-344 4716 4715 4718 4717 4714 0
-4736 323 0
-4751 266 0
-4752 329 0
-4753 281 0
-346 4752 4751 4753 0
-4775 258 0
-4776 259 0
-4777 265 0
-4778 332 0
-4779 321 0
-348 4778 4776 4777 4775 4779 0
-4780 258 0
-4781 260 0
-4782 339 0
-4783 331 0
-4784 322 0
-348 4782 4781 4784 4783 4780 0
-4787 267 0
-4791 266 0
-4792 267 0
-4817 258 0
-4818 346 0
-4819 265 0
-4820 334 0
-4821 321 0
-350 4820 4818 4819 4817 4821 0
-4862 265 0
-4863 267 0
-4864 339 0
-4865 327 0
-4866 279 0
-351 4866 4863 4865 4864 4862 0
-4907 258 0
-4908 322 0
-4909 321 0
-354 4908 4907 4909 0
-4919 259 0
-4920 323 0
-4921 321 0
-355 4920 4919 4921 0
-4931 260 0
-4932 290 0
-4932 323 0
-4933 291 0
-356 4933 4931 4932 0
-4984 258 0
-4985 260 0
-4985 357 0
-4986 355 0
-4987 327 0
-4988 322 0
4988 -360 4985 4986 4987 4984 0
-4995 355 0
-4996 354 0
-5004 321 0
-5005 322 0
-5006 294 0
-5007 292 0
-5008 264 0
5005 -360 5007 5006 5008 5004 0
-5045 258 0
-5046 259 0
-5047 265 0
-5048 332 0
-5049 321 0
-364 5048 5046 5047 5045 5049 0
-5050 258 0
-5051 260 0
-5052 266 0
-5052 355 0
-5053 331 0
-5054 299 0
-364 5052 5051 5054 5053 5050 0
-5057 267 0
-5061 266 0
-5062 267 0
-5114 298 0
-5115 294 0
-5116 270 0
-5201 275 0
-5201 353 0
-5202 291 0
-5203 323 0
-371 5202 5201 5203 0
-5218 258 0
-5219 260 0
-5220 355 0
-5221 339 0
-5222 322 0
-372 5222 5219 5221 5220 5218 0
-5417 260 0
377 -5417 0
-5418 266 0
-5418 371 0
-5419 274 0
-5419 363 0
-5420 290 0
-5420 347 0
-5421 322 0
-5421 315 0
5418 5421 5420 5417 5419 -380 0
-5422 260 0
377 -5422 0
-5423 267 0
-5423 370 0
-5424 275 0
-5424 362 0
-5425 291 0
-5425 346 0
-5426 323 0
-5426 314 0
5423 5422 5425 5426 5424 -380 0
-5427 266 0
-5427 371 0
-5428 267 0
-5428 370 0
-5429 356 0
-5430 297 0
-5430 340 0
329 -5431 0
-5431 308 0
5428 5429 5431 5430 5427 -380 0
-5432 274 0
-5432 363 0
-5433 275 0
-5433 362 0
-5434 281 0
-5434 356 0
-5435 332 0
337 -5436 0
-5436 300 0
5436 5434 5435 5433 5432 -380 0
-5437 347 0
-5438 291 0
-5438 346 0
-5439 297 0
340 -5439 0
-5440 332 0
353 -5441 0
-5441 284 0
5439 5441 5438 5437 5440 -380 0
-5442 315 0
-5443 323 0
-5443 314 0
329 -5444 0
-5444 308 0
300 -5445 0
-5446 284 0
5445 5446 5444 5442 5443 -380 0
-5551 382 0
-5552 260 0
-5553 263 0
-5554 267 0
-5555 366 0
-5556 291 0
-5556 350 0
-5557 323 0
5553 5552 5554 5555 5556 5557 -384 5551 0
-5565 376 0
-5566 266 0
-5567 267 0
-5568 372 0
-5569 360 0
-5570 297 0
-5570 344 0
-5571 312 0
5567 5566 5568 5569 5570 5571 -384 5565 0
-5572 368 0
-5573 274 0
-5573 367 0
-5574 275 0
-5574 366 0
-5575 277 0
-5575 364 0
-5576 360 0
-5577 336 0
-5578 337 0
-5578 304 0
5574 5573 5575 5576 5577 5578 -384 5572 0
-5579 352 0
-5580 290 0
-5580 351 0
-5581 291 0
-5581 350 0
-5582 348 0
-5583 297 0
-5583 344 0
-5584 336 0
-5585 288 0
5580 5581 5582 5583 5584 5585 -384 5579 0
-5586 321 0
-5587 322 0
-5587 319 0
-5588 323 0
-5588 318 0
-5589 316 0
-5590 329 0
-5590 312 0
337 -5591 0
-5591 304 0
353 -5592 0
-5592 288 0
5587 5588 5589 5590 5591 5592 -384 5586 0
-249 -264 0
-246 -267 0
-242 -271 0
-279 -234 0
-229 -284 0
-225 -288 0
-299 -214 0
-209 -304 0
-312 -201 0
-314 -199 0
-316 -197 0
-190 -323 0
-186 -327 0
-184 -329 0
-344 -169 0
-348 -165 0
-351 -162 0
-360 -153 0
-367 -146 0
-370 -143 0
-136 -377 0
-245 -267 -2 0
-221 -291 -2 0
-315 -197 -2 0
-371 -141 -2 0
-250 -7 0
-8 -249 0
-337 -8 -169 0
-8 -353 -153 0
-8 -377 0
-357 -146 -11 0
-244 -13 0
-326 -169 -19 0
-333 -162 -19 0
-366 -19 0
-237 -20 0
-297 -20 -197 0
-329 -165 -20 0
-141 -353 -20 0
-290 -21 -203 0
-140 -353 -21 0
-291 -22 -201 0
-323 -22 -169 0
-363 -22 0
-232 -25 0
-290 -25 -199 0
-162 -327 -25 0
-25 -360 0
-26 -323 -165 0
-32 -225 0
-32 -353 0
-270 -209 -35 0
-278 -35 -201 0
-326 -35 -153 0
-333 -146 -35 0
-350 -35 0
-221 -36 0
-281 -36 -197 0
-329 -149 -36 0
-337 -141 -36 0
-220 -37 0
-274 -203 -37 0
-276 -37 -201 0
-281 -37 -196 0
-337 -140 -37 0
-209 -267 -38 0
-275 -38 -201 0
-323 -153 -38 0
-347 -38 0
-41 -209 -264 0
-41 -327 -146 0
-43 -214 0
-48 -209 0
-337 -48 0
-208 -49 0
-262 -49 -203 0
-264 -49 -201 0
-266 -199 -49 0
-136 -329 -49 0
-336 -49 0
-263 -50 -201 0
-197 -267 -50 0
-141 -323 -50 0
-52 -333 0
-54 -203 0
-56 -201 0
-329 -56 0
-326 -59 0
-60 -197 0
-61 -196 0
-322 -61 -131 0
-278 -67 -169 0
-162 -67 -285 0
-301 -146 -67 0
-313 -134 -67 0
-318 -67 0
-189 -68 0
-277 -68 -169 0
-165 -68 -281 0
-297 -68 -149 0
-305 -141 -68 0
-314 -69 -131 0
-316 -69 0
-177 -70 -267 0
-275 -70 -169 0
-291 -70 -153 0
-315 -70 0
-279 -162 -73 0
-146 -73 -295 0
-75 -182 0
-77 -308 0
-81 -169 -264 0
-162 -81 -271 0
-290 -143 -81 0
-136 -297 -81 0
-81 -304 0
-267 -82 -165 0
-291 -141 -82 0
-303 -82 0
-84 -169 -261 0
-86 -297 -131 0
-88 -169 0
-297 -88 0
-162 -91 -261 0
-294 -91 0
-92 -165 0
-291 -94 0
-97 -153 -264 0
-97 -146 -271 0
-97 -143 -274 0
-97 -136 -281 0
-97 -288 0
-98 -287 0
-100 -153 -261 0
-104 -153 0
-104 -281 0
-278 -107 0
-108 -149 0
-110 -275 0
-111 -274 0
-114 -143 0
-115 -270 0
-116 -141 0
-140 -117 0
-118 -267 0
-121 -136 0
-121 -264 0
-122 -263 0
-3 0
-5 0
-17 0
-33 0
-65 0
2 0
127 0
-249 -263 0
-275 -237 0
-189 -323 0
-347 -165 0
-363 -149 0
-248 0
-245 -260 0
-242 -263 0
-275 -230 0
-291 -214 0
-308 -197 0
-323 -182 0
-340 -165 0
-356 -149 0
-371 -134 0
-376 0
-117 118 0
-118 117 0
-115 116 0
-116 115 0
-103 104 0
-104 103 0
-97 98 0
-98 97 0
-87 88 0
87 -88 0
82 -81 0
70 -69 0
-70 69 0
68 -67 0
67 -68 0
-55 56 0
50 -49 0
-50 49 0
38 -37 0
36 -35 0
-36 35 0
22 -21 0
20 -19 0
-20 19 0
-7 8 0
-8 7 0
-130 0
-133 0
-137 0
-193 0
131 0
254 0
-121 -262 0
-266 -117 0
-274 -109 0
-102 -281 0
-290 -93 0
-346 -37 0
-362 -21 0
-370 -13 0
-382 0
-109 -260 0
-103 -266 0
-102 -267 0
-290 -79 0
-69 -300 0
-322 -47 0
-332 -37 0
-13 -356 0
-362 -7 0
-368 0
-93 -260 0
-262 -91 0
-266 -87 0
-86 -267 0
-81 -272 0
-274 -79 0
-69 -284 0
-31 -322 0
-24 -329 0
-332 -21 0
-334 -19 0
-13 -340 0
-346 -7 0
-352 0
-206 208 0
-208 206 0
203 -201 0
199 -197 0
196 -194 0
143 -141 0
-138 140 0
-134 136 0
-258 0
-259 0
-265 0
-321 0
261 0
380 0
-138 -115 0
-107 -146 0
-186 -67 0
-59 -194 0
-52 -201 0
-218 -35 0
-234 -19 0
-242 -11 0
-4 -249 0
-134 -107 0
-138 -103 0
-100 -141 0
-162 -79 0
-72 -169 0
-174 -67 0
-47 -194 0
-204 -37 0
-206 -35 0
-11 -230 0
-7 -234 0
-240 0
-134 -91 0
-138 -87 0
-84 -141 0
-79 -146 0
-72 -153 0
-158 -67 0
-31 -194 0
-206 -19 0
-11 -214 0
-218 -7 0
-224 0
-332 336 0
-336 332 0
333 -329 0
327 -323 0
-327 323 0
-322 326 0
271 -267 0
-271 267 0
270 -266 0
-270 266 0
-260 264 0
-264 260 0
