p cnf 5592 932
128 0
256 0
384 0
-421 3 0
-422 5 0
-423 7 0
-15 423 422 421 0
-553 7 0
-553 25 0
-554 11 0
-554 21 0
-555 19 0
-31 553 555 554 0
7 -805 0
-805 49 0
-806 19 0
-806 37 0
-807 35 0
-807 21 0
-55 805 807 806 0
-834 50 0
-871 11 0
-871 49 0
-872 19 0
41 -872 0
-873 35 0
-873 25 0
873 872 -59 871 0
-883 59 0
-884 3 0
-885 52 0
-886 17 0
-887 33 0
-60 885 884 883 886 887 0
-955 3 0
-956 5 0
-957 55 0
-958 17 0
-959 33 0
-63 957 956 955 958 959 0
-1039 3 0
-1040 5 0
-1041 65 0
-71 1039 1040 1041 0
-1075 3 0
-1076 67 0
-1077 65 0
-75 1076 1075 1077 0
-1123 7 0
-1124 69 0
-1125 67 0
-79 1123 1124 1125 0
-1140 79 0
-1141 4 0
-1142 75 0
-1143 71 0
-1144 15 0
1144 -80 1141 1142 1143 1140 0
-1148 70 0
7 -1225 0
-1226 19 0
-1227 21 0
1225 1226 -87 1227 0
11 -1291 0
-1292 19 0
-1293 25 0
1291 -91 1292 1293 0
-1375 3 0
-1376 5 0
-1377 87 0
-1378 17 0
-1379 65 0
-95 1377 1376 1375 1378 1379 0
-1495 7 0
-1495 97 0
-1496 35 0
-1497 67 0
-103 1496 1497 1495 0
-1521 67 0
11 -1561 0
-1561 97 0
-1562 35 0
-1563 67 0
-107 1563 1562 1561 0
-1573 107 0
-1574 3 0
-1575 100 0
-1576 33 0
-1577 65 0
-108 1575 1574 1573 1576 1577 0
-1593 33 0
-1594 75 0
-1595 35 0
-1596 68 0
-1597 97 0
-1597 12 0
-108 1596 1593 1595 1597 1594 0
-1603 13 0
-1604 37 0
-1605 69 0
-109 1604 1603 1605 0
-1645 3 0
-1646 5 0
-1647 103 0
-1648 33 0
-1649 65 0
-111 1647 1646 1645 1648 1649 0
-1665 33 0
-1666 77 0
-1667 75 0
-1668 71 0
-1669 15 0
-111 1667 1665 1669 1668 1666 0
-1729 19 0
-1729 97 0
-1730 35 0
-1731 67 0
-1731 49 0
-115 1731 1730 1729 0
-1771 21 0
-1771 97 0
-1772 37 0
-1773 69 0
-1773 49 0
-117 1772 1771 1773 0
-1915 3 0
-1916 115 0
-1917 17 0
-1918 33 0
-1919 65 0
-123 1916 1915 1917 1918 1919 0
-2035 121 0
11 -2036 0
-2036 117 0
-2037 109 0
-2038 93 0
-2039 67 0
2037 2036 -127 2035 2039 2038 0
-2040 7 0
-2040 121 0
-2041 115 0
-2042 21 0
-2042 107 0
-2043 37 0
-2043 91 0
69 -2044 0
-2044 59 0
2040 2043 -127 2044 2042 2041 0
-2045 117 0
-2046 115 0
-2047 103 0
87 -2048 0
-2049 55 0
2048 2047 -127 2049 2045 2046 0
-2050 19 0
-2050 109 0
-2051 21 0
-2051 107 0
-2052 103 0
-2053 49 0
-2053 79 0
81 -2054 0
-2054 47 0
2050 2051 -127 2054 2052 2053 0
-2055 35 0
-2055 93 0
-2056 91 0
-2057 87 0
-2058 49 0
-2058 79 0
-2059 97 0
-2059 31 0
2057 2056 -127 2059 2055 2058 0
61 -2060 0
-2061 59 0
-2062 55 0
-2063 47 0
-2064 31 0
2060 2061 -127 2064 2063 2062 0
-2086 5 0
-2087 123 0
7 -2088 0
-2088 122 0
-2089 116 0
-2090 21 0
-2090 108 0
-2091 37 0
92 -2091 0
-2092 69 0
-2092 60 0
2087 2088 2089 2090 2091 2092 -128 2086 0
-2096 116 0
-2099 56 0
-2100 17 0
-2101 111 0
-2102 19 0
-2102 110 0
-2103 108 0
-2104 104 0
-2105 49 0
80 -2105 0
81 -2106 0
48 -2106 0
2101 2102 2103 2104 2105 2106 -128 2100 0
-2107 33 0
-2108 95 0
-2109 35 0
-2109 94 0
-2110 37 0
-2110 92 0
-2111 88 0
-2112 49 0
-2113 32 0
2109 2108 2110 2111 2112 2113 -128 2107 0
-2114 65 0
-2115 63 0
-2116 67 0
-2117 69 0
-2117 60 0
-2118 56 0
81 -2119 0
48 -2119 0
-2120 97 0
2115 2116 2117 2118 2119 2120 -128 2114 0
-2145 130 0
-2146 133 0
-2147 137 0
-142 2145 2146 2147 0
-2277 134 0
-2277 153 0
-2278 138 0
-2278 149 0
-2279 146 0
-2279 141 0
-158 2279 2278 2277 0
-2343 130 0
-2344 133 0
-2345 134 0
-166 2345 2344 2343 0
-2427 134 0
-2427 169 0
-2428 138 0
-2428 165 0
-2429 162 0
-2429 141 0
-174 2427 2428 2429 0
-2529 134 0
-2530 146 0
-2530 165 0
-2531 162 0
-2531 149 0
-182 2530 2529 2531 0
-2595 138 0
146 -2596 0
169 -2596 0
-2597 162 0
-2597 153 0
2596 2597 -186 2595 0
-2763 130 0
-2764 133 0
-2765 193 0
-198 2763 2764 2765 0
-2787 197 0
-2788 134 0
-2789 194 0
-200 2788 2787 2789 0
-2823 132 0
-2823 201 0
-2824 138 0
-2825 194 0
-204 2823 2824 2825 0
-2835 133 0
-2836 137 0
-2837 193 0
-205 2835 2836 2837 0
-2876 130 0
-2877 205 0
-2878 134 0
-2879 138 0
-2880 194 0
-208 2878 2876 2877 2879 2880 0
-2901 130 0
-2902 194 0
-2903 193 0
-210 2902 2901 2903 0
-2973 130 0
-2974 214 0
-2975 133 0
-2976 200 0
-2977 193 0
-216 2976 2973 2975 2974 2977 0
-2981 146 0
-2988 133 0
-2989 134 0
-2990 210 0
-2991 196 0
-2992 197 0
148 -2992 0
-216 2989 2988 2990 2991 2992 0
-3015 138 0
-3016 146 0
-3017 194 0
-218 3016 3015 3017 0
-3081 130 0
-3082 133 0
-3083 137 0
-3084 206 0
-3085 193 0
-222 3084 3082 3083 3081 3085 0
-3171 130 0
-3172 194 0
-3173 193 0
-226 3172 3171 3173 0
-3207 133 0
-3208 197 0
-3209 193 0
-229 3208 3207 3209 0
-3219 134 0
-3219 225 0
-3220 162 0
-3220 197 0
-3221 194 0
-230 3219 3220 3221 0
-3243 130 0
-3244 230 0
-3245 133 0
-3246 200 0
-3247 193 0
-232 3246 3243 3245 3244 3247 0
-3253 230 0
-3254 132 0
-3254 229 0
-3255 226 0
-3256 198 0
-3257 166 0
-232 3253 3254 3255 3256 3257 0
-3259 134 0
-3285 138 0
-3285 225 0
-3286 162 0
-3286 201 0
-3287 194 0
-234 3286 3285 3287 0
-3309 130 0
-3310 234 0
-3311 137 0
-3312 204 0
-3313 193 0
-236 3312 3309 3311 3310 3313 0
-3324 137 0
-3325 138 0
-3326 226 0
-3327 196 0
164 -3328 0
-236 3328 3324 3326 3327 3325 0
-3339 225 0
-3340 201 0
-3341 197 0
-237 3340 3339 3341 0
-3351 130 0
-3352 133 0
-3353 137 0
-3354 206 0
-3355 193 0
-238 3354 3352 3353 3351 3355 0
-3376 193 0
-3377 194 0
-3378 197 0
-3379 201 0
-3380 142 0
-238 3379 3376 3377 3378 3380 0
-3381 237 0
-3382 133 0
-3383 137 0
-3384 207 0
-3385 193 0
-239 3384 3382 3383 3381 3385 0
-3453 146 0
-3453 225 0
-3454 162 0
-3454 209 0
-3455 194 0
-242 3453 3454 3455 0
-3534 230 0
-3535 229 0
-3536 226 0
-3537 198 0
-3538 166 0
-246 3538 3535 3536 3537 3534 0
134 -3741 0
-3741 249 0
-3742 138 0
-3742 245 0
-3743 146 0
-3743 237 0
-3744 162 0
-3744 221 0
-3745 194 0
3741 3744 -254 3742 3743 3745 0
-3746 134 0
-3746 249 0
-3747 141 0
-3747 242 0
-3748 149 0
-3748 234 0
-3749 165 0
-3749 218 0
-3750 197 0
-3750 186 0
3749 3748 -254 3746 3750 3747 0
-3751 138 0
-3752 242 0
-3753 230 0
-3754 214 0
-3755 201 0
-3755 182 0
3753 3751 -254 3755 3754 3752 0
-3756 237 0
-3757 234 0
-3758 230 0
-3759 206 0
-3760 209 0
-3760 174 0
3758 3757 -254 3756 3760 3759 0
-3761 221 0
-3762 218 0
-3763 214 0
-3764 206 0
-3765 225 0
-3765 158 0
3763 3764 -254 3765 3762 3761 0
-3766 194 0
-3767 197 0
-3767 186 0
201 -3768 0
-3768 182 0
-3769 209 0
-3769 174 0
-3770 225 0
-3770 158 0
3766 3769 -254 3768 3767 3770 0
-3808 255 0
-3809 132 0
-3810 134 0
-3811 138 0
-3812 146 0
-3813 223 0
-3814 194 0
3809 3810 3811 3812 3813 3814 -256 3808 0
-3829 248 0
-3830 138 0
-3831 246 0
-3832 141 0
-3833 232 0
-3834 216 0
-3835 184 0
3830 3831 3832 3833 3834 3835 -256 3829 0
-3836 240 0
-3837 146 0
-3837 239 0
-3838 238 0
-3839 149 0
-3839 236 0
-3840 153 0
-3840 232 0
-3841 208 0
-3842 176 0
3837 3838 3839 3840 3841 3842 -256 3836 0
-3843 224 0
-3844 162 0
-3845 222 0
-3846 220 0
-3847 169 0
-3847 216 0
-3848 208 0
-3849 160 0
3845 3844 3846 3847 3848 3849 -256 3843 0
-3869 258 0
-3870 259 0
-3871 260 0
-268 3871 3870 3869 0
-3917 258 0
-3918 259 0
-3919 260 0
-276 3919 3918 3917 0
-3953 260 0
-3954 262 0
274 -3955 0
263 -3955 0
-280 3955 3953 3954 0
-3989 260 0
-3990 266 0
-3990 275 0
274 -3991 0
-3991 267 0
3991 -284 3989 3990 0
-4037 258 0
-4038 259 0
-4039 284 0
280 -4040 0
-4041 272 0
4040 -288 4038 4037 4041 4039 0
-4052 284 0
-4053 262 0
263 -4054 0
-4055 276 0
-4056 268 0
-288 4056 4052 4055 4053 4054 0
-4139 260 0
-4140 266 0
-4140 291 0
-4141 267 0
-300 4141 4139 4140 0
-4241 260 0
-4242 274 0
-4243 290 0
-4243 275 0
4242 4243 4241 -308 0
-4250 290 0
-4251 291 0
305 -4252 0
-4252 260 0
4251 4250 -308 4252 0
-4487 258 0
-4488 259 0
-4489 321 0
-324 4487 4488 4489 0
-4523 260 0
-4524 262 0
-4524 323 0
-4525 322 0
-328 4523 4525 4524 0
-4535 258 0
-4536 322 0
-4537 321 0
-330 4536 4535 4537 0
-4547 259 0
-4548 323 0
-4549 321 0
-331 4548 4547 4549 0
-4561 322 0
-4562 260 0
-4563 322 0
-4564 323 0
-332 4564 4563 4562 0
-4607 258 0
-4608 259 0
-4609 332 0
-4610 328 0
-4611 321 0
-336 4609 4608 4607 4610 4611 0
-4637 258 0
-4638 322 0
-4639 321 0
-338 4638 4637 4639 0
-4661 260 0
-4661 337 0
-4662 274 0
-4662 323 0
-4663 322 0
-340 4662 4663 4661 0
-4719 259 0
-4720 260 0
-4720 341 0
-4721 338 0
-4722 326 0
-4723 323 0
-4723 278 0
-344 4723 4719 4722 4720 4721 0
-4739 337 0
-4740 329 0
-4741 321 0
-345 4740 4739 4741 0
-4795 332 0
-4796 331 0
-4797 330 0
-4798 324 0
-4799 268 0
-348 4795 4796 4799 4798 4797 0
-4858 345 0
-4859 339 0
-4984 258 0
-4985 260 0
-4986 262 0
-4987 327 0
-4988 322 0
-360 4986 4984 4985 4988 4987 0
-4989 259 0
-4990 357 0
-4991 354 0
-4992 326 0
-4993 323 0
-360 4991 4989 4990 4993 4992 0
-5065 332 0
-5066 331 0
-5067 330 0
-5068 324 0
-5069 353 0
-5069 268 0
-364 5066 5067 5069 5068 5065 0
-5285 259 0
-5286 371 0
-5287 359 0
-5288 343 0
-5289 321 0
-375 5288 5285 5286 5287 5289 0
-5417 260 0
-5417 377 0
-5418 266 0
-5418 371 0
-5419 274 0
-5419 363 0
-5420 290 0
-5420 347 0
-5421 322 0
-5421 315 0
5419 5420 -380 5418 5421 5417 0
-5422 260 0
-5422 377 0
267 -5423 0
275 -5424 0
-5424 362 0
-5425 346 0
-5426 314 0
5423 5424 -380 5426 5422 5425 0
-5432 363 0
-5433 275 0
-5433 362 0
-5434 281 0
-5434 356 0
-5435 332 0
-5436 337 0
-5436 300 0
5432 5434 -380 5433 5436 5435 0
-5437 347 0
-5438 346 0
-5439 340 0
-5440 332 0
353 -5441 0
-5441 284 0
5437 5438 -380 5441 5440 5439 0
-5442 322 0
-5442 315 0
-5443 323 0
-5443 314 0
329 -5444 0
308 -5444 0
-5445 337 0
-5445 300 0
-5446 284 0
5444 5446 -380 5445 5443 5442 0
-5544 383 0
-5545 260 0
-5546 262 0
-5547 266 0
-5547 375 0
-5548 367 0
-5549 351 0
-5550 322 0
5545 5546 5547 5548 5549 5550 -384 5544 0
-5571 329 0
-5572 368 0
-5573 367 0
-5574 275 0
277 -5575 0
-5575 364 0
-5576 360 0
-5577 336 0
-5578 304 0
5574 5573 5575 5576 5577 5578 -384 5572 0
-5579 352 0
-5580 351 0
-5581 291 0
-5582 348 0
-5583 344 0
-5584 336 0
-5585 288 0
5581 5580 5582 5583 5584 5585 -384 5579 0
-5586 321 0
-5587 322 0
-5588 323 0
-5589 325 0
-5589 316 0
-5590 329 0
-5591 304 0
353 -5592 0
288 -5592 0
5588 5587 5589 5590 5591 5592 -384 5586 0
-239 -274 0
-277 -236 0
-232 -281 0
-225 -288 0
-223 -290 0
-314 -199 0
-316 -197 0
-327 -186 0
-184 -329 0
-176 -337 0
-166 -347 0
-351 -162 0
-160 -353 0
-367 -146 0
-375 -138 0
-305 -207 -2 0
-315 -197 -2 0
-347 -165 -2 0
-363 -149 -2 0
-141 -371 -2 0
-249 -8 0
-377 -8 0
-341 -162 -11 0
-357 -11 -146 0
-12 -245 0
-15 -290 -209 0
-238 -19 0
-326 -169 -19 0
-166 -19 -329 0
-237 -20 0
-165 -20 -329 0
-141 -353 -20 0
-236 -21 0
-331 -21 -162 0
-21 -140 -353 0
-21 -364 0
-363 -22 0
-232 -25 0
-225 -25 -264 0
-25 -360 0
-31 -354 0
-32 -225 0
-32 -353 0
-221 -36 0
-149 -36 -329 0
-220 -37 0
-37 -203 -274 0
-331 -146 -37 0
-140 -337 -37 0
-339 -138 -37 0
-209 -38 -267 0
-153 -323 -38 0
-347 -38 0
-216 -41 0
-209 -41 -264 0
-209 -48 0
-337 -48 0
-208 -49 0
-262 -203 -49 0
-201 -49 -264 0
-266 -49 -199 0
-322 -143 -49 0
-325 -140 -49 0
-327 -138 -49 0
-49 -329 -136 0
-336 -49 0
-207 -50 0
-50 -201 -263 0
-50 -267 -197 0
-330 -55 0
-56 -201 0
-56 -329 0
-326 -59 0
-196 -61 0
-305 -141 -68 0
-275 -169 -70 0
-315 -70 0
-77 -308 0
-176 -81 0
-169 -81 -264 0
-290 -143 -81 0
-304 -81 0
-291 -141 -82 0
-169 -88 0
-165 -92 0
-93 -164 0
-94 -291 0
-153 -97 -264 0
-143 -97 -274 0
-97 -288 0
-153 -104 0
-278 -107 0
-108 -149 0
-108 -277 0
-109 -148 0
-109 -274 -131 0
-110 -275 0
-111 -146 0
-141 -116 0
-140 -117 0
-266 -117 -131 0
-118 -267 0
-121 -136 0
-121 -262 -131 0
-121 -264 0
-122 -263 0
-3 0
-5 0
-17 0
-33 0
-65 0
2 0
127 0
-255 0
-245 -267 0
-237 -275 0
-291 -221 0
-383 0
-248 0
-230 -275 0
-197 -308 0
-323 -182 0
-340 -165 0
-343 -162 0
-356 -149 0
-359 -146 0
-371 -134 0
-117 118 0
116 -115 0
-116 115 0
-103 104 0
-104 103 0
88 -87 0
-88 87 0
82 -81 0
70 -69 0
-70 69 0
68 -67 0
-68 67 0
-55 56 0
-56 55 0
-49 50 0
-50 49 0
38 -37 0
36 -35 0
22 -21 0
20 -19 0
-20 19 0
8 -7 0
-130 0
-133 0
-137 0
-193 0
131 0
254 0
-314 -69 0
-322 -61 0
-346 -37 0
-21 -362 0
-109 -260 0
-107 -262 0
-290 -79 0
-300 -69 0
-322 -47 0
-332 -37 0
-13 -356 0
-362 -7 0
-368 0
-93 -260 0
-91 -262 0
-272 -81 0
-79 -274 0
-284 -69 0
-31 -322 0
-328 -25 0
-332 -21 0
-346 -7 0
-352 0
-206 208 0
-208 206 0
203 -201 0
199 -197 0
-199 197 0
196 -194 0
-196 194 0
143 -141 0
-138 140 0
-140 138 0
136 -134 0
-258 0
-259 0
-321 0
380 0
-115 -138 0
-107 -146 0
-162 -91 0
-186 -67 0
-59 -194 0
-52 -201 0
-204 -49 0
-218 -35 0
-234 -19 0
-242 -11 0
-249 -4 0
-132 -117 0
-115 -134 0
-146 -103 0
-162 -87 0
-182 -67 0
-55 -194 0
-200 -49 0
-214 -35 0
-230 -19 0
-242 -7 0
-245 -4 0
-109 -132 0
-107 -134 0
-138 -103 0
-100 -141 0
-162 -79 0
-174 -67 0
-47 -194 0
-200 -41 0
-204 -37 0
-206 -35 0
-230 -11 0
-234 -7 0
-237 -4 0
-240 0
-91 -134 0
-138 -87 0
-79 -146 0
-158 -67 0
-31 -194 0
-200 -25 0
-206 -19 0
-214 -11 0
-218 -7 0
-221 -4 0
-224 0
-323 327 0
-322 326 0
-326 322 0
264 -260 0
