p cnf 5592 231
128 0
256 0
-421 3 0
-422 5 0
-423 7 0
-15 423 422 421 0
-740 33 0
-741 15 0
-742 14 0
-743 12 0
-744 8 0
-48 741 740 742 743 744 0
-1160 65 0
-1161 15 0
-1162 14 0
-1163 12 0
-1164 8 0
-80 1161 1160 1162 1163 1164 0
-1645 3 0
-1646 5 0
-1647 103 0
-1648 33 0
-1649 65 0
-111 1647 1646 1645 1648 1649 0
-2040 121 0
-2041 115 0
-2042 107 0
-2043 91 0
-2044 59 0
2040 2043 -127 2041 2044 2042 0
11 -2045 0
117 -2045 0
-2046 115 0
-2047 103 0
-2048 87 0
-2049 55 0
2047 2045 -127 2046 2048 2049 0
109 -2050 0
-2051 107 0
-2052 103 0
-2053 79 0
-2054 47 0
2050 2053 -127 2052 2051 2054 0
-2055 93 0
-2056 91 0
-2057 87 0
-2058 79 0
-2059 31 0
2055 2056 -127 2057 2058 2059 0
-2060 61 0
-2061 59 0
55 -2062 0
47 -2063 0
31 -2064 0
2060 2061 -127 2062 2063 2064 0
-2100 112 0
-2101 111 0
-2102 110 0
-2103 108 0
-2104 104 0
-2105 80 0
-2106 48 0
2102 2101 2103 2104 2105 2106 -128 2100 0
-2481 130 0
-2482 162 0
-2483 161 0
-178 2482 2481 2483 0
-2568 133 0
-2569 134 0
-2570 178 0
-2571 164 0
-2572 148 0
-184 2569 2568 2572 2571 2570 0
-2901 130 0
-2902 194 0
-2903 193 0
-210 2902 2901 2903 0
-2988 133 0
-2989 134 0
-2990 210 0
-2991 196 0
-2992 148 0
-216 2989 2988 2990 2991 2992 0
-3207 133 0
-3208 161 0
-3209 193 0
-229 3207 3208 3209 0
-3248 130 0
-3249 229 0
-3250 134 0
-3251 162 0
-3252 194 0
-232 3250 3248 3249 3251 3252 0
-3497 161 0
-3498 162 0
-3499 210 0
-3500 196 0
-3501 148 0
-244 3501 3497 3499 3500 3498 0
149 -3510 0
225 -3510 0
-3511 197 0
-3512 165 0
3510 3512 -245 3511 0
-3524 130 0
-3525 134 0
-3526 229 0
-3527 162 0
-3528 194 0
-246 3527 3524 3526 3525 3528 0
-3741 134 0
-3742 138 0
-3743 146 0
-3744 162 0
-3745 194 0
3744 3741 -254 3743 3742 3745 0
138 -3751 0
245 -3751 0
-3752 242 0
-3753 230 0
-3754 214 0
-3755 182 0
3754 3752 -254 3751 3753 3755 0
-3829 248 0
-3830 138 0
-3831 246 0
-3832 244 0
-3833 232 0
-3834 216 0
-3835 184 0
3830 3831 3832 3833 3834 3835 -256 3829 0
-3989 260 0
-3990 266 0
-3991 267 0
3989 3990 -284 3991 0
-4142 260 0
-4143 267 0
-4144 266 0
-300 4142 4144 4143 0
-4562 260 0
-4563 267 0
-4564 266 0
-332 4562 4564 4563 0
-5432 363 0
275 -5433 0
362 -5433 0
-5434 356 0
-5435 332 0
-5436 300 0
5433 5434 -380 5435 5432 5436 0
-5437 347 0
-5438 346 0
-5439 340 0
-5440 332 0
-5441 284 0
5438 5437 -380 5439 5440 5441 0
-5442 315 0
-5443 314 0
-5444 308 0
-5445 300 0
-5446 284 0
5443 5444 -380 5442 5445 5446 0
-314 -199 0
-346 -167 0
-315 -197 -2 0
-347 -165 -2 0
-363 -149 -2 0
-12 -245 0
-14 -275 -225 0
-59 -194 -261 0
-61 -196 0
-93 -164 0
-107 -146 -261 0
-108 -149 0
-148 -109 0
-110 -275 0
-115 -138 -261 0
-266 -117 -131 0
-121 -136 0
-3 0
-5 0
-33 0
-65 0
2 0
127 0
-267 -245 0
-248 0
-260 -245 0
-308 -197 0
-340 -165 0
-356 -149 0
-104 103 0
-8 7 0
-130 0
-133 0
-161 0
-193 0
131 0
254 0
-112 0
-7 -362 0
199 -197 0
196 -194 0
-196 194 0
167 -165 0
164 -162 0
-164 162 0
136 -134 0
261 0
380 0
-91 -162 0
-242 -11 0
-115 -134 0
-103 -146 0
-87 -162 0
-55 -194 0
-107 -134 0
-103 -138 0
-79 -162 0
-47 -194 0
-230 -11 0
-91 -134 0
-87 -138 0
-79 -146 0
-31 -194 0
-214 -11 0
-59 -134 0
-55 -138 0
-47 -146 0
-31 -162 0
-182 -11 0
