p cnf 5592 1172
128 0
256 0
384 0
-553 7 0
-553 25 0
-554 11 0
-554 21 0
-555 13 0
-31 554 555 553 0
-619 3 0
-620 5 0
-621 33 0
-39 619 620 621 0
-703 7 0
-703 41 0
-704 11 0
-704 37 0
-705 35 0
-705 13 0
704 705 -47 703 0
-913 13 0
-914 21 0
-914 41 0
-915 37 0
-915 25 0
913 -61 915 914 0
-1039 3 0
-1040 5 0
-1041 65 0
-71 1039 1040 1041 0
-1123 7 0
-1123 73 0
11 -1124 0
-1125 67 0
13 -1125 0
1124 1123 -79 1125 0
-1225 7 0
-1225 81 0
-1226 19 0
-1227 67 0
-87 1227 1225 1226 0
-1257 72 0
-1258 71 0
-1259 19 0
-1260 68 0
-1261 8 0
-88 1260 1258 1257 1259 1261 0
-1291 81 0
-1292 19 0
-1293 67 0
-91 1293 1291 1292 0
-1300 67 0
-1301 73 0
-1561 97 0
73 -1562 0
-1563 67 0
1562 -107 1561 1563 0
-1603 13 0
-1603 97 0
-1604 37 0
-1605 69 0
-1605 41 0
1604 1605 -109 1603 0
-1729 97 0
-1730 35 0
-1730 81 0
-1731 67 0
49 -1731 0
-115 1731 1730 1729 0
-1771 21 0
-1771 97 0
-1772 37 0
-1772 81 0
-1773 69 0
1773 -117 1771 1772 0
-1838 65 0
-1839 67 0
-1840 51 0
-1841 39 0
-1842 97 0
-119 1840 1838 1842 1841 1839 0
-1879 81 0
-1880 73 0
-1881 97 0
-121 1880 1881 1879 0
-2035 121 0
-2036 11 0
-2036 117 0
-2037 19 0
-2037 109 0
35 -2038 0
93 -2038 0
-2039 67 0
-2039 61 0
2038 2036 -127 2035 2037 2039 0
7 -2040 0
-2040 121 0
13 -2041 0
-2041 115 0
21 -2042 0
-2042 107 0
-2043 37 0
-2043 91 0
69 -2044 0
-2044 59 0
2042 2044 -127 2040 2043 2041 0
-2045 11 0
-2045 117 0
13 -2046 0
-2046 115 0
-2047 103 0
-2048 41 0
-2048 87 0
-2049 73 0
-2049 55 0
2047 2049 -127 2045 2048 2046 0
19 -2050 0
-2050 109 0
-2051 107 0
-2052 103 0
-2053 49 0
-2053 79 0
-2054 81 0
-2054 47 0
2051 2053 -127 2050 2054 2052 0
35 -2055 0
-2055 93 0
-2056 37 0
-2056 91 0
-2057 87 0
49 -2058 0
79 -2058 0
-2059 97 0
-2059 31 0
2058 2055 -127 2059 2056 2057 0
-2060 67 0
-2060 61 0
-2061 69 0
-2061 59 0
-2062 55 0
81 -2063 0
47 -2063 0
-2064 97 0
-2064 31 0
2063 2060 -127 2064 2062 2061 0
-2093 120 0
-2094 119 0
-2095 11 0
-2096 13 0
-2096 116 0
-2097 104 0
-2098 41 0
-2098 88 0
-2099 73 0
2094 2095 2096 2097 2098 2099 -128 2093 0
-2145 130 0
-2146 133 0
-2147 134 0
-142 2147 2146 2145 0
-2181 130 0
-2182 146 0
-2183 132 0
-148 2183 2181 2182 0
-2193 130 0
-2194 133 0
-2195 134 0
-150 2195 2194 2193 0
-2277 134 0
-2278 138 0
-2278 149 0
-2279 146 0
141 -2279 0
-158 2278 2277 2279 0
-2343 130 0
-2344 133 0
-2345 161 0
-166 2343 2344 2345 0
-2379 130 0
-2380 162 0
-2381 161 0
-170 2380 2379 2381 0
-2415 133 0
-2416 165 0
-2417 161 0
-173 2416 2415 2417 0
-2427 134 0
-2427 169 0
-2428 138 0
-2429 162 0
-2429 141 0
2428 -174 2429 2427 0
-2471 168 0
-2472 167 0
-2473 166 0
-2474 141 0
-2475 136 0
2472 -176 2471 2473 2474 2475 0
-2481 130 0
-2482 162 0
-2483 161 0
-178 2482 2481 2483 0
-2517 133 0
-2518 165 0
-2519 161 0
-181 2518 2517 2519 0
-2529 134 0
-2529 177 0
-2530 146 0
-2530 165 0
-2531 162 0
-2531 149 0
2529 2531 -182 2530 0
-2559 181 0
-2560 134 0
-2561 167 0
-2563 182 0
-2564 181 0
-2567 150 0
-2568 133 0
-2569 134 0
-2570 178 0
-2571 149 0
-2572 165 0
2572 2569 2568 2570 -184 2571 0
-2578 161 0
-2579 162 0
-2579 151 0
-2580 150 0
-2581 165 0
-2581 148 0
-2582 136 0
2582 2579 2578 -184 2581 2580 0
138 -2595 0
-2596 146 0
-2596 169 0
-2597 162 0
2595 2597 -186 2596 0
-2649 177 0
-2650 169 0
-2651 153 0
2649 2651 -189 2650 0
-2667 134 0
-2668 181 0
-2669 173 0
-2763 130 0
-2764 133 0
-2765 193 0
-198 2763 2764 2765 0
-2799 130 0
-2800 194 0
-2801 193 0
-202 2800 2799 2801 0
-2847 134 0
-2848 138 0
-2849 194 0
141 -2849 0
2848 2847 -206 2849 0
-2896 193 0
-2897 194 0
-2897 143 0
-2898 142 0
-2899 140 0
-2900 136 0
2899 2900 2896 -208 2898 2897 0
-2901 130 0
-2902 194 0
-2903 193 0
-210 2902 2901 2903 0
-2937 133 0
-2938 197 0
-2939 193 0
-213 2938 2937 2939 0
-2949 134 0
-2949 209 0
-2950 146 0
-2951 194 0
-2951 149 0
-214 2951 2950 2949 0
-2985 210 0
-2988 133 0
-2989 134 0
-2990 210 0
-2991 149 0
-2991 196 0
-2992 197 0
-2992 148 0
-216 2989 2988 2990 2991 2992 0
-2993 200 0
-2994 146 0
-2995 198 0
-2996 149 0
-2996 196 0
-2997 209 0
-2997 136 0
-216 2997 2996 2995 2993 2994 0
-2998 193 0
-2999 194 0
151 -2999 0
-3000 150 0
-3001 197 0
-3001 148 0
-3002 136 0
-216 3000 2998 2999 3001 3002 0
-3015 138 0
-3015 209 0
-3016 146 0
-3017 194 0
-218 3017 3016 3015 0
-3061 202 0
-3062 196 0
-3171 130 0
-3172 161 0
-3173 193 0
-226 3171 3172 3173 0
-3207 133 0
-3208 161 0
-3209 193 0
-229 3207 3208 3209 0
-3219 134 0
-3219 225 0
197 -3220 0
-3221 194 0
165 -3221 0
3220 3221 3219 -230 0
-3231 135 0
-3232 197 0
-3233 165 0
3233 3232 3231 -231 0
-3268 193 0
-3269 194 0
167 -3269 0
-3270 166 0
-3271 197 0
-3272 136 0
3271 3269 3268 3270 -232 3272 0
-3285 138 0
-3285 225 0
162 -3286 0
201 -3286 0
-3287 194 0
-3287 169 0
3286 3287 -234 3285 0
-3334 193 0
-3335 194 0
-3336 170 0
-3337 201 0
-3337 164 0
-3338 225 0
3336 3337 3334 3338 -236 3335 0
-3351 130 0
-3352 133 0
-3353 230 0
-3354 161 0
-3355 193 0
-238 3353 3352 3351 3354 3355 0
-3441 225 0
-3442 161 0
-3443 193 0
-241 3441 3442 3443 0
-3453 146 0
-3453 225 0
-3454 162 0
-3454 209 0
-3455 194 0
-242 3455 3453 3454 0
-3487 242 0
-3488 241 0
-3489 226 0
-3490 210 0
-3491 178 0
-244 3490 3491 3489 3488 3487 0
-3507 149 0
-3508 165 0
-3508 209 0
-3509 197 0
3509 -245 3508 3507 0
-3519 130 0
-3520 133 0
-3521 230 0
-3522 161 0
-3523 193 0
-246 3521 3520 3519 3522 3523 0
-3539 161 0
-3540 162 0
-3541 210 0
-3542 198 0
-3543 225 0
-246 3540 3539 3543 3542 3541 0
-3549 245 0
-3550 133 0
-3551 231 0
-3552 161 0
-3553 193 0
-247 3551 3550 3549 3552 3553 0
-3564 231 0
-3565 229 0
-3566 149 0
-3566 227 0
-3567 199 0
-3568 167 0
3567 -247 3565 3568 3566 3564 0
-3569 161 0
-3570 213 0
-3571 165 0
-3572 199 0
-3573 151 0
3571 3570 3569 -247 3573 3572 0
-3636 234 0
-3637 146 0
-3638 226 0
-3639 202 0
-3640 170 0
-250 3639 3636 3638 3637 3640 0
-3741 134 0
-3741 249 0
-3742 138 0
-3742 245 0
-3743 146 0
-3743 237 0
162 -3744 0
221 -3744 0
-3745 194 0
-3745 189 0
3744 3742 -254 3741 3745 3743 0
134 -3746 0
-3746 249 0
141 -3747 0
-3747 242 0
-3748 149 0
-3748 234 0
-3749 165 0
-3749 218 0
197 -3750 0
-3750 186 0
3747 3750 -254 3746 3749 3748 0
-3751 138 0
-3751 245 0
141 -3752 0
-3752 242 0
-3753 230 0
-3754 169 0
-3754 214 0
-3755 201 0
-3755 182 0
3755 3753 -254 3751 3752 3754 0
-3756 146 0
-3756 237 0
-3757 234 0
-3758 230 0
177 -3759 0
-3759 206 0
-3760 209 0
-3760 174 0
3759 3760 -254 3756 3758 3757 0
-3761 162 0
-3762 218 0
-3763 169 0
177 -3764 0
-3764 206 0
-3765 225 0
3761 3763 -254 3765 3764 3762 0
194 -3766 0
-3766 189 0
-3767 186 0
201 -3768 0
-3768 182 0
-3769 209 0
174 -3769 0
-3770 225 0
-3770 158 0
3766 3768 -254 3767 3770 3769 0
-3822 133 0
-3823 134 0
-3824 250 0
-3825 244 0
-3826 149 0
-3826 236 0
-3827 165 0
-3828 188 0
3824 3823 3825 3826 3827 3828 -256 3822 0
-3829 248 0
138 -3830 0
-3830 247 0
-3831 246 0
-3832 141 0
-3832 244 0
-3833 232 0
-3834 169 0
-3834 216 0
-3835 201 0
184 -3835 0
3831 3830 3832 3833 3834 3835 -256 3829 0
-3836 240 0
-3837 146 0
-3837 239 0
-3838 238 0
149 -3839 0
236 -3839 0
-3840 232 0
177 -3841 0
208 -3841 0
-3842 209 0
-3842 176 0
3838 3837 3839 3840 3841 3842 -256 3836 0
-3849 160 0
-3850 193 0
-3851 194 0
-3852 190 0
-3853 197 0
-3854 184 0
-3855 176 0
-3856 160 0
3851 3852 3853 3854 3855 3856 -256 3850 0
-3869 258 0
-3870 259 0
-3871 260 0
-268 3871 3870 3869 0
-3965 258 0
-3966 274 0
-3967 273 0
-282 3966 3965 3967 0
-3977 259 0
-3978 275 0
-3979 273 0
-283 3978 3977 3979 0
-3989 260 0
-3989 281 0
266 -3990 0
-3990 275 0
-3991 274 0
-3991 267 0
-284 3990 3991 3989 0
-4042 258 0
-4043 285 0
-4044 283 0
-4045 279 0
-4046 274 0
4043 4044 4042 -288 4046 4045 0
-4047 259 0
-4048 260 0
-4048 285 0
-4049 263 0
-4049 282 0
-4050 267 0
-4050 278 0
275 -4051 0
270 -4051 0
4051 4050 4047 -288 4048 4049 0
-4062 273 0
-4063 274 0
271 -4063 0
-4064 275 0
-4065 268 0
-4066 264 0
4065 4064 4062 -288 4063 4066 0
-4067 258 0
-4068 259 0
-4069 260 0
-292 4069 4068 4067 0
-4139 260 0
-4140 266 0
-4140 291 0
-4141 290 0
-4141 267 0
-300 4140 4139 4141 0
-4197 259 0
-4198 260 0
-4199 263 0
-4200 267 0
-4201 291 0
4201 -304 4197 4200 4198 4199 0
-4217 258 0
-4218 273 0
-4219 274 0
-306 4219 4218 4217 0
-4229 259 0
-4230 273 0
-4231 275 0
-307 4231 4230 4229 0
-4241 260 0
-4241 305 0
-4242 274 0
-4242 291 0
-4243 290 0
-4243 275 0
-308 4242 4243 4241 0
-4289 258 0
-4290 259 0
-4291 308 0
-4292 273 0
-4293 280 0
4293 -312 4290 4289 4292 4291 0
-4294 258 0
-4295 260 0
-4296 307 0
-4297 274 0
-4297 295 0
-4298 290 0
-4298 279 0
-312 4295 4294 4298 4296 4297 0
-4299 259 0
-4300 260 0
-4301 306 0
-4302 275 0
-4303 291 0
-312 4303 4299 4302 4300 4301 0
-4309 273 0
-4310 274 0
-4310 295 0
-4311 275 0
-4311 294 0
-4312 292 0
-4313 264 0
-312 4311 4309 4313 4312 4310 0
-4331 266 0
-4332 274 0
-4333 281 0
-314 4333 4332 4331 0
-4343 267 0
-4344 275 0
-4345 281 0
-315 4343 4345 4344 0
-4365 259 0
-4366 260 0
-4367 306 0
-4368 275 0
-4369 291 0
-316 4369 4365 4368 4367 4366 0
-4487 258 0
-4488 259 0
-4489 321 0
-324 4487 4488 4489 0
-4523 260 0
-4524 262 0
-4525 322 0
-328 4525 4523 4524 0
-4535 258 0
-4536 322 0
-4537 321 0
-330 4536 4535 4537 0
-4559 260 0
-4559 329 0
-4560 266 0
-4560 323 0
-4561 322 0
-4561 267 0
-332 4561 4559 4560 0
-4617 259 0
-4618 260 0
-4619 330 0
-4620 326 0
-4621 323 0
-4621 270 0
-336 4621 4617 4620 4618 4619 0
-4622 332 0
-4623 262 0
-4623 331 0
-4624 330 0
-4625 324 0
-4626 268 0
-336 4622 4623 4624 4625 4626 0
-4637 258 0
-4638 273 0
-4639 321 0
-338 4637 4638 4639 0
-4649 259 0
-4650 273 0
-4651 321 0
-339 4649 4650 4651 0
-4661 260 0
-4661 337 0
-4662 274 0
-4662 323 0
-4663 322 0
-4663 275 0
-340 4663 4661 4662 0
-4751 266 0
-4752 274 0
-4752 329 0
-4753 281 0
-346 4753 4752 4751 0
-4763 267 0
-4764 275 0
-4765 281 0
-347 4763 4764 4765 0
-4775 258 0
-4776 259 0
-4777 340 0
-4778 273 0
-4779 321 0
-348 4777 4776 4775 4778 4779 0
-4785 259 0
-4786 260 0
-4787 338 0
-4788 330 0
-4789 323 0
-348 4789 4785 4787 4788 4786 0
-4877 260 0
-4878 262 0
-4879 343 0
-4880 335 0
-4881 322 0
-352 4879 4881 4880 4877 4878 0
-4897 335 0
-4898 334 0
-4899 332 0
-4900 328 0
-4901 337 0
-4901 272 0
-352 4899 4897 4898 4900 4901 0
-4907 258 0
-4908 322 0
-4909 321 0
-354 4908 4907 4909 0
-4919 259 0
-4920 323 0
-4921 321 0
-355 4920 4919 4921 0
-4931 260 0
-4932 323 0
-4933 322 0
-4933 291 0
-356 4933 4931 4932 0
-4979 258 0
-4980 259 0
-4981 356 0
-4982 328 0
-4983 321 0
-360 4981 4980 4979 4982 4983 0
-4989 259 0
-4990 260 0
-4991 354 0
-4992 326 0
-4993 294 0
-360 4993 4989 4992 4991 4990 0
-4994 356 0
-4995 262 0
-4995 355 0
-4996 354 0
-4997 324 0
-4998 292 0
-360 4998 4996 4994 4997 4995 0
-5021 266 0
-5022 329 0
-5023 322 0
-362 5022 5023 5021 0
-5055 259 0
-5056 260 0
-5057 354 0
-5058 330 0
-5059 323 0
-364 5059 5055 5057 5058 5056 0
-5177 273 0
-5178 337 0
-5179 321 0
-369 5178 5177 5179 0
-5189 274 0
-5190 290 0
-5191 322 0
-370 5191 5190 5189 0
-5201 275 0
-5202 291 0
-5202 337 0
-5203 323 0
-371 5202 5201 5203 0
-5213 258 0
-5214 259 0
-5215 273 0
-5216 340 0
-5217 321 0
-372 5216 5214 5215 5213 5217 0
-5218 258 0
-5219 260 0
-5220 355 0
-5221 339 0
-5222 322 0
-372 5220 5218 5222 5221 5219 0
-5255 258 0
-5256 370 0
-5257 273 0
-5258 342 0
-5259 321 0
-374 5256 5255 5257 5258 5259 0
-5265 370 0
-5266 262 0
-5266 369 0
-5267 354 0
-5268 338 0
-5269 306 0
-374 5266 5269 5267 5268 5265 0
-5285 259 0
-5286 371 0
-5287 273 0
-5288 343 0
-5289 321 0
-375 5286 5285 5287 5288 5289 0
-5345 281 0
-5346 337 0
-5347 305 0
-377 5346 5345 5347 0
-5417 260 0
-5417 377 0
-5418 266 0
-5418 371 0
-5419 274 0
-5419 363 0
-5420 290 0
-5420 347 0
-5421 322 0
-5421 315 0
5418 5417 -380 5420 5421 5419 0
-5422 260 0
-5422 377 0
370 -5423 0
-5424 275 0
-5424 362 0
-5425 291 0
-5425 346 0
-5426 323 0
-5426 314 0
5425 5426 -380 5424 5423 5422 0
-5427 266 0
-5427 371 0
-5428 267 0
-5428 370 0
-5429 281 0
-5429 356 0
-5430 340 0
-5431 329 0
-5431 308 0
5427 5430 -380 5428 5429 5431 0
-5432 363 0
-5433 275 0
-5433 362 0
-5434 356 0
-5435 332 0
-5436 337 0
-5436 300 0
5435 5432 -380 5436 5433 5434 0
-5437 290 0
-5437 347 0
-5438 346 0
-5439 340 0
-5440 332 0
353 -5441 0
-5441 284 0
5438 5439 -380 5441 5437 5440 0
-5442 322 0
-5442 315 0
-5443 323 0
-5443 314 0
-5444 308 0
-5445 300 0
353 -5446 0
-5446 284 0
5444 5445 -380 5443 5442 5446 0
-5544 383 0
-5545 260 0
-5546 262 0
-5547 375 0
-5548 274 0
-5549 351 0
-5550 322 0
5545 5546 5547 5548 5549 5550 -384 5544 0
-5565 376 0
-5566 266 0
-5566 375 0
-5567 267 0
-5567 374 0
-5568 372 0
-5569 281 0
-5569 360 0
-5570 344 0
-5571 329 0
-5571 312 0
5567 5566 5568 5569 5570 5571 -384 5565 0
-5572 368 0
-5573 274 0
-5573 367 0
-5574 275 0
-5575 364 0
-5576 360 0
-5577 336 0
-5578 304 0
5573 5574 5575 5576 5577 5578 -384 5572 0
-5579 352 0
-5580 290 0
-5580 351 0
-5581 291 0
-5582 348 0
-5583 344 0
-5584 336 0
-5585 288 0
5580 5579 5581 5582 5583 5584 5585 -384 0
-5586 321 0
-5587 322 0
-5588 323 0
-5589 316 0
-5590 312 0
-5591 337 0
-5591 304 0
353 -5592 0
288 -5592 0
5587 5588 5589 5590 5591 5592 -384 5586 0
-249 -264 0
-266 -247 0
-271 -242 0
-239 -274 0
-279 -234 0
-281 -232 0
-225 -288 0
-292 -221 0
-209 -304 0
-305 -208 0
-312 -201 0
-314 -199 0
-186 -327 0
-329 -184 0
-337 -176 0
-344 -169 0
-346 -167 0
-351 -162 0
-355 -158 0
-153 -360 0
-362 -151 0
-364 -149 0
-367 -146 0
-375 -138 0
-377 -136 0
-275 -237 -2 0
-281 -231 -2 0
-315 -197 -2 0
-343 -169 -2 0
-347 -165 -2 0
-371 -141 -2 0
-369 -7 -138 0
-8 -249 0
-8 -377 0
-225 -278 -11 0
-294 -209 -11 0
-326 -11 -177 0
-341 -11 -162 0
-374 -11 0
-244 -13 0
-227 -13 -274 0
-210 -291 -13 0
-305 -13 -196 0
-307 -13 -194 0
-178 -13 -323 0
-337 -13 -164 0
-148 -13 -353 0
-355 -13 -146 0
-372 -13 0
-19 -225 -270 0
-329 -21 -164 0
-355 -138 -21 0
-364 -21 0
-25 -162 -327 0
-25 -136 -353 0
-360 -25 0
-354 -31 0
-278 -201 -35 0
-285 -194 -35 0
-341 -138 -35 0
-221 -36 0
-281 -197 -36 0
-329 -36 -149 0
-337 -141 -36 0
-281 -37 -196 0
-331 -37 -146 0
-38 -209 -267 0
-38 -275 -201 0
-347 -38 0
-41 -216 0
-41 -209 -264 0
-41 -274 -199 0
-41 -279 -194 0
-41 -327 -146 0
-344 -41 0
-210 -47 0
-208 -49 0
-201 -49 -264 0
-266 -199 -49 0
-271 -194 -49 0
-336 -49 0
-51 -206 0
-59 -194 -261 0
-326 -59 0
-61 -196 0
-322 -61 -131 0
-190 -67 0
-189 -68 0
-188 -69 0
-170 -69 -275 0
-281 -69 -164 0
-316 -69 0
-70 -267 -177 0
-315 -70 0
-73 -184 0
-73 -177 -264 0
-167 -73 -274 0
-279 -162 -73 0
-73 -312 0
-178 -79 0
-306 -79 0
-176 -81 0
-169 -81 -264 0
-266 -167 -81 0
-271 -162 -81 0
-143 -290 -81 0
-295 -138 -81 0
-304 -81 0
-294 -91 0
-164 -93 0
-290 -93 -131 0
-160 -97 0
-151 -97 -266 0
-138 -97 -279 0
-281 -97 -136 0
-97 -288 0
-98 -267 -149 0
-98 -141 -275 0
-107 -146 -261 0
-107 -278 0
-148 -109 0
-115 -270 0
-116 -141 0
-140 -117 0
-266 -117 -131 0
-121 -136 0
-262 -121 -131 0
-121 -264 0
-3 0
-5 0
-33 0
-65 0
2 0
127 0
-263 -249 0
-245 -267 0
-291 -221 0
-189 -323 0
-363 -149 0
-135 -377 0
-383 0
-248 0
-245 -260 0
-263 -242 0
-231 -274 0
-275 -230 0
-214 -291 0
-308 -197 0
-182 -323 0
-328 -177 0
-340 -165 0
-343 -162 0
-356 -149 0
-371 -134 0
-376 0
-240 0
-237 -260 0
-263 -234 0
-267 -230 0
-291 -206 0
-300 -197 0
-174 -323 0
-328 -169 0
-168 -329 0
-332 -165 0
-335 -162 0
-356 -141 0
-363 -134 0
-368 0
-104 103 0
-97 98 0
-98 97 0
-69 70 0
68 -67 0
-37 38 0
36 -35 0
-7 8 0
-130 0
-133 0
-161 0
-193 0
131 0
254 0
-274 -109 0
-314 -69 0
-334 -49 0
-342 -41 0
-346 -37 0
-362 -21 0
-370 -13 0
-120 0
-117 -260 0
-262 -115 0
-103 -274 0
-280 -97 0
-87 -290 0
-69 -308 0
-322 -55 0
-328 -49 0
-340 -37 0
-356 -21 0
-370 -7 0
-109 -260 0
-262 -107 0
-266 -103 0
-272 -97 0
-290 -79 0
-300 -69 0
-322 -47 0
-328 -41 0
-332 -37 0
-356 -13 0
-362 -7 0
232 -230 0
-232 230 0
227 -225 0
199 -197 0
-199 197 0
196 -194 0
-196 194 0
167 -165 0
165 -167 0
164 -162 0
136 -134 0
-136 134 0
-258 0
-259 0
-273 0
-321 0
261 0
380 0
-115 -138 0
-91 -162 0
-67 -186 0
-218 -35 0
-234 -19 0
-11 -242 0
-115 -134 0
-103 -146 0
-87 -162 0
-72 -177 0
-67 -182 0
-55 -194 0
-200 -49 0
-214 -35 0
-230 -19 0
-7 -242 0
-132 -93 0
-91 -134 0
-87 -138 0
-146 -79 0
-158 -67 0
-31 -194 0
-206 -19 0
-214 -11 0
-218 -7 0
344 -340 0
-344 340 0
-337 341 0
327 -323 0
-322 326 0
-326 322 0
-275 279 0
-279 275 0
278 -274 0
-278 274 0
264 -260 0
-264 260 0
