p cnf 5592 793
128 0
256 0
384 0
-469 3 0
-470 5 0
-471 17 0
-23 469 470 471 0
-553 7 0
-554 11 0
-555 13 0
555 -31 554 553 0
-679 5 0
-680 9 0
-681 33 0
-45 679 680 681 0
-703 7 0
-704 11 0
-705 35 0
-705 13 0
-47 704 705 703 0
-725 3 0
-726 45 0
-727 42 0
-728 11 0
-729 35 0
-48 728 725 726 727 729 0
-757 3 0
-758 17 0
-759 33 0
-51 757 758 759 0
-871 11 0
49 -871 0
-872 19 0
-872 41 0
-873 35 0
-873 25 0
871 872 -59 873 0
-905 19 0
-955 3 0
-956 5 0
-957 9 0
-958 17 0
-959 33 0
-63 955 956 957 958 959 0
-1123 73 0
-1124 11 0
-1125 67 0
-79 1125 1123 1124 0
-1262 65 0
-1263 23 0
-1264 67 0
-1265 69 0
-1265 20 0
-1266 81 0
-1266 8 0
-88 1265 1262 1263 1266 1264 0
-1291 11 0
-1292 19 0
-1292 73 0
-1293 67 0
1292 -91 1291 1293 0
-1375 3 0
-1376 5 0
-1377 9 0
-1378 17 0
-1379 65 0
-95 1375 1376 1377 1378 1379 0
-1501 35 0
-1502 67 0
-1503 7 0
1501 -103 1502 1503 0
-1530 68 0
-1537 9 0
-1538 33 0
-1539 65 0
-105 1537 1538 1539 0
-1567 35 0
-1568 67 0
-1569 97 0
-1569 11 0
-107 1567 1568 1569 0
-1587 67 0
-1645 3 0
-1646 5 0
-1647 9 0
-1648 33 0
-1649 65 0
-111 1645 1646 1647 1648 1649 0
-1764 68 0
-1766 65 0
-1767 51 0
-1768 67 0
-1769 81 0
-1769 36 0
-1770 97 0
-1770 20 0
-116 1769 1766 1767 1768 1770 0
-1771 97 0
-1772 81 0
-1773 69 0
-117 1773 1771 1772 0
-1900 17 0
-1901 105 0
-1902 25 0
-1902 98 0
-1903 49 0
-1903 74 0
-1904 81 0
42 -1904 0
-122 1903 1900 1901 1902 1904 0
-1915 3 0
-1916 9 0
-1917 17 0
-1918 33 0
-1919 65 0
-123 1915 1916 1917 1918 1919 0
-2035 121 0
-2036 117 0
19 -2037 0
-2037 109 0
-2038 35 0
-2039 67 0
2036 2037 -127 2038 2039 2035 0
-2041 115 0
-2044 69 0
-2045 11 0
-2045 117 0
-2046 115 0
-2047 25 0
-2047 103 0
-2048 41 0
-2048 87 0
73 -2049 0
-2049 55 0
2045 2048 -127 2049 2047 2046 0
19 -2050 0
-2050 109 0
-2051 107 0
25 -2052 0
103 -2052 0
-2053 79 0
-2054 81 0
-2054 47 0
2050 2052 -127 2053 2054 2051 0
-2055 93 0
-2056 91 0
-2057 87 0
-2058 79 0
-2059 97 0
-2059 31 0
2055 2056 -127 2059 2057 2058 0
-2060 61 0
-2061 59 0
-2062 55 0
-2063 47 0
-2064 31 0
2060 2062 -127 2064 2061 2063 0
-2086 5 0
-2087 123 0
-2088 7 0
-2088 122 0
-2089 13 0
-2089 116 0
21 -2090 0
-2090 108 0
37 -2091 0
-2091 92 0
69 -2092 0
-2092 60 0
2088 2089 2090 2091 2092 -128 2086 2087 0
-2100 17 0
-2101 111 0
110 -2102 0
-2103 108 0
-2104 25 0
-2104 104 0
-2105 80 0
-2106 48 0
2103 2102 2104 2105 2106 -128 2100 2101 0
-2107 33 0
-2108 95 0
-2109 35 0
-2110 92 0
-2111 88 0
-2112 80 0
-2113 32 0
2110 2109 2111 2112 2113 -128 2107 2108 0
-2114 65 0
-2115 63 0
67 -2116 0
-2117 69 0
-2117 60 0
73 -2118 0
-2118 56 0
-2119 81 0
-2119 48 0
-2120 32 0
2117 2116 2118 2119 2120 -128 2114 2115 0
-2145 130 0
-2146 133 0
-2147 134 0
-142 2147 2146 2145 0
-2277 134 0
-2277 153 0
-2278 138 0
-2278 149 0
-2279 146 0
-2279 141 0
-158 2277 2278 2279 0
-2343 130 0
-2344 133 0
-2345 161 0
-166 2343 2344 2345 0
-2367 165 0
-2368 134 0
-2369 162 0
-168 2367 2368 2369 0
-2415 133 0
-2416 165 0
-2417 161 0
-173 2416 2415 2417 0
-2427 134 0
-2427 169 0
-2428 138 0
-2428 165 0
-2429 162 0
-2429 141 0
2427 2428 -174 2429 0
-2471 168 0
-2472 167 0
-2473 166 0
-2474 164 0
-2475 136 0
2475 -176 2472 2473 2474 2471 0
-2505 177 0
-2506 146 0
-2507 162 0
-180 2505 2506 2507 0
-2517 133 0
-2518 145 0
-2519 161 0
-181 2517 2518 2519 0
-2529 134 0
-2529 177 0
-2530 146 0
-2530 165 0
-2531 162 0
-2531 149 0
-182 2529 2530 2531 0
-2535 165 0
-2536 162 0
-2537 134 0
-182 2537 2536 2535 0
-2558 130 0
-2559 181 0
-2560 134 0
-2561 167 0
-2562 162 0
-184 2560 2558 2559 2561 2562 0
-2595 138 0
-2595 177 0
-2596 146 0
-2596 169 0
-2597 162 0
-186 2597 2595 2596 0
-2619 130 0
-2620 186 0
-2621 180 0
-2622 145 0
-2623 161 0
-188 2621 2619 2620 2622 2623 0
-2661 130 0
-2662 133 0
-2663 182 0
-2664 145 0
-2665 161 0
-190 2663 2662 2661 2664 2665 0
-2666 130 0
-2667 134 0
-2668 181 0
-2669 173 0
-2670 162 0
-190 2667 2666 2668 2669 2670 0
-2763 130 0
-2764 133 0
-2765 193 0
-198 2763 2764 2765 0
-2799 130 0
-2800 194 0
-2801 193 0
-202 2800 2799 2801 0
-2847 134 0
-2848 138 0
-2849 194 0
-206 2847 2848 2849 0
-2896 193 0
-2897 194 0
-2898 142 0
-2899 197 0
-2900 136 0
-208 2898 2896 2897 2899 2900 0
-2901 130 0
-2902 145 0
-2903 193 0
-210 2901 2902 2903 0
-2949 134 0
-2950 146 0
-2951 194 0
2949 -214 2950 2951 0
-3015 138 0
-3016 146 0
-3017 194 0
-218 3015 3016 3017 0
-3207 133 0
-3208 161 0
-3209 193 0
-229 3207 3208 3209 0
-3225 162 0
-3226 194 0
-3227 225 0
-3227 134 0
-230 3225 3226 3227 0
-3285 138 0
-3285 225 0
-3286 162 0
-3287 194 0
-234 3286 3285 3287 0
-3329 161 0
-3330 162 0
-3331 202 0
-3332 196 0
-3333 225 0
-236 3330 3329 3331 3332 3333 0
-3356 130 0
-3357 134 0
-3358 229 0
-3359 162 0
-3360 194 0
-238 3357 3356 3358 3359 3360 0
-3371 161 0
-3372 162 0
-3373 202 0
-3374 198 0
-3375 225 0
-238 3372 3371 3373 3374 3375 0
-3453 146 0
-3453 225 0
-3454 162 0
-3455 194 0
-242 3454 3453 3455 0
-3519 130 0
-3520 133 0
-3521 145 0
-3522 161 0
-3523 193 0
-246 3519 3520 3521 3522 3523 0
-3609 225 0
169 -3610 0
-3611 177 0
3610 3611 -249 3609 0
-3641 161 0
-3642 162 0
-3643 210 0
-3644 202 0
-3645 225 0
-250 3642 3641 3643 3644 3645 0
-3669 177 0
134 -3741 0
249 -3741 0
-3742 138 0
-3742 245 0
-3743 146 0
-3743 237 0
-3744 162 0
-3744 221 0
-3745 194 0
3741 3744 -254 3742 3743 3745 0
-3746 134 0
-3746 249 0
-3747 242 0
-3748 149 0
-3748 234 0
165 -3749 0
-3749 218 0
-3750 197 0
-3750 186 0
3746 3749 -254 3748 3750 3747 0
-3751 138 0
-3751 245 0
-3752 141 0
-3752 242 0
-3753 230 0
214 -3754 0
-3755 201 0
-3755 182 0
3754 3751 -254 3755 3752 3753 0
-3756 146 0
-3756 237 0
-3757 149 0
-3757 234 0
-3758 230 0
-3759 177 0
-3759 206 0
209 -3760 0
-3760 174 0
3759 3756 -254 3760 3758 3757 0
-3761 162 0
-3761 221 0
-3762 218 0
214 -3763 0
-3764 177 0
-3764 206 0
-3765 225 0
-3765 158 0
3763 3762 -254 3764 3765 3761 0
-3766 194 0
-3767 186 0
-3768 201 0
-3768 182 0
-3769 174 0
-3770 225 0
-3770 158 0
3766 3769 -254 3768 3770 3767 0
-3812 146 0
-3822 133 0
-3823 134 0
-3824 250 0
-3825 244 0
-3826 236 0
-3827 165 0
-3828 188 0
3824 3823 3825 3826 3827 3828 -256 3822 0
-3829 248 0
-3830 138 0
-3831 246 0
-3832 244 0
-3833 232 0
-3834 216 0
-3835 184 0
3832 3830 3833 3834 3835 -256 3829 3831 0
-3836 145 0
-3837 239 0
-3838 238 0
-3839 236 0
-3840 232 0
-3841 177 0
-3841 208 0
209 -3842 0
3837 3838 3839 3840 3841 3842 -256 3836 0
-3850 193 0
-3851 194 0
-3852 190 0
-3853 197 0
-3853 188 0
-3854 201 0
-3854 184 0
176 -3855 0
-3856 225 0
-3856 160 0
3852 3851 3853 3854 3855 3856 -256 3850 0
-3869 258 0
-3870 259 0
-3871 260 0
-268 3871 3870 3869 0
-3917 258 0
-3918 259 0
-3919 260 0
-276 3919 3918 3917 0
-3989 260 0
-3990 266 0
-3990 275 0
-3991 274 0
-3991 267 0
-284 3991 3990 3989 0
-4042 258 0
-4043 260 0
-4044 262 0
-4045 266 0
-4046 274 0
4044 4045 4042 -288 4046 4043 0
-4055 276 0
-4056 268 0
-4067 258 0
-4068 259 0
-4069 260 0
-292 4069 4068 4067 0
-4103 260 0
-4104 262 0
-4105 263 0
-296 4104 4103 4105 0
-4139 260 0
-4140 266 0
-4140 291 0
-4141 290 0
-4141 267 0
-300 4141 4139 4140 0
-4207 296 0
-4208 266 0
-4209 267 0
-4210 292 0
-4211 264 0
-304 4207 4208 4209 4210 4211 0
-4241 260 0
-4242 291 0
-4243 290 0
-308 4243 4242 4241 0
-4559 329 0
-4560 266 0
-4561 322 0
-4561 267 0
-332 4559 4560 4561 0
-4661 260 0
-4662 274 0
-4663 322 0
-340 4663 4662 4661 0
-4751 266 0
-4752 329 0
-4753 322 0
-346 4752 4751 4753 0
-5021 266 0
-5021 353 0
-5022 290 0
-5022 329 0
-5023 322 0
-5023 297 0
-362 5022 5021 5023 0
-5033 353 0
-5201 353 0
-5419 274 0
-5422 260 0
-5422 377 0
-5423 267 0
-5423 370 0
-5424 275 0
-5424 362 0
291 -5425 0
-5425 346 0
-5426 314 0
5425 5423 -380 5422 5426 5424 0
-5427 266 0
-5428 267 0
-5429 281 0
-5430 340 0
-5431 308 0
5428 5427 -380 5429 5430 5431 0
-5437 290 0
-5437 347 0
-5438 291 0
-5438 346 0
-5439 297 0
-5439 340 0
-5440 332 0
-5441 353 0
-5441 284 0
5437 5441 -380 5440 5438 5439 0
-5442 322 0
-5442 315 0
323 -5443 0
-5443 314 0
-5444 329 0
-5444 308 0
-5445 337 0
-5445 300 0
353 -5446 0
284 -5446 0
5446 5445 -380 5442 5444 5443 0
-5586 321 0
-5587 322 0
323 -5588 0
-5589 316 0
-5590 329 0
-5590 312 0
-5591 304 0
353 -5592 0
288 -5592 0
5587 5588 5589 5590 5591 5592 -384 5586 0
-264 -249 0
-247 -266 0
-239 -274 0
-225 -288 0
-304 -209 0
-199 -314 0
-316 -197 0
-190 -323 0
-186 -327 0
-184 -329 0
-337 -176 0
-160 -353 0
-362 -151 0
-377 -136 0
-237 -275 -2 0
-315 -197 -2 0
-8 -249 0
-8 -329 -177 0
-377 -8 0
-12 -245 0
-149 -12 -353 0
-13 -244 0
-13 -353 -148 0
-237 -20 0
-141 -353 -20 0
-323 -22 -169 0
-232 -25 0
-25 -225 -264 0
-290 -25 -199 0
-25 -327 -162 0
-25 -136 -353 0
-26 -291 -197 0
-32 -225 0
-32 -353 0
-221 -36 0
-337 -141 -36 0
-37 -266 -211 0
-347 -38 0
-41 -216 0
-41 -264 -209 0
-41 -327 -146 0
-42 -197 -275 0
-48 -209 0
-337 -48 0
-208 -49 0
-49 -201 -264 0
-199 -49 -266 0
-197 -50 -267 0
-201 -56 0
-329 -56 0
-326 -59 0
-197 -60 0
-61 -196 0
-188 -69 0
-266 -179 -69 0
-297 -69 -148 0
-316 -69 0
-267 -177 -70 0
-275 -169 -70 0
-315 -70 0
-184 -73 0
-73 -264 -177 0
-312 -73 0
-74 -165 -275 0
-149 -291 -74 0
-80 -177 0
-81 -176 0
-173 -81 -260 0
-81 -264 -169 0
-81 -167 -266 0
-304 -81 0
-82 -165 -267 0
-141 -291 -82 0
-88 -169 0
-297 -88 0
-91 -162 -261 0
-92 -165 0
-93 -164 0
-160 -97 0
-97 -288 0
-98 -149 -267 0
-153 -104 0
-281 -104 0
-107 -146 -261 0
-149 -108 0
-109 -148 0
-275 -110 0
-115 -138 -261 0
-141 -116 0
-117 -266 -131 0
-118 -267 0
-121 -136 0
-121 -262 -131 0
-121 -264 0
-263 -122 0
-3 0
-5 0
-9 0
-17 0
-33 0
-65 0
2 0
127 0
-245 -267 0
-221 -291 0
-122 121 0
-117 118 0
-115 116 0
-116 115 0
-108 107 0
104 -103 0
-104 103 0
98 -97 0
-98 97 0
-92 91 0
-87 88 0
-88 87 0
82 -81 0
-79 80 0
-80 79 0
74 -73 0
73 -74 0
70 -69 0
-68 67 0
-60 59 0
56 -55 0
50 -49 0
-47 48 0
-42 41 0
38 -37 0
36 -35 0
-36 35 0
-31 32 0
-25 26 0
22 -21 0
20 -19 0
-20 19 0
-11 12 0
-12 11 0
-7 8 0
-130 0
-133 0
-145 0
-161 0
-193 0
131 0
254 0
-314 -69 0
-37 -346 0
-117 -260 0
-274 -103 0
-290 -87 0
-308 -69 0
-322 -55 0
-340 -37 0
-370 -7 0
-245 247 0
244 -242 0
-244 242 0
-230 232 0
-232 230 0
216 -214 0
-216 214 0
211 -209 0
-197 199 0
196 -194 0
-196 194 0
-182 184 0
-184 182 0
179 -177 0
167 -165 0
-167 165 0
164 -162 0
-164 162 0
151 -149 0
148 -146 0
136 -134 0
-136 134 0
-258 0
-259 0
-321 0
261 0
380 0
-180 -73 0
-186 -67 0
-59 -194 0
-35 -218 0
-234 -19 0
-242 -11 0
-115 -134 0
-103 -146 0
-87 -162 0
-182 -67 0
-55 -194 0
-35 -214 0
-230 -19 0
-242 -7 0
-248 0
-107 -134 0
-138 -103 0
-79 -162 0
-174 -67 0
-47 -194 0
-206 -35 0
-230 -11 0
-234 -7 0
-91 -134 0
-87 -138 0
-79 -146 0
-158 -67 0
-31 -194 0
-206 -19 0
-11 -214 0
-7 -218 0
327 -323 0
-322 326 0
-260 264 0
