p cnf 5592 856
128 0
256 0
384 0
-421 3 0
-422 5 0
-423 7 0
-15 423 422 421 0
-469 3 0
-470 5 0
-471 7 0
-23 471 470 469 0
-553 7 0
-554 11 0
-554 21 0
-555 19 0
-555 13 0
-31 553 555 554 0
-570 31 0
-571 29 0
-572 27 0
-573 23 0
-574 15 0
-32 572 571 570 573 574 0
-590 16 0
-591 15 0
-592 14 0
-593 12 0
-594 8 0
-32 593 591 590 592 594 0
-619 3 0
-620 5 0
-621 7 0
-39 621 620 619 0
-679 5 0
-680 37 0
-681 13 0
-45 681 679 680 0
-703 7 0
-704 37 0
-705 13 0
705 -47 704 703 0
-720 47 0
-721 4 0
-721 45 0
-722 6 0
-723 39 0
-724 15 0
-48 722 721 720 723 724 0
-735 40 0
-736 39 0
-737 38 0
-738 13 0
-738 36 0
-739 8 0
-48 735 736 738 737 739 0
-740 16 0
-741 15 0
-742 14 0
-743 37 0
-744 8 0
-48 742 741 740 743 744 0
-757 3 0
-758 35 0
-759 19 0
-51 758 757 759 0
-781 5 0
-782 37 0
-783 21 0
-53 783 781 782 0
-805 7 0
-806 37 0
-807 35 0
-55 805 807 806 0
-822 55 0
-823 53 0
-824 6 0
-824 51 0
-825 39 0
-826 23 0
-56 823 825 822 824 826 0
-837 40 0
-838 39 0
-839 38 0
-840 21 0
-841 8 0
-56 840 841 839 837 838 0
-960 3 0
-961 7 0
-962 11 0
-963 45 0
-964 35 0
-63 962 960 963 961 964 0
-970 55 0
-971 53 0
-972 51 0
-973 39 0
-974 23 0
-63 972 971 970 973 974 0
-975 47 0
-976 19 0
-977 21 0
-978 39 0
-979 15 0
-63 978 975 976 977 979 0
-1051 69 0
-1052 6 0
-1053 7 0
-72 1051 1053 1052 0
-1123 7 0
-1124 11 0
-1124 69 0
-1125 67 0
-1125 13 0
1123 1125 -79 1124 0
-1160 65 0
-1161 15 0
-1162 67 0
-1162 14 0
-1163 69 0
-1163 12 0
-1164 8 0
-80 1163 1160 1164 1162 1161 0
-1225 7 0
-1226 69 0
-1227 67 0
-1227 21 0
-87 1227 1226 1225 0
-1262 65 0
-1263 23 0
-1264 67 0
-1265 69 0
-1266 8 0
-88 1265 1262 1266 1264 1263 0
-1400 65 0
-1401 67 0
-1402 69 0
-1403 23 0
-1404 15 0
-95 1402 1400 1401 1404 1403 0
-1471 5 0
-1472 69 0
-1473 65 0
-101 1472 1471 1473 0
-1495 7 0
-1496 35 0
-1496 69 0
-1497 67 0
-1497 37 0
-103 1495 1497 1496 0
-1507 103 0
-1508 3 0
-1509 5 0
-1510 72 0
-1511 65 0
-104 1510 1508 1509 1507 1511 0
-1532 65 0
-1533 39 0
-1534 38 0
-1535 69 0
-1536 8 0
-104 1535 1532 1536 1534 1533 0
-1561 97 0
-1562 35 0
-1563 41 0
-107 1563 1562 1561 0
-1630 102 0
-1631 101 0
-1632 13 0
-1633 70 0
-1634 38 0
-110 1632 1633 1631 1630 1634 0
-1645 3 0
-1646 5 0
-1647 103 0
-1648 79 0
-1649 65 0
-111 1647 1646 1645 1648 1649 0
-1650 3 0
-1651 7 0
-1652 101 0
-1653 35 0
-1654 67 0
-111 1651 1650 1653 1652 1654 0
-1660 103 0
-1670 65 0
-1671 45 0
-1672 69 0
-1673 39 0
-1674 15 0
-111 1674 1670 1672 1671 1673 0
-2035 7 0
-2035 121 0
-2036 11 0
-2036 117 0
-2037 19 0
-2037 109 0
35 -2038 0
93 -2038 0
-2039 67 0
-2039 61 0
2038 2035 -127 2037 2036 2039 0
-2040 7 0
13 -2041 0
-2041 115 0
-2042 21 0
-2042 107 0
-2043 37 0
-2043 91 0
-2044 69 0
-2044 59 0
2041 2043 -127 2042 2040 2044 0
-2045 117 0
-2046 13 0
-2046 115 0
-2047 103 0
-2048 87 0
-2049 55 0
2046 2048 -127 2045 2047 2049 0
-2050 19 0
-2050 109 0
-2051 21 0
-2051 107 0
-2052 103 0
49 -2053 0
-2053 79 0
-2054 47 0
2053 2054 -127 2050 2052 2051 0
-2055 35 0
93 -2055 0
-2056 37 0
-2056 91 0
-2057 87 0
-2058 79 0
-2059 97 0
-2059 31 0
2057 2055 -127 2059 2058 2056 0
-2060 67 0
-2060 61 0
-2061 69 0
-2061 59 0
-2062 55 0
81 -2063 0
-2063 47 0
-2064 31 0
2061 2063 -127 2060 2062 2064 0
-2096 13 0
-2097 104 0
-2100 112 0
-2101 111 0
-2102 19 0
110 -2102 0
-2103 21 0
-2104 104 0
-2105 80 0
-2106 48 0
2102 2101 2103 2104 2105 2106 -128 2100 0
-2107 96 0
-2108 95 0
-2109 35 0
-2110 37 0
-2111 88 0
-2112 80 0
-2113 32 0
2108 2109 2110 2111 2112 2113 -128 2107 0
-2114 65 0
-2115 63 0
-2116 67 0
-2117 69 0
-2118 56 0
-2119 48 0
-2120 32 0
2116 2115 2117 2118 2119 2120 -128 2114 0
-2277 134 0
-2278 138 0
-2278 149 0
-2279 146 0
-2279 141 0
-158 2278 2279 2277 0
-2343 130 0
-2344 133 0
-2345 161 0
-166 2343 2344 2345 0
-2427 134 0
-2427 169 0
-2428 138 0
-2428 165 0
-2429 162 0
141 -2429 0
-174 2428 2427 2429 0
-2529 134 0
-2530 165 0
-2531 162 0
-2531 149 0
2530 2531 -182 2529 0
-2532 134 0
-2533 149 0
-2534 165 0
2534 2533 -182 2532 0
-2568 133 0
-2569 179 0
-2570 135 0
-2571 149 0
-2572 148 0
-184 2570 2568 2571 2569 2572 0
-2649 141 0
-2650 149 0
-2651 165 0
2649 2651 -189 2650 0
-2763 130 0
-2764 133 0
-2765 134 0
-198 2765 2764 2763 0
-2903 146 0
-2939 149 0
-2949 134 0
-2949 209 0
-2950 146 0
-2950 197 0
-2951 194 0
-2951 149 0
-214 2949 2950 2951 0
-3015 138 0
-3016 146 0
-3017 194 0
3015 -218 3016 3017 0
-3069 141 0
-3069 209 0
-3070 149 0
-3071 197 0
3069 3070 3071 -221 0
-3100 150 0
-3219 134 0
-3220 197 0
-3221 194 0
-230 3220 3221 3219 0
-3253 230 0
-3254 229 0
-3255 135 0
-3256 198 0
-3257 166 0
-232 3255 3253 3254 3256 3257 0
-3339 141 0
-3340 165 0
-3341 197 0
-237 3339 3340 3341 0
-3534 230 0
-3535 229 0
-3536 149 0
-3537 177 0
-3538 166 0
-246 3536 3537 3535 3534 3538 0
-3741 134 0
-3741 249 0
-3742 138 0
-3742 245 0
146 -3743 0
-3744 221 0
-3745 194 0
189 -3745 0
3743 3744 -254 3745 3741 3742 0
-3746 134 0
-3746 249 0
-3747 141 0
-3747 242 0
149 -3748 0
234 -3748 0
165 -3749 0
-3749 218 0
-3750 197 0
-3750 186 0
3747 3749 -254 3748 3746 3750 0
-3751 138 0
-3751 245 0
-3752 141 0
-3752 242 0
153 -3753 0
-3753 230 0
-3754 169 0
-3754 214 0
-3755 182 0
3755 3752 -254 3751 3753 3754 0
-3756 146 0
237 -3756 0
-3757 149 0
-3757 234 0
-3758 153 0
-3758 230 0
-3759 177 0
-3759 206 0
209 -3760 0
-3760 174 0
3760 3758 -254 3756 3759 3757 0
-3761 162 0
-3761 221 0
-3762 165 0
-3762 218 0
-3763 214 0
177 -3764 0
-3764 206 0
-3765 225 0
-3765 158 0
3762 3764 -254 3761 3765 3763 0
194 -3766 0
189 -3766 0
-3767 197 0
-3767 186 0
201 -3768 0
182 -3768 0
209 -3769 0
-3769 174 0
-3770 225 0
-3770 158 0
3766 3768 -254 3770 3767 3769 0
-3829 248 0
-3830 247 0
-3831 246 0
-3832 244 0
-3833 232 0
-3834 169 0
-3835 184 0
3830 3831 3832 3833 3834 3835 -256 3829 0
-3846 165 0
-3869 258 0
-3870 259 0
-3871 260 0
-268 3871 3870 3869 0
-3893 259 0
267 -3894 0
-3895 263 0
3894 -271 3893 3895 0
-3917 258 0
-3918 259 0
-3919 273 0
-276 3917 3918 3919 0
-3965 258 0
-3966 274 0
-3967 273 0
-282 3966 3965 3967 0
-3989 260 0
266 -3990 0
-3990 275 0
-3991 274 0
267 -3991 0
3991 3989 3990 -284 0
-4037 258 0
-4038 259 0
284 -4039 0
-4040 280 0
-4041 273 0
4039 -288 4038 4037 4040 4041 0
-4047 259 0
285 -4048 0
-4049 282 0
-4050 278 0
-4051 275 0
4048 4049 4047 -288 4051 4050 0
-4061 264 0
-4062 273 0
-4063 274 0
271 -4063 0
-4064 275 0
270 -4064 0
-4065 268 0
-4066 264 0
4065 -288 4062 4066 4064 4063 0
-4067 258 0
-4068 259 0
-4069 260 0
-292 4069 4068 4067 0
-4139 260 0
-4140 266 0
-4140 291 0
-4141 290 0
-300 4140 4139 4141 0
-4202 300 0
-4203 262 0
-4204 263 0
-4205 292 0
-4206 268 0
-304 4202 4203 4205 4204 4206 0
-4217 258 0
-4218 273 0
-4219 274 0
-306 4219 4218 4217 0
-4241 260 0
-4242 274 0
-4242 291 0
-4243 290 0
-4243 275 0
-308 4242 4243 4241 0
-4299 259 0
-4300 260 0
-4301 306 0
-4302 275 0
-4303 278 0
-312 4300 4299 4302 4301 4303 0
-4304 308 0
-4305 307 0
-4306 306 0
-4307 292 0
-4308 276 0
-312 4304 4306 4307 4305 4308 0
-4331 266 0
-4331 305 0
-4332 274 0
-4333 290 0
-4333 281 0
-314 4331 4332 4333 0
-4343 305 0
-4344 297 0
-4345 281 0
4343 -315 4344 4345 0
-4370 308 0
-4371 307 0
-4372 306 0
-4373 292 0
-4374 276 0
-316 4370 4372 4371 4373 4374 0
-4375 273 0
-4376 274 0
-4377 275 0
-4378 292 0
-4379 268 0
-316 4379 4375 4377 4376 4378 0
-4487 258 0
-4488 259 0
-4489 260 0
-324 4489 4488 4487 0
-4622 332 0
-4623 262 0
-4624 263 0
-4625 324 0
-4626 268 0
-336 4625 4622 4624 4623 4626 0
-4637 258 0
-4638 273 0
-4639 274 0
-338 4639 4638 4637 0
-4661 260 0
-4661 337 0
-4662 274 0
-4663 275 0
-340 4661 4663 4662 0
-4719 259 0
-4720 260 0
-4721 338 0
-4722 275 0
-4723 278 0
-344 4720 4719 4722 4723 4721 0
-4751 266 0
-4752 274 0
-4753 281 0
4751 -346 4752 4753 0
-4763 337 0
-4764 275 0
-4765 323 0
-4765 281 0
4763 -347 4764 4765 0
-4931 260 0
-4932 323 0
-4933 291 0
-356 4933 4931 4932 0
-4988 295 0
-5007 292 0
-5008 264 0
-5068 324 0
-5069 268 0
-5201 275 0
-5202 337 0
-5203 323 0
-5203 305 0
-371 5202 5201 5203 0
-5223 259 0
-5224 260 0
-5225 275 0
-5226 338 0
-5227 306 0
-372 5226 5223 5224 5225 5227 0
-5345 281 0
-5346 297 0
-5347 305 0
5346 5345 -377 5347 0
-5417 260 0
-5417 377 0
-5418 371 0
-5419 274 0
-5420 290 0
-5420 347 0
-5421 322 0
-5421 315 0
5418 5421 -380 5417 5420 5419 0
-5422 260 0
377 -5422 0
-5423 370 0
-5424 275 0
-5424 362 0
-5425 291 0
-5425 346 0
-5426 323 0
-5426 314 0
5423 5424 -380 5426 5425 5422 0
-5427 266 0
-5427 371 0
267 -5428 0
-5428 370 0
-5429 356 0
297 -5430 0
-5430 340 0
-5431 308 0
5431 5428 -380 5429 5430 5427 0
274 -5432 0
363 -5432 0
-5433 275 0
-5433 362 0
-5434 281 0
-5434 356 0
305 -5435 0
-5435 332 0
337 -5436 0
300 -5436 0
5432 5435 -380 5436 5433 5434 0
-5437 290 0
-5437 347 0
-5438 291 0
-5438 346 0
-5439 340 0
-5440 332 0
284 -5441 0
5441 5439 -380 5437 5440 5438 0
-5442 322 0
-5442 315 0
-5443 323 0
-5443 314 0
-5444 308 0
-5445 337 0
-5445 300 0
353 -5446 0
-5446 284 0
5444 5446 -380 5442 5443 5445 0
-5568 372 0
-5570 344 0
-5571 312 0
-5577 336 0
-5578 304 0
-5585 288 0
-5586 320 0
-5587 319 0
-5588 323 0
-5589 316 0
-5590 312 0
-5591 304 0
288 -5592 0
5588 5587 5589 5590 5591 5592 -384 5586 0
-249 -264 0
-247 -266 0
-242 -271 0
-279 -234 0
-229 -284 0
-225 -288 0
-295 -218 0
-304 -209 0
-307 -206 0
-319 -194 0
-346 -167 0
-136 -377 0
-245 -267 -2 0
-275 -237 -2 0
-221 -291 -2 0
-315 -197 -2 0
-363 -149 -2 0
-371 -141 -2 0
-249 -8 0
-281 -225 -8 0
-377 -8 0
-12 -245 0
-12 -305 -197 0
-12 -353 -149 0
-244 -13 0
-292 -13 -209 0
-307 -13 -194 0
-148 -13 -353 0
-14 -209 -291 0
-14 -371 0
-15 -225 -274 0
-23 -234 0
-27 -197 -290 0
-29 -356 0
-32 -225 0
-270 -209 -35 0
-201 -278 -35 0
-285 -194 -35 0
-36 -281 -197 0
-38 -347 0
-39 -346 0
-41 -279 -194 0
-323 -45 -146 0
-45 -340 0
-48 -209 0
-48 -337 0
-271 -49 -194 0
-51 -266 -197 0
-53 -332 0
-68 -189 0
-305 -141 -68 0
-179 -266 -69 0
-316 -69 0
-267 -70 -177 0
-169 -70 -275 0
-153 -70 -291 0
-315 -70 0
-80 -177 0
-80 -305 0
-304 -81 0
-88 -297 0
-91 -162 -261 0
-164 -93 0
-290 -93 -131 0
-292 -93 0
-97 -288 0
-101 -284 0
-153 -104 0
-281 -104 0
-150 -107 0
-107 -146 -261 0
-107 -278 0
-111 -274 0
-138 -115 -261 0
-115 -270 0
-268 -117 0
-121 -264 0
-3 0
-5 0
-65 0
2 0
127 0
-323 -189 0
-347 -165 0
-248 0
-245 -260 0
-230 -275 0
-214 -291 0
-308 -197 0
-323 -182 0
-340 -165 0
-356 -149 0
-371 -134 0
-230 -267 0
-291 -206 0
-197 -300 0
-323 -174 0
-332 -165 0
-356 -141 0
-135 -362 0
-221 -260 0
-263 -218 0
-275 -206 0
-280 -201 0
-197 -284 0
-323 -158 0
-332 -149 0
-340 -141 0
-134 -347 0
70 -69 0
-70 69 0
-67 68 0
8 -7 0
-8 7 0
-130 0
-133 0
-161 0
131 0
254 0
-266 -117 0
-109 -274 0
-314 -69 0
-322 -61 0
-37 -346 0
-362 -21 0
-13 -370 0
-117 -260 0
-103 -274 0
-290 -87 0
-72 -305 0
-308 -69 0
-322 -55 0
-340 -37 0
-356 -21 0
-370 -7 0
-6 -371 0
-112 0
-109 -260 0
-103 -266 0
-102 -267 0
-290 -79 0
-297 -72 0
-69 -300 0
-322 -47 0
-332 -37 0
-356 -13 0
-362 -7 0
-61 -260 0
-262 -59 0
-55 -266 0
-47 -274 0
-40 -281 0
-37 -284 0
-31 -290 0
-21 -300 0
-16 -305 0
-308 -13 0
-314 -7 0
-315 -6 0
-320 0
167 -165 0
-162 164 0
-134 136 0
-258 0
-259 0
-273 0
261 0
380 0
-186 -67 0
-59 -194 0
-218 -35 0
-19 -234 0
-242 -11 0
-134 -115 0
-103 -146 0
-87 -162 0
-72 -177 0
-67 -182 0
-55 -194 0
-214 -35 0
-230 -19 0
-242 -7 0
-96 0
-138 -87 0
-79 -146 0
-158 -67 0
-31 -194 0
-206 -19 0
-11 -214 0
-7 -218 0
-134 -59 0
-47 -146 0
-158 -35 0
-31 -162 0
-174 -19 0
-11 -182 0
-186 -7 0
-4 -189 0
-275 279 0
278 -274 0
-278 274 0
264 -260 0
-264 260 0
