p cnf 5592 13803
1 0
128 0
129 0
256 0
257 0
384 0
-385 2 0
-385 7 0
-386 3 0
-386 6 0
-387 5 0
-387 4 0
-8 385 386 387 0
-388 2 0
-388 7 0
-389 4 0
-389 5 0
-390 6 0
-390 3 0
-8 388 389 390 0
-391 3 0
-391 6 0
-392 4 0
-392 5 0
-393 7 0
-393 2 0
-8 391 392 393 0
-394 5 0
-394 4 0
-395 6 0
-395 3 0
-396 7 0
-396 2 0
-8 394 395 396 0
-397 2 0
-397 11 0
-398 3 0
-398 10 0
-399 9 0
-399 4 0
-12 397 398 399 0
-400 2 0
-400 11 0
-401 4 0
-401 9 0
-402 10 0
-402 3 0
-12 400 401 402 0
-403 3 0
-403 10 0
-404 4 0
-404 9 0
-405 11 0
-405 2 0
-12 403 404 405 0
-406 9 0
-406 4 0
-407 10 0
-407 3 0
-408 11 0
-408 2 0
-12 406 407 408 0
-409 2 0
-409 13 0
-410 5 0
-410 10 0
-411 9 0
-411 6 0
-14 409 410 411 0
-412 2 0
-412 13 0
-413 6 0
-413 9 0
-414 10 0
-414 5 0
-14 412 413 414 0
-415 5 0
-415 10 0
-416 6 0
-416 9 0
-417 13 0
-417 2 0
-14 415 416 417 0
-418 9 0
-418 6 0
-419 10 0
-419 5 0
-420 13 0
-420 2 0
-14 418 419 420 0
-421 3 0
-421 13 0
-422 5 0
-422 11 0
-423 9 0
-423 7 0
-15 421 422 423 0
-424 3 0
-424 13 0
-425 7 0
-425 9 0
-426 11 0
-426 5 0
-15 424 425 426 0
-427 5 0
-427 11 0
-428 7 0
-428 9 0
-429 13 0
-429 3 0
-15 427 428 429 0
-430 9 0
-430 7 0
-431 11 0
-431 5 0
-432 13 0
-432 3 0
-15 430 431 432 0
-433 4 0
-433 13 0
-434 6 0
-434 11 0
-435 10 0
-435 7 0
-16 433 434 435 0
-436 4 0
-436 13 0
-437 7 0
-437 10 0
-438 11 0
-438 6 0
-16 436 437 438 0
-439 6 0
-439 11 0
-440 7 0
-440 10 0
-441 13 0
-441 4 0
-16 439 440 441 0
-442 10 0
-442 7 0
-443 11 0
-443 6 0
-444 13 0
-444 4 0
-16 442 443 444 0
-445 2 0
-445 19 0
-446 3 0
-446 18 0
-447 17 0
-447 4 0
-20 445 446 447 0
-448 2 0
-448 19 0
-449 4 0
-449 17 0
-450 18 0
-450 3 0
-20 448 449 450 0
-451 3 0
-451 18 0
-452 4 0
-452 17 0
-453 19 0
-453 2 0
-20 451 452 453 0
-454 17 0
-454 4 0
-455 18 0
-455 3 0
-456 19 0
-456 2 0
-20 454 455 456 0
-457 2 0
-457 21 0
-458 5 0
-458 18 0
-459 17 0
-459 6 0
-22 457 458 459 0
-460 2 0
-460 21 0
-461 6 0
-461 17 0
-462 18 0
-462 5 0
-22 460 461 462 0
-463 5 0
-463 18 0
-464 6 0
-464 17 0
-465 21 0
-465 2 0
-22 463 464 465 0
-466 17 0
-466 6 0
-467 18 0
-467 5 0
-468 21 0
-468 2 0
-22 466 467 468 0
-469 3 0
-469 21 0
-470 5 0
-470 19 0
-471 17 0
-471 7 0
-23 469 470 471 0
-472 3 0
-472 21 0
-473 7 0
-473 17 0
-474 19 0
-474 5 0
-23 472 473 474 0
-475 5 0
-475 19 0
-476 7 0
-476 17 0
-477 21 0
-477 3 0
-23 475 476 477 0
-478 17 0
-478 7 0
-479 19 0
-479 5 0
-480 21 0
-480 3 0
-23 478 479 480 0
-481 4 0
-481 21 0
-482 6 0
-482 19 0
-483 18 0
-483 7 0
-24 481 482 483 0
-484 4 0
-484 21 0
-485 7 0
-485 18 0
-486 19 0
-486 6 0
-24 484 485 486 0
-487 6 0
-487 19 0
-488 7 0
-488 18 0
-489 21 0
-489 4 0
-24 487 488 489 0
-490 18 0
-490 7 0
-491 19 0
-491 6 0
-492 21 0
-492 4 0
-24 490 491 492 0
-493 2 0
-493 25 0
-494 9 0
-494 18 0
-495 17 0
-495 10 0
-26 493 494 495 0
-496 2 0
-496 25 0
-497 10 0
-497 17 0
-498 18 0
-498 9 0
-26 496 497 498 0
-499 9 0
-499 18 0
-500 10 0
-500 17 0
-501 25 0
-501 2 0
-26 499 500 501 0
-502 17 0
-502 10 0
-503 18 0
-503 9 0
-504 25 0
-504 2 0
-26 502 503 504 0
-505 3 0
-505 25 0
-506 9 0
-506 19 0
-507 17 0
-507 11 0
-27 505 506 507 0
-508 3 0
-508 25 0
-509 11 0
-509 17 0
-510 19 0
-510 9 0
-27 508 509 510 0
-511 9 0
-511 19 0
-512 11 0
-512 17 0
-513 25 0
-513 3 0
-27 511 512 513 0
-514 17 0
-514 11 0
-515 19 0
-515 9 0
-516 25 0
-516 3 0
-27 514 515 516 0
-517 4 0
-517 25 0
-518 10 0
-518 19 0
-519 18 0
-519 11 0
-28 517 518 519 0
-520 4 0
-520 25 0
-521 11 0
-521 18 0
-522 19 0
-522 10 0
-28 520 521 522 0
-523 10 0
-523 19 0
-524 11 0
-524 18 0
-525 25 0
-525 4 0
-28 523 524 525 0
-526 18 0
-526 11 0
-527 19 0
-527 10 0
-528 25 0
-528 4 0
-28 526 527 528 0
-529 5 0
-529 25 0
-530 9 0
-530 21 0
-531 17 0
-531 13 0
-29 529 530 531 0
-532 5 0
-532 25 0
-533 13 0
-533 17 0
-534 21 0
-534 9 0
-29 532 533 534 0
-535 9 0
-535 21 0
-536 13 0
-536 17 0
-537 25 0
-537 5 0
-29 535 536 537 0
-538 17 0
-538 13 0
-539 21 0
-539 9 0
-540 25 0
-540 5 0
-29 538 539 540 0
-541 6 0
-541 25 0
-542 10 0
-542 21 0
-543 18 0
-543 13 0
-30 541 542 543 0
-544 6 0
-544 25 0
-545 13 0
-545 18 0
-546 21 0
-546 10 0
-30 544 545 546 0
-547 10 0
-547 21 0
-548 13 0
-548 18 0
-549 25 0
-549 6 0
-30 547 548 549 0
-550 18 0
-550 13 0
-551 21 0
-551 10 0
-552 25 0
-552 6 0
-30 550 551 552 0
-553 7 0
-553 25 0
-554 11 0
-554 21 0
-555 19 0
-555 13 0
-31 553 554 555 0
-556 7 0
-556 25 0
-557 13 0
-557 19 0
-558 21 0
-558 11 0
-31 556 557 558 0
-559 11 0
-559 21 0
-560 13 0
-560 19 0
-561 25 0
-561 7 0
-31 559 560 561 0
-562 19 0
-562 13 0
-563 21 0
-563 11 0
-564 25 0
-564 7 0
-31 562 563 564 0
-565 2 0
-565 31 0
-566 3 0
-566 30 0
-567 5 0
-567 28 0
-568 9 0
-568 24 0
-569 17 0
-569 16 0
-32 565 566 567 568 569 0
-570 2 0
-570 31 0
-571 4 0
-571 29 0
-572 6 0
-572 27 0
-573 10 0
-573 23 0
-574 18 0
-574 15 0
-32 570 571 572 573 574 0
-575 3 0
-575 30 0
-576 4 0
-576 29 0
-577 7 0
-577 26 0
-578 11 0
-578 22 0
-579 19 0
-579 14 0
-32 575 576 577 578 579 0
-580 5 0
-580 28 0
-581 6 0
-581 27 0
-582 7 0
-582 26 0
-583 13 0
-583 20 0
-584 21 0
-584 12 0
-32 580 581 582 583 584 0
-585 9 0
-585 24 0
-586 10 0
-586 23 0
-587 11 0
-587 22 0
-588 13 0
-588 20 0
-589 25 0
-589 8 0
-32 585 586 587 588 589 0
-590 17 0
-590 16 0
-591 18 0
-591 15 0
-592 19 0
-592 14 0
-593 21 0
-593 12 0
-594 25 0
-594 8 0
-32 590 591 592 593 594 0
-595 2 0
-595 35 0
-596 3 0
-596 34 0
-597 33 0
-597 4 0
-36 595 596 597 0
-598 2 0
-598 35 0
-599 4 0
-599 33 0
-600 34 0
-600 3 0
-36 598 599 600 0
-601 3 0
-601 34 0
-602 4 0
-602 33 0
-603 35 0
-603 2 0
-36 601 602 603 0
-604 33 0
-604 4 0
-605 34 0
-605 3 0
-606 35 0
-606 2 0
-36 604 605 606 0
-607 2 0
-607 37 0
-608 5 0
-608 34 0
-609 33 0
-609 6 0
-38 607 608 609 0
-610 2 0
-610 37 0
-611 6 0
-611 33 0
-612 34 0
-612 5 0
-38 610 611 612 0
-613 5 0
-613 34 0
-614 6 0
-614 33 0
-615 37 0
-615 2 0
-38 613 614 615 0
-616 33 0
-616 6 0
-617 34 0
-617 5 0
-618 37 0
-618 2 0
-38 616 617 618 0
-619 3 0
-619 37 0
-620 5 0
-620 35 0
-621 33 0
-621 7 0
-39 619 620 621 0
-622 3 0
-622 37 0
-623 7 0
-623 33 0
-624 35 0
-624 5 0
-39 622 623 624 0
-625 5 0
-625 35 0
-626 7 0
-626 33 0
-627 37 0
-627 3 0
-39 625 626 627 0
-628 33 0
-628 7 0
-629 35 0
-629 5 0
-630 37 0
-630 3 0
-39 628 629 630 0
-631 4 0
-631 37 0
-632 6 0
-632 35 0
-633 34 0
-633 7 0
-40 631 632 633 0
-634 4 0
-634 37 0
-635 7 0
-635 34 0
-636 35 0
-636 6 0
-40 634 635 636 0
-637 6 0
-637 35 0
-638 7 0
-638 34 0
-639 37 0
-639 4 0
-40 637 638 639 0
-640 34 0
-640 7 0
-641 35 0
-641 6 0
-642 37 0
-642 4 0
-40 640 641 642 0
-643 2 0
-643 41 0
-644 9 0
-644 34 0
-645 33 0
-645 10 0
-42 643 644 645 0
-646 2 0
-646 41 0
-647 10 0
-647 33 0
-648 34 0
-648 9 0
-42 646 647 648 0
-649 9 0
-649 34 0
-650 10 0
-650 33 0
-651 41 0
-651 2 0
-42 649 650 651 0
-652 33 0
-652 10 0
-653 34 0
-653 9 0
-654 41 0
-654 2 0
-42 652 653 654 0
-655 3 0
-655 41 0
-656 9 0
-656 35 0
-657 33 0
-657 11 0
-43 655 656 657 0
-658 3 0
-658 41 0
-659 11 0
-659 33 0
-660 35 0
-660 9 0
-43 658 659 660 0
-661 9 0
-661 35 0
-662 11 0
-662 33 0
-663 41 0
-663 3 0
-43 661 662 663 0
-664 33 0
-664 11 0
-665 35 0
-665 9 0
-666 41 0
-666 3 0
-43 664 665 666 0
-667 4 0
-667 41 0
-668 10 0
-668 35 0
-669 34 0
-669 11 0
-44 667 668 669 0
-670 4 0
-670 41 0
-671 11 0
-671 34 0
-672 35 0
-672 10 0
-44 670 671 672 0
-673 10 0
-673 35 0
-674 11 0
-674 34 0
-675 41 0
-675 4 0
-44 673 674 675 0
-676 34 0
-676 11 0
-677 35 0
-677 10 0
-678 41 0
-678 4 0
-44 676 677 678 0
-679 5 0
-679 41 0
-680 9 0
-680 37 0
-681 33 0
-681 13 0
-45 679 680 681 0
-682 5 0
-682 41 0
-683 13 0
-683 33 0
-684 37 0
-684 9 0
-45 682 683 684 0
-685 9 0
-685 37 0
-686 13 0
-686 33 0
-687 41 0
-687 5 0
-45 685 686 687 0
-688 33 0
-688 13 0
-689 37 0
-689 9 0
-690 41 0
-690 5 0
-45 688 689 690 0
-691 6 0
-691 41 0
-692 10 0
-692 37 0
-693 34 0
-693 13 0
-46 691 692 693 0
-694 6 0
-694 41 0
-695 13 0
-695 34 0
-696 37 0
-696 10 0
-46 694 695 696 0
-697 10 0
-697 37 0
-698 13 0
-698 34 0
-699 41 0
-699 6 0
-46 697 698 699 0
-700 34 0
-700 13 0
-701 37 0
-701 10 0
-702 41 0
-702 6 0
-46 700 701 702 0
-703 7 0
-703 41 0
-704 11 0
-704 37 0
-705 35 0
-705 13 0
-47 703 704 705 0
-706 7 0
-706 41 0
-707 13 0
-707 35 0
-708 37 0
-708 11 0
-47 706 707 708 0
-709 11 0
-709 37 0
-710 13 0
-710 35 0
-711 41 0
-711 7 0
-47 709 710 711 0
-712 35 0
-712 13 0
-713 37 0
-713 11 0
-714 41 0
-714 7 0
-47 712 713 714 0
-715 2 0
-715 47 0
-716 3 0
-716 46 0
-717 5 0
-717 44 0
-718 9 0
-718 40 0
-719 33 0
-719 16 0
-48 715 716 717 718 719 0
-720 2 0
-720 47 0
-721 4 0
-721 45 0
-722 6 0
-722 43 0
-723 10 0
-723 39 0
-724 34 0
-724 15 0
-48 720 721 722 723 724 0
-725 3 0
-725 46 0
-726 4 0
-726 45 0
-727 7 0
-727 42 0
-728 11 0
-728 38 0
-729 35 0
-729 14 0
-48 725 726 727 728 729 0
-730 5 0
-730 44 0
-731 6 0
-731 43 0
-732 7 0
-732 42 0
-733 13 0
-733 36 0
-734 37 0
-734 12 0
-48 730 731 732 733 734 0
-735 9 0
-735 40 0
-736 10 0
-736 39 0
-737 11 0
-737 38 0
-738 13 0
-738 36 0
-739 41 0
-739 8 0
-48 735 736 737 738 739 0
-740 33 0
-740 16 0
-741 34 0
-741 15 0
-742 35 0
-742 14 0
-743 37 0
-743 12 0
-744 41 0
-744 8 0
-48 740 741 742 743 744 0
-745 2 0
-745 49 0
-746 17 0
-746 34 0
-747 33 0
-747 18 0
-50 745 746 747 0
-748 2 0
-748 49 0
-749 18 0
-749 33 0
-750 34 0
-750 17 0
-50 748 749 750 0
-751 17 0
-751 34 0
-752 18 0
-752 33 0
-753 49 0
-753 2 0
-50 751 752 753 0
-754 33 0
-754 18 0
-755 34 0
-755 17 0
-756 49 0
-756 2 0
-50 754 755 756 0
-757 3 0
-757 49 0
-758 17 0
-758 35 0
-759 33 0
-759 19 0
-51 757 758 759 0
-760 3 0
-760 49 0
-761 19 0
-761 33 0
-762 35 0
-762 17 0
-51 760 761 762 0
-763 17 0
-763 35 0
-764 19 0
-764 33 0
-765 49 0
-765 3 0
-51 763 764 765 0
-766 33 0
-766 19 0
-767 35 0
-767 17 0
-768 49 0
-768 3 0
-51 766 767 768 0
-769 4 0
-769 49 0
-770 18 0
-770 35 0
-771 34 0
-771 19 0
-52 769 770 771 0
-772 4 0
-772 49 0
-773 19 0
-773 34 0
-774 35 0
-774 18 0
-52 772 773 774 0
-775 18 0
-775 35 0
-776 19 0
-776 34 0
-777 49 0
-777 4 0
-52 775 776 777 0
-778 34 0
-778 19 0
-779 35 0
-779 18 0
-780 49 0
-780 4 0
-52 778 779 780 0
-781 5 0
-781 49 0
-782 17 0
-782 37 0
-783 33 0
-783 21 0
-53 781 782 783 0
-784 5 0
-784 49 0
-785 21 0
-785 33 0
-786 37 0
-786 17 0
-53 784 785 786 0
-787 17 0
-787 37 0
-788 21 0
-788 33 0
-789 49 0
-789 5 0
-53 787 788 789 0
-790 33 0
-790 21 0
-791 37 0
-791 17 0
-792 49 0
-792 5 0
-53 790 791 792 0
-793 6 0
-793 49 0
-794 18 0
-794 37 0
-795 34 0
-795 21 0
-54 793 794 795 0
-796 6 0
-796 49 0
-797 21 0
-797 34 0
-798 37 0
-798 18 0
-54 796 797 798 0
-799 18 0
-799 37 0
-800 21 0
-800 34 0
-801 49 0
-801 6 0
-54 799 800 801 0
-802 34 0
-802 21 0
-803 37 0
-803 18 0
-804 49 0
-804 6 0
-54 802 803 804 0
-805 7 0
-805 49 0
-806 19 0
-806 37 0
-807 35 0
-807 21 0
-55 805 806 807 0
-808 7 0
-808 49 0
-809 21 0
-809 35 0
-810 37 0
-810 19 0
-55 808 809 810 0
-811 19 0
-811 37 0
-812 21 0
-812 35 0
-813 49 0
-813 7 0
-55 811 812 813 0
-814 35 0
-814 21 0
-815 37 0
-815 19 0
-816 49 0
-816 7 0
-55 814 815 816 0
-817 2 0
-817 55 0
-818 3 0
-818 54 0
-819 5 0
-819 52 0
-820 17 0
-820 40 0
-821 33 0
-821 24 0
-56 817 818 819 820 821 0
-822 2 0
-822 55 0
-823 4 0
-823 53 0
-824 6 0
-824 51 0
-825 18 0
-825 39 0
-826 34 0
-826 23 0
-56 822 823 824 825 826 0
-827 3 0
-827 54 0
-828 4 0
-828 53 0
-829 7 0
-829 50 0
-830 19 0
-830 38 0
-831 35 0
-831 22 0
-56 827 828 829 830 831 0
-832 5 0
-832 52 0
-833 6 0
-833 51 0
-834 7 0
-834 50 0
-835 21 0
-835 36 0
-836 37 0
-836 20 0
-56 832 833 834 835 836 0
-837 17 0
-837 40 0
-838 18 0
-838 39 0
-839 19 0
-839 38 0
-840 21 0
-840 36 0
-841 49 0
-841 8 0
-56 837 838 839 840 841 0
-842 33 0
-842 24 0
-843 34 0
-843 23 0
-844 35 0
-844 22 0
-845 37 0
-845 20 0
-846 49 0
-846 8 0
-56 842 843 844 845 846 0
-847 9 0
-847 49 0
-848 17 0
-848 41 0
-849 33 0
-849 25 0
-57 847 848 849 0
-850 9 0
-850 49 0
-851 25 0
-851 33 0
-852 41 0
-852 17 0
-57 850 851 852 0
-853 17 0
-853 41 0
-854 25 0
-854 33 0
-855 49 0
-855 9 0
-57 853 854 855 0
-856 33 0
-856 25 0
-857 41 0
-857 17 0
-858 49 0
-858 9 0
-57 856 857 858 0
-859 10 0
-859 49 0
-860 18 0
-860 41 0
-861 34 0
-861 25 0
-58 859 860 861 0
-862 10 0
-862 49 0
-863 25 0
-863 34 0
-864 41 0
-864 18 0
-58 862 863 864 0
-865 18 0
-865 41 0
-866 25 0
-866 34 0
-867 49 0
-867 10 0
-58 865 866 867 0
-868 34 0
-868 25 0
-869 41 0
-869 18 0
-870 49 0
-870 10 0
-58 868 869 870 0
-871 11 0
-871 49 0
-872 19 0
-872 41 0
-873 35 0
-873 25 0
-59 871 872 873 0
-874 11 0
-874 49 0
-875 25 0
-875 35 0
-876 41 0
-876 19 0
-59 874 875 876 0
-877 19 0
-877 41 0
-878 25 0
-878 35 0
-879 49 0
-879 11 0
-59 877 878 879 0
-880 35 0
-880 25 0
-881 41 0
-881 19 0
-882 49 0
-882 11 0
-59 880 881 882 0
-883 2 0
-883 59 0
-884 3 0
-884 58 0
-885 9 0
-885 52 0
-886 17 0
-886 44 0
-887 33 0
-887 28 0
-60 883 884 885 886 887 0
-888 2 0
-888 59 0
-889 4 0
-889 57 0
-890 10 0
-890 51 0
-891 18 0
-891 43 0
-892 34 0
-892 27 0
-60 888 889 890 891 892 0
-893 3 0
-893 58 0
-894 4 0
-894 57 0
-895 11 0
-895 50 0
-896 19 0
-896 42 0
-897 35 0
-897 26 0
-60 893 894 895 896 897 0
-898 9 0
-898 52 0
-899 10 0
-899 51 0
-900 11 0
-900 50 0
-901 25 0
-901 36 0
-902 41 0
-902 20 0
-60 898 899 900 901 902 0
-903 17 0
-903 44 0
-904 18 0
-904 43 0
-905 19 0
-905 42 0
-906 25 0
-906 36 0
-907 49 0
-907 12 0
-60 903 904 905 906 907 0
-908 33 0
-908 28 0
-909 34 0
-909 27 0
-910 35 0
-910 26 0
-911 41 0
-911 20 0
-912 49 0
-912 12 0
-60 908 909 910 911 912 0
-913 13 0
-913 49 0
-914 21 0
-914 41 0
-915 37 0
-915 25 0
-61 913 914 915 0
-916 13 0
-916 49 0
-917 25 0
-917 37 0
-918 41 0
-918 21 0
-61 916 917 918 0
-919 21 0
-919 41 0
-920 25 0
-920 37 0
-921 49 0
-921 13 0
-61 919 920 921 0
-922 37 0
-922 25 0
-923 41 0
-923 21 0
-924 49 0
-924 13 0
-61 922 923 924 0
-925 2 0
-925 61 0
-926 5 0
-926 58 0
-927 9 0
-927 54 0
-928 17 0
-928 46 0
-929 33 0
-929 30 0
-62 925 926 927 928 929 0
-930 2 0
-930 61 0
-931 6 0
-931 57 0
-932 10 0
-932 53 0
-933 18 0
-933 45 0
-934 34 0
-934 29 0
-62 930 931 932 933 934 0
-935 5 0
-935 58 0
-936 6 0
-936 57 0
-937 13 0
-937 50 0
-938 21 0
-938 42 0
-939 37 0
-939 26 0
-62 935 936 937 938 939 0
-940 9 0
-940 54 0
-941 10 0
-941 53 0
-942 13 0
-942 50 0
-943 25 0
-943 38 0
-944 41 0
-944 22 0
-62 940 941 942 943 944 0
-945 17 0
-945 46 0
-946 18 0
-946 45 0
-947 21 0
-947 42 0
-948 25 0
-948 38 0
-949 49 0
-949 14 0
-62 945 946 947 948 949 0
-950 33 0
-950 30 0
-951 34 0
-951 29 0
-952 37 0
-952 26 0
-953 41 0
-953 22 0
-954 49 0
-954 14 0
-62 950 951 952 953 954 0
-955 3 0
-955 61 0
-956 5 0
-956 59 0
-957 9 0
-957 55 0
-958 17 0
-958 47 0
-959 33 0
-959 31 0
-63 955 956 957 958 959 0
-960 3 0
-960 61 0
-961 7 0
-961 57 0
-962 11 0
-962 53 0
-963 19 0
-963 45 0
-964 35 0
-964 29 0
-63 960 961 962 963 964 0
-965 5 0
-965 59 0
-966 7 0
-966 57 0
-967 13 0
-967 51 0
-968 21 0
-968 43 0
-969 37 0
-969 27 0
-63 965 966 967 968 969 0
-970 9 0
-970 55 0
-971 11 0
-971 53 0
-972 13 0
-972 51 0
-973 25 0
-973 39 0
-974 41 0
-974 23 0
-63 970 971 972 973 974 0
-975 17 0
-975 47 0
-976 19 0
-976 45 0
-977 21 0
-977 43 0
-978 25 0
-978 39 0
-979 49 0
-979 15 0
-63 975 976 977 978 979 0
-980 33 0
-980 31 0
-981 35 0
-981 29 0
-982 37 0
-982 27 0
-983 41 0
-983 23 0
-984 49 0
-984 15 0
-63 980 981 982 983 984 0
-985 4 0
-985 61 0
-986 6 0
-986 59 0
-987 10 0
-987 55 0
-988 18 0
-988 47 0
-989 34 0
-989 31 0
-64 985 986 987 988 989 0
-990 4 0
-990 61 0
-991 7 0
-991 58 0
-992 11 0
-992 54 0
-993 19 0
-993 46 0
-994 35 0
-994 30 0
-64 990 991 992 993 994 0
-995 6 0
-995 59 0
-996 7 0
-996 58 0
-997 13 0
-997 52 0
-998 21 0
-998 44 0
-999 37 0
-999 28 0
-64 995 996 997 998 999 0
-1000 10 0
-1000 55 0
-1001 11 0
-1001 54 0
-1002 13 0
-1002 52 0
-1003 25 0
-1003 40 0
-1004 41 0
-1004 24 0
-64 1000 1001 1002 1003 1004 0
-1005 18 0
-1005 47 0
-1006 19 0
-1006 46 0
-1007 21 0
-1007 44 0
-1008 25 0
-1008 40 0
-1009 49 0
-1009 16 0
-64 1005 1006 1007 1008 1009 0
-1010 34 0
-1010 31 0
-1011 35 0
-1011 30 0
-1012 37 0
-1012 28 0
-1013 41 0
-1013 24 0
-1014 49 0
-1014 16 0
-64 1010 1011 1012 1013 1014 0
-1015 2 0
-1015 67 0
-1016 3 0
-1016 66 0
-1017 65 0
-1017 4 0
-68 1015 1016 1017 0
-1018 2 0
-1018 67 0
-1019 4 0
-1019 65 0
-1020 66 0
-1020 3 0
-68 1018 1019 1020 0
-1021 3 0
-1021 66 0
-1022 4 0
-1022 65 0
-1023 67 0
-1023 2 0
-68 1021 1022 1023 0
-1024 65 0
-1024 4 0
-1025 66 0
-1025 3 0
-1026 67 0
-1026 2 0
-68 1024 1025 1026 0
-1027 2 0
-1027 69 0
-1028 5 0
-1028 66 0
-1029 65 0
-1029 6 0
-70 1027 1028 1029 0
-1030 2 0
-1030 69 0
-1031 6 0
-1031 65 0
-1032 66 0
-1032 5 0
-70 1030 1031 1032 0
-1033 5 0
-1033 66 0
-1034 6 0
-1034 65 0
-1035 69 0
-1035 2 0
-70 1033 1034 1035 0
-1036 65 0
-1036 6 0
-1037 66 0
-1037 5 0
-1038 69 0
-1038 2 0
-70 1036 1037 1038 0
-1039 3 0
-1039 69 0
-1040 5 0
-1040 67 0
-1041 65 0
-1041 7 0
-71 1039 1040 1041 0
-1042 3 0
-1042 69 0
-1043 7 0
-1043 65 0
-1044 67 0
-1044 5 0
-71 1042 1043 1044 0
-1045 5 0
-1045 67 0
-1046 7 0
-1046 65 0
-1047 69 0
-1047 3 0
-71 1045 1046 1047 0
-1048 65 0
-1048 7 0
-1049 67 0
-1049 5 0
-1050 69 0
-1050 3 0
-71 1048 1049 1050 0
-1051 4 0
-1051 69 0
-1052 6 0
-1052 67 0
-1053 66 0
-1053 7 0
-72 1051 1052 1053 0
-1054 4 0
-1054 69 0
-1055 7 0
-1055 66 0
-1056 67 0
-1056 6 0
-72 1054 1055 1056 0
-1057 6 0
-1057 67 0
-1058 7 0
-1058 66 0
-1059 69 0
-1059 4 0
-72 1057 1058 1059 0
-1060 66 0
-1060 7 0
-1061 67 0
-1061 6 0
-1062 69 0
-1062 4 0
-72 1060 1061 1062 0
-1063 2 0
-1063 73 0
-1064 9 0
-1064 66 0
-1065 65 0
-1065 10 0
-74 1063 1064 1065 0
-1066 2 0
-1066 73 0
-1067 10 0
-1067 65 0
-1068 66 0
-1068 9 0
-74 1066 1067 1068 0
-1069 9 0
-1069 66 0
-1070 10 0
-1070 65 0
-1071 73 0
-1071 2 0
-74 1069 1070 1071 0
-1072 65 0
-1072 10 0
-1073 66 0
-1073 9 0
-1074 73 0
-1074 2 0
-74 1072 1073 1074 0
-1075 3 0
-1075 73 0
-1076 9 0
-1076 67 0
-1077 65 0
-1077 11 0
-75 1075 1076 1077 0
-1078 3 0
-1078 73 0
-1079 11 0
-1079 65 0
-1080 67 0
-1080 9 0
-75 1078 1079 1080 0
-1081 9 0
-1081 67 0
-1082 11 0
-1082 65 0
-1083 73 0
-1083 3 0
-75 1081 1082 1083 0
-1084 65 0
-1084 11 0
-1085 67 0
-1085 9 0
-1086 73 0
-1086 3 0
-75 1084 1085 1086 0
-1087 4 0
-1087 73 0
-1088 10 0
-1088 67 0
-1089 66 0
-1089 11 0
-76 1087 1088 1089 0
-1090 4 0
-1090 73 0
-1091 11 0
-1091 66 0
-1092 67 0
-1092 10 0
-76 1090 1091 1092 0
-1093 10 0
-1093 67 0
-1094 11 0
-1094 66 0
-1095 73 0
-1095 4 0
-76 1093 1094 1095 0
-1096 66 0
-1096 11 0
-1097 67 0
-1097 10 0
-1098 73 0
-1098 4 0
-76 1096 1097 1098 0
-1099 5 0
-1099 73 0
-1100 9 0
-1100 69 0
-1101 65 0
-1101 13 0
-77 1099 1100 1101 0
-1102 5 0
-1102 73 0
-1103 13 0
-1103 65 0
-1104 69 0
-1104 9 0
-77 1102 1103 1104 0
-1105 9 0
-1105 69 0
-1106 13 0
-1106 65 0
-1107 73 0
-1107 5 0
-77 1105 1106 1107 0
-1108 65 0
-1108 13 0
-1109 69 0
-1109 9 0
-1110 73 0
-1110 5 0
-77 1108 1109 1110 0
-1111 6 0
-1111 73 0
-1112 10 0
-1112 69 0
-1113 66 0
-1113 13 0
-78 1111 1112 1113 0
-1114 6 0
-1114 73 0
-1115 13 0
-1115 66 0
-1116 69 0
-1116 10 0
-78 1114 1115 1116 0
-1117 10 0
-1117 69 0
-1118 13 0
-1118 66 0
-1119 73 0
-1119 6 0
-78 1117 1118 1119 0
-1120 66 0
-1120 13 0
-1121 69 0
-1121 10 0
-1122 73 0
-1122 6 0
-78 1120 1121 1122 0
-1123 7 0
-1123 73 0
-1124 11 0
-1124 69 0
-1125 67 0
-1125 13 0
-79 1123 1124 1125 0
-1126 7 0
-1126 73 0
-1127 13 0
-1127 67 0
-1128 69 0
-1128 11 0
-79 1126 1127 1128 0
-1129 11 0
-1129 69 0
-1130 13 0
-1130 67 0
-1131 73 0
-1131 7 0
-79 1129 1130 1131 0
-1132 67 0
-1132 13 0
-1133 69 0
-1133 11 0
-1134 73 0
-1134 7 0
-79 1132 1133 1134 0
-1135 2 0
-1135 79 0
-1136 3 0
-1136 78 0
-1137 5 0
-1137 76 0
-1138 9 0
-1138 72 0
-1139 65 0
-1139 16 0
-80 1135 1136 1137 1138 1139 0
-1140 2 0
-1140 79 0
-1141 4 0
-1141 77 0
-1142 6 0
-1142 75 0
-1143 10 0
-1143 71 0
-1144 66 0
-1144 15 0
-80 1140 1141 1142 1143 1144 0
-1145 3 0
-1145 78 0
-1146 4 0
-1146 77 0
-1147 7 0
-1147 74 0
-1148 11 0
-1148 70 0
-1149 67 0
-1149 14 0
-80 1145 1146 1147 1148 1149 0
-1150 5 0
-1150 76 0
-1151 6 0
-1151 75 0
-1152 7 0
-1152 74 0
-1153 13 0
-1153 68 0
-1154 69 0
-1154 12 0
-80 1150 1151 1152 1153 1154 0
-1155 9 0
-1155 72 0
-1156 10 0
-1156 71 0
-1157 11 0
-1157 70 0
-1158 13 0
-1158 68 0
-1159 73 0
-1159 8 0
-80 1155 1156 1157 1158 1159 0
-1160 65 0
-1160 16 0
-1161 66 0
-1161 15 0
-1162 67 0
-1162 14 0
-1163 69 0
-1163 12 0
-1164 73 0
-1164 8 0
-80 1160 1161 1162 1163 1164 0
-1165 2 0
-1165 81 0
-1166 17 0
-1166 66 0
-1167 65 0
-1167 18 0
-82 1165 1166 1167 0
-1168 2 0
-1168 81 0
-1169 18 0
-1169 65 0
-1170 66 0
-1170 17 0
-82 1168 1169 1170 0
-1171 17 0
-1171 66 0
-1172 18 0
-1172 65 0
-1173 81 0
-1173 2 0
-82 1171 1172 1173 0
-1174 65 0
-1174 18 0
-1175 66 0
-1175 17 0
-1176 81 0
-1176 2 0
-82 1174 1175 1176 0
-1177 3 0
-1177 81 0
-1178 17 0
-1178 67 0
-1179 65 0
-1179 19 0
-83 1177 1178 1179 0
-1180 3 0
-1180 81 0
-1181 19 0
-1181 65 0
-1182 67 0
-1182 17 0
-83 1180 1181 1182 0
-1183 17 0
-1183 67 0
-1184 19 0
-1184 65 0
-1185 81 0
-1185 3 0
-83 1183 1184 1185 0
-1186 65 0
-1186 19 0
-1187 67 0
-1187 17 0
-1188 81 0
-1188 3 0
-83 1186 1187 1188 0
-1189 4 0
-1189 81 0
-1190 18 0
-1190 67 0
-1191 66 0
-1191 19 0
-84 1189 1190 1191 0
-1192 4 0
-1192 81 0
-1193 19 0
-1193 66 0
-1194 67 0
-1194 18 0
-84 1192 1193 1194 0
-1195 18 0
-1195 67 0
-1196 19 0
-1196 66 0
-1197 81 0
-1197 4 0
-84 1195 1196 1197 0
-1198 66 0
-1198 19 0
-1199 67 0
-1199 18 0
-1200 81 0
-1200 4 0
-84 1198 1199 1200 0
-1201 5 0
-1201 81 0
-1202 17 0
-1202 69 0
-1203 65 0
-1203 21 0
-85 1201 1202 1203 0
-1204 5 0
-1204 81 0
-1205 21 0
-1205 65 0
-1206 69 0
-1206 17 0
-85 1204 1205 1206 0
-1207 17 0
-1207 69 0
-1208 21 0
-1208 65 0
-1209 81 0
-1209 5 0
-85 1207 1208 1209 0
-1210 65 0
-1210 21 0
-1211 69 0
-1211 17 0
-1212 81 0
-1212 5 0
-85 1210 1211 1212 0
-1213 6 0
-1213 81 0
-1214 18 0
-1214 69 0
-1215 66 0
-1215 21 0
-86 1213 1214 1215 0
-1216 6 0
-1216 81 0
-1217 21 0
-1217 66 0
-1218 69 0
-1218 18 0
-86 1216 1217 1218 0
-1219 18 0
-1219 69 0
-1220 21 0
-1220 66 0
-1221 81 0
-1221 6 0
-86 1219 1220 1221 0
-1222 66 0
-1222 21 0
-1223 69 0
-1223 18 0
-1224 81 0
-1224 6 0
-86 1222 1223 1224 0
-1225 7 0
-1225 81 0
-1226 19 0
-1226 69 0
-1227 67 0
-1227 21 0
-87 1225 1226 1227 0
-1228 7 0
-1228 81 0
-1229 21 0
-1229 67 0
-1230 69 0
-1230 19 0
-87 1228 1229 1230 0
-1231 19 0
-1231 69 0
-1232 21 0
-1232 67 0
-1233 81 0
-1233 7 0
-87 1231 1232 1233 0
-1234 67 0
-1234 21 0
-1235 69 0
-1235 19 0
-1236 81 0
-1236 7 0
-87 1234 1235 1236 0
-1237 2 0
-1237 87 0
-1238 3 0
-1238 86 0
-1239 5 0
-1239 84 0
-1240 17 0
-1240 72 0
-1241 65 0
-1241 24 0
-88 1237 1238 1239 1240 1241 0
-1242 2 0
-1242 87 0
-1243 4 0
-1243 85 0
-1244 6 0
-1244 83 0
-1245 18 0
-1245 71 0
-1246 66 0
-1246 23 0
-88 1242 1243 1244 1245 1246 0
-1247 3 0
-1247 86 0
-1248 4 0
-1248 85 0
-1249 7 0
-1249 82 0
-1250 19 0
-1250 70 0
-1251 67 0
-1251 22 0
-88 1247 1248 1249 1250 1251 0
-1252 5 0
-1252 84 0
-1253 6 0
-1253 83 0
-1254 7 0
-1254 82 0
-1255 21 0
-1255 68 0
-1256 69 0
-1256 20 0
-88 1252 1253 1254 1255 1256 0
-1257 17 0
-1257 72 0
-1258 18 0
-1258 71 0
-1259 19 0
-1259 70 0
-1260 21 0
-1260 68 0
-1261 81 0
-1261 8 0
-88 1257 1258 1259 1260 1261 0
-1262 65 0
-1262 24 0
-1263 66 0
-1263 23 0
-1264 67 0
-1264 22 0
-1265 69 0
-1265 20 0
-1266 81 0
-1266 8 0
-88 1262 1263 1264 1265 1266 0
-1267 9 0
-1267 81 0
-1268 17 0
-1268 73 0
-1269 65 0
-1269 25 0
-89 1267 1268 1269 0
-1270 9 0
-1270 81 0
-1271 25 0
-1271 65 0
-1272 73 0
-1272 17 0
-89 1270 1271 1272 0
-1273 17 0
-1273 73 0
-1274 25 0
-1274 65 0
-1275 81 0
-1275 9 0
-89 1273 1274 1275 0
-1276 65 0
-1276 25 0
-1277 73 0
-1277 17 0
-1278 81 0
-1278 9 0
-89 1276 1277 1278 0
-1279 10 0
-1279 81 0
-1280 18 0
-1280 73 0
-1281 66 0
-1281 25 0
-90 1279 1280 1281 0
-1282 10 0
-1282 81 0
-1283 25 0
-1283 66 0
-1284 73 0
-1284 18 0
-90 1282 1283 1284 0
-1285 18 0
-1285 73 0
-1286 25 0
-1286 66 0
-1287 81 0
-1287 10 0
-90 1285 1286 1287 0
-1288 66 0
-1288 25 0
-1289 73 0
-1289 18 0
-1290 81 0
-1290 10 0
-90 1288 1289 1290 0
-1291 11 0
-1291 81 0
-1292 19 0
-1292 73 0
-1293 67 0
-1293 25 0
-91 1291 1292 1293 0
-1294 11 0
-1294 81 0
-1295 25 0
-1295 67 0
-1296 73 0
-1296 19 0
-91 1294 1295 1296 0
-1297 19 0
-1297 73 0
-1298 25 0
-1298 67 0
-1299 81 0
-1299 11 0
-91 1297 1298 1299 0
-1300 67 0
-1300 25 0
-1301 73 0
-1301 19 0
-1302 81 0
-1302 11 0
-91 1300 1301 1302 0
-1303 2 0
-1303 91 0
-1304 3 0
-1304 90 0
-1305 9 0
-1305 84 0
-1306 17 0
-1306 76 0
-1307 65 0
-1307 28 0
-92 1303 1304 1305 1306 1307 0
-1308 2 0
-1308 91 0
-1309 4 0
-1309 89 0
-1310 10 0
-1310 83 0
-1311 18 0
-1311 75 0
-1312 66 0
-1312 27 0
-92 1308 1309 1310 1311 1312 0
-1313 3 0
-1313 90 0
-1314 4 0
-1314 89 0
-1315 11 0
-1315 82 0
-1316 19 0
-1316 74 0
-1317 67 0
-1317 26 0
-92 1313 1314 1315 1316 1317 0
-1318 9 0
-1318 84 0
-1319 10 0
-1319 83 0
-1320 11 0
-1320 82 0
-1321 25 0
-1321 68 0
-1322 73 0
-1322 20 0
-92 1318 1319 1320 1321 1322 0
-1323 17 0
-1323 76 0
-1324 18 0
-1324 75 0
-1325 19 0
-1325 74 0
-1326 25 0
-1326 68 0
-1327 81 0
-1327 12 0
-92 1323 1324 1325 1326 1327 0
-1328 65 0
-1328 28 0
-1329 66 0
-1329 27 0
-1330 67 0
-1330 26 0
-1331 73 0
-1331 20 0
-1332 81 0
-1332 12 0
-92 1328 1329 1330 1331 1332 0
-1333 13 0
-1333 81 0
-1334 21 0
-1334 73 0
-1335 69 0
-1335 25 0
-93 1333 1334 1335 0
-1336 13 0
-1336 81 0
-1337 25 0
-1337 69 0
-1338 73 0
-1338 21 0
-93 1336 1337 1338 0
-1339 21 0
-1339 73 0
-1340 25 0
-1340 69 0
-1341 81 0
-1341 13 0
-93 1339 1340 1341 0
-1342 69 0
-1342 25 0
-1343 73 0
-1343 21 0
-1344 81 0
-1344 13 0
-93 1342 1343 1344 0
-1345 2 0
-1345 93 0
-1346 5 0
-1346 90 0
-1347 9 0
-1347 86 0
-1348 17 0
-1348 78 0
-1349 65 0
-1349 30 0
-94 1345 1346 1347 1348 1349 0
-1350 2 0
-1350 93 0
-1351 6 0
-1351 89 0
-1352 10 0
-1352 85 0
-1353 18 0
-1353 77 0
-1354 66 0
-1354 29 0
-94 1350 1351 1352 1353 1354 0
-1355 5 0
-1355 90 0
-1356 6 0
-1356 89 0
-1357 13 0
-1357 82 0
-1358 21 0
-1358 74 0
-1359 69 0
-1359 26 0
-94 1355 1356 1357 1358 1359 0
-1360 9 0
-1360 86 0
-1361 10 0
-1361 85 0
-1362 13 0
-1362 82 0
-1363 25 0
-1363 70 0
-1364 73 0
-1364 22 0
-94 1360 1361 1362 1363 1364 0
-1365 17 0
-1365 78 0
-1366 18 0
-1366 77 0
-1367 21 0
-1367 74 0
-1368 25 0
-1368 70 0
-1369 81 0
-1369 14 0
-94 1365 1366 1367 1368 1369 0
-1370 65 0
-1370 30 0
-1371 66 0
-1371 29 0
-1372 69 0
-1372 26 0
-1373 73 0
-1373 22 0
-1374 81 0
-1374 14 0
-94 1370 1371 1372 1373 1374 0
-1375 3 0
-1375 93 0
-1376 5 0
-1376 91 0
-1377 9 0
-1377 87 0
-1378 17 0
-1378 79 0
-1379 65 0
-1379 31 0
-95 1375 1376 1377 1378 1379 0
-1380 3 0
-1380 93 0
-1381 7 0
-1381 89 0
-1382 11 0
-1382 85 0
-1383 19 0
-1383 77 0
-1384 67 0
-1384 29 0
-95 1380 1381 1382 1383 1384 0
-1385 5 0
-1385 91 0
-1386 7 0
-1386 89 0
-1387 13 0
-1387 83 0
-1388 21 0
-1388 75 0
-1389 69 0
-1389 27 0
-95 1385 1386 1387 1388 1389 0
-1390 9 0
-1390 87 0
-1391 11 0
-1391 85 0
-1392 13 0
-1392 83 0
-1393 25 0
-1393 71 0
-1394 73 0
-1394 23 0
-95 1390 1391 1392 1393 1394 0
-1395 17 0
-1395 79 0
-1396 19 0
-1396 77 0
-1397 21 0
-1397 75 0
-1398 25 0
-1398 71 0
-1399 81 0
-1399 15 0
-95 1395 1396 1397 1398 1399 0
-1400 65 0
-1400 31 0
-1401 67 0
-1401 29 0
-1402 69 0
-1402 27 0
-1403 73 0
-1403 23 0
-1404 81 0
-1404 15 0
-95 1400 1401 1402 1403 1404 0
-1405 4 0
-1405 93 0
-1406 6 0
-1406 91 0
-1407 10 0
-1407 87 0
-1408 18 0
-1408 79 0
-1409 66 0
-1409 31 0
-96 1405 1406 1407 1408 1409 0
-1410 4 0
-1410 93 0
-1411 7 0
-1411 90 0
-1412 11 0
-1412 86 0
-1413 19 0
-1413 78 0
-1414 67 0
-1414 30 0
-96 1410 1411 1412 1413 1414 0
-1415 6 0
-1415 91 0
-1416 7 0
-1416 90 0
-1417 13 0
-1417 84 0
-1418 21 0
-1418 76 0
-1419 69 0
-1419 28 0
-96 1415 1416 1417 1418 1419 0
-1420 10 0
-1420 87 0
-1421 11 0
-1421 86 0
-1422 13 0
-1422 84 0
-1423 25 0
-1423 72 0
-1424 73 0
-1424 24 0
-96 1420 1421 1422 1423 1424 0
-1425 18 0
-1425 79 0
-1426 19 0
-1426 78 0
-1427 21 0
-1427 76 0
-1428 25 0
-1428 72 0
-1429 81 0
-1429 16 0
-96 1425 1426 1427 1428 1429 0
-1430 66 0
-1430 31 0
-1431 67 0
-1431 30 0
-1432 69 0
-1432 28 0
-1433 73 0
-1433 24 0
-1434 81 0
-1434 16 0
-96 1430 1431 1432 1433 1434 0
-1435 2 0
-1435 97 0
-1436 33 0
-1436 66 0
-1437 65 0
-1437 34 0
-98 1435 1436 1437 0
-1438 2 0
-1438 97 0
-1439 34 0
-1439 65 0
-1440 66 0
-1440 33 0
-98 1438 1439 1440 0
-1441 33 0
-1441 66 0
-1442 34 0
-1442 65 0
-1443 97 0
-1443 2 0
-98 1441 1442 1443 0
-1444 65 0
-1444 34 0
-1445 66 0
-1445 33 0
-1446 97 0
-1446 2 0
-98 1444 1445 1446 0
-1447 3 0
-1447 97 0
-1448 33 0
-1448 67 0
-1449 65 0
-1449 35 0
-99 1447 1448 1449 0
-1450 3 0
-1450 97 0
-1451 35 0
-1451 65 0
-1452 67 0
-1452 33 0
-99 1450 1451 1452 0
-1453 33 0
-1453 67 0
-1454 35 0
-1454 65 0
-1455 97 0
-1455 3 0
-99 1453 1454 1455 0
-1456 65 0
-1456 35 0
-1457 67 0
-1457 33 0
-1458 97 0
-1458 3 0
-99 1456 1457 1458 0
-1459 4 0
-1459 97 0
-1460 34 0
-1460 67 0
-1461 66 0
-1461 35 0
-100 1459 1460 1461 0
-1462 4 0
-1462 97 0
-1463 35 0
-1463 66 0
-1464 67 0
-1464 34 0
-100 1462 1463 1464 0
-1465 34 0
-1465 67 0
-1466 35 0
-1466 66 0
-1467 97 0
-1467 4 0
-100 1465 1466 1467 0
-1468 66 0
-1468 35 0
-1469 67 0
-1469 34 0
-1470 97 0
-1470 4 0
-100 1468 1469 1470 0
-1471 5 0
-1471 97 0
-1472 33 0
-1472 69 0
-1473 65 0
-1473 37 0
-101 1471 1472 1473 0
-1474 5 0
-1474 97 0
-1475 37 0
-1475 65 0
-1476 69 0
-1476 33 0
-101 1474 1475 1476 0
-1477 33 0
-1477 69 0
-1478 37 0
-1478 65 0
-1479 97 0
-1479 5 0
-101 1477 1478 1479 0
-1480 65 0
-1480 37 0
-1481 69 0
-1481 33 0
-1482 97 0
-1482 5 0
-101 1480 1481 1482 0
-1483 6 0
-1483 97 0
-1484 34 0
-1484 69 0
-1485 66 0
-1485 37 0
-102 1483 1484 1485 0
-1486 6 0
-1486 97 0
-1487 37 0
-1487 66 0
-1488 69 0
-1488 34 0
-102 1486 1487 1488 0
-1489 34 0
-1489 69 0
-1490 37 0
-1490 66 0
-1491 97 0
-1491 6 0
-102 1489 1490 1491 0
-1492 66 0
-1492 37 0
-1493 69 0
-1493 34 0
-1494 97 0
-1494 6 0
-102 1492 1493 1494 0
-1495 7 0
-1495 97 0
-1496 35 0
-1496 69 0
-1497 67 0
-1497 37 0
-103 1495 1496 1497 0
-1498 7 0
-1498 97 0
-1499 37 0
-1499 67 0
-1500 69 0
-1500 35 0
-103 1498 1499 1500 0
-1501 35 0
-1501 69 0
-1502 37 0
-1502 67 0
-1503 97 0
-1503 7 0
-103 1501 1502 1503 0
-1504 67 0
-1504 37 0
-1505 69 0
-1505 35 0
-1506 97 0
-1506 7 0
-103 1504 1505 1506 0
-1507 2 0
-1507 103 0
-1508 3 0
-1508 102 0
-1509 5 0
-1509 100 0
-1510 33 0
-1510 72 0
-1511 65 0
-1511 40 0
-104 1507 1508 1509 1510 1511 0
-1512 2 0
-1512 103 0
-1513 4 0
-1513 101 0
-1514 6 0
-1514 99 0
-1515 34 0
-1515 71 0
-1516 66 0
-1516 39 0
-104 1512 1513 1514 1515 1516 0
-1517 3 0
-1517 102 0
-1518 4 0
-1518 101 0
-1519 7 0
-1519 98 0
-1520 35 0
-1520 70 0
-1521 67 0
-1521 38 0
-104 1517 1518 1519 1520 1521 0
-1522 5 0
-1522 100 0
-1523 6 0
-1523 99 0
-1524 7 0
-1524 98 0
-1525 37 0
-1525 68 0
-1526 69 0
-1526 36 0
-104 1522 1523 1524 1525 1526 0
-1527 33 0
-1527 72 0
-1528 34 0
-1528 71 0
-1529 35 0
-1529 70 0
-1530 37 0
-1530 68 0
-1531 97 0
-1531 8 0
-104 1527 1528 1529 1530 1531 0
-1532 65 0
-1532 40 0
-1533 66 0
-1533 39 0
-1534 67 0
-1534 38 0
-1535 69 0
-1535 36 0
-1536 97 0
-1536 8 0
-104 1532 1533 1534 1535 1536 0
-1537 9 0
-1537 97 0
-1538 33 0
-1538 73 0
-1539 65 0
-1539 41 0
-105 1537 1538 1539 0
-1540 9 0
-1540 97 0
-1541 41 0
-1541 65 0
-1542 73 0
-1542 33 0
-105 1540 1541 1542 0
-1543 33 0
-1543 73 0
-1544 41 0
-1544 65 0
-1545 97 0
-1545 9 0
-105 1543 1544 1545 0
-1546 65 0
-1546 41 0
-1547 73 0
-1547 33 0
-1548 97 0
-1548 9 0
-105 1546 1547 1548 0
-1549 10 0
-1549 97 0
-1550 34 0
-1550 73 0
-1551 66 0
-1551 41 0
-106 1549 1550 1551 0
-1552 10 0
-1552 97 0
-1553 41 0
-1553 66 0
-1554 73 0
-1554 34 0
-106 1552 1553 1554 0
-1555 34 0
-1555 73 0
-1556 41 0
-1556 66 0
-1557 97 0
-1557 10 0
-106 1555 1556 1557 0
-1558 66 0
-1558 41 0
-1559 73 0
-1559 34 0
-1560 97 0
-1560 10 0
-106 1558 1559 1560 0
-1561 11 0
-1561 97 0
-1562 35 0
-1562 73 0
-1563 67 0
-1563 41 0
-107 1561 1562 1563 0
-1564 11 0
-1564 97 0
-1565 41 0
-1565 67 0
-1566 73 0
-1566 35 0
-107 1564 1565 1566 0
-1567 35 0
-1567 73 0
-1568 41 0
-1568 67 0
-1569 97 0
-1569 11 0
-107 1567 1568 1569 0
-1570 67 0
-1570 41 0
-1571 73 0
-1571 35 0
-1572 97 0
-1572 11 0
-107 1570 1571 1572 0
-1573 2 0
-1573 107 0
-1574 3 0
-1574 106 0
-1575 9 0
-1575 100 0
-1576 33 0
-1576 76 0
-1577 65 0
-1577 44 0
-108 1573 1574 1575 1576 1577 0
-1578 2 0
-1578 107 0
-1579 4 0
-1579 105 0
-1580 10 0
-1580 99 0
-1581 34 0
-1581 75 0
-1582 66 0
-1582 43 0
-108 1578 1579 1580 1581 1582 0
-1583 3 0
-1583 106 0
-1584 4 0
-1584 105 0
-1585 11 0
-1585 98 0
-1586 35 0
-1586 74 0
-1587 67 0
-1587 42 0
-108 1583 1584 1585 1586 1587 0
-1588 9 0
-1588 100 0
-1589 10 0
-1589 99 0
-1590 11 0
-1590 98 0
-1591 41 0
-1591 68 0
-1592 73 0
-1592 36 0
-108 1588 1589 1590 1591 1592 0
-1593 33 0
-1593 76 0
-1594 34 0
-1594 75 0
-1595 35 0
-1595 74 0
-1596 41 0
-1596 68 0
-1597 97 0
-1597 12 0
-108 1593 1594 1595 1596 1597 0
-1598 65 0
-1598 44 0
-1599 66 0
-1599 43 0
-1600 67 0
-1600 42 0
-1601 73 0
-1601 36 0
-1602 97 0
-1602 12 0
-108 1598 1599 1600 1601 1602 0
-1603 13 0
-1603 97 0
-1604 37 0
-1604 73 0
-1605 69 0
-1605 41 0
-109 1603 1604 1605 0
-1606 13 0
-1606 97 0
-1607 41 0
-1607 69 0
-1608 73 0
-1608 37 0
-109 1606 1607 1608 0
-1609 37 0
-1609 73 0
-1610 41 0
-1610 69 0
-1611 97 0
-1611 13 0
-109 1609 1610 1611 0
-1612 69 0
-1612 41 0
-1613 73 0
-1613 37 0
-1614 97 0
-1614 13 0
-109 1612 1613 1614 0
-1615 2 0
-1615 109 0
-1616 5 0
-1616 106 0
-1617 9 0
-1617 102 0
-1618 33 0
-1618 78 0
-1619 65 0
-1619 46 0
-110 1615 1616 1617 1618 1619 0
-1620 2 0
-1620 109 0
-1621 6 0
-1621 105 0
-1622 10 0
-1622 101 0
-1623 34 0
-1623 77 0
-1624 66 0
-1624 45 0
-110 1620 1621 1622 1623 1624 0
-1625 5 0
-1625 106 0
-1626 6 0
-1626 105 0
-1627 13 0
-1627 98 0
-1628 37 0
-1628 74 0
-1629 69 0
-1629 42 0
-110 1625 1626 1627 1628 1629 0
-1630 9 0
-1630 102 0
-1631 10 0
-1631 101 0
-1632 13 0
-1632 98 0
-1633 41 0
-1633 70 0
-1634 73 0
-1634 38 0
-110 1630 1631 1632 1633 1634 0
-1635 33 0
-1635 78 0
-1636 34 0
-1636 77 0
-1637 37 0
-1637 74 0
-1638 41 0
-1638 70 0
-1639 97 0
-1639 14 0
-110 1635 1636 1637 1638 1639 0
-1640 65 0
-1640 46 0
-1641 66 0
-1641 45 0
-1642 69 0
-1642 42 0
-1643 73 0
-1643 38 0
-1644 97 0
-1644 14 0
-110 1640 1641 1642 1643 1644 0
-1645 3 0
-1645 109 0
-1646 5 0
-1646 107 0
-1647 9 0
-1647 103 0
-1648 33 0
-1648 79 0
-1649 65 0
-1649 47 0
-111 1645 1646 1647 1648 1649 0
-1650 3 0
-1650 109 0
-1651 7 0
-1651 105 0
-1652 11 0
-1652 101 0
-1653 35 0
-1653 77 0
-1654 67 0
-1654 45 0
-111 1650 1651 1652 1653 1654 0
-1655 5 0
-1655 107 0
-1656 7 0
-1656 105 0
-1657 13 0
-1657 99 0
-1658 37 0
-1658 75 0
-1659 69 0
-1659 43 0
-111 1655 1656 1657 1658 1659 0
-1660 9 0
-1660 103 0
-1661 11 0
-1661 101 0
-1662 13 0
-1662 99 0
-1663 41 0
-1663 71 0
-1664 73 0
-1664 39 0
-111 1660 1661 1662 1663 1664 0
-1665 33 0
-1665 79 0
-1666 35 0
-1666 77 0
-1667 37 0
-1667 75 0
-1668 41 0
-1668 71 0
-1669 97 0
-1669 15 0
-111 1665 1666 1667 1668 1669 0
-1670 65 0
-1670 47 0
-1671 67 0
-1671 45 0
-1672 69 0
-1672 43 0
-1673 73 0
-1673 39 0
-1674 97 0
-1674 15 0
-111 1670 1671 1672 1673 1674 0
-1675 4 0
-1675 109 0
-1676 6 0
-1676 107 0
-1677 10 0
-1677 103 0
-1678 34 0
-1678 79 0
-1679 66 0
-1679 47 0
-112 1675 1676 1677 1678 1679 0
-1680 4 0
-1680 109 0
-1681 7 0
-1681 106 0
-1682 11 0
-1682 102 0
-1683 35 0
-1683 78 0
-1684 67 0
-1684 46 0
-112 1680 1681 1682 1683 1684 0
-1685 6 0
-1685 107 0
-1686 7 0
-1686 106 0
-1687 13 0
-1687 100 0
-1688 37 0
-1688 76 0
-1689 69 0
-1689 44 0
-112 1685 1686 1687 1688 1689 0
-1690 10 0
-1690 103 0
-1691 11 0
-1691 102 0
-1692 13 0
-1692 100 0
-1693 41 0
-1693 72 0
-1694 73 0
-1694 40 0
-112 1690 1691 1692 1693 1694 0
-1695 34 0
-1695 79 0
-1696 35 0
-1696 78 0
-1697 37 0
-1697 76 0
-1698 41 0
-1698 72 0
-1699 97 0
-1699 16 0
-112 1695 1696 1697 1698 1699 0
-1700 66 0
-1700 47 0
-1701 67 0
-1701 46 0
-1702 69 0
-1702 44 0
-1703 73 0
-1703 40 0
-1704 97 0
-1704 16 0
-112 1700 1701 1702 1703 1704 0
-1705 17 0
-1705 97 0
-1706 33 0
-1706 81 0
-1707 65 0
-1707 49 0
-113 1705 1706 1707 0
-1708 17 0
-1708 97 0
-1709 49 0
-1709 65 0
-1710 81 0
-1710 33 0
-113 1708 1709 1710 0
-1711 33 0
-1711 81 0
-1712 49 0
-1712 65 0
-1713 97 0
-1713 17 0
-113 1711 1712 1713 0
-1714 65 0
-1714 49 0
-1715 81 0
-1715 33 0
-1716 97 0
-1716 17 0
-113 1714 1715 1716 0
-1717 18 0
-1717 97 0
-1718 34 0
-1718 81 0
-1719 66 0
-1719 49 0
-114 1717 1718 1719 0
-1720 18 0
-1720 97 0
-1721 49 0
-1721 66 0
-1722 81 0
-1722 34 0
-114 1720 1721 1722 0
-1723 34 0
-1723 81 0
-1724 49 0
-1724 66 0
-1725 97 0
-1725 18 0
-114 1723 1724 1725 0
-1726 66 0
-1726 49 0
-1727 81 0
-1727 34 0
-1728 97 0
-1728 18 0
-114 1726 1727 1728 0
-1729 19 0
-1729 97 0
-1730 35 0
-1730 81 0
-1731 67 0
-1731 49 0
-115 1729 1730 1731 0
-1732 19 0
-1732 97 0
-1733 49 0
-1733 67 0
-1734 81 0
-1734 35 0
-115 1732 1733 1734 0
-1735 35 0
-1735 81 0
-1736 49 0
-1736 67 0
-1737 97 0
-1737 19 0
-115 1735 1736 1737 0
-1738 67 0
-1738 49 0
-1739 81 0
-1739 35 0
-1740 97 0
-1740 19 0
-115 1738 1739 1740 0
-1741 2 0
-1741 115 0
-1742 3 0
-1742 114 0
-1743 17 0
-1743 100 0
-1744 33 0
-1744 84 0
-1745 65 0
-1745 52 0
-116 1741 1742 1743 1744 1745 0
-1746 2 0
-1746 115 0
-1747 4 0
-1747 113 0
-1748 18 0
-1748 99 0
-1749 34 0
-1749 83 0
-1750 66 0
-1750 51 0
-116 1746 1747 1748 1749 1750 0
-1751 3 0
-1751 114 0
-1752 4 0
-1752 113 0
-1753 19 0
-1753 98 0
-1754 35 0
-1754 82 0
-1755 67 0
-1755 50 0
-116 1751 1752 1753 1754 1755 0
-1756 17 0
-1756 100 0
-1757 18 0
-1757 99 0
-1758 19 0
-1758 98 0
-1759 49 0
-1759 68 0
-1760 81 0
-1760 36 0
-116 1756 1757 1758 1759 1760 0
-1761 33 0
-1761 84 0
-1762 34 0
-1762 83 0
-1763 35 0
-1763 82 0
-1764 49 0
-1764 68 0
-1765 97 0
-1765 20 0
-116 1761 1762 1763 1764 1765 0
-1766 65 0
-1766 52 0
-1767 66 0
-1767 51 0
-1768 67 0
-1768 50 0
-1769 81 0
-1769 36 0
-1770 97 0
-1770 20 0
-116 1766 1767 1768 1769 1770 0
-1771 21 0
-1771 97 0
-1772 37 0
-1772 81 0
-1773 69 0
-1773 49 0
-117 1771 1772 1773 0
-1774 21 0
-1774 97 0
-1775 49 0
-1775 69 0
-1776 81 0
-1776 37 0
-117 1774 1775 1776 0
-1777 37 0
-1777 81 0
-1778 49 0
-1778 69 0
-1779 97 0
-1779 21 0
-117 1777 1778 1779 0
-1780 69 0
-1780 49 0
-1781 81 0
-1781 37 0
-1782 97 0
-1782 21 0
-117 1780 1781 1782 0
-1783 2 0
-1783 117 0
-1784 5 0
-1784 114 0
-1785 17 0
-1785 102 0
-1786 33 0
-1786 86 0
-1787 65 0
-1787 54 0
-118 1783 1784 1785 1786 1787 0
-1788 2 0
-1788 117 0
-1789 6 0
-1789 113 0
-1790 18 0
-1790 101 0
-1791 34 0
-1791 85 0
-1792 66 0
-1792 53 0
-118 1788 1789 1790 1791 1792 0
-1793 5 0
-1793 114 0
-1794 6 0
-1794 113 0
-1795 21 0
-1795 98 0
-1796 37 0
-1796 82 0
-1797 69 0
-1797 50 0
-118 1793 1794 1795 1796 1797 0
-1798 17 0
-1798 102 0
-1799 18 0
-1799 101 0
-1800 21 0
-1800 98 0
-1801 49 0
-1801 70 0
-1802 81 0
-1802 38 0
-118 1798 1799 1800 1801 1802 0
-1803 33 0
-1803 86 0
-1804 34 0
-1804 85 0
-1805 37 0
-1805 82 0
-1806 49 0
-1806 70 0
-1807 97 0
-1807 22 0
-118 1803 1804 1805 1806 1807 0
-1808 65 0
-1808 54 0
-1809 66 0
-1809 53 0
-1810 69 0
-1810 50 0
-1811 81 0
-1811 38 0
-1812 97 0
-1812 22 0
-118 1808 1809 1810 1811 1812 0
-1813 3 0
-1813 117 0
-1814 5 0
-1814 115 0
-1815 17 0
-1815 103 0
-1816 33 0
-1816 87 0
-1817 65 0
-1817 55 0
-119 1813 1814 1815 1816 1817 0
-1818 3 0
-1818 117 0
-1819 7 0
-1819 113 0
-1820 19 0
-1820 101 0
-1821 35 0
-1821 85 0
-1822 67 0
-1822 53 0
-119 1818 1819 1820 1821 1822 0
-1823 5 0
-1823 115 0
-1824 7 0
-1824 113 0
-1825 21 0
-1825 99 0
-1826 37 0
-1826 83 0
-1827 69 0
-1827 51 0
-119 1823 1824 1825 1826 1827 0
-1828 17 0
-1828 103 0
-1829 19 0
-1829 101 0
-1830 21 0
-1830 99 0
-1831 49 0
-1831 71 0
-1832 81 0
-1832 39 0
-119 1828 1829 1830 1831 1832 0
-1833 33 0
-1833 87 0
-1834 35 0
-1834 85 0
-1835 37 0
-1835 83 0
-1836 49 0
-1836 71 0
-1837 97 0
-1837 23 0
-119 1833 1834 1835 1836 1837 0
-1838 65 0
-1838 55 0
-1839 67 0
-1839 53 0
-1840 69 0
-1840 51 0
-1841 81 0
-1841 39 0
-1842 97 0
-1842 23 0
-119 1838 1839 1840 1841 1842 0
-1843 4 0
-1843 117 0
-1844 6 0
-1844 115 0
-1845 18 0
-1845 103 0
-1846 34 0
-1846 87 0
-1847 66 0
-1847 55 0
-120 1843 1844 1845 1846 1847 0
-1848 4 0
-1848 117 0
-1849 7 0
-1849 114 0
-1850 19 0
-1850 102 0
-1851 35 0
-1851 86 0
-1852 67 0
-1852 54 0
-120 1848 1849 1850 1851 1852 0
-1853 6 0
-1853 115 0
-1854 7 0
-1854 114 0
-1855 21 0
-1855 100 0
-1856 37 0
-1856 84 0
-1857 69 0
-1857 52 0
-120 1853 1854 1855 1856 1857 0
-1858 18 0
-1858 103 0
-1859 19 0
-1859 102 0
-1860 21 0
-1860 100 0
-1861 49 0
-1861 72 0
-1862 81 0
-1862 40 0
-120 1858 1859 1860 1861 1862 0
-1863 34 0
-1863 87 0
-1864 35 0
-1864 86 0
-1865 37 0
-1865 84 0
-1866 49 0
-1866 72 0
-1867 97 0
-1867 24 0
-120 1863 1864 1865 1866 1867 0
-1868 66 0
-1868 55 0
-1869 67 0
-1869 54 0
-1870 69 0
-1870 52 0
-1871 81 0
-1871 40 0
-1872 97 0
-1872 24 0
-120 1868 1869 1870 1871 1872 0
-1873 25 0
-1873 97 0
-1874 41 0
-1874 81 0
-1875 73 0
-1875 49 0
-121 1873 1874 1875 0
-1876 25 0
-1876 97 0
-1877 49 0
-1877 73 0
-1878 81 0
-1878 41 0
-121 1876 1877 1878 0
-1879 41 0
-1879 81 0
-1880 49 0
-1880 73 0
-1881 97 0
-1881 25 0
-121 1879 1880 1881 0
-1882 73 0
-1882 49 0
-1883 81 0
-1883 41 0
-1884 97 0
-1884 25 0
-121 1882 1883 1884 0
-1885 2 0
-1885 121 0
-1886 9 0
-1886 114 0
-1887 17 0
-1887 106 0
-1888 33 0
-1888 90 0
-1889 65 0
-1889 58 0
-122 1885 1886 1887 1888 1889 0
-1890 2 0
-1890 121 0
-1891 10 0
-1891 113 0
-1892 18 0
-1892 105 0
-1893 34 0
-1893 89 0
-1894 66 0
-1894 57 0
-122 1890 1891 1892 1893 1894 0
-1895 9 0
-1895 114 0
-1896 10 0
-1896 113 0
-1897 25 0
-1897 98 0
-1898 41 0
-1898 82 0
-1899 73 0
-1899 50 0
-122 1895 1896 1897 1898 1899 0
-1900 17 0
-1900 106 0
-1901 18 0
-1901 105 0
-1902 25 0
-1902 98 0
-1903 49 0
-1903 74 0
-1904 81 0
-1904 42 0
-122 1900 1901 1902 1903 1904 0
-1905 33 0
-1905 90 0
-1906 34 0
-1906 89 0
-1907 41 0
-1907 82 0
-1908 49 0
-1908 74 0
-1909 97 0
-1909 26 0
-122 1905 1906 1907 1908 1909 0
-1910 65 0
-1910 58 0
-1911 66 0
-1911 57 0
-1912 73 0
-1912 50 0
-1913 81 0
-1913 42 0
-1914 97 0
-1914 26 0
-122 1910 1911 1912 1913 1914 0
-1915 3 0
-1915 121 0
-1916 9 0
-1916 115 0
-1917 17 0
-1917 107 0
-1918 33 0
-1918 91 0
-1919 65 0
-1919 59 0
-123 1915 1916 1917 1918 1919 0
-1920 3 0
-1920 121 0
-1921 11 0
-1921 113 0
-1922 19 0
-1922 105 0
-1923 35 0
-1923 89 0
-1924 67 0
-1924 57 0
-123 1920 1921 1922 1923 1924 0
-1925 9 0
-1925 115 0
-1926 11 0
-1926 113 0
-1927 25 0
-1927 99 0
-1928 41 0
-1928 83 0
-1929 73 0
-1929 51 0
-123 1925 1926 1927 1928 1929 0
-1930 17 0
-1930 107 0
-1931 19 0
-1931 105 0
-1932 25 0
-1932 99 0
-1933 49 0
-1933 75 0
-1934 81 0
-1934 43 0
-123 1930 1931 1932 1933 1934 0
-1935 33 0
-1935 91 0
-1936 35 0
-1936 89 0
-1937 41 0
-1937 83 0
-1938 49 0
-1938 75 0
-1939 97 0
-1939 27 0
-123 1935 1936 1937 1938 1939 0
-1940 65 0
-1940 59 0
-1941 67 0
-1941 57 0
-1942 73 0
-1942 51 0
-1943 81 0
-1943 43 0
-1944 97 0
-1944 27 0
-123 1940 1941 1942 1943 1944 0
-1945 4 0
-1945 121 0
-1946 10 0
-1946 115 0
-1947 18 0
-1947 107 0
-1948 34 0
-1948 91 0
-1949 66 0
-1949 59 0
-124 1945 1946 1947 1948 1949 0
-1950 4 0
-1950 121 0
-1951 11 0
-1951 114 0
-1952 19 0
-1952 106 0
-1953 35 0
-1953 90 0
-1954 67 0
-1954 58 0
-124 1950 1951 1952 1953 1954 0
-1955 10 0
-1955 115 0
-1956 11 0
-1956 114 0
-1957 25 0
-1957 100 0
-1958 41 0
-1958 84 0
-1959 73 0
-1959 52 0
-124 1955 1956 1957 1958 1959 0
-1960 18 0
-1960 107 0
-1961 19 0
-1961 106 0
-1962 25 0
-1962 100 0
-1963 49 0
-1963 76 0
-1964 81 0
-1964 44 0
-124 1960 1961 1962 1963 1964 0
-1965 34 0
-1965 91 0
-1966 35 0
-1966 90 0
-1967 41 0
-1967 84 0
-1968 49 0
-1968 76 0
-1969 97 0
-1969 28 0
-124 1965 1966 1967 1968 1969 0
-1970 66 0
-1970 59 0
-1971 67 0
-1971 58 0
-1972 73 0
-1972 52 0
-1973 81 0
-1973 44 0
-1974 97 0
-1974 28 0
-124 1970 1971 1972 1973 1974 0
-1975 5 0
-1975 121 0
-1976 9 0
-1976 117 0
-1977 17 0
-1977 109 0
-1978 33 0
-1978 93 0
-1979 65 0
-1979 61 0
-125 1975 1976 1977 1978 1979 0
-1980 5 0
-1980 121 0
-1981 13 0
-1981 113 0
-1982 21 0
-1982 105 0
-1983 37 0
-1983 89 0
-1984 69 0
-1984 57 0
-125 1980 1981 1982 1983 1984 0
-1985 9 0
-1985 117 0
-1986 13 0
-1986 113 0
-1987 25 0
-1987 101 0
-1988 41 0
-1988 85 0
-1989 73 0
-1989 53 0
-125 1985 1986 1987 1988 1989 0
-1990 17 0
-1990 109 0
-1991 21 0
-1991 105 0
-1992 25 0
-1992 101 0
-1993 49 0
-1993 77 0
-1994 81 0
-1994 45 0
-125 1990 1991 1992 1993 1994 0
-1995 33 0
-1995 93 0
-1996 37 0
-1996 89 0
-1997 41 0
-1997 85 0
-1998 49 0
-1998 77 0
-1999 97 0
-1999 29 0
-125 1995 1996 1997 1998 1999 0
-2000 65 0
-2000 61 0
-2001 69 0
-2001 57 0
-2002 73 0
-2002 53 0
-2003 81 0
-2003 45 0
-2004 97 0
-2004 29 0
-125 2000 2001 2002 2003 2004 0
-2005 6 0
-2005 121 0
-2006 10 0
-2006 117 0
-2007 18 0
-2007 109 0
-2008 34 0
-2008 93 0
-2009 66 0
-2009 61 0
-126 2005 2006 2007 2008 2009 0
-2010 6 0
-2010 121 0
-2011 13 0
-2011 114 0
-2012 21 0
-2012 106 0
-2013 37 0
-2013 90 0
-2014 69 0
-2014 58 0
-126 2010 2011 2012 2013 2014 0
-2015 10 0
-2015 117 0
-2016 13 0
-2016 114 0
-2017 25 0
-2017 102 0
-2018 41 0
-2018 86 0
-2019 73 0
-2019 54 0
-126 2015 2016 2017 2018 2019 0
-2020 18 0
-2020 109 0
-2021 21 0
-2021 106 0
-2022 25 0
-2022 102 0
-2023 49 0
-2023 78 0
-2024 81 0
-2024 46 0
-126 2020 2021 2022 2023 2024 0
-2025 34 0
-2025 93 0
-2026 37 0
-2026 90 0
-2027 41 0
-2027 86 0
-2028 49 0
-2028 78 0
-2029 97 0
-2029 30 0
-126 2025 2026 2027 2028 2029 0
-2030 66 0
-2030 61 0
-2031 69 0
-2031 58 0
-2032 73 0
-2032 54 0
-2033 81 0
-2033 46 0
-2034 97 0
-2034 30 0
-126 2030 2031 2032 2033 2034 0
-2035 7 0
-2035 121 0
-2036 11 0
-2036 117 0
-2037 19 0
-2037 109 0
-2038 35 0
-2038 93 0
-2039 67 0
-2039 61 0
-127 2035 2036 2037 2038 2039 0
-2040 7 0
-2040 121 0
-2041 13 0
-2041 115 0
-2042 21 0
-2042 107 0
-2043 37 0
-2043 91 0
-2044 69 0
-2044 59 0
-127 2040 2041 2042 2043 2044 0
-2045 11 0
-2045 117 0
-2046 13 0
-2046 115 0
-2047 25 0
-2047 103 0
-2048 41 0
-2048 87 0
-2049 73 0
-2049 55 0
-127 2045 2046 2047 2048 2049 0
-2050 19 0
-2050 109 0
-2051 21 0
-2051 107 0
-2052 25 0
-2052 103 0
-2053 49 0
-2053 79 0
-2054 81 0
-2054 47 0
-127 2050 2051 2052 2053 2054 0
-2055 35 0
-2055 93 0
-2056 37 0
-2056 91 0
-2057 41 0
-2057 87 0
-2058 49 0
-2058 79 0
-2059 97 0
-2059 31 0
-127 2055 2056 2057 2058 2059 0
-2060 67 0
-2060 61 0
-2061 69 0
-2061 59 0
-2062 73 0
-2062 55 0
-2063 81 0
-2063 47 0
-2064 97 0
-2064 31 0
-127 2060 2061 2062 2063 2064 0
-2065 2 0
-2065 127 0
-2066 3 0
-2066 126 0
-2067 5 0
-2067 124 0
-2068 9 0
-2068 120 0
-2069 17 0
-2069 112 0
-2070 33 0
-2070 96 0
-2071 65 0
-2071 64 0
-128 2065 2066 2067 2068 2069 2070 2071 0
-2072 2 0
-2072 127 0
-2073 4 0
-2073 125 0
-2074 6 0
-2074 123 0
-2075 10 0
-2075 119 0
-2076 18 0
-2076 111 0
-2077 34 0
-2077 95 0
-2078 66 0
-2078 63 0
-128 2072 2073 2074 2075 2076 2077 2078 0
-2079 3 0
-2079 126 0
-2080 4 0
-2080 125 0
-2081 7 0
-2081 122 0
-2082 11 0
-2082 118 0
-2083 19 0
-2083 110 0
-2084 35 0
-2084 94 0
-2085 67 0
-2085 62 0
-128 2079 2080 2081 2082 2083 2084 2085 0
-2086 5 0
-2086 124 0
-2087 6 0
-2087 123 0
-2088 7 0
-2088 122 0
-2089 13 0
-2089 116 0
-2090 21 0
-2090 108 0
-2091 37 0
-2091 92 0
-2092 69 0
-2092 60 0
-128 2086 2087 2088 2089 2090 2091 2092 0
-2093 9 0
-2093 120 0
-2094 10 0
-2094 119 0
-2095 11 0
-2095 118 0
-2096 13 0
-2096 116 0
-2097 25 0
-2097 104 0
-2098 41 0
-2098 88 0
-2099 73 0
-2099 56 0
-128 2093 2094 2095 2096 2097 2098 2099 0
-2100 17 0
-2100 112 0
-2101 18 0
-2101 111 0
-2102 19 0
-2102 110 0
-2103 21 0
-2103 108 0
-2104 25 0
-2104 104 0
-2105 49 0
-2105 80 0
-2106 81 0
-2106 48 0
-128 2100 2101 2102 2103 2104 2105 2106 0
-2107 33 0
-2107 96 0
-2108 34 0
-2108 95 0
-2109 35 0
-2109 94 0
-2110 37 0
-2110 92 0
-2111 41 0
-2111 88 0
-2112 49 0
-2112 80 0
-2113 97 0
-2113 32 0
-128 2107 2108 2109 2110 2111 2112 2113 0
-2114 65 0
-2114 64 0
-2115 66 0
-2115 63 0
-2116 67 0
-2116 62 0
-2117 69 0
-2117 60 0
-2118 73 0
-2118 56 0
-2119 81 0
-2119 48 0
-2120 97 0
-2120 32 0
-128 2114 2115 2116 2117 2118 2119 2120 0
-2121 130 0
-2121 135 0
-2122 131 0
-2122 134 0
-2123 133 0
-2123 132 0
-136 2121 2122 2123 0
-2124 130 0
-2124 135 0
-2125 132 0
-2125 133 0
-2126 134 0
-2126 131 0
-136 2124 2125 2126 0
-2127 131 0
-2127 134 0
-2128 132 0
-2128 133 0
-2129 135 0
-2129 130 0
-136 2127 2128 2129 0
-2130 133 0
-2130 132 0
-2131 134 0
-2131 131 0
-2132 135 0
-2132 130 0
-136 2130 2131 2132 0
-2133 130 0
-2133 139 0
-2134 131 0
-2134 138 0
-2135 137 0
-2135 132 0
-140 2133 2134 2135 0
-2136 130 0
-2136 139 0
-2137 132 0
-2137 137 0
-2138 138 0
-2138 131 0
-140 2136 2137 2138 0
-2139 131 0
-2139 138 0
-2140 132 0
-2140 137 0
-2141 139 0
-2141 130 0
-140 2139 2140 2141 0
-2142 137 0
-2142 132 0
-2143 138 0
-2143 131 0
-2144 139 0
-2144 130 0
-140 2142 2143 2144 0
-2145 130 0
-2145 141 0
-2146 133 0
-2146 138 0
-2147 137 0
-2147 134 0
-142 2145 2146 2147 0
-2148 130 0
-2148 141 0
-2149 134 0
-2149 137 0
-2150 138 0
-2150 133 0
-142 2148 2149 2150 0
-2151 133 0
-2151 138 0
-2152 134 0
-2152 137 0
-2153 141 0
-2153 130 0
-142 2151 2152 2153 0
-2154 137 0
-2154 134 0
-2155 138 0
-2155 133 0
-2156 141 0
-2156 130 0
-142 2154 2155 2156 0
-2157 131 0
-2157 141 0
-2158 133 0
-2158 139 0
-2159 137 0
-2159 135 0
-143 2157 2158 2159 0
-2160 131 0
-2160 141 0
-2161 135 0
-2161 137 0
-2162 139 0
-2162 133 0
-143 2160 2161 2162 0
-2163 133 0
-2163 139 0
-2164 135 0
-2164 137 0
-2165 141 0
-2165 131 0
-143 2163 2164 2165 0
-2166 137 0
-2166 135 0
-2167 139 0
-2167 133 0
-2168 141 0
-2168 131 0
-143 2166 2167 2168 0
-2169 132 0
-2169 141 0
-2170 134 0
-2170 139 0
-2171 138 0
-2171 135 0
-144 2169 2170 2171 0
-2172 132 0
-2172 141 0
-2173 135 0
-2173 138 0
-2174 139 0
-2174 134 0
-144 2172 2173 2174 0
-2175 134 0
-2175 139 0
-2176 135 0
-2176 138 0
-2177 141 0
-2177 132 0
-144 2175 2176 2177 0
-2178 138 0
-2178 135 0
-2179 139 0
-2179 134 0
-2180 141 0
-2180 132 0
-144 2178 2179 2180 0
-2181 130 0
-2181 147 0
-2182 131 0
-2182 146 0
-2183 145 0
-2183 132 0
-148 2181 2182 2183 0
-2184 130 0
-2184 147 0
-2185 132 0
-2185 145 0
-2186 146 0
-2186 131 0
-148 2184 2185 2186 0
-2187 131 0
-2187 146 0
-2188 132 0
-2188 145 0
-2189 147 0
-2189 130 0
-148 2187 2188 2189 0
-2190 145 0
-2190 132 0
-2191 146 0
-2191 131 0
-2192 147 0
-2192 130 0
-148 2190 2191 2192 0
-2193 130 0
-2193 149 0
-2194 133 0
-2194 146 0
-2195 145 0
-2195 134 0
-150 2193 2194 2195 0
-2196 130 0
-2196 149 0
-2197 134 0
-2197 145 0
-2198 146 0
-2198 133 0
-150 2196 2197 2198 0
-2199 133 0
-2199 146 0
-2200 134 0
-2200 145 0
-2201 149 0
-2201 130 0
-150 2199 2200 2201 0
-2202 145 0
-2202 134 0
-2203 146 0
-2203 133 0
-2204 149 0
-2204 130 0
-150 2202 2203 2204 0
-2205 131 0
-2205 149 0
-2206 133 0
-2206 147 0
-2207 145 0
-2207 135 0
-151 2205 2206 2207 0
-2208 131 0
-2208 149 0
-2209 135 0
-2209 145 0
-2210 147 0
-2210 133 0
-151 2208 2209 2210 0
-2211 133 0
-2211 147 0
-2212 135 0
-2212 145 0
-2213 149 0
-2213 131 0
-151 2211 2212 2213 0
-2214 145 0
-2214 135 0
-2215 147 0
-2215 133 0
-2216 149 0
-2216 131 0
-151 2214 2215 2216 0
-2217 132 0
-2217 149 0
-2218 134 0
-2218 147 0
-2219 146 0
-2219 135 0
-152 2217 2218 2219 0
-2220 132 0
-2220 149 0
-2221 135 0
-2221 146 0
-2222 147 0
-2222 134 0
-152 2220 2221 2222 0
-2223 134 0
-2223 147 0
-2224 135 0
-2224 146 0
-2225 149 0
-2225 132 0
-152 2223 2224 2225 0
-2226 146 0
-2226 135 0
-2227 147 0
-2227 134 0
-2228 149 0
-2228 132 0
-152 2226 2227 2228 0
-2229 130 0
-2229 153 0
-2230 137 0
-2230 146 0
-2231 145 0
-2231 138 0
-154 2229 2230 2231 0
-2232 130 0
-2232 153 0
-2233 138 0
-2233 145 0
-2234 146 0
-2234 137 0
-154 2232 2233 2234 0
-2235 137 0
-2235 146 0
-2236 138 0
-2236 145 0
-2237 153 0
-2237 130 0
-154 2235 2236 2237 0
-2238 145 0
-2238 138 0
-2239 146 0
-2239 137 0
-2240 153 0
-2240 130 0
-154 2238 2239 2240 0
-2241 131 0
-2241 153 0
-2242 137 0
-2242 147 0
-2243 145 0
-2243 139 0
-155 2241 2242 2243 0
-2244 131 0
-2244 153 0
-2245 139 0
-2245 145 0
-2246 147 0
-2246 137 0
-155 2244 2245 2246 0
-2247 137 0
-2247 147 0
-2248 139 0
-2248 145 0
-2249 153 0
-2249 131 0
-155 2247 2248 2249 0
-2250 145 0
-2250 139 0
-2251 147 0
-2251 137 0
-2252 153 0
-2252 131 0
-155 2250 2251 2252 0
-2253 132 0
-2253 153 0
-2254 138 0
-2254 147 0
-2255 146 0
-2255 139 0
-156 2253 2254 2255 0
-2256 132 0
-2256 153 0
-2257 139 0
-2257 146 0
-2258 147 0
-2258 138 0
-156 2256 2257 2258 0
-2259 138 0
-2259 147 0
-2260 139 0
-2260 146 0
-2261 153 0
-2261 132 0
-156 2259 2260 2261 0
-2262 146 0
-2262 139 0
-2263 147 0
-2263 138 0
-2264 153 0
-2264 132 0
-156 2262 2263 2264 0
-2265 133 0
-2265 153 0
-2266 137 0
-2266 149 0
-2267 145 0
-2267 141 0
-157 2265 2266 2267 0
-2268 133 0
-2268 153 0
-2269 141 0
-2269 145 0
-2270 149 0
-2270 137 0
-157 2268 2269 2270 0
-2271 137 0
-2271 149 0
-2272 141 0
-2272 145 0
-2273 153 0
-2273 133 0
-157 2271 2272 2273 0
-2274 145 0
-2274 141 0
-2275 149 0
-2275 137 0
-2276 153 0
-2276 133 0
-157 2274 2275 2276 0
-2277 134 0
-2277 153 0
-2278 138 0
-2278 149 0
-2279 146 0
-2279 141 0
-158 2277 2278 2279 0
-2280 134 0
-2280 153 0
-2281 141 0
-2281 146 0
-2282 149 0
-2282 138 0
-158 2280 2281 2282 0
-2283 138 0
-2283 149 0
-2284 141 0
-2284 146 0
-2285 153 0
-2285 134 0
-158 2283 2284 2285 0
-2286 146 0
-2286 141 0
-2287 149 0
-2287 138 0
-2288 153 0
-2288 134 0
-158 2286 2287 2288 0
-2289 135 0
-2289 153 0
-2290 139 0
-2290 149 0
-2291 147 0
-2291 141 0
-159 2289 2290 2291 0
-2292 135 0
-2292 153 0
-2293 141 0
-2293 147 0
-2294 149 0
-2294 139 0
-159 2292 2293 2294 0
-2295 139 0
-2295 149 0
-2296 141 0
-2296 147 0
-2297 153 0
-2297 135 0
-159 2295 2296 2297 0
-2298 147 0
-2298 141 0
-2299 149 0
-2299 139 0
-2300 153 0
-2300 135 0
-159 2298 2299 2300 0
-2301 130 0
-2301 159 0
-2302 131 0
-2302 158 0
-2303 133 0
-2303 156 0
-2304 137 0
-2304 152 0
-2305 145 0
-2305 144 0
-160 2301 2302 2303 2304 2305 0
-2306 130 0
-2306 159 0
-2307 132 0
-2307 157 0
-2308 134 0
-2308 155 0
-2309 138 0
-2309 151 0
-2310 146 0
-2310 143 0
-160 2306 2307 2308 2309 2310 0
-2311 131 0
-2311 158 0
-2312 132 0
-2312 157 0
-2313 135 0
-2313 154 0
-2314 139 0
-2314 150 0
-2315 147 0
-2315 142 0
-160 2311 2312 2313 2314 2315 0
-2316 133 0
-2316 156 0
-2317 134 0
-2317 155 0
-2318 135 0
-2318 154 0
-2319 141 0
-2319 148 0
-2320 149 0
-2320 140 0
-160 2316 2317 2318 2319 2320 0
-2321 137 0
-2321 152 0
-2322 138 0
-2322 151 0
-2323 139 0
-2323 150 0
-2324 141 0
-2324 148 0
-2325 153 0
-2325 136 0
-160 2321 2322 2323 2324 2325 0
-2326 145 0
-2326 144 0
-2327 146 0
-2327 143 0
-2328 147 0
-2328 142 0
-2329 149 0
-2329 140 0
-2330 153 0
-2330 136 0
-160 2326 2327 2328 2329 2330 0
-2331 130 0
-2331 163 0
-2332 131 0
-2332 162 0
-2333 161 0
-2333 132 0
-164 2331 2332 2333 0
-2334 130 0
-2334 163 0
-2335 132 0
-2335 161 0
-2336 162 0
-2336 131 0
-164 2334 2335 2336 0
-2337 131 0
-2337 162 0
-2338 132 0
-2338 161 0
-2339 163 0
-2339 130 0
-164 2337 2338 2339 0
-2340 161 0
-2340 132 0
-2341 162 0
-2341 131 0
-2342 163 0
-2342 130 0
-164 2340 2341 2342 0
-2343 130 0
-2343 165 0
-2344 133 0
-2344 162 0
-2345 161 0
-2345 134 0
-166 2343 2344 2345 0
-2346 130 0
-2346 165 0
-2347 134 0
-2347 161 0
-2348 162 0
-2348 133 0
-166 2346 2347 2348 0
-2349 133 0
-2349 162 0
-2350 134 0
-2350 161 0
-2351 165 0
-2351 130 0
-166 2349 2350 2351 0
-2352 161 0
-2352 134 0
-2353 162 0
-2353 133 0
-2354 165 0
-2354 130 0
-166 2352 2353 2354 0
-2355 131 0
-2355 165 0
-2356 133 0
-2356 163 0
-2357 161 0
-2357 135 0
-167 2355 2356 2357 0
-2358 131 0
-2358 165 0
-2359 135 0
-2359 161 0
-2360 163 0
-2360 133 0
-167 2358 2359 2360 0
-2361 133 0
-2361 163 0
-2362 135 0
-2362 161 0
-2363 165 0
-2363 131 0
-167 2361 2362 2363 0
-2364 161 0
-2364 135 0
-2365 163 0
-2365 133 0
-2366 165 0
-2366 131 0
-167 2364 2365 2366 0
-2367 132 0
-2367 165 0
-2368 134 0
-2368 163 0
-2369 162 0
-2369 135 0
-168 2367 2368 2369 0
-2370 132 0
-2370 165 0
-2371 135 0
-2371 162 0
-2372 163 0
-2372 134 0
-168 2370 2371 2372 0
-2373 134 0
-2373 163 0
-2374 135 0
-2374 162 0
-2375 165 0
-2375 132 0
-168 2373 2374 2375 0
-2376 162 0
-2376 135 0
-2377 163 0
-2377 134 0
-2378 165 0
-2378 132 0
-168 2376 2377 2378 0
-2379 130 0
-2379 169 0
-2380 137 0
-2380 162 0
-2381 161 0
-2381 138 0
-170 2379 2380 2381 0
-2382 130 0
-2382 169 0
-2383 138 0
-2383 161 0
-2384 162 0
-2384 137 0
-170 2382 2383 2384 0
-2385 137 0
-2385 162 0
-2386 138 0
-2386 161 0
-2387 169 0
-2387 130 0
-170 2385 2386 2387 0
-2388 161 0
-2388 138 0
-2389 162 0
-2389 137 0
-2390 169 0
-2390 130 0
-170 2388 2389 2390 0
-2391 131 0
-2391 169 0
-2392 137 0
-2392 163 0
-2393 161 0
-2393 139 0
-171 2391 2392 2393 0
-2394 131 0
-2394 169 0
-2395 139 0
-2395 161 0
-2396 163 0
-2396 137 0
-171 2394 2395 2396 0
-2397 137 0
-2397 163 0
-2398 139 0
-2398 161 0
-2399 169 0
-2399 131 0
-171 2397 2398 2399 0
-2400 161 0
-2400 139 0
-2401 163 0
-2401 137 0
-2402 169 0
-2402 131 0
-171 2400 2401 2402 0
-2403 132 0
-2403 169 0
-2404 138 0
-2404 163 0
-2405 162 0
-2405 139 0
-172 2403 2404 2405 0
-2406 132 0
-2406 169 0
-2407 139 0
-2407 162 0
-2408 163 0
-2408 138 0
-172 2406 2407 2408 0
-2409 138 0
-2409 163 0
-2410 139 0
-2410 162 0
-2411 169 0
-2411 132 0
-172 2409 2410 2411 0
-2412 162 0
-2412 139 0
-2413 163 0
-2413 138 0
-2414 169 0
-2414 132 0
-172 2412 2413 2414 0
-2415 133 0
-2415 169 0
-2416 137 0
-2416 165 0
-2417 161 0
-2417 141 0
-173 2415 2416 2417 0
-2418 133 0
-2418 169 0
-2419 141 0
-2419 161 0
-2420 165 0
-2420 137 0
-173 2418 2419 2420 0
-2421 137 0
-2421 165 0
-2422 141 0
-2422 161 0
-2423 169 0
-2423 133 0
-173 2421 2422 2423 0
-2424 161 0
-2424 141 0
-2425 165 0
-2425 137 0
-2426 169 0
-2426 133 0
-173 2424 2425 2426 0
-2427 134 0
-2427 169 0
-2428 138 0
-2428 165 0
-2429 162 0
-2429 141 0
-174 2427 2428 2429 0
-2430 134 0
-2430 169 0
-2431 141 0
-2431 162 0
-2432 165 0
-2432 138 0
-174 2430 2431 2432 0
-2433 138 0
-2433 165 0
-2434 141 0
-2434 162 0
-2435 169 0
-2435 134 0
-174 2433 2434 2435 0
-2436 162 0
-2436 141 0
-2437 165 0
-2437 138 0
-2438 169 0
-2438 134 0
-174 2436 2437 2438 0
-2439 135 0
-2439 169 0
-2440 139 0
-2440 165 0
-2441 163 0
-2441 141 0
-175 2439 2440 2441 0
-2442 135 0
-2442 169 0
-2443 141 0
-2443 163 0
-2444 165 0
-2444 139 0
-175 2442 2443 2444 0
-2445 139 0
-2445 165 0
-2446 141 0
-2446 163 0
-2447 169 0
-2447 135 0
-175 2445 2446 2447 0
-2448 163 0
-2448 141 0
-2449 165 0
-2449 139 0
-2450 169 0
-2450 135 0
-175 2448 2449 2450 0
-2451 130 0
-2451 175 0
-2452 131 0
-2452 174 0
-2453 133 0
-2453 172 0
-2454 137 0
-2454 168 0
-2455 161 0
-2455 144 0
-176 2451 2452 2453 2454 2455 0
-2456 130 0
-2456 175 0
-2457 132 0
-2457 173 0
-2458 134 0
-2458 171 0
-2459 138 0
-2459 167 0
-2460 162 0
-2460 143 0
-176 2456 2457 2458 2459 2460 0
-2461 131 0
-2461 174 0
-2462 132 0
-2462 173 0
-2463 135 0
-2463 170 0
-2464 139 0
-2464 166 0
-2465 163 0
-2465 142 0
-176 2461 2462 2463 2464 2465 0
-2466 133 0
-2466 172 0
-2467 134 0
-2467 171 0
-2468 135 0
-2468 170 0
-2469 141 0
-2469 164 0
-2470 165 0
-2470 140 0
-176 2466 2467 2468 2469 2470 0
-2471 137 0
-2471 168 0
-2472 138 0
-2472 167 0
-2473 139 0
-2473 166 0
-2474 141 0
-2474 164 0
-2475 169 0
-2475 136 0
-176 2471 2472 2473 2474 2475 0
-2476 161 0
-2476 144 0
-2477 162 0
-2477 143 0
-2478 163 0
-2478 142 0
-2479 165 0
-2479 140 0
-2480 169 0
-2480 136 0
-176 2476 2477 2478 2479 2480 0
-2481 130 0
-2481 177 0
-2482 145 0
-2482 162 0
-2483 161 0
-2483 146 0
-178 2481 2482 2483 0
-2484 130 0
-2484 177 0
-2485 146 0
-2485 161 0
-2486 162 0
-2486 145 0
-178 2484 2485 2486 0
-2487 145 0
-2487 162 0
-2488 146 0
-2488 161 0
-2489 177 0
-2489 130 0
-178 2487 2488 2489 0
-2490 161 0
-2490 146 0
-2491 162 0
-2491 145 0
-2492 177 0
-2492 130 0
-178 2490 2491 2492 0
-2493 131 0
-2493 177 0
-2494 145 0
-2494 163 0
-2495 161 0
-2495 147 0
-179 2493 2494 2495 0
-2496 131 0
-2496 177 0
-2497 147 0
-2497 161 0
-2498 163 0
-2498 145 0
-179 2496 2497 2498 0
-2499 145 0
-2499 163 0
-2500 147 0
-2500 161 0
-2501 177 0
-2501 131 0
-179 2499 2500 2501 0
-2502 161 0
-2502 147 0
-2503 163 0
-2503 145 0
-2504 177 0
-2504 131 0
-179 2502 2503 2504 0
-2505 132 0
-2505 177 0
-2506 146 0
-2506 163 0
-2507 162 0
-2507 147 0
-180 2505 2506 2507 0
-2508 132 0
-2508 177 0
-2509 147 0
-2509 162 0
-2510 163 0
-2510 146 0
-180 2508 2509 2510 0
-2511 146 0
-2511 163 0
-2512 147 0
-2512 162 0
-2513 177 0
-2513 132 0
-180 2511 2512 2513 0
-2514 162 0
-2514 147 0
-2515 163 0
-2515 146 0
-2516 177 0
-2516 132 0
-180 2514 2515 2516 0
-2517 133 0
-2517 177 0
-2518 145 0
-2518 165 0
-2519 161 0
-2519 149 0
-181 2517 2518 2519 0
-2520 133 0
-2520 177 0
-2521 149 0
-2521 161 0
-2522 165 0
-2522 145 0
-181 2520 2521 2522 0
-2523 145 0
-2523 165 0
-2524 149 0
-2524 161 0
-2525 177 0
-2525 133 0
-181 2523 2524 2525 0
-2526 161 0
-2526 149 0
-2527 165 0
-2527 145 0
-2528 177 0
-2528 133 0
-181 2526 2527 2528 0
-2529 134 0
-2529 177 0
-2530 146 0
-2530 165 0
-2531 162 0
-2531 149 0
-182 2529 2530 2531 0
-2532 134 0
-2532 177 0
-2533 149 0
-2533 162 0
-2534 165 0
-2534 146 0
-182 2532 2533 2534 0
-2535 146 0
-2535 165 0
-2536 149 0
-2536 162 0
-2537 177 0
-2537 134 0
-182 2535 2536 2537 0
-2538 162 0
-2538 149 0
-2539 165 0
-2539 146 0
-2540 177 0
-2540 134 0
-182 2538 2539 2540 0
-2541 135 0
-2541 177 0
-2542 147 0
-2542 165 0
-2543 163 0
-2543 149 0
-183 2541 2542 2543 0
-2544 135 0
-2544 177 0
-2545 149 0
-2545 163 0
-2546 165 0
-2546 147 0
-183 2544 2545 2546 0
-2547 147 0
-2547 165 0
-2548 149 0
-2548 163 0
-2549 177 0
-2549 135 0
-183 2547 2548 2549 0
-2550 163 0
-2550 149 0
-2551 165 0
-2551 147 0
-2552 177 0
-2552 135 0
-183 2550 2551 2552 0
-2553 130 0
-2553 183 0
-2554 131 0
-2554 182 0
-2555 133 0
-2555 180 0
-2556 145 0
-2556 168 0
-2557 161 0
-2557 152 0
-184 2553 2554 2555 2556 2557 0
-2558 130 0
-2558 183 0
-2559 132 0
-2559 181 0
-2560 134 0
-2560 179 0
-2561 146 0
-2561 167 0
-2562 162 0
-2562 151 0
-184 2558 2559 2560 2561 2562 0
-2563 131 0
-2563 182 0
-2564 132 0
-2564 181 0
-2565 135 0
-2565 178 0
-2566 147 0
-2566 166 0
-2567 163 0
-2567 150 0
-184 2563 2564 2565 2566 2567 0
-2568 133 0
-2568 180 0
-2569 134 0
-2569 179 0
-2570 135 0
-2570 178 0
-2571 149 0
-2571 164 0
-2572 165 0
-2572 148 0
-184 2568 2569 2570 2571 2572 0
-2573 145 0
-2573 168 0
-2574 146 0
-2574 167 0
-2575 147 0
-2575 166 0
-2576 149 0
-2576 164 0
-2577 177 0
-2577 136 0
-184 2573 2574 2575 2576 2577 0
-2578 161 0
-2578 152 0
-2579 162 0
-2579 151 0
-2580 163 0
-2580 150 0
-2581 165 0
-2581 148 0
-2582 177 0
-2582 136 0
-184 2578 2579 2580 2581 2582 0
-2583 137 0
-2583 177 0
-2584 145 0
-2584 169 0
-2585 161 0
-2585 153 0
-185 2583 2584 2585 0
-2586 137 0
-2586 177 0
-2587 153 0
-2587 161 0
-2588 169 0
-2588 145 0
-185 2586 2587 2588 0
-2589 145 0
-2589 169 0
-2590 153 0
-2590 161 0
-2591 177 0
-2591 137 0
-185 2589 2590 2591 0
-2592 161 0
-2592 153 0
-2593 169 0
-2593 145 0
-2594 177 0
-2594 137 0
-185 2592 2593 2594 0
-2595 138 0
-2595 177 0
-2596 146 0
-2596 169 0
-2597 162 0
-2597 153 0
-186 2595 2596 2597 0
-2598 138 0
-2598 177 0
-2599 153 0
-2599 162 0
-2600 169 0
-2600 146 0
-186 2598 2599 2600 0
-2601 146 0
-2601 169 0
-2602 153 0
-2602 162 0
-2603 177 0
-2603 138 0
-186 2601 2602 2603 0
-2604 162 0
-2604 153 0
-2605 169 0
-2605 146 0
-2606 177 0
-2606 138 0
-186 2604 2605 2606 0
-2607 139 0
-2607 177 0
-2608 147 0
-2608 169 0
-2609 163 0
-2609 153 0
-187 2607 2608 2609 0
-2610 139 0
-2610 177 0
-2611 153 0
-2611 163 0
-2612 169 0
-2612 147 0
-187 2610 2611 2612 0
-2613 147 0
-2613 169 0
-2614 153 0
-2614 163 0
-2615 177 0
-2615 139 0
-187 2613 2614 2615 0
-2616 163 0
-2616 153 0
-2617 169 0
-2617 147 0
-2618 177 0
-2618 139 0
-187 2616 2617 2618 0
-2619 130 0
-2619 187 0
-2620 131 0
-2620 186 0
-2621 137 0
-2621 180 0
-2622 145 0
-2622 172 0
-2623 161 0
-2623 156 0
-188 2619 2620 2621 2622 2623 0
-2624 130 0
-2624 187 0
-2625 132 0
-2625 185 0
-2626 138 0
-2626 179 0
-2627 146 0
-2627 171 0
-2628 162 0
-2628 155 0
-188 2624 2625 2626 2627 2628 0
-2629 131 0
-2629 186 0
-2630 132 0
-2630 185 0
-2631 139 0
-2631 178 0
-2632 147 0
-2632 170 0
-2633 163 0
-2633 154 0
-188 2629 2630 2631 2632 2633 0
-2634 137 0
-2634 180 0
-2635 138 0
-2635 179 0
-2636 139 0
-2636 178 0
-2637 153 0
-2637 164 0
-2638 169 0
-2638 148 0
-188 2634 2635 2636 2637 2638 0
-2639 145 0
-2639 172 0
-2640 146 0
-2640 171 0
-2641 147 0
-2641 170 0
-2642 153 0
-2642 164 0
-2643 177 0
-2643 140 0
-188 2639 2640 2641 2642 2643 0
-2644 161 0
-2644 156 0
-2645 162 0
-2645 155 0
-2646 163 0
-2646 154 0
-2647 169 0
-2647 148 0
-2648 177 0
-2648 140 0
-188 2644 2645 2646 2647 2648 0
-2649 141 0
-2649 177 0
-2650 149 0
-2650 169 0
-2651 165 0
-2651 153 0
-189 2649 2650 2651 0
-2652 141 0
-2652 177 0
-2653 153 0
-2653 165 0
-2654 169 0
-2654 149 0
-189 2652 2653 2654 0
-2655 149 0
-2655 169 0
-2656 153 0
-2656 165 0
-2657 177 0
-2657 141 0
-189 2655 2656 2657 0
-2658 165 0
-2658 153 0
-2659 169 0
-2659 149 0
-2660 177 0
-2660 141 0
-189 2658 2659 2660 0
-2661 130 0
-2661 189 0
-2662 133 0
-2662 186 0
-2663 137 0
-2663 182 0
-2664 145 0
-2664 174 0
-2665 161 0
-2665 158 0
-190 2661 2662 2663 2664 2665 0
-2666 130 0
-2666 189 0
-2667 134 0
-2667 185 0
-2668 138 0
-2668 181 0
-2669 146 0
-2669 173 0
-2670 162 0
-2670 157 0
-190 2666 2667 2668 2669 2670 0
-2671 133 0
-2671 186 0
-2672 134 0
-2672 185 0
-2673 141 0
-2673 178 0
-2674 149 0
-2674 170 0
-2675 165 0
-2675 154 0
-190 2671 2672 2673 2674 2675 0
-2676 137 0
-2676 182 0
-2677 138 0
-2677 181 0
-2678 141 0
-2678 178 0
-2679 153 0
-2679 166 0
-2680 169 0
-2680 150 0
-190 2676 2677 2678 2679 2680 0
-2681 145 0
-2681 174 0
-2682 146 0
-2682 173 0
-2683 149 0
-2683 170 0
-2684 153 0
-2684 166 0
-2685 177 0
-2685 142 0
-190 2681 2682 2683 2684 2685 0
-2686 161 0
-2686 158 0
-2687 162 0
-2687 157 0
-2688 165 0
-2688 154 0
-2689 169 0
-2689 150 0
-2690 177 0
-2690 142 0
-190 2686 2687 2688 2689 2690 0
-2691 131 0
-2691 189 0
-2692 133 0
-2692 187 0
-2693 137 0
-2693 183 0
-2694 145 0
-2694 175 0
-2695 161 0
-2695 159 0
-191 2691 2692 2693 2694 2695 0
-2696 131 0
-2696 189 0
-2697 135 0
-2697 185 0
-2698 139 0
-2698 181 0
-2699 147 0
-2699 173 0
-2700 163 0
-2700 157 0
-191 2696 2697 2698 2699 2700 0
-2701 133 0
-2701 187 0
-2702 135 0
-2702 185 0
-2703 141 0
-2703 179 0
-2704 149 0
-2704 171 0
-2705 165 0
-2705 155 0
-191 2701 2702 2703 2704 2705 0
-2706 137 0
-2706 183 0
-2707 139 0
-2707 181 0
-2708 141 0
-2708 179 0
-2709 153 0
-2709 167 0
-2710 169 0
-2710 151 0
-191 2706 2707 2708 2709 2710 0
-2711 145 0
-2711 175 0
-2712 147 0
-2712 173 0
-2713 149 0
-2713 171 0
-2714 153 0
-2714 167 0
-2715 177 0
-2715 143 0
-191 2711 2712 2713 2714 2715 0
-2716 161 0
-2716 159 0
-2717 163 0
-2717 157 0
-2718 165 0
-2718 155 0
-2719 169 0
-2719 151 0
-2720 177 0
-2720 143 0
-191 2716 2717 2718 2719 2720 0
-2721 132 0
-2721 189 0
-2722 134 0
-2722 187 0
-2723 138 0
-2723 183 0
-2724 146 0
-2724 175 0
-2725 162 0
-2725 159 0
-192 2721 2722 2723 2724 2725 0
-2726 132 0
-2726 189 0
-2727 135 0
-2727 186 0
-2728 139 0
-2728 182 0
-2729 147 0
-2729 174 0
-2730 163 0
-2730 158 0
-192 2726 2727 2728 2729 2730 0
-2731 134 0
-2731 187 0
-2732 135 0
-2732 186 0
-2733 141 0
-2733 180 0
-2734 149 0
-2734 172 0
-2735 165 0
-2735 156 0
-192 2731 2732 2733 2734 2735 0
-2736 138 0
-2736 183 0
-2737 139 0
-2737 182 0
-2738 141 0
-2738 180 0
-2739 153 0
-2739 168 0
-2740 169 0
-2740 152 0
-192 2736 2737 2738 2739 2740 0
-2741 146 0
-2741 175 0
-2742 147 0
-2742 174 0
-2743 149 0
-2743 172 0
-2744 153 0
-2744 168 0
-2745 177 0
-2745 144 0
-192 2741 2742 2743 2744 2745 0
-2746 162 0
-2746 159 0
-2747 163 0
-2747 158 0
-2748 165 0
-2748 156 0
-2749 169 0
-2749 152 0
-2750 177 0
-2750 144 0
-192 2746 2747 2748 2749 2750 0
-2751 130 0
-2751 195 0
-2752 131 0
-2752 194 0
-2753 193 0
-2753 132 0
-196 2751 2752 2753 0
-2754 130 0
-2754 195 0
-2755 132 0
-2755 193 0
-2756 194 0
-2756 131 0
-196 2754 2755 2756 0
-2757 131 0
-2757 194 0
-2758 132 0
-2758 193 0
-2759 195 0
-2759 130 0
-196 2757 2758 2759 0
-2760 193 0
-2760 132 0
-2761 194 0
-2761 131 0
-2762 195 0
-2762 130 0
-196 2760 2761 2762 0
-2763 130 0
-2763 197 0
-2764 133 0
-2764 194 0
-2765 193 0
-2765 134 0
-198 2763 2764 2765 0
-2766 130 0
-2766 197 0
-2767 134 0
-2767 193 0
-2768 194 0
-2768 133 0
-198 2766 2767 2768 0
-2769 133 0
-2769 194 0
-2770 134 0
-2770 193 0
-2771 197 0
-2771 130 0
-198 2769 2770 2771 0
-2772 193 0
-2772 134 0
-2773 194 0
-2773 133 0
-2774 197 0
-2774 130 0
-198 2772 2773 2774 0
-2775 131 0
-2775 197 0
-2776 133 0
-2776 195 0
-2777 193 0
-2777 135 0
-199 2775 2776 2777 0
-2778 131 0
-2778 197 0
-2779 135 0
-2779 193 0
-2780 195 0
-2780 133 0
-199 2778 2779 2780 0
-2781 133 0
-2781 195 0
-2782 135 0
-2782 193 0
-2783 197 0
-2783 131 0
-199 2781 2782 2783 0
-2784 193 0
-2784 135 0
-2785 195 0
-2785 133 0
-2786 197 0
-2786 131 0
-199 2784 2785 2786 0
-2787 132 0
-2787 197 0
-2788 134 0
-2788 195 0
-2789 194 0
-2789 135 0
-200 2787 2788 2789 0
-2790 132 0
-2790 197 0
-2791 135 0
-2791 194 0
-2792 195 0
-2792 134 0
-200 2790 2791 2792 0
-2793 134 0
-2793 195 0
-2794 135 0
-2794 194 0
-2795 197 0
-2795 132 0
-200 2793 2794 2795 0
-2796 194 0
-2796 135 0
-2797 195 0
-2797 134 0
-2798 197 0
-2798 132 0
-200 2796 2797 2798 0
-2799 130 0
-2799 201 0
-2800 137 0
-2800 194 0
-2801 193 0
-2801 138 0
-202 2799 2800 2801 0
-2802 130 0
-2802 201 0
-2803 138 0
-2803 193 0
-2804 194 0
-2804 137 0
-202 2802 2803 2804 0
-2805 137 0
-2805 194 0
-2806 138 0
-2806 193 0
-2807 201 0
-2807 130 0
-202 2805 2806 2807 0
-2808 193 0
-2808 138 0
-2809 194 0
-2809 137 0
-2810 201 0
-2810 130 0
-202 2808 2809 2810 0
-2811 131 0
-2811 201 0
-2812 137 0
-2812 195 0
-2813 193 0
-2813 139 0
-203 2811 2812 2813 0
-2814 131 0
-2814 201 0
-2815 139 0
-2815 193 0
-2816 195 0
-2816 137 0
-203 2814 2815 2816 0
-2817 137 0
-2817 195 0
-2818 139 0
-2818 193 0
-2819 201 0
-2819 131 0
-203 2817 2818 2819 0
-2820 193 0
-2820 139 0
-2821 195 0
-2821 137 0
-2822 201 0
-2822 131 0
-203 2820 2821 2822 0
-2823 132 0
-2823 201 0
-2824 138 0
-2824 195 0
-2825 194 0
-2825 139 0
-204 2823 2824 2825 0
-2826 132 0
-2826 201 0
-2827 139 0
-2827 194 0
-2828 195 0
-2828 138 0
-204 2826 2827 2828 0
-2829 138 0
-2829 195 0
-2830 139 0
-2830 194 0
-2831 201 0
-2831 132 0
-204 2829 2830 2831 0
-2832 194 0
-2832 139 0
-2833 195 0
-2833 138 0
-2834 201 0
-2834 132 0
-204 2832 2833 2834 0
-2835 133 0
-2835 201 0
-2836 137 0
-2836 197 0
-2837 193 0
-2837 141 0
-205 2835 2836 2837 0
-2838 133 0
-2838 201 0
-2839 141 0
-2839 193 0
-2840 197 0
-2840 137 0
-205 2838 2839 2840 0
-2841 137 0
-2841 197 0
-2842 141 0
-2842 193 0
-2843 201 0
-2843 133 0
-205 2841 2842 2843 0
-2844 193 0
-2844 141 0
-2845 197 0
-2845 137 0
-2846 201 0
-2846 133 0
-205 2844 2845 2846 0
-2847 134 0
-2847 201 0
-2848 138 0
-2848 197 0
-2849 194 0
-2849 141 0
-206 2847 2848 2849 0
-2850 134 0
-2850 201 0
-2851 141 0
-2851 194 0
-2852 197 0
-2852 138 0
-206 2850 2851 2852 0
-2853 138 0
-2853 197 0
-2854 141 0
-2854 194 0
-2855 201 0
-2855 134 0
-206 2853 2854 2855 0
-2856 194 0
-2856 141 0
-2857 197 0
-2857 138 0
-2858 201 0
-2858 134 0
-206 2856 2857 2858 0
-2859 135 0
-2859 201 0
-2860 139 0
-2860 197 0
-2861 195 0
-2861 141 0
-207 2859 2860 2861 0
-2862 135 0
-2862 201 0
-2863 141 0
-2863 195 0
-2864 197 0
-2864 139 0
-207 2862 2863 2864 0
-2865 139 0
-2865 197 0
-2866 141 0
-2866 195 0
-2867 201 0
-2867 135 0
-207 2865 2866 2867 0
-2868 195 0
-2868 141 0
-2869 197 0
-2869 139 0
-2870 201 0
-2870 135 0
-207 2868 2869 2870 0
-2871 130 0
-2871 207 0
-2872 131 0
-2872 206 0
-2873 133 0
-2873 204 0
-2874 137 0
-2874 200 0
-2875 193 0
-2875 144 0
-208 2871 2872 2873 2874 2875 0
-2876 130 0
-2876 207 0
-2877 132 0
-2877 205 0
-2878 134 0
-2878 203 0
-2879 138 0
-2879 199 0
-2880 194 0
-2880 143 0
-208 2876 2877 2878 2879 2880 0
-2881 131 0
-2881 206 0
-2882 132 0
-2882 205 0
-2883 135 0
-2883 202 0
-2884 139 0
-2884 198 0
-2885 195 0
-2885 142 0
-208 2881 2882 2883 2884 2885 0
-2886 133 0
-2886 204 0
-2887 134 0
-2887 203 0
-2888 135 0
-2888 202 0
-2889 141 0
-2889 196 0
-2890 197 0
-2890 140 0
-208 2886 2887 2888 2889 2890 0
-2891 137 0
-2891 200 0
-2892 138 0
-2892 199 0
-2893 139 0
-2893 198 0
-2894 141 0
-2894 196 0
-2895 201 0
-2895 136 0
-208 2891 2892 2893 2894 2895 0
-2896 193 0
-2896 144 0
-2897 194 0
-2897 143 0
-2898 195 0
-2898 142 0
-2899 197 0
-2899 140 0
-2900 201 0
-2900 136 0
-208 2896 2897 2898 2899 2900 0
-2901 130 0
-2901 209 0
-2902 145 0
-2902 194 0
-2903 193 0
-2903 146 0
-210 2901 2902 2903 0
-2904 130 0
-2904 209 0
-2905 146 0
-2905 193 0
-2906 194 0
-2906 145 0
-210 2904 2905 2906 0
-2907 145 0
-2907 194 0
-2908 146 0
-2908 193 0
-2909 209 0
-2909 130 0
-210 2907 2908 2909 0
-2910 193 0
-2910 146 0
-2911 194 0
-2911 145 0
-2912 209 0
-2912 130 0
-210 2910 2911 2912 0
-2913 131 0
-2913 209 0
-2914 145 0
-2914 195 0
-2915 193 0
-2915 147 0
-211 2913 2914 2915 0
-2916 131 0
-2916 209 0
-2917 147 0
-2917 193 0
-2918 195 0
-2918 145 0
-211 2916 2917 2918 0
-2919 145 0
-2919 195 0
-2920 147 0
-2920 193 0
-2921 209 0
-2921 131 0
-211 2919 2920 2921 0
-2922 193 0
-2922 147 0
-2923 195 0
-2923 145 0
-2924 209 0
-2924 131 0
-211 2922 2923 2924 0
-2925 132 0
-2925 209 0
-2926 146 0
-2926 195 0
-2927 194 0
-2927 147 0
-212 2925 2926 2927 0
-2928 132 0
-2928 209 0
-2929 147 0
-2929 194 0
-2930 195 0
-2930 146 0
-212 2928 2929 2930 0
-2931 146 0
-2931 195 0
-2932 147 0
-2932 194 0
-2933 209 0
-2933 132 0
-212 2931 2932 2933 0
-2934 194 0
-2934 147 0
-2935 195 0
-2935 146 0
-2936 209 0
-2936 132 0
-212 2934 2935 2936 0
-2937 133 0
-2937 209 0
-2938 145 0
-2938 197 0
-2939 193 0
-2939 149 0
-213 2937 2938 2939 0
-2940 133 0
-2940 209 0
-2941 149 0
-2941 193 0
-2942 197 0
-2942 145 0
-213 2940 2941 2942 0
-2943 145 0
-2943 197 0
-2944 149 0
-2944 193 0
-2945 209 0
-2945 133 0
-213 2943 2944 2945 0
-2946 193 0
-2946 149 0
-2947 197 0
-2947 145 0
-2948 209 0
-2948 133 0
-213 2946 2947 2948 0
-2949 134 0
-2949 209 0
-2950 146 0
-2950 197 0
-2951 194 0
-2951 149 0
-214 2949 2950 2951 0
-2952 134 0
-2952 209 0
-2953 149 0
-2953 194 0
-2954 197 0
-2954 146 0
-214 2952 2953 2954 0
-2955 146 0
-2955 197 0
-2956 149 0
-2956 194 0
-2957 209 0
-2957 134 0
-214 2955 2956 2957 0
-2958 194 0
-2958 149 0
-2959 197 0
-2959 146 0
-2960 209 0
-2960 134 0
-214 2958 2959 2960 0
-2961 135 0
-2961 209 0
-2962 147 0
-2962 197 0
-2963 195 0
-2963 149 0
-215 2961 2962 2963 0
-2964 135 0
-2964 209 0
-2965 149 0
-2965 195 0
-2966 197 0
-2966 147 0
-215 2964 2965 2966 0
-2967 147 0
-2967 197 0
-2968 149 0
-2968 195 0
-2969 209 0
-2969 135 0
-215 2967 2968 2969 0
-2970 195 0
-2970 149 0
-2971 197 0
-2971 147 0
-2972 209 0
-2972 135 0
-215 2970 2971 2972 0
-2973 130 0
-2973 215 0
-2974 131 0
-2974 214 0
-2975 133 0
-2975 212 0
-2976 145 0
-2976 200 0
-2977 193 0
-2977 152 0
-216 2973 2974 2975 2976 2977 0
-2978 130 0
-2978 215 0
-2979 132 0
-2979 213 0
-2980 134 0
-2980 211 0
-2981 146 0
-2981 199 0
-2982 194 0
-2982 151 0
-216 2978 2979 2980 2981 2982 0
-2983 131 0
-2983 214 0
-2984 132 0
-2984 213 0
-2985 135 0
-2985 210 0
-2986 147 0
-2986 198 0
-2987 195 0
-2987 150 0
-216 2983 2984 2985 2986 2987 0
-2988 133 0
-2988 212 0
-2989 134 0
-2989 211 0
-2990 135 0
-2990 210 0
-2991 149 0
-2991 196 0
-2992 197 0
-2992 148 0
-216 2988 2989 2990 2991 2992 0
-2993 145 0
-2993 200 0
-2994 146 0
-2994 199 0
-2995 147 0
-2995 198 0
-2996 149 0
-2996 196 0
-2997 209 0
-2997 136 0
-216 2993 2994 2995 2996 2997 0
-2998 193 0
-2998 152 0
-2999 194 0
-2999 151 0
-3000 195 0
-3000 150 0
-3001 197 0
-3001 148 0
-3002 209 0
-3002 136 0
-216 2998 2999 3000 3001 3002 0
-3003 137 0
-3003 209 0
-3004 145 0
-3004 201 0
-3005 193 0
-3005 153 0
-217 3003 3004 3005 0
-3006 137 0
-3006 209 0
-3007 153 0
-3007 193 0
-3008 201 0
-3008 145 0
-217 3006 3007 3008 0
-3009 145 0
-3009 201 0
-3010 153 0
-3010 193 0
-3011 209 0
-3011 137 0
-217 3009 3010 3011 0
-3012 193 0
-3012 153 0
-3013 201 0
-3013 145 0
-3014 209 0
-3014 137 0
-217 3012 3013 3014 0
-3015 138 0
-3015 209 0
-3016 146 0
-3016 201 0
-3017 194 0
-3017 153 0
-218 3015 3016 3017 0
-3018 138 0
-3018 209 0
-3019 153 0
-3019 194 0
-3020 201 0
-3020 146 0
-218 3018 3019 3020 0
-3021 146 0
-3021 201 0
-3022 153 0
-3022 194 0
-3023 209 0
-3023 138 0
-218 3021 3022 3023 0
-3024 194 0
-3024 153 0
-3025 201 0
-3025 146 0
-3026 209 0
-3026 138 0
-218 3024 3025 3026 0
-3027 139 0
-3027 209 0
-3028 147 0
-3028 201 0
-3029 195 0
-3029 153 0
-219 3027 3028 3029 0
-3030 139 0
-3030 209 0
-3031 153 0
-3031 195 0
-3032 201 0
-3032 147 0
-219 3030 3031 3032 0
-3033 147 0
-3033 201 0
-3034 153 0
-3034 195 0
-3035 209 0
-3035 139 0
-219 3033 3034 3035 0
-3036 195 0
-3036 153 0
-3037 201 0
-3037 147 0
-3038 209 0
-3038 139 0
-219 3036 3037 3038 0
-3039 130 0
-3039 219 0
-3040 131 0
-3040 218 0
-3041 137 0
-3041 212 0
-3042 145 0
-3042 204 0
-3043 193 0
-3043 156 0
-220 3039 3040 3041 3042 3043 0
-3044 130 0
-3044 219 0
-3045 132 0
-3045 217 0
-3046 138 0
-3046 211 0
-3047 146 0
-3047 203 0
-3048 194 0
-3048 155 0
-220 3044 3045 3046 3047 3048 0
-3049 131 0
-3049 218 0
-3050 132 0
-3050 217 0
-3051 139 0
-3051 210 0
-3052 147 0
-3052 202 0
-3053 195 0
-3053 154 0
-220 3049 3050 3051 3052 3053 0
-3054 137 0
-3054 212 0
-3055 138 0
-3055 211 0
-3056 139 0
-3056 210 0
-3057 153 0
-3057 196 0
-3058 201 0
-3058 148 0
-220 3054 3055 3056 3057 3058 0
-3059 145 0
-3059 204 0
-3060 146 0
-3060 203 0
-3061 147 0
-3061 202 0
-3062 153 0
-3062 196 0
-3063 209 0
-3063 140 0
-220 3059 3060 3061 3062 3063 0
-3064 193 0
-3064 156 0
-3065 194 0
-3065 155 0
-3066 195 0
-3066 154 0
-3067 201 0
-3067 148 0
-3068 209 0
-3068 140 0
-220 3064 3065 3066 3067 3068 0
-3069 141 0
-3069 209 0
-3070 149 0
-3070 201 0
-3071 197 0
-3071 153 0
-221 3069 3070 3071 0
-3072 141 0
-3072 209 0
-3073 153 0
-3073 197 0
-3074 201 0
-3074 149 0
-221 3072 3073 3074 0
-3075 149 0
-3075 201 0
-3076 153 0
-3076 197 0
-3077 209 0
-3077 141 0
-221 3075 3076 3077 0
-3078 197 0
-3078 153 0
-3079 201 0
-3079 149 0
-3080 209 0
-3080 141 0
-221 3078 3079 3080 0
-3081 130 0
-3081 221 0
-3082 133 0
-3082 218 0
-3083 137 0
-3083 214 0
-3084 145 0
-3084 206 0
-3085 193 0
-3085 158 0
-222 3081 3082 3083 3084 3085 0
-3086 130 0
-3086 221 0
-3087 134 0
-3087 217 0
-3088 138 0
-3088 213 0
-3089 146 0
-3089 205 0
-3090 194 0
-3090 157 0
-222 3086 3087 3088 3089 3090 0
-3091 133 0
-3091 218 0
-3092 134 0
-3092 217 0
-3093 141 0
-3093 210 0
-3094 149 0
-3094 202 0
-3095 197 0
-3095 154 0
-222 3091 3092 3093 3094 3095 0
-3096 137 0
-3096 214 0
-3097 138 0
-3097 213 0
-3098 141 0
-3098 210 0
-3099 153 0
-3099 198 0
-3100 201 0
-3100 150 0
-222 3096 3097 3098 3099 3100 0
-3101 145 0
-3101 206 0
-3102 146 0
-3102 205 0
-3103 149 0
-3103 202 0
-3104 153 0
-3104 198 0
-3105 209 0
-3105 142 0
-222 3101 3102 3103 3104 3105 0
-3106 193 0
-3106 158 0
-3107 194 0
-3107 157 0
-3108 197 0
-3108 154 0
-3109 201 0
-3109 150 0
-3110 209 0
-3110 142 0
-222 3106 3107 3108 3109 3110 0
-3111 131 0
-3111 221 0
-3112 133 0
-3112 219 0
-3113 137 0
-3113 215 0
-3114 145 0
-3114 207 0
-3115 193 0
-3115 159 0
-223 3111 3112 3113 3114 3115 0
-3116 131 0
-3116 221 0
-3117 135 0
-3117 217 0
-3118 139 0
-3118 213 0
-3119 147 0
-3119 205 0
-3120 195 0
-3120 157 0
-223 3116 3117 3118 3119 3120 0
-3121 133 0
-3121 219 0
-3122 135 0
-3122 217 0
-3123 141 0
-3123 211 0
-3124 149 0
-3124 203 0
-3125 197 0
-3125 155 0
-223 3121 3122 3123 3124 3125 0
-3126 137 0
-3126 215 0
-3127 139 0
-3127 213 0
-3128 141 0
-3128 211 0
-3129 153 0
-3129 199 0
-3130 201 0
-3130 151 0
-223 3126 3127 3128 3129 3130 0
-3131 145 0
-3131 207 0
-3132 147 0
-3132 205 0
-3133 149 0
-3133 203 0
-3134 153 0
-3134 199 0
-3135 209 0
-3135 143 0
-223 3131 3132 3133 3134 3135 0
-3136 193 0
-3136 159 0
-3137 195 0
-3137 157 0
-3138 197 0
-3138 155 0
-3139 201 0
-3139 151 0
-3140 209 0
-3140 143 0
-223 3136 3137 3138 3139 3140 0
-3141 132 0
-3141 221 0
-3142 134 0
-3142 219 0
-3143 138 0
-3143 215 0
-3144 146 0
-3144 207 0
-3145 194 0
-3145 159 0
-224 3141 3142 3143 3144 3145 0
-3146 132 0
-3146 221 0
-3147 135 0
-3147 218 0
-3148 139 0
-3148 214 0
-3149 147 0
-3149 206 0
-3150 195 0
-3150 158 0
-224 3146 3147 3148 3149 3150 0
-3151 134 0
-3151 219 0
-3152 135 0
-3152 218 0
-3153 141 0
-3153 212 0
-3154 149 0
-3154 204 0
-3155 197 0
-3155 156 0
-224 3151 3152 3153 3154 3155 0
-3156 138 0
-3156 215 0
-3157 139 0
-3157 214 0
-3158 141 0
-3158 212 0
-3159 153 0
-3159 200 0
-3160 201 0
-3160 152 0
-224 3156 3157 3158 3159 3160 0
-3161 146 0
-3161 207 0
-3162 147 0
-3162 206 0
-3163 149 0
-3163 204 0
-3164 153 0
-3164 200 0
-3165 209 0
-3165 144 0
-224 3161 3162 3163 3164 3165 0
-3166 194 0
-3166 159 0
-3167 195 0
-3167 158 0
-3168 197 0
-3168 156 0
-3169 201 0
-3169 152 0
-3170 209 0
-3170 144 0
-224 3166 3167 3168 3169 3170 0
-3171 130 0
-3171 225 0
-3172 161 0
-3172 194 0
-3173 193 0
-3173 162 0
-226 3171 3172 3173 0
-3174 130 0
-3174 225 0
-3175 162 0
-3175 193 0
-3176 194 0
-3176 161 0
-226 3174 3175 3176 0
-3177 161 0
-3177 194 0
-3178 162 0
-3178 193 0
-3179 225 0
-3179 130 0
-226 3177 3178 3179 0
-3180 193 0
-3180 162 0
-3181 194 0
-3181 161 0
-3182 225 0
-3182 130 0
-226 3180 3181 3182 0
-3183 131 0
-3183 225 0
-3184 161 0
-3184 195 0
-3185 193 0
-3185 163 0
-227 3183 3184 3185 0
-3186 131 0
-3186 225 0
-3187 163 0
-3187 193 0
-3188 195 0
-3188 161 0
-227 3186 3187 3188 0
-3189 161 0
-3189 195 0
-3190 163 0
-3190 193 0
-3191 225 0
-3191 131 0
-227 3189 3190 3191 0
-3192 193 0
-3192 163 0
-3193 195 0
-3193 161 0
-3194 225 0
-3194 131 0
-227 3192 3193 3194 0
-3195 132 0
-3195 225 0
-3196 162 0
-3196 195 0
-3197 194 0
-3197 163 0
-228 3195 3196 3197 0
-3198 132 0
-3198 225 0
-3199 163 0
-3199 194 0
-3200 195 0
-3200 162 0
-228 3198 3199 3200 0
-3201 162 0
-3201 195 0
-3202 163 0
-3202 194 0
-3203 225 0
-3203 132 0
-228 3201 3202 3203 0
-3204 194 0
-3204 163 0
-3205 195 0
-3205 162 0
-3206 225 0
-3206 132 0
-228 3204 3205 3206 0
-3207 133 0
-3207 225 0
-3208 161 0
-3208 197 0
-3209 193 0
-3209 165 0
-229 3207 3208 3209 0
-3210 133 0
-3210 225 0
-3211 165 0
-3211 193 0
-3212 197 0
-3212 161 0
-229 3210 3211 3212 0
-3213 161 0
-3213 197 0
-3214 165 0
-3214 193 0
-3215 225 0
-3215 133 0
-229 3213 3214 3215 0
-3216 193 0
-3216 165 0
-3217 197 0
-3217 161 0
-3218 225 0
-3218 133 0
-229 3216 3217 3218 0
-3219 134 0
-3219 225 0
-3220 162 0
-3220 197 0
-3221 194 0
-3221 165 0
-230 3219 3220 3221 0
-3222 134 0
-3222 225 0
-3223 165 0
-3223 194 0
-3224 197 0
-3224 162 0
-230 3222 3223 3224 0
-3225 162 0
-3225 197 0
-3226 165 0
-3226 194 0
-3227 225 0
-3227 134 0
-230 3225 3226 3227 0
-3228 194 0
-3228 165 0
-3229 197 0
-3229 162 0
-3230 225 0
-3230 134 0
-230 3228 3229 3230 0
-3231 135 0
-3231 225 0
-3232 163 0
-3232 197 0
-3233 195 0
-3233 165 0
-231 3231 3232 3233 0
-3234 135 0
-3234 225 0
-3235 165 0
-3235 195 0
-3236 197 0
-3236 163 0
-231 3234 3235 3236 0
-3237 163 0
-3237 197 0
-3238 165 0
-3238 195 0
-3239 225 0
-3239 135 0
-231 3237 3238 3239 0
-3240 195 0
-3240 165 0
-3241 197 0
-3241 163 0
-3242 225 0
-3242 135 0
-231 3240 3241 3242 0
-3243 130 0
-3243 231 0
-3244 131 0
-3244 230 0
-3245 133 0
-3245 228 0
-3246 161 0
-3246 200 0
-3247 193 0
-3247 168 0
-232 3243 3244 3245 3246 3247 0
-3248 130 0
-3248 231 0
-3249 132 0
-3249 229 0
-3250 134 0
-3250 227 0
-3251 162 0
-3251 199 0
-3252 194 0
-3252 167 0
-232 3248 3249 3250 3251 3252 0
-3253 131 0
-3253 230 0
-3254 132 0
-3254 229 0
-3255 135 0
-3255 226 0
-3256 163 0
-3256 198 0
-3257 195 0
-3257 166 0
-232 3253 3254 3255 3256 3257 0
-3258 133 0
-3258 228 0
-3259 134 0
-3259 227 0
-3260 135 0
-3260 226 0
-3261 165 0
-3261 196 0
-3262 197 0
-3262 164 0
-232 3258 3259 3260 3261 3262 0
-3263 161 0
-3263 200 0
-3264 162 0
-3264 199 0
-3265 163 0
-3265 198 0
-3266 165 0
-3266 196 0
-3267 225 0
-3267 136 0
-232 3263 3264 3265 3266 3267 0
-3268 193 0
-3268 168 0
-3269 194 0
-3269 167 0
-3270 195 0
-3270 166 0
-3271 197 0
-3271 164 0
-3272 225 0
-3272 136 0
-232 3268 3269 3270 3271 3272 0
-3273 137 0
-3273 225 0
-3274 161 0
-3274 201 0
-3275 193 0
-3275 169 0
-233 3273 3274 3275 0
-3276 137 0
-3276 225 0
-3277 169 0
-3277 193 0
-3278 201 0
-3278 161 0
-233 3276 3277 3278 0
-3279 161 0
-3279 201 0
-3280 169 0
-3280 193 0
-3281 225 0
-3281 137 0
-233 3279 3280 3281 0
-3282 193 0
-3282 169 0
-3283 201 0
-3283 161 0
-3284 225 0
-3284 137 0
-233 3282 3283 3284 0
-3285 138 0
-3285 225 0
-3286 162 0
-3286 201 0
-3287 194 0
-3287 169 0
-234 3285 3286 3287 0
-3288 138 0
-3288 225 0
-3289 169 0
-3289 194 0
-3290 201 0
-3290 162 0
-234 3288 3289 3290 0
-3291 162 0
-3291 201 0
-3292 169 0
-3292 194 0
-3293 225 0
-3293 138 0
-234 3291 3292 3293 0
-3294 194 0
-3294 169 0
-3295 201 0
-3295 162 0
-3296 225 0
-3296 138 0
-234 3294 3295 3296 0
-3297 139 0
-3297 225 0
-3298 163 0
-3298 201 0
-3299 195 0
-3299 169 0
-235 3297 3298 3299 0
-3300 139 0
-3300 225 0
-3301 169 0
-3301 195 0
-3302 201 0
-3302 163 0
-235 3300 3301 3302 0
-3303 163 0
-3303 201 0
-3304 169 0
-3304 195 0
-3305 225 0
-3305 139 0
-235 3303 3304 3305 0
-3306 195 0
-3306 169 0
-3307 201 0
-3307 163 0
-3308 225 0
-3308 139 0
-235 3306 3307 3308 0
-3309 130 0
-3309 235 0
-3310 131 0
-3310 234 0
-3311 137 0
-3311 228 0
-3312 161 0
-3312 204 0
-3313 193 0
-3313 172 0
-236 3309 3310 3311 3312 3313 0
-3314 130 0
-3314 235 0
-3315 132 0
-3315 233 0
-3316 138 0
-3316 227 0
-3317 162 0
-3317 203 0
-3318 194 0
-3318 171 0
-236 3314 3315 3316 3317 3318 0
-3319 131 0
-3319 234 0
-3320 132 0
-3320 233 0
-3321 139 0
-3321 226 0
-3322 163 0
-3322 202 0
-3323 195 0
-3323 170 0
-236 3319 3320 3321 3322 3323 0
-3324 137 0
-3324 228 0
-3325 138 0
-3325 227 0
-3326 139 0
-3326 226 0
-3327 169 0
-3327 196 0
-3328 201 0
-3328 164 0
-236 3324 3325 3326 3327 3328 0
-3329 161 0
-3329 204 0
-3330 162 0
-3330 203 0
-3331 163 0
-3331 202 0
-3332 169 0
-3332 196 0
-3333 225 0
-3333 140 0
-236 3329 3330 3331 3332 3333 0
-3334 193 0
-3334 172 0
-3335 194 0
-3335 171 0
-3336 195 0
-3336 170 0
-3337 201 0
-3337 164 0
-3338 225 0
-3338 140 0
-236 3334 3335 3336 3337 3338 0
-3339 141 0
-3339 225 0
-3340 165 0
-3340 201 0
-3341 197 0
-3341 169 0
-237 3339 3340 3341 0
-3342 141 0
-3342 225 0
-3343 169 0
-3343 197 0
-3344 201 0
-3344 165 0
-237 3342 3343 3344 0
-3345 165 0
-3345 201 0
-3346 169 0
-3346 197 0
-3347 225 0
-3347 141 0
-237 3345 3346 3347 0
-3348 197 0
-3348 169 0
-3349 201 0
-3349 165 0
-3350 225 0
-3350 141 0
-237 3348 3349 3350 0
-3351 130 0
-3351 237 0
-3352 133 0
-3352 234 0
-3353 137 0
-3353 230 0
-3354 161 0
-3354 206 0
-3355 193 0
-3355 174 0
-238 3351 3352 3353 3354 3355 0
-3356 130 0
-3356 237 0
-3357 134 0
-3357 233 0
-3358 138 0
-3358 229 0
-3359 162 0
-3359 205 0
-3360 194 0
-3360 173 0
-238 3356 3357 3358 3359 3360 0
-3361 133 0
-3361 234 0
-3362 134 0
-3362 233 0
-3363 141 0
-3363 226 0
-3364 165 0
-3364 202 0
-3365 197 0
-3365 170 0
-238 3361 3362 3363 3364 3365 0
-3366 137 0
-3366 230 0
-3367 138 0
-3367 229 0
-3368 141 0
-3368 226 0
-3369 169 0
-3369 198 0
-3370 201 0
-3370 166 0
-238 3366 3367 3368 3369 3370 0
-3371 161 0
-3371 206 0
-3372 162 0
-3372 205 0
-3373 165 0
-3373 202 0
-3374 169 0
-3374 198 0
-3375 225 0
-3375 142 0
-238 3371 3372 3373 3374 3375 0
-3376 193 0
-3376 174 0
-3377 194 0
-3377 173 0
-3378 197 0
-3378 170 0
-3379 201 0
-3379 166 0
-3380 225 0
-3380 142 0
-238 3376 3377 3378 3379 3380 0
-3381 131 0
-3381 237 0
-3382 133 0
-3382 235 0
-3383 137 0
-3383 231 0
-3384 161 0
-3384 207 0
-3385 193 0
-3385 175 0
-239 3381 3382 3383 3384 3385 0
-3386 131 0
-3386 237 0
-3387 135 0
-3387 233 0
-3388 139 0
-3388 229 0
-3389 163 0
-3389 205 0
-3390 195 0
-3390 173 0
-239 3386 3387 3388 3389 3390 0
-3391 133 0
-3391 235 0
-3392 135 0
-3392 233 0
-3393 141 0
-3393 227 0
-3394 165 0
-3394 203 0
-3395 197 0
-3395 171 0
-239 3391 3392 3393 3394 3395 0
-3396 137 0
-3396 231 0
-3397 139 0
-3397 229 0
-3398 141 0
-3398 227 0
-3399 169 0
-3399 199 0
-3400 201 0
-3400 167 0
-239 3396 3397 3398 3399 3400 0
-3401 161 0
-3401 207 0
-3402 163 0
-3402 205 0
-3403 165 0
-3403 203 0
-3404 169 0
-3404 199 0
-3405 225 0
-3405 143 0
-239 3401 3402 3403 3404 3405 0
-3406 193 0
-3406 175 0
-3407 195 0
-3407 173 0
-3408 197 0
-3408 171 0
-3409 201 0
-3409 167 0
-3410 225 0
-3410 143 0
-239 3406 3407 3408 3409 3410 0
-3411 132 0
-3411 237 0
-3412 134 0
-3412 235 0
-3413 138 0
-3413 231 0
-3414 162 0
-3414 207 0
-3415 194 0
-3415 175 0
-240 3411 3412 3413 3414 3415 0
-3416 132 0
-3416 237 0
-3417 135 0
-3417 234 0
-3418 139 0
-3418 230 0
-3419 163 0
-3419 206 0
-3420 195 0
-3420 174 0
-240 3416 3417 3418 3419 3420 0
-3421 134 0
-3421 235 0
-3422 135 0
-3422 234 0
-3423 141 0
-3423 228 0
-3424 165 0
-3424 204 0
-3425 197 0
-3425 172 0
-240 3421 3422 3423 3424 3425 0
-3426 138 0
-3426 231 0
-3427 139 0
-3427 230 0
-3428 141 0
-3428 228 0
-3429 169 0
-3429 200 0
-3430 201 0
-3430 168 0
-240 3426 3427 3428 3429 3430 0
-3431 162 0
-3431 207 0
-3432 163 0
-3432 206 0
-3433 165 0
-3433 204 0
-3434 169 0
-3434 200 0
-3435 225 0
-3435 144 0
-240 3431 3432 3433 3434 3435 0
-3436 194 0
-3436 175 0
-3437 195 0
-3437 174 0
-3438 197 0
-3438 172 0
-3439 201 0
-3439 168 0
-3440 225 0
-3440 144 0
-240 3436 3437 3438 3439 3440 0
-3441 145 0
-3441 225 0
-3442 161 0
-3442 209 0
-3443 193 0
-3443 177 0
-241 3441 3442 3443 0
-3444 145 0
-3444 225 0
-3445 177 0
-3445 193 0
-3446 209 0
-3446 161 0
-241 3444 3445 3446 0
-3447 161 0
-3447 209 0
-3448 177 0
-3448 193 0
-3449 225 0
-3449 145 0
-241 3447 3448 3449 0
-3450 193 0
-3450 177 0
-3451 209 0
-3451 161 0
-3452 225 0
-3452 145 0
-241 3450 3451 3452 0
-3453 146 0
-3453 225 0
-3454 162 0
-3454 209 0
-3455 194 0
-3455 177 0
-242 3453 3454 3455 0
-3456 146 0
-3456 225 0
-3457 177 0
-3457 194 0
-3458 209 0
-3458 162 0
-242 3456 3457 3458 0
-3459 162 0
-3459 209 0
-3460 177 0
-3460 194 0
-3461 225 0
-3461 146 0
-242 3459 3460 3461 0
-3462 194 0
-3462 177 0
-3463 209 0
-3463 162 0
-3464 225 0
-3464 146 0
-242 3462 3463 3464 0
-3465 147 0
-3465 225 0
-3466 163 0
-3466 209 0
-3467 195 0
-3467 177 0
-243 3465 3466 3467 0
-3468 147 0
-3468 225 0
-3469 177 0
-3469 195 0
-3470 209 0
-3470 163 0
-243 3468 3469 3470 0
-3471 163 0
-3471 209 0
-3472 177 0
-3472 195 0
-3473 225 0
-3473 147 0
-243 3471 3472 3473 0
-3474 195 0
-3474 177 0
-3475 209 0
-3475 163 0
-3476 225 0
-3476 147 0
-243 3474 3475 3476 0
-3477 130 0
-3477 243 0
-3478 131 0
-3478 242 0
-3479 145 0
-3479 228 0
-3480 161 0
-3480 212 0
-3481 193 0
-3481 180 0
-244 3477 3478 3479 3480 3481 0
-3482 130 0
-3482 243 0
-3483 132 0
-3483 241 0
-3484 146 0
-3484 227 0
-3485 162 0
-3485 211 0
-3486 194 0
-3486 179 0
-244 3482 3483 3484 3485 3486 0
-3487 131 0
-3487 242 0
-3488 132 0
-3488 241 0
-3489 147 0
-3489 226 0
-3490 163 0
-3490 210 0
-3491 195 0
-3491 178 0
-244 3487 3488 3489 3490 3491 0
-3492 145 0
-3492 228 0
-3493 146 0
-3493 227 0
-3494 147 0
-3494 226 0
-3495 177 0
-3495 196 0
-3496 209 0
-3496 164 0
-244 3492 3493 3494 3495 3496 0
-3497 161 0
-3497 212 0
-3498 162 0
-3498 211 0
-3499 163 0
-3499 210 0
-3500 177 0
-3500 196 0
-3501 225 0
-3501 148 0
-244 3497 3498 3499 3500 3501 0
-3502 193 0
-3502 180 0
-3503 194 0
-3503 179 0
-3504 195 0
-3504 178 0
-3505 209 0
-3505 164 0
-3506 225 0
-3506 148 0
-244 3502 3503 3504 3505 3506 0
-3507 149 0
-3507 225 0
-3508 165 0
-3508 209 0
-3509 197 0
-3509 177 0
-245 3507 3508 3509 0
-3510 149 0
-3510 225 0
-3511 177 0
-3511 197 0
-3512 209 0
-3512 165 0
-245 3510 3511 3512 0
-3513 165 0
-3513 209 0
-3514 177 0
-3514 197 0
-3515 225 0
-3515 149 0
-245 3513 3514 3515 0
-3516 197 0
-3516 177 0
-3517 209 0
-3517 165 0
-3518 225 0
-3518 149 0
-245 3516 3517 3518 0
-3519 130 0
-3519 245 0
-3520 133 0
-3520 242 0
-3521 145 0
-3521 230 0
-3522 161 0
-3522 214 0
-3523 193 0
-3523 182 0
-246 3519 3520 3521 3522 3523 0
-3524 130 0
-3524 245 0
-3525 134 0
-3525 241 0
-3526 146 0
-3526 229 0
-3527 162 0
-3527 213 0
-3528 194 0
-3528 181 0
-246 3524 3525 3526 3527 3528 0
-3529 133 0
-3529 242 0
-3530 134 0
-3530 241 0
-3531 149 0
-3531 226 0
-3532 165 0
-3532 210 0
-3533 197 0
-3533 178 0
-246 3529 3530 3531 3532 3533 0
-3534 145 0
-3534 230 0
-3535 146 0
-3535 229 0
-3536 149 0
-3536 226 0
-3537 177 0
-3537 198 0
-3538 209 0
-3538 166 0
-246 3534 3535 3536 3537 3538 0
-3539 161 0
-3539 214 0
-3540 162 0
-3540 213 0
-3541 165 0
-3541 210 0
-3542 177 0
-3542 198 0
-3543 225 0
-3543 150 0
-246 3539 3540 3541 3542 3543 0
-3544 193 0
-3544 182 0
-3545 194 0
-3545 181 0
-3546 197 0
-3546 178 0
-3547 209 0
-3547 166 0
-3548 225 0
-3548 150 0
-246 3544 3545 3546 3547 3548 0
-3549 131 0
-3549 245 0
-3550 133 0
-3550 243 0
-3551 145 0
-3551 231 0
-3552 161 0
-3552 215 0
-3553 193 0
-3553 183 0
-247 3549 3550 3551 3552 3553 0
-3554 131 0
-3554 245 0
-3555 135 0
-3555 241 0
-3556 147 0
-3556 229 0
-3557 163 0
-3557 213 0
-3558 195 0
-3558 181 0
-247 3554 3555 3556 3557 3558 0
-3559 133 0
-3559 243 0
-3560 135 0
-3560 241 0
-3561 149 0
-3561 227 0
-3562 165 0
-3562 211 0
-3563 197 0
-3563 179 0
-247 3559 3560 3561 3562 3563 0
-3564 145 0
-3564 231 0
-3565 147 0
-3565 229 0
-3566 149 0
-3566 227 0
-3567 177 0
-3567 199 0
-3568 209 0
-3568 167 0
-247 3564 3565 3566 3567 3568 0
-3569 161 0
-3569 215 0
-3570 163 0
-3570 213 0
-3571 165 0
-3571 211 0
-3572 177 0
-3572 199 0
-3573 225 0
-3573 151 0
-247 3569 3570 3571 3572 3573 0
-3574 193 0
-3574 183 0
-3575 195 0
-3575 181 0
-3576 197 0
-3576 179 0
-3577 209 0
-3577 167 0
-3578 225 0
-3578 151 0
-247 3574 3575 3576 3577 3578 0
-3579 132 0
-3579 245 0
-3580 134 0
-3580 243 0
-3581 146 0
-3581 231 0
-3582 162 0
-3582 215 0
-3583 194 0
-3583 183 0
-248 3579 3580 3581 3582 3583 0
-3584 132 0
-3584 245 0
-3585 135 0
-3585 242 0
-3586 147 0
-3586 230 0
-3587 163 0
-3587 214 0
-3588 195 0
-3588 182 0
-248 3584 3585 3586 3587 3588 0
-3589 134 0
-3589 243 0
-3590 135 0
-3590 242 0
-3591 149 0
-3591 228 0
-3592 165 0
-3592 212 0
-3593 197 0
-3593 180 0
-248 3589 3590 3591 3592 3593 0
-3594 146 0
-3594 231 0
-3595 147 0
-3595 230 0
-3596 149 0
-3596 228 0
-3597 177 0
-3597 200 0
-3598 209 0
-3598 168 0
-248 3594 3595 3596 3597 3598 0
-3599 162 0
-3599 215 0
-3600 163 0
-3600 214 0
-3601 165 0
-3601 212 0
-3602 177 0
-3602 200 0
-3603 225 0
-3603 152 0
-248 3599 3600 3601 3602 3603 0
-3604 194 0
-3604 183 0
-3605 195 0
-3605 182 0
-3606 197 0
-3606 180 0
-3607 209 0
-3607 168 0
-3608 225 0
-3608 152 0
-248 3604 3605 3606 3607 3608 0
-3609 153 0
-3609 225 0
-3610 169 0
-3610 209 0
-3611 201 0
-3611 177 0
-249 3609 3610 3611 0
-3612 153 0
-3612 225 0
-3613 177 0
-3613 201 0
-3614 209 0
-3614 169 0
-249 3612 3613 3614 0
-3615 169 0
-3615 209 0
-3616 177 0
-3616 201 0
-3617 225 0
-3617 153 0
-249 3615 3616 3617 0
-3618 201 0
-3618 177 0
-3619 209 0
-3619 169 0
-3620 225 0
-3620 153 0
-249 3618 3619 3620 0
-3621 130 0
-3621 249 0
-3622 137 0
-3622 242 0
-3623 145 0
-3623 234 0
-3624 161 0
-3624 218 0
-3625 193 0
-3625 186 0
-250 3621 3622 3623 3624 3625 0
-3626 130 0
-3626 249 0
-3627 138 0
-3627 241 0
-3628 146 0
-3628 233 0
-3629 162 0
-3629 217 0
-3630 194 0
-3630 185 0
-250 3626 3627 3628 3629 3630 0
-3631 137 0
-3631 242 0
-3632 138 0
-3632 241 0
-3633 153 0
-3633 226 0
-3634 169 0
-3634 210 0
-3635 201 0
-3635 178 0
-250 3631 3632 3633 3634 3635 0
-3636 145 0
-3636 234 0
-3637 146 0
-3637 233 0
-3638 153 0
-3638 226 0
-3639 177 0
-3639 202 0
-3640 209 0
-3640 170 0
-250 3636 3637 3638 3639 3640 0
-3641 161 0
-3641 218 0
-3642 162 0
-3642 217 0
-3643 169 0
-3643 210 0
-3644 177 0
-3644 202 0
-3645 225 0
-3645 154 0
-250 3641 3642 3643 3644 3645 0
-3646 193 0
-3646 186 0
-3647 194 0
-3647 185 0
-3648 201 0
-3648 178 0
-3649 209 0
-3649 170 0
-3650 225 0
-3650 154 0
-250 3646 3647 3648 3649 3650 0
-3651 131 0
-3651 249 0
-3652 137 0
-3652 243 0
-3653 145 0
-3653 235 0
-3654 161 0
-3654 219 0
-3655 193 0
-3655 187 0
-251 3651 3652 3653 3654 3655 0
-3656 131 0
-3656 249 0
-3657 139 0
-3657 241 0
-3658 147 0
-3658 233 0
-3659 163 0
-3659 217 0
-3660 195 0
-3660 185 0
-251 3656 3657 3658 3659 3660 0
-3661 137 0
-3661 243 0
-3662 139 0
-3662 241 0
-3663 153 0
-3663 227 0
-3664 169 0
-3664 211 0
-3665 201 0
-3665 179 0
-251 3661 3662 3663 3664 3665 0
-3666 145 0
-3666 235 0
-3667 147 0
-3667 233 0
-3668 153 0
-3668 227 0
-3669 177 0
-3669 203 0
-3670 209 0
-3670 171 0
-251 3666 3667 3668 3669 3670 0
-3671 161 0
-3671 219 0
-3672 163 0
-3672 217 0
-3673 169 0
-3673 211 0
-3674 177 0
-3674 203 0
-3675 225 0
-3675 155 0
-251 3671 3672 3673 3674 3675 0
-3676 193 0
-3676 187 0
-3677 195 0
-3677 185 0
-3678 201 0
-3678 179 0
-3679 209 0
-3679 171 0
-3680 225 0
-3680 155 0
-251 3676 3677 3678 3679 3680 0
-3681 132 0
-3681 249 0
-3682 138 0
-3682 243 0
-3683 146 0
-3683 235 0
-3684 162 0
-3684 219 0
-3685 194 0
-3685 187 0
-252 3681 3682 3683 3684 3685 0
-3686 132 0
-3686 249 0
-3687 139 0
-3687 242 0
-3688 147 0
-3688 234 0
-3689 163 0
-3689 218 0
-3690 195 0
-3690 186 0
-252 3686 3687 3688 3689 3690 0
-3691 138 0
-3691 243 0
-3692 139 0
-3692 242 0
-3693 153 0
-3693 228 0
-3694 169 0
-3694 212 0
-3695 201 0
-3695 180 0
-252 3691 3692 3693 3694 3695 0
-3696 146 0
-3696 235 0
-3697 147 0
-3697 234 0
-3698 153 0
-3698 228 0
-3699 177 0
-3699 204 0
-3700 209 0
-3700 172 0
-252 3696 3697 3698 3699 3700 0
-3701 162 0
-3701 219 0
-3702 163 0
-3702 218 0
-3703 169 0
-3703 212 0
-3704 177 0
-3704 204 0
-3705 225 0
-3705 156 0
-252 3701 3702 3703 3704 3705 0
-3706 194 0
-3706 187 0
-3707 195 0
-3707 186 0
-3708 201 0
-3708 180 0
-3709 209 0
-3709 172 0
-3710 225 0
-3710 156 0
-252 3706 3707 3708 3709 3710 0
-3711 133 0
-3711 249 0
-3712 137 0
-3712 245 0
-3713 145 0
-3713 237 0
-3714 161 0
-3714 221 0
-3715 193 0
-3715 189 0
-253 3711 3712 3713 3714 3715 0
-3716 133 0
-3716 249 0
-3717 141 0
-3717 241 0
-3718 149 0
-3718 233 0
-3719 165 0
-3719 217 0
-3720 197 0
-3720 185 0
-253 3716 3717 3718 3719 3720 0
-3721 137 0
-3721 245 0
-3722 141 0
-3722 241 0
-3723 153 0
-3723 229 0
-3724 169 0
-3724 213 0
-3725 201 0
-3725 181 0
-253 3721 3722 3723 3724 3725 0
-3726 145 0
-3726 237 0
-3727 149 0
-3727 233 0
-3728 153 0
-3728 229 0
-3729 177 0
-3729 205 0
-3730 209 0
-3730 173 0
-253 3726 3727 3728 3729 3730 0
-3731 161 0
-3731 221 0
-3732 165 0
-3732 217 0
-3733 169 0
-3733 213 0
-3734 177 0
-3734 205 0
-3735 225 0
-3735 157 0
-253 3731 3732 3733 3734 3735 0
-3736 193 0
-3736 189 0
-3737 197 0
-3737 185 0
-3738 201 0
-3738 181 0
-3739 209 0
-3739 173 0
-3740 225 0
-3740 157 0
-253 3736 3737 3738 3739 3740 0
-3741 134 0
-3741 249 0
-3742 138 0
-3742 245 0
-3743 146 0
-3743 237 0
-3744 162 0
-3744 221 0
-3745 194 0
-3745 189 0
-254 3741 3742 3743 3744 3745 0
-3746 134 0
-3746 249 0
-3747 141 0
-3747 242 0
-3748 149 0
-3748 234 0
-3749 165 0
-3749 218 0
-3750 197 0
-3750 186 0
-254 3746 3747 3748 3749 3750 0
-3751 138 0
-3751 245 0
-3752 141 0
-3752 242 0
-3753 153 0
-3753 230 0
-3754 169 0
-3754 214 0
-3755 201 0
-3755 182 0
-254 3751 3752 3753 3754 3755 0
-3756 146 0
-3756 237 0
-3757 149 0
-3757 234 0
-3758 153 0
-3758 230 0
-3759 177 0
-3759 206 0
-3760 209 0
-3760 174 0
-254 3756 3757 3758 3759 3760 0
-3761 162 0
-3761 221 0
-3762 165 0
-3762 218 0
-3763 169 0
-3763 214 0
-3764 177 0
-3764 206 0
-3765 225 0
-3765 158 0
-254 3761 3762 3763 3764 3765 0
-3766 194 0
-3766 189 0
-3767 197 0
-3767 186 0
-3768 201 0
-3768 182 0
-3769 209 0
-3769 174 0
-3770 225 0
-3770 158 0
-254 3766 3767 3768 3769 3770 0
-3771 135 0
-3771 249 0
-3772 139 0
-3772 245 0
-3773 147 0
-3773 237 0
-3774 163 0
-3774 221 0
-3775 195 0
-3775 189 0
-255 3771 3772 3773 3774 3775 0
-3776 135 0
-3776 249 0
-3777 141 0
-3777 243 0
-3778 149 0
-3778 235 0
-3779 165 0
-3779 219 0
-3780 197 0
-3780 187 0
-255 3776 3777 3778 3779 3780 0
-3781 139 0
-3781 245 0
-3782 141 0
-3782 243 0
-3783 153 0
-3783 231 0
-3784 169 0
-3784 215 0
-3785 201 0
-3785 183 0
-255 3781 3782 3783 3784 3785 0
-3786 147 0
-3786 237 0
-3787 149 0
-3787 235 0
-3788 153 0
-3788 231 0
-3789 177 0
-3789 207 0
-3790 209 0
-3790 175 0
-255 3786 3787 3788 3789 3790 0
-3791 163 0
-3791 221 0
-3792 165 0
-3792 219 0
-3793 169 0
-3793 215 0
-3794 177 0
-3794 207 0
-3795 225 0
-3795 159 0
-255 3791 3792 3793 3794 3795 0
-3796 195 0
-3796 189 0
-3797 197 0
-3797 187 0
-3798 201 0
-3798 183 0
-3799 209 0
-3799 175 0
-3800 225 0
-3800 159 0
-255 3796 3797 3798 3799 3800 0
-3801 130 0
-3801 255 0
-3802 131 0
-3802 254 0
-3803 133 0
-3803 252 0
-3804 137 0
-3804 248 0
-3805 145 0
-3805 240 0
-3806 161 0
-3806 224 0
-3807 193 0
-3807 192 0
-256 3801 3802 3803 3804 3805 3806 3807 0
-3808 130 0
-3808 255 0
-3809 132 0
-3809 253 0
-3810 134 0
-3810 251 0
-3811 138 0
-3811 247 0
-3812 146 0
-3812 239 0
-3813 162 0
-3813 223 0
-3814 194 0
-3814 191 0
-256 3808 3809 3810 3811 3812 3813 3814 0
-3815 131 0
-3815 254 0
-3816 132 0
-3816 253 0
-3817 135 0
-3817 250 0
-3818 139 0
-3818 246 0
-3819 147 0
-3819 238 0
-3820 163 0
-3820 222 0
-3821 195 0
-3821 190 0
-256 3815 3816 3817 3818 3819 3820 3821 0
-3822 133 0
-3822 252 0
-3823 134 0
-3823 251 0
-3824 135 0
-3824 250 0
-3825 141 0
-3825 244 0
-3826 149 0
-3826 236 0
-3827 165 0
-3827 220 0
-3828 197 0
-3828 188 0
-256 3822 3823 3824 3825 3826 3827 3828 0
-3829 137 0
-3829 248 0
-3830 138 0
-3830 247 0
-3831 139 0
-3831 246 0
-3832 141 0
-3832 244 0
-3833 153 0
-3833 232 0
-3834 169 0
-3834 216 0
-3835 201 0
-3835 184 0
-256 3829 3830 3831 3832 3833 3834 3835 0
-3836 145 0
-3836 240 0
-3837 146 0
-3837 239 0
-3838 147 0
-3838 238 0
-3839 149 0
-3839 236 0
-3840 153 0
-3840 232 0
-3841 177 0
-3841 208 0
-3842 209 0
-3842 176 0
-256 3836 3837 3838 3839 3840 3841 3842 0
-3843 161 0
-3843 224 0
-3844 162 0
-3844 223 0
-3845 163 0
-3845 222 0
-3846 165 0
-3846 220 0
-3847 169 0
-3847 216 0
-3848 177 0
-3848 208 0
-3849 225 0
-3849 160 0
-256 3843 3844 3845 3846 3847 3848 3849 0
-3850 193 0
-3850 192 0
-3851 194 0
-3851 191 0
-3852 195 0
-3852 190 0
-3853 197 0
-3853 188 0
-3854 201 0
-3854 184 0
-3855 209 0
-3855 176 0
-3856 225 0
-3856 160 0
-256 3850 3851 3852 3853 3854 3855 3856 0
-3857 258 0
-3857 263 0
-3858 259 0
-3858 262 0
-3859 261 0
-3859 260 0
-264 3857 3858 3859 0
-3860 258 0
-3860 263 0
-3861 260 0
-3861 261 0
-3862 262 0
-3862 259 0
-264 3860 3861 3862 0
-3863 259 0
-3863 262 0
-3864 260 0
-3864 261 0
-3865 263 0
-3865 258 0
-264 3863 3864 3865 0
-3866 261 0
-3866 260 0
-3867 262 0
-3867 259 0
-3868 263 0
-3868 258 0
-264 3866 3867 3868 0
-3869 258 0
-3869 267 0
-3870 259 0
-3870 266 0
-3871 265 0
-3871 260 0
-268 3869 3870 3871 0
-3872 258 0
-3872 267 0
-3873 260 0
-3873 265 0
-3874 266 0
-3874 259 0
-268 3872 3873 3874 0
-3875 259 0
-3875 266 0
-3876 260 0
-3876 265 0
-3877 267 0
-3877 258 0
-268 3875 3876 3877 0
-3878 265 0
-3878 260 0
-3879 266 0
-3879 259 0
-3880 267 0
-3880 258 0
-268 3878 3879 3880 0
-3881 258 0
-3881 269 0
-3882 261 0
-3882 266 0
-3883 265 0
-3883 262 0
-270 3881 3882 3883 0
-3884 258 0
-3884 269 0
-3885 262 0
-3885 265 0
-3886 266 0
-3886 261 0
-270 3884 3885 3886 0
-3887 261 0
-3887 266 0
-3888 262 0
-3888 265 0
-3889 269 0
-3889 258 0
-270 3887 3888 3889 0
-3890 265 0
-3890 262 0
-3891 266 0
-3891 261 0
-3892 269 0
-3892 258 0
-270 3890 3891 3892 0
-3893 259 0
-3893 269 0
-3894 261 0
-3894 267 0
-3895 265 0
-3895 263 0
-271 3893 3894 3895 0
-3896 259 0
-3896 269 0
-3897 263 0
-3897 265 0
-3898 267 0
-3898 261 0
-271 3896 3897 3898 0
-3899 261 0
-3899 267 0
-3900 263 0
-3900 265 0
-3901 269 0
-3901 259 0
-271 3899 3900 3901 0
-3902 265 0
-3902 263 0
-3903 267 0
-3903 261 0
-3904 269 0
-3904 259 0
-271 3902 3903 3904 0
-3905 260 0
-3905 269 0
-3906 262 0
-3906 267 0
-3907 266 0
-3907 263 0
-272 3905 3906 3907 0
-3908 260 0
-3908 269 0
-3909 263 0
-3909 266 0
-3910 267 0
-3910 262 0
-272 3908 3909 3910 0
-3911 262 0
-3911 267 0
-3912 263 0
-3912 266 0
-3913 269 0
-3913 260 0
-272 3911 3912 3913 0
-3914 266 0
-3914 263 0
-3915 267 0
-3915 262 0
-3916 269 0
-3916 260 0
-272 3914 3915 3916 0
-3917 258 0
-3917 275 0
-3918 259 0
-3918 274 0
-3919 273 0
-3919 260 0
-276 3917 3918 3919 0
-3920 258 0
-3920 275 0
-3921 260 0
-3921 273 0
-3922 274 0
-3922 259 0
-276 3920 3921 3922 0
-3923 259 0
-3923 274 0
-3924 260 0
-3924 273 0
-3925 275 0
-3925 258 0
-276 3923 3924 3925 0
-3926 273 0
-3926 260 0
-3927 274 0
-3927 259 0
-3928 275 0
-3928 258 0
-276 3926 3927 3928 0
-3929 258 0
-3929 277 0
-3930 261 0
-3930 274 0
-3931 273 0
-3931 262 0
-278 3929 3930 3931 0
-3932 258 0
-3932 277 0
-3933 262 0
-3933 273 0
-3934 274 0
-3934 261 0
-278 3932 3933 3934 0
-3935 261 0
-3935 274 0
-3936 262 0
-3936 273 0
-3937 277 0
-3937 258 0
-278 3935 3936 3937 0
-3938 273 0
-3938 262 0
-3939 274 0
-3939 261 0
-3940 277 0
-3940 258 0
-278 3938 3939 3940 0
-3941 259 0
-3941 277 0
-3942 261 0
-3942 275 0
-3943 273 0
-3943 263 0
-279 3941 3942 3943 0
-3944 259 0
-3944 277 0
-3945 263 0
-3945 273 0
-3946 275 0
-3946 261 0
-279 3944 3945 3946 0
-3947 261 0
-3947 275 0
-3948 263 0
-3948 273 0
-3949 277 0
-3949 259 0
-279 3947 3948 3949 0
-3950 273 0
-3950 263 0
-3951 275 0
-3951 261 0
-3952 277 0
-3952 259 0
-279 3950 3951 3952 0
-3953 260 0
-3953 277 0
-3954 262 0
-3954 275 0
-3955 274 0
-3955 263 0
-280 3953 3954 3955 0
-3956 260 0
-3956 277 0
-3957 263 0
-3957 274 0
-3958 275 0
-3958 262 0
-280 3956 3957 3958 0
-3959 262 0
-3959 275 0
-3960 263 0
-3960 274 0
-3961 277 0
-3961 260 0
-280 3959 3960 3961 0
-3962 274 0
-3962 263 0
-3963 275 0
-3963 262 0
-3964 277 0
-3964 260 0
-280 3962 3963 3964 0
-3965 258 0
-3965 281 0
-3966 265 0
-3966 274 0
-3967 273 0
-3967 266 0
-282 3965 3966 3967 0
-3968 258 0
-3968 281 0
-3969 266 0
-3969 273 0
-3970 274 0
-3970 265 0
-282 3968 3969 3970 0
-3971 265 0
-3971 274 0
-3972 266 0
-3972 273 0
-3973 281 0
-3973 258 0
-282 3971 3972 3973 0
-3974 273 0
-3974 266 0
-3975 274 0
-3975 265 0
-3976 281 0
-3976 258 0
-282 3974 3975 3976 0
-3977 259 0
-3977 281 0
-3978 265 0
-3978 275 0
-3979 273 0
-3979 267 0
-283 3977 3978 3979 0
-3980 259 0
-3980 281 0
-3981 267 0
-3981 273 0
-3982 275 0
-3982 265 0
-283 3980 3981 3982 0
-3983 265 0
-3983 275 0
-3984 267 0
-3984 273 0
-3985 281 0
-3985 259 0
-283 3983 3984 3985 0
-3986 273 0
-3986 267 0
-3987 275 0
-3987 265 0
-3988 281 0
-3988 259 0
-283 3986 3987 3988 0
-3989 260 0
-3989 281 0
-3990 266 0
-3990 275 0
-3991 274 0
-3991 267 0
-284 3989 3990 3991 0
-3992 260 0
-3992 281 0
-3993 267 0
-3993 274 0
-3994 275 0
-3994 266 0
-284 3992 3993 3994 0
-3995 266 0
-3995 275 0
-3996 267 0
-3996 274 0
-3997 281 0
-3997 260 0
-284 3995 3996 3997 0
-3998 274 0
-3998 267 0
-3999 275 0
-3999 266 0
-4000 281 0
-4000 260 0
-284 3998 3999 4000 0
-4001 261 0
-4001 281 0
-4002 265 0
-4002 277 0
-4003 273 0
-4003 269 0
-285 4001 4002 4003 0
-4004 261 0
-4004 281 0
-4005 269 0
-4005 273 0
-4006 277 0
-4006 265 0
-285 4004 4005 4006 0
-4007 265 0
-4007 277 0
-4008 269 0
-4008 273 0
-4009 281 0
-4009 261 0
-285 4007 4008 4009 0
-4010 273 0
-4010 269 0
-4011 277 0
-4011 265 0
-4012 281 0
-4012 261 0
-285 4010 4011 4012 0
-4013 262 0
-4013 281 0
-4014 266 0
-4014 277 0
-4015 274 0
-4015 269 0
-286 4013 4014 4015 0
-4016 262 0
-4016 281 0
-4017 269 0
-4017 274 0
-4018 277 0
-4018 266 0
-286 4016 4017 4018 0
-4019 266 0
-4019 277 0
-4020 269 0
-4020 274 0
-4021 281 0
-4021 262 0
-286 4019 4020 4021 0
-4022 274 0
-4022 269 0
-4023 277 0
-4023 266 0
-4024 281 0
-4024 262 0
-286 4022 4023 4024 0
-4025 263 0
-4025 281 0
-4026 267 0
-4026 277 0
-4027 275 0
-4027 269 0
-287 4025 4026 4027 0
-4028 263 0
-4028 281 0
-4029 269 0
-4029 275 0
-4030 277 0
-4030 267 0
-287 4028 4029 4030 0
-4031 267 0
-4031 277 0
-4032 269 0
-4032 275 0
-4033 281 0
-4033 263 0
-287 4031 4032 4033 0
-4034 275 0
-4034 269 0
-4035 277 0
-4035 267 0
-4036 281 0
-4036 263 0
-287 4034 4035 4036 0
-4037 258 0
-4037 287 0
-4038 259 0
-4038 286 0
-4039 261 0
-4039 284 0
-4040 265 0
-4040 280 0
-4041 273 0
-4041 272 0
-288 4037 4038 4039 4040 4041 0
-4042 258 0
-4042 287 0
-4043 260 0
-4043 285 0
-4044 262 0
-4044 283 0
-4045 266 0
-4045 279 0
-4046 274 0
-4046 271 0
-288 4042 4043 4044 4045 4046 0
-4047 259 0
-4047 286 0
-4048 260 0
-4048 285 0
-4049 263 0
-4049 282 0
-4050 267 0
-4050 278 0
-4051 275 0
-4051 270 0
-288 4047 4048 4049 4050 4051 0
-4052 261 0
-4052 284 0
-4053 262 0
-4053 283 0
-4054 263 0
-4054 282 0
-4055 269 0
-4055 276 0
-4056 277 0
-4056 268 0
-288 4052 4053 4054 4055 4056 0
-4057 265 0
-4057 280 0
-4058 266 0
-4058 279 0
-4059 267 0
-4059 278 0
-4060 269 0
-4060 276 0
-4061 281 0
-4061 264 0
-288 4057 4058 4059 4060 4061 0
-4062 273 0
-4062 272 0
-4063 274 0
-4063 271 0
-4064 275 0
-4064 270 0
-4065 277 0
-4065 268 0
-4066 281 0
-4066 264 0
-288 4062 4063 4064 4065 4066 0
-4067 258 0
-4067 291 0
-4068 259 0
-4068 290 0
-4069 289 0
-4069 260 0
-292 4067 4068 4069 0
-4070 258 0
-4070 291 0
-4071 260 0
-4071 289 0
-4072 290 0
-4072 259 0
-292 4070 4071 4072 0
-4073 259 0
-4073 290 0
-4074 260 0
-4074 289 0
-4075 291 0
-4075 258 0
-292 4073 4074 4075 0
-4076 289 0
-4076 260 0
-4077 290 0
-4077 259 0
-4078 291 0
-4078 258 0
-292 4076 4077 4078 0
-4079 258 0
-4079 293 0
-4080 261 0
-4080 290 0
-4081 289 0
-4081 262 0
-294 4079 4080 4081 0
-4082 258 0
-4082 293 0
-4083 262 0
-4083 289 0
-4084 290 0
-4084 261 0
-294 4082 4083 4084 0
-4085 261 0
-4085 290 0
-4086 262 0
-4086 289 0
-4087 293 0
-4087 258 0
-294 4085 4086 4087 0
-4088 289 0
-4088 262 0
-4089 290 0
-4089 261 0
-4090 293 0
-4090 258 0
-294 4088 4089 4090 0
-4091 259 0
-4091 293 0
-4092 261 0
-4092 291 0
-4093 289 0
-4093 263 0
-295 4091 4092 4093 0
-4094 259 0
-4094 293 0
-4095 263 0
-4095 289 0
-4096 291 0
-4096 261 0
-295 4094 4095 4096 0
-4097 261 0
-4097 291 0
-4098 263 0
-4098 289 0
-4099 293 0
-4099 259 0
-295 4097 4098 4099 0
-4100 289 0
-4100 263 0
-4101 291 0
-4101 261 0
-4102 293 0
-4102 259 0
-295 4100 4101 4102 0
-4103 260 0
-4103 293 0
-4104 262 0
-4104 291 0
-4105 290 0
-4105 263 0
-296 4103 4104 4105 0
-4106 260 0
-4106 293 0
-4107 263 0
-4107 290 0
-4108 291 0
-4108 262 0
-296 4106 4107 4108 0
-4109 262 0
-4109 291 0
-4110 263 0
-4110 290 0
-4111 293 0
-4111 260 0
-296 4109 4110 4111 0
-4112 290 0
-4112 263 0
-4113 291 0
-4113 262 0
-4114 293 0
-4114 260 0
-296 4112 4113 4114 0
-4115 258 0
-4115 297 0
-4116 265 0
-4116 290 0
-4117 289 0
-4117 266 0
-298 4115 4116 4117 0
-4118 258 0
-4118 297 0
-4119 266 0
-4119 289 0
-4120 290 0
-4120 265 0
-298 4118 4119 4120 0
-4121 265 0
-4121 290 0
-4122 266 0
-4122 289 0
-4123 297 0
-4123 258 0
-298 4121 4122 4123 0
-4124 289 0
-4124 266 0
-4125 290 0
-4125 265 0
-4126 297 0
-4126 258 0
-298 4124 4125 4126 0
-4127 259 0
-4127 297 0
-4128 265 0
-4128 291 0
-4129 289 0
-4129 267 0
-299 4127 4128 4129 0
-4130 259 0
-4130 297 0
-4131 267 0
-4131 289 0
-4132 291 0
-4132 265 0
-299 4130 4131 4132 0
-4133 265 0
-4133 291 0
-4134 267 0
-4134 289 0
-4135 297 0
-4135 259 0
-299 4133 4134 4135 0
-4136 289 0
-4136 267 0
-4137 291 0
-4137 265 0
-4138 297 0
-4138 259 0
-299 4136 4137 4138 0
-4139 260 0
-4139 297 0
-4140 266 0
-4140 291 0
-4141 290 0
-4141 267 0
-300 4139 4140 4141 0
-4142 260 0
-4142 297 0
-4143 267 0
-4143 290 0
-4144 291 0
-4144 266 0
-300 4142 4143 4144 0
-4145 266 0
-4145 291 0
-4146 267 0
-4146 290 0
-4147 297 0
-4147 260 0
-300 4145 4146 4147 0
-4148 290 0
-4148 267 0
-4149 291 0
-4149 266 0
-4150 297 0
-4150 260 0
-300 4148 4149 4150 0
-4151 261 0
-4151 297 0
-4152 265 0
-4152 293 0
-4153 289 0
-4153 269 0
-301 4151 4152 4153 0
-4154 261 0
-4154 297 0
-4155 269 0
-4155 289 0
-4156 293 0
-4156 265 0
-301 4154 4155 4156 0
-4157 265 0
-4157 293 0
-4158 269 0
-4158 289 0
-4159 297 0
-4159 261 0
-301 4157 4158 4159 0
-4160 289 0
-4160 269 0
-4161 293 0
-4161 265 0
-4162 297 0
-4162 261 0
-301 4160 4161 4162 0
-4163 262 0
-4163 297 0
-4164 266 0
-4164 293 0
-4165 290 0
-4165 269 0
-302 4163 4164 4165 0
-4166 262 0
-4166 297 0
-4167 269 0
-4167 290 0
-4168 293 0
-4168 266 0
-302 4166 4167 4168 0
-4169 266 0
-4169 293 0
-4170 269 0
-4170 290 0
-4171 297 0
-4171 262 0
-302 4169 4170 4171 0
-4172 290 0
-4172 269 0
-4173 293 0
-4173 266 0
-4174 297 0
-4174 262 0
-302 4172 4173 4174 0
-4175 263 0
-4175 297 0
-4176 267 0
-4176 293 0
-4177 291 0
-4177 269 0
-303 4175 4176 4177 0
-4178 263 0
-4178 297 0
-4179 269 0
-4179 291 0
-4180 293 0
-4180 267 0
-303 4178 4179 4180 0
-4181 267 0
-4181 293 0
-4182 269 0
-4182 291 0
-4183 297 0
-4183 263 0
-303 4181 4182 4183 0
-4184 291 0
-4184 269 0
-4185 293 0
-4185 267 0
-4186 297 0
-4186 263 0
-303 4184 4185 4186 0
-4187 258 0
-4187 303 0
-4188 259 0
-4188 302 0
-4189 261 0
-4189 300 0
-4190 265 0
-4190 296 0
-4191 289 0
-4191 272 0
-304 4187 4188 4189 4190 4191 0
-4192 258 0
-4192 303 0
-4193 260 0
-4193 301 0
-4194 262 0
-4194 299 0
-4195 266 0
-4195 295 0
-4196 290 0
-4196 271 0
-304 4192 4193 4194 4195 4196 0
-4197 259 0
-4197 302 0
-4198 260 0
-4198 301 0
-4199 263 0
-4199 298 0
-4200 267 0
-4200 294 0
-4201 291 0
-4201 270 0
-304 4197 4198 4199 4200 4201 0
-4202 261 0
-4202 300 0
-4203 262 0
-4203 299 0
-4204 263 0
-4204 298 0
-4205 269 0
-4205 292 0
-4206 293 0
-4206 268 0
-304 4202 4203 4204 4205 4206 0
-4207 265 0
-4207 296 0
-4208 266 0
-4208 295 0
-4209 267 0
-4209 294 0
-4210 269 0
-4210 292 0
-4211 297 0
-4211 264 0
-304 4207 4208 4209 4210 4211 0
-4212 289 0
-4212 272 0
-4213 290 0
-4213 271 0
-4214 291 0
-4214 270 0
-4215 293 0
-4215 268 0
-4216 297 0
-4216 264 0
-304 4212 4213 4214 4215 4216 0
-4217 258 0
-4217 305 0
-4218 273 0
-4218 290 0
-4219 289 0
-4219 274 0
-306 4217 4218 4219 0
-4220 258 0
-4220 305 0
-4221 274 0
-4221 289 0
-4222 290 0
-4222 273 0
-306 4220 4221 4222 0
-4223 273 0
-4223 290 0
-4224 274 0
-4224 289 0
-4225 305 0
-4225 258 0
-306 4223 4224 4225 0
-4226 289 0
-4226 274 0
-4227 290 0
-4227 273 0
-4228 305 0
-4228 258 0
-306 4226 4227 4228 0
-4229 259 0
-4229 305 0
-4230 273 0
-4230 291 0
-4231 289 0
-4231 275 0
-307 4229 4230 4231 0
-4232 259 0
-4232 305 0
-4233 275 0
-4233 289 0
-4234 291 0
-4234 273 0
-307 4232 4233 4234 0
-4235 273 0
-4235 291 0
-4236 275 0
-4236 289 0
-4237 305 0
-4237 259 0
-307 4235 4236 4237 0
-4238 289 0
-4238 275 0
-4239 291 0
-4239 273 0
-4240 305 0
-4240 259 0
-307 4238 4239 4240 0
-4241 260 0
-4241 305 0
-4242 274 0
-4242 291 0
-4243 290 0
-4243 275 0
-308 4241 4242 4243 0
-4244 260 0
-4244 305 0
-4245 275 0
-4245 290 0
-4246 291 0
-4246 274 0
-308 4244 4245 4246 0
-4247 274 0
-4247 291 0
-4248 275 0
-4248 290 0
-4249 305 0
-4249 260 0
-308 4247 4248 4249 0
-4250 290 0
-4250 275 0
-4251 291 0
-4251 274 0
-4252 305 0
-4252 260 0
-308 4250 4251 4252 0
-4253 261 0
-4253 305 0
-4254 273 0
-4254 293 0
-4255 289 0
-4255 277 0
-309 4253 4254 4255 0
-4256 261 0
-4256 305 0
-4257 277 0
-4257 289 0
-4258 293 0
-4258 273 0
-309 4256 4257 4258 0
-4259 273 0
-4259 293 0
-4260 277 0
-4260 289 0
-4261 305 0
-4261 261 0
-309 4259 4260 4261 0
-4262 289 0
-4262 277 0
-4263 293 0
-4263 273 0
-4264 305 0
-4264 261 0
-309 4262 4263 4264 0
-4265 262 0
-4265 305 0
-4266 274 0
-4266 293 0
-4267 290 0
-4267 277 0
-310 4265 4266 4267 0
-4268 262 0
-4268 305 0
-4269 277 0
-4269 290 0
-4270 293 0
-4270 274 0
-310 4268 4269 4270 0
-4271 274 0
-4271 293 0
-4272 277 0
-4272 290 0
-4273 305 0
-4273 262 0
-310 4271 4272 4273 0
-4274 290 0
-4274 277 0
-4275 293 0
-4275 274 0
-4276 305 0
-4276 262 0
-310 4274 4275 4276 0
-4277 263 0
-4277 305 0
-4278 275 0
-4278 293 0
-4279 291 0
-4279 277 0
-311 4277 4278 4279 0
-4280 263 0
-4280 305 0
-4281 277 0
-4281 291 0
-4282 293 0
-4282 275 0
-311 4280 4281 4282 0
-4283 275 0
-4283 293 0
-4284 277 0
-4284 291 0
-4285 305 0
-4285 263 0
-311 4283 4284 4285 0
-4286 291 0
-4286 277 0
-4287 293 0
-4287 275 0
-4288 305 0
-4288 263 0
-311 4286 4287 4288 0
-4289 258 0
-4289 311 0
-4290 259 0
-4290 310 0
-4291 261 0
-4291 308 0
-4292 273 0
-4292 296 0
-4293 289 0
-4293 280 0
-312 4289 4290 4291 4292 4293 0
-4294 258 0
-4294 311 0
-4295 260 0
-4295 309 0
-4296 262 0
-4296 307 0
-4297 274 0
-4297 295 0
-4298 290 0
-4298 279 0
-312 4294 4295 4296 4297 4298 0
-4299 259 0
-4299 310 0
-4300 260 0
-4300 309 0
-4301 263 0
-4301 306 0
-4302 275 0
-4302 294 0
-4303 291 0
-4303 278 0
-312 4299 4300 4301 4302 4303 0
-4304 261 0
-4304 308 0
-4305 262 0
-4305 307 0
-4306 263 0
-4306 306 0
-4307 277 0
-4307 292 0
-4308 293 0
-4308 276 0
-312 4304 4305 4306 4307 4308 0
-4309 273 0
-4309 296 0
-4310 274 0
-4310 295 0
-4311 275 0
-4311 294 0
-4312 277 0
-4312 292 0
-4313 305 0
-4313 264 0
-312 4309 4310 4311 4312 4313 0
-4314 289 0
-4314 280 0
-4315 290 0
-4315 279 0
-4316 291 0
-4316 278 0
-4317 293 0
-4317 276 0
-4318 305 0
-4318 264 0
-312 4314 4315 4316 4317 4318 0
-4319 265 0
-4319 305 0
-4320 273 0
-4320 297 0
-4321 289 0
-4321 281 0
-313 4319 4320 4321 0
-4322 265 0
-4322 305 0
-4323 281 0
-4323 289 0
-4324 297 0
-4324 273 0
-313 4322 4323 4324 0
-4325 273 0
-4325 297 0
-4326 281 0
-4326 289 0
-4327 305 0
-4327 265 0
-313 4325 4326 4327 0
-4328 289 0
-4328 281 0
-4329 297 0
-4329 273 0
-4330 305 0
-4330 265 0
-313 4328 4329 4330 0
-4331 266 0
-4331 305 0
-4332 274 0
-4332 297 0
-4333 290 0
-4333 281 0
-314 4331 4332 4333 0
-4334 266 0
-4334 305 0
-4335 281 0
-4335 290 0
-4336 297 0
-4336 274 0
-314 4334 4335 4336 0
-4337 274 0
-4337 297 0
-4338 281 0
-4338 290 0
-4339 305 0
-4339 266 0
-314 4337 4338 4339 0
-4340 290 0
-4340 281 0
-4341 297 0
-4341 274 0
-4342 305 0
-4342 266 0
-314 4340 4341 4342 0
-4343 267 0
-4343 305 0
-4344 275 0
-4344 297 0
-4345 291 0
-4345 281 0
-315 4343 4344 4345 0
-4346 267 0
-4346 305 0
-4347 281 0
-4347 291 0
-4348 297 0
-4348 275 0
-315 4346 4347 4348 0
-4349 275 0
-4349 297 0
-4350 281 0
-4350 291 0
-4351 305 0
-4351 267 0
-315 4349 4350 4351 0
-4352 291 0
-4352 281 0
-4353 297 0
-4353 275 0
-4354 305 0
-4354 267 0
-315 4352 4353 4354 0
-4355 258 0
-4355 315 0
-4356 259 0
-4356 314 0
-4357 265 0
-4357 308 0
-4358 273 0
-4358 300 0
-4359 289 0
-4359 284 0
-316 4355 4356 4357 4358 4359 0
-4360 258 0
-4360 315 0
-4361 260 0
-4361 313 0
-4362 266 0
-4362 307 0
-4363 274 0
-4363 299 0
-4364 290 0
-4364 283 0
-316 4360 4361 4362 4363 4364 0
-4365 259 0
-4365 314 0
-4366 260 0
-4366 313 0
-4367 267 0
-4367 306 0
-4368 275 0
-4368 298 0
-4369 291 0
-4369 282 0
-316 4365 4366 4367 4368 4369 0
-4370 265 0
-4370 308 0
-4371 266 0
-4371 307 0
-4372 267 0
-4372 306 0
-4373 281 0
-4373 292 0
-4374 297 0
-4374 276 0
-316 4370 4371 4372 4373 4374 0
-4375 273 0
-4375 300 0
-4376 274 0
-4376 299 0
-4377 275 0
-4377 298 0
-4378 281 0
-4378 292 0
-4379 305 0
-4379 268 0
-316 4375 4376 4377 4378 4379 0
-4380 289 0
-4380 284 0
-4381 290 0
-4381 283 0
-4382 291 0
-4382 282 0
-4383 297 0
-4383 276 0
-4384 305 0
-4384 268 0
-316 4380 4381 4382 4383 4384 0
-4385 269 0
-4385 305 0
-4386 277 0
-4386 297 0
-4387 293 0
-4387 281 0
-317 4385 4386 4387 0
-4388 269 0
-4388 305 0
-4389 281 0
-4389 293 0
-4390 297 0
-4390 277 0
-317 4388 4389 4390 0
-4391 277 0
-4391 297 0
-4392 281 0
-4392 293 0
-4393 305 0
-4393 269 0
-317 4391 4392 4393 0
-4394 293 0
-4394 281 0
-4395 297 0
-4395 277 0
-4396 305 0
-4396 269 0
-317 4394 4395 4396 0
-4397 258 0
-4397 317 0
-4398 261 0
-4398 314 0
-4399 265 0
-4399 310 0
-4400 273 0
-4400 302 0
-4401 289 0
-4401 286 0
-318 4397 4398 4399 4400 4401 0
-4402 258 0
-4402 317 0
-4403 262 0
-4403 313 0
-4404 266 0
-4404 309 0
-4405 274 0
-4405 301 0
-4406 290 0
-4406 285 0
-318 4402 4403 4404 4405 4406 0
-4407 261 0
-4407 314 0
-4408 262 0
-4408 313 0
-4409 269 0
-4409 306 0
-4410 277 0
-4410 298 0
-4411 293 0
-4411 282 0
-318 4407 4408 4409 4410 4411 0
-4412 265 0
-4412 310 0
-4413 266 0
-4413 309 0
-4414 269 0
-4414 306 0
-4415 281 0
-4415 294 0
-4416 297 0
-4416 278 0
-318 4412 4413 4414 4415 4416 0
-4417 273 0
-4417 302 0
-4418 274 0
-4418 301 0
-4419 277 0
-4419 298 0
-4420 281 0
-4420 294 0
-4421 305 0
-4421 270 0
-318 4417 4418 4419 4420 4421 0
-4422 289 0
-4422 286 0
-4423 290 0
-4423 285 0
-4424 293 0
-4424 282 0
-4425 297 0
-4425 278 0
-4426 305 0
-4426 270 0
-318 4422 4423 4424 4425 4426 0
-4427 259 0
-4427 317 0
-4428 261 0
-4428 315 0
-4429 265 0
-4429 311 0
-4430 273 0
-4430 303 0
-4431 289 0
-4431 287 0
-319 4427 4428 4429 4430 4431 0
-4432 259 0
-4432 317 0
-4433 263 0
-4433 313 0
-4434 267 0
-4434 309 0
-4435 275 0
-4435 301 0
-4436 291 0
-4436 285 0
-319 4432 4433 4434 4435 4436 0
-4437 261 0
-4437 315 0
-4438 263 0
-4438 313 0
-4439 269 0
-4439 307 0
-4440 277 0
-4440 299 0
-4441 293 0
-4441 283 0
-319 4437 4438 4439 4440 4441 0
-4442 265 0
-4442 311 0
-4443 267 0
-4443 309 0
-4444 269 0
-4444 307 0
-4445 281 0
-4445 295 0
-4446 297 0
-4446 279 0
-319 4442 4443 4444 4445 4446 0
-4447 273 0
-4447 303 0
-4448 275 0
-4448 301 0
-4449 277 0
-4449 299 0
-4450 281 0
-4450 295 0
-4451 305 0
-4451 271 0
-319 4447 4448 4449 4450 4451 0
-4452 289 0
-4452 287 0
-4453 291 0
-4453 285 0
-4454 293 0
-4454 283 0
-4455 297 0
-4455 279 0
-4456 305 0
-4456 271 0
-319 4452 4453 4454 4455 4456 0
-4457 260 0
-4457 317 0
-4458 262 0
-4458 315 0
-4459 266 0
-4459 311 0
-4460 274 0
-4460 303 0
-4461 290 0
-4461 287 0
-320 4457 4458 4459 4460 4461 0
-4462 260 0
-4462 317 0
-4463 263 0
-4463 314 0
-4464 267 0
-4464 310 0
-4465 275 0
-4465 302 0
-4466 291 0
-4466 286 0
-320 4462 4463 4464 4465 4466 0
-4467 262 0
-4467 315 0
-4468 263 0
-4468 314 0
-4469 269 0
-4469 308 0
-4470 277 0
-4470 300 0
-4471 293 0
-4471 284 0
-320 4467 4468 4469 4470 4471 0
-4472 266 0
-4472 311 0
-4473 267 0
-4473 310 0
-4474 269 0
-4474 308 0
-4475 281 0
-4475 296 0
-4476 297 0
-4476 280 0
-320 4472 4473 4474 4475 4476 0
-4477 274 0
-4477 303 0
-4478 275 0
-4478 302 0
-4479 277 0
-4479 300 0
-4480 281 0
-4480 296 0
-4481 305 0
-4481 272 0
-320 4477 4478 4479 4480 4481 0
-4482 290 0
-4482 287 0
-4483 291 0
-4483 286 0
-4484 293 0
-4484 284 0
-4485 297 0
-4485 280 0
-4486 305 0
-4486 272 0
-320 4482 4483 4484 4485 4486 0
-4487 258 0
-4487 323 0
-4488 259 0
-4488 322 0
-4489 321 0
-4489 260 0
-324 4487 4488 4489 0
-4490 258 0
-4490 323 0
-4491 260 0
-4491 321 0
-4492 322 0
-4492 259 0
-324 4490 4491 4492 0
-4493 259 0
-4493 322 0
-4494 260 0
-4494 321 0
-4495 323 0
-4495 258 0
-324 4493 4494 4495 0
-4496 321 0
-4496 260 0
-4497 322 0
-4497 259 0
-4498 323 0
-4498 258 0
-324 4496 4497 4498 0
-4499 258 0
-4499 325 0
-4500 261 0
-4500 322 0
-4501 321 0
-4501 262 0
-326 4499 4500 4501 0
-4502 258 0
-4502 325 0
-4503 262 0
-4503 321 0
-4504 322 0
-4504 261 0
-326 4502 4503 4504 0
-4505 261 0
-4505 322 0
-4506 262 0
-4506 321 0
-4507 325 0
-4507 258 0
-326 4505 4506 4507 0
-4508 321 0
-4508 262 0
-4509 322 0
-4509 261 0
-4510 325 0
-4510 258 0
-326 4508 4509 4510 0
-4511 259 0
-4511 325 0
-4512 261 0
-4512 323 0
-4513 321 0
-4513 263 0
-327 4511 4512 4513 0
-4514 259 0
-4514 325 0
-4515 263 0
-4515 321 0
-4516 323 0
-4516 261 0
-327 4514 4515 4516 0
-4517 261 0
-4517 323 0
-4518 263 0
-4518 321 0
-4519 325 0
-4519 259 0
-327 4517 4518 4519 0
-4520 321 0
-4520 263 0
-4521 323 0
-4521 261 0
-4522 325 0
-4522 259 0
-327 4520 4521 4522 0
-4523 260 0
-4523 325 0
-4524 262 0
-4524 323 0
-4525 322 0
-4525 263 0
-328 4523 4524 4525 0
-4526 260 0
-4526 325 0
-4527 263 0
-4527 322 0
-4528 323 0
-4528 262 0
-328 4526 4527 4528 0
-4529 262 0
-4529 323 0
-4530 263 0
-4530 322 0
-4531 325 0
-4531 260 0
-328 4529 4530 4531 0
-4532 322 0
-4532 263 0
-4533 323 0
-4533 262 0
-4534 325 0
-4534 260 0
-328 4532 4533 4534 0
-4535 258 0
-4535 329 0
-4536 265 0
-4536 322 0
-4537 321 0
-4537 266 0
-330 4535 4536 4537 0
-4538 258 0
-4538 329 0
-4539 266 0
-4539 321 0
-4540 322 0
-4540 265 0
-330 4538 4539 4540 0
-4541 265 0
-4541 322 0
-4542 266 0
-4542 321 0
-4543 329 0
-4543 258 0
-330 4541 4542 4543 0
-4544 321 0
-4544 266 0
-4545 322 0
-4545 265 0
-4546 329 0
-4546 258 0
-330 4544 4545 4546 0
-4547 259 0
-4547 329 0
-4548 265 0
-4548 323 0
-4549 321 0
-4549 267 0
-331 4547 4548 4549 0
-4550 259 0
-4550 329 0
-4551 267 0
-4551 321 0
-4552 323 0
-4552 265 0
-331 4550 4551 4552 0
-4553 265 0
-4553 323 0
-4554 267 0
-4554 321 0
-4555 329 0
-4555 259 0
-331 4553 4554 4555 0
-4556 321 0
-4556 267 0
-4557 323 0
-4557 265 0
-4558 329 0
-4558 259 0
-331 4556 4557 4558 0
-4559 260 0
-4559 329 0
-4560 266 0
-4560 323 0
-4561 322 0
-4561 267 0
-332 4559 4560 4561 0
-4562 260 0
-4562 329 0
-4563 267 0
-4563 322 0
-4564 323 0
-4564 266 0
-332 4562 4563 4564 0
-4565 266 0
-4565 323 0
-4566 267 0
-4566 322 0
-4567 329 0
-4567 260 0
-332 4565 4566 4567 0
-4568 322 0
-4568 267 0
-4569 323 0
-4569 266 0
-4570 329 0
-4570 260 0
-332 4568 4569 4570 0
-4571 261 0
-4571 329 0
-4572 265 0
-4572 325 0
-4573 321 0
-4573 269 0
-333 4571 4572 4573 0
-4574 261 0
-4574 329 0
-4575 269 0
-4575 321 0
-4576 325 0
-4576 265 0
-333 4574 4575 4576 0
-4577 265 0
-4577 325 0
-4578 269 0
-4578 321 0
-4579 329 0
-4579 261 0
-333 4577 4578 4579 0
-4580 321 0
-4580 269 0
-4581 325 0
-4581 265 0
-4582 329 0
-4582 261 0
-333 4580 4581 4582 0
-4583 262 0
-4583 329 0
-4584 266 0
-4584 325 0
-4585 322 0
-4585 269 0
-334 4583 4584 4585 0
-4586 262 0
-4586 329 0
-4587 269 0
-4587 322 0
-4588 325 0
-4588 266 0
-334 4586 4587 4588 0
-4589 266 0
-4589 325 0
-4590 269 0
-4590 322 0
-4591 329 0
-4591 262 0
-334 4589 4590 4591 0
-4592 322 0
-4592 269 0
-4593 325 0
-4593 266 0
-4594 329 0
-4594 262 0
-334 4592 4593 4594 0
-4595 263 0
-4595 329 0
-4596 267 0
-4596 325 0
-4597 323 0
-4597 269 0
-335 4595 4596 4597 0
-4598 263 0
-4598 329 0
-4599 269 0
-4599 323 0
-4600 325 0
-4600 267 0
-335 4598 4599 4600 0
-4601 267 0
-4601 325 0
-4602 269 0
-4602 323 0
-4603 329 0
-4603 263 0
-335 4601 4602 4603 0
-4604 323 0
-4604 269 0
-4605 325 0
-4605 267 0
-4606 329 0
-4606 263 0
-335 4604 4605 4606 0
-4607 258 0
-4607 335 0
-4608 259 0
-4608 334 0
-4609 261 0
-4609 332 0
-4610 265 0
-4610 328 0
-4611 321 0
-4611 272 0
-336 4607 4608 4609 4610 4611 0
-4612 258 0
-4612 335 0
-4613 260 0
-4613 333 0
-4614 262 0
-4614 331 0
-4615 266 0
-4615 327 0
-4616 322 0
-4616 271 0
-336 4612 4613 4614 4615 4616 0
-4617 259 0
-4617 334 0
-4618 260 0
-4618 333 0
-4619 263 0
-4619 330 0
-4620 267 0
-4620 326 0
-4621 323 0
-4621 270 0
-336 4617 4618 4619 4620 4621 0
-4622 261 0
-4622 332 0
-4623 262 0
-4623 331 0
-4624 263 0
-4624 330 0
-4625 269 0
-4625 324 0
-4626 325 0
-4626 268 0
-336 4622 4623 4624 4625 4626 0
-4627 265 0
-4627 328 0
-4628 266 0
-4628 327 0
-4629 267 0
-4629 326 0
-4630 269 0
-4630 324 0
-4631 329 0
-4631 264 0
-336 4627 4628 4629 4630 4631 0
-4632 321 0
-4632 272 0
-4633 322 0
-4633 271 0
-4634 323 0
-4634 270 0
-4635 325 0
-4635 268 0
-4636 329 0
-4636 264 0
-336 4632 4633 4634 4635 4636 0
-4637 258 0
-4637 337 0
-4638 273 0
-4638 322 0
-4639 321 0
-4639 274 0
-338 4637 4638 4639 0
-4640 258 0
-4640 337 0
-4641 274 0
-4641 321 0
-4642 322 0
-4642 273 0
-338 4640 4641 4642 0
-4643 273 0
-4643 322 0
-4644 274 0
-4644 321 0
-4645 337 0
-4645 258 0
-338 4643 4644 4645 0
-4646 321 0
-4646 274 0
-4647 322 0
-4647 273 0
-4648 337 0
-4648 258 0
-338 4646 4647 4648 0
-4649 259 0
-4649 337 0
-4650 273 0
-4650 323 0
-4651 321 0
-4651 275 0
-339 4649 4650 4651 0
-4652 259 0
-4652 337 0
-4653 275 0
-4653 321 0
-4654 323 0
-4654 273 0
-339 4652 4653 4654 0
-4655 273 0
-4655 323 0
-4656 275 0
-4656 321 0
-4657 337 0
-4657 259 0
-339 4655 4656 4657 0
-4658 321 0
-4658 275 0
-4659 323 0
-4659 273 0
-4660 337 0
-4660 259 0
-339 4658 4659 4660 0
-4661 260 0
-4661 337 0
-4662 274 0
-4662 323 0
-4663 322 0
-4663 275 0
-340 4661 4662 4663 0
-4664 260 0
-4664 337 0
-4665 275 0
-4665 322 0
-4666 323 0
-4666 274 0
-340 4664 4665 4666 0
-4667 274 0
-4667 323 0
-4668 275 0
-4668 322 0
-4669 337 0
-4669 260 0
-340 4667 4668 4669 0
-4670 322 0
-4670 275 0
-4671 323 0
-4671 274 0
-4672 337 0
-4672 260 0
-340 4670 4671 4672 0
-4673 261 0
-4673 337 0
-4674 273 0
-4674 325 0
-4675 321 0
-4675 277 0
-341 4673 4674 4675 0
-4676 261 0
-4676 337 0
-4677 277 0
-4677 321 0
-4678 325 0
-4678 273 0
-341 4676 4677 4678 0
-4679 273 0
-4679 325 0
-4680 277 0
-4680 321 0
-4681 337 0
-4681 261 0
-341 4679 4680 4681 0
-4682 321 0
-4682 277 0
-4683 325 0
-4683 273 0
-4684 337 0
-4684 261 0
-341 4682 4683 4684 0
-4685 262 0
-4685 337 0
-4686 274 0
-4686 325 0
-4687 322 0
-4687 277 0
-342 4685 4686 4687 0
-4688 262 0
-4688 337 0
-4689 277 0
-4689 322 0
-4690 325 0
-4690 274 0
-342 4688 4689 4690 0
-4691 274 0
-4691 325 0
-4692 277 0
-4692 322 0
-4693 337 0
-4693 262 0
-342 4691 4692 4693 0
-4694 322 0
-4694 277 0
-4695 325 0
-4695 274 0
-4696 337 0
-4696 262 0
-342 4694 4695 4696 0
-4697 263 0
-4697 337 0
-4698 275 0
-4698 325 0
-4699 323 0
-4699 277 0
-343 4697 4698 4699 0
-4700 263 0
-4700 337 0
-4701 277 0
-4701 323 0
-4702 325 0
-4702 275 0
-343 4700 4701 4702 0
-4703 275 0
-4703 325 0
-4704 277 0
-4704 323 0
-4705 337 0
-4705 263 0
-343 4703 4704 4705 0
-4706 323 0
-4706 277 0
-4707 325 0
-4707 275 0
-4708 337 0
-4708 263 0
-343 4706 4707 4708 0
-4709 258 0
-4709 343 0
-4710 259 0
-4710 342 0
-4711 261 0
-4711 340 0
-4712 273 0
-4712 328 0
-4713 321 0
-4713 280 0
-344 4709 4710 4711 4712 4713 0
-4714 258 0
-4714 343 0
-4715 260 0
-4715 341 0
-4716 262 0
-4716 339 0
-4717 274 0
-4717 327 0
-4718 322 0
-4718 279 0
-344 4714 4715 4716 4717 4718 0
-4719 259 0
-4719 342 0
-4720 260 0
-4720 341 0
-4721 263 0
-4721 338 0
-4722 275 0
-4722 326 0
-4723 323 0
-4723 278 0
-344 4719 4720 4721 4722 4723 0
-4724 261 0
-4724 340 0
-4725 262 0
-4725 339 0
-4726 263 0
-4726 338 0
-4727 277 0
-4727 324 0
-4728 325 0
-4728 276 0
-344 4724 4725 4726 4727 4728 0
-4729 273 0
-4729 328 0
-4730 274 0
-4730 327 0
-4731 275 0
-4731 326 0
-4732 277 0
-4732 324 0
-4733 337 0
-4733 264 0
-344 4729 4730 4731 4732 4733 0
-4734 321 0
-4734 280 0
-4735 322 0
-4735 279 0
-4736 323 0
-4736 278 0
-4737 325 0
-4737 276 0
-4738 337 0
-4738 264 0
-344 4734 4735 4736 4737 4738 0
-4739 265 0
-4739 337 0
-4740 273 0
-4740 329 0
-4741 321 0
-4741 281 0
-345 4739 4740 4741 0
-4742 265 0
-4742 337 0
-4743 281 0
-4743 321 0
-4744 329 0
-4744 273 0
-345 4742 4743 4744 0
-4745 273 0
-4745 329 0
-4746 281 0
-4746 321 0
-4747 337 0
-4747 265 0
-345 4745 4746 4747 0
-4748 321 0
-4748 281 0
-4749 329 0
-4749 273 0
-4750 337 0
-4750 265 0
-345 4748 4749 4750 0
-4751 266 0
-4751 337 0
-4752 274 0
-4752 329 0
-4753 322 0
-4753 281 0
-346 4751 4752 4753 0
-4754 266 0
-4754 337 0
-4755 281 0
-4755 322 0
-4756 329 0
-4756 274 0
-346 4754 4755 4756 0
-4757 274 0
-4757 329 0
-4758 281 0
-4758 322 0
-4759 337 0
-4759 266 0
-346 4757 4758 4759 0
-4760 322 0
-4760 281 0
-4761 329 0
-4761 274 0
-4762 337 0
-4762 266 0
-346 4760 4761 4762 0
-4763 267 0
-4763 337 0
-4764 275 0
-4764 329 0
-4765 323 0
-4765 281 0
-347 4763 4764 4765 0
-4766 267 0
-4766 337 0
-4767 281 0
-4767 323 0
-4768 329 0
-4768 275 0
-347 4766 4767 4768 0
-4769 275 0
-4769 329 0
-4770 281 0
-4770 323 0
-4771 337 0
-4771 267 0
-347 4769 4770 4771 0
-4772 323 0
-4772 281 0
-4773 329 0
-4773 275 0
-4774 337 0
-4774 267 0
-347 4772 4773 4774 0
-4775 258 0
-4775 347 0
-4776 259 0
-4776 346 0
-4777 265 0
-4777 340 0
-4778 273 0
-4778 332 0
-4779 321 0
-4779 284 0
-348 4775 4776 4777 4778 4779 0
-4780 258 0
-4780 347 0
-4781 260 0
-4781 345 0
-4782 266 0
-4782 339 0
-4783 274 0
-4783 331 0
-4784 322 0
-4784 283 0
-348 4780 4781 4782 4783 4784 0
-4785 259 0
-4785 346 0
-4786 260 0
-4786 345 0
-4787 267 0
-4787 338 0
-4788 275 0
-4788 330 0
-4789 323 0
-4789 282 0
-348 4785 4786 4787 4788 4789 0
-4790 265 0
-4790 340 0
-4791 266 0
-4791 339 0
-4792 267 0
-4792 338 0
-4793 281 0
-4793 324 0
-4794 329 0
-4794 276 0
-348 4790 4791 4792 4793 4794 0
-4795 273 0
-4795 332 0
-4796 274 0
-4796 331 0
-4797 275 0
-4797 330 0
-4798 281 0
-4798 324 0
-4799 337 0
-4799 268 0
-348 4795 4796 4797 4798 4799 0
-4800 321 0
-4800 284 0
-4801 322 0
-4801 283 0
-4802 323 0
-4802 282 0
-4803 329 0
-4803 276 0
-4804 337 0
-4804 268 0
-348 4800 4801 4802 4803 4804 0
-4805 269 0
-4805 337 0
-4806 277 0
-4806 329 0
-4807 325 0
-4807 281 0
-349 4805 4806 4807 0
-4808 269 0
-4808 337 0
-4809 281 0
-4809 325 0
-4810 329 0
-4810 277 0
-349 4808 4809 4810 0
-4811 277 0
-4811 329 0
-4812 281 0
-4812 325 0
-4813 337 0
-4813 269 0
-349 4811 4812 4813 0
-4814 325 0
-4814 281 0
-4815 329 0
-4815 277 0
-4816 337 0
-4816 269 0
-349 4814 4815 4816 0
-4817 258 0
-4817 349 0
-4818 261 0
-4818 346 0
-4819 265 0
-4819 342 0
-4820 273 0
-4820 334 0
-4821 321 0
-4821 286 0
-350 4817 4818 4819 4820 4821 0
-4822 258 0
-4822 349 0
-4823 262 0
-4823 345 0
-4824 266 0
-4824 341 0
-4825 274 0
-4825 333 0
-4826 322 0
-4826 285 0
-350 4822 4823 4824 4825 4826 0
-4827 261 0
-4827 346 0
-4828 262 0
-4828 345 0
-4829 269 0
-4829 338 0
-4830 277 0
-4830 330 0
-4831 325 0
-4831 282 0
-350 4827 4828 4829 4830 4831 0
-4832 265 0
-4832 342 0
-4833 266 0
-4833 341 0
-4834 269 0
-4834 338 0
-4835 281 0
-4835 326 0
-4836 329 0
-4836 278 0
-350 4832 4833 4834 4835 4836 0
-4837 273 0
-4837 334 0
-4838 274 0
-4838 333 0
-4839 277 0
-4839 330 0
-4840 281 0
-4840 326 0
-4841 337 0
-4841 270 0
-350 4837 4838 4839 4840 4841 0
-4842 321 0
-4842 286 0
-4843 322 0
-4843 285 0
-4844 325 0
-4844 282 0
-4845 329 0
-4845 278 0
-4846 337 0
-4846 270 0
-350 4842 4843 4844 4845 4846 0
-4847 259 0
-4847 349 0
-4848 261 0
-4848 347 0
-4849 265 0
-4849 343 0
-4850 273 0
-4850 335 0
-4851 321 0
-4851 287 0
-351 4847 4848 4849 4850 4851 0
-4852 259 0
-4852 349 0
-4853 263 0
-4853 345 0
-4854 267 0
-4854 341 0
-4855 275 0
-4855 333 0
-4856 323 0
-4856 285 0
-351 4852 4853 4854 4855 4856 0
-4857 261 0
-4857 347 0
-4858 263 0
-4858 345 0
-4859 269 0
-4859 339 0
-4860 277 0
-4860 331 0
-4861 325 0
-4861 283 0
-351 4857 4858 4859 4860 4861 0
-4862 265 0
-4862 343 0
-4863 267 0
-4863 341 0
-4864 269 0
-4864 339 0
-4865 281 0
-4865 327 0
-4866 329 0
-4866 279 0
-351 4862 4863 4864 4865 4866 0
-4867 273 0
-4867 335 0
-4868 275 0
-4868 333 0
-4869 277 0
-4869 331 0
-4870 281 0
-4870 327 0
-4871 337 0
-4871 271 0
-351 4867 4868 4869 4870 4871 0
-4872 321 0
-4872 287 0
-4873 323 0
-4873 285 0
-4874 325 0
-4874 283 0
-4875 329 0
-4875 279 0
-4876 337 0
-4876 271 0
-351 4872 4873 4874 4875 4876 0
-4877 260 0
-4877 349 0
-4878 262 0
-4878 347 0
-4879 266 0
-4879 343 0
-4880 274 0
-4880 335 0
-4881 322 0
-4881 287 0
-352 4877 4878 4879 4880 4881 0
-4882 260 0
-4882 349 0
-4883 263 0
-4883 346 0
-4884 267 0
-4884 342 0
-4885 275 0
-4885 334 0
-4886 323 0
-4886 286 0
-352 4882 4883 4884 4885 4886 0
-4887 262 0
-4887 347 0
-4888 263 0
-4888 346 0
-4889 269 0
-4889 340 0
-4890 277 0
-4890 332 0
-4891 325 0
-4891 284 0
-352 4887 4888 4889 4890 4891 0
-4892 266 0
-4892 343 0
-4893 267 0
-4893 342 0
-4894 269 0
-4894 340 0
-4895 281 0
-4895 328 0
-4896 329 0
-4896 280 0
-352 4892 4893 4894 4895 4896 0
-4897 274 0
-4897 335 0
-4898 275 0
-4898 334 0
-4899 277 0
-4899 332 0
-4900 281 0
-4900 328 0
-4901 337 0
-4901 272 0
-352 4897 4898 4899 4900 4901 0
-4902 322 0
-4902 287 0
-4903 323 0
-4903 286 0
-4904 325 0
-4904 284 0
-4905 329 0
-4905 280 0
-4906 337 0
-4906 272 0
-352 4902 4903 4904 4905 4906 0
-4907 258 0
-4907 353 0
-4908 289 0
-4908 322 0
-4909 321 0
-4909 290 0
-354 4907 4908 4909 0
-4910 258 0
-4910 353 0
-4911 290 0
-4911 321 0
-4912 322 0
-4912 289 0
-354 4910 4911 4912 0
-4913 289 0
-4913 322 0
-4914 290 0
-4914 321 0
-4915 353 0
-4915 258 0
-354 4913 4914 4915 0
-4916 321 0
-4916 290 0
-4917 322 0
-4917 289 0
-4918 353 0
-4918 258 0
-354 4916 4917 4918 0
-4919 259 0
-4919 353 0
-4920 289 0
-4920 323 0
-4921 321 0
-4921 291 0
-355 4919 4920 4921 0
-4922 259 0
-4922 353 0
-4923 291 0
-4923 321 0
-4924 323 0
-4924 289 0
-355 4922 4923 4924 0
-4925 289 0
-4925 323 0
-4926 291 0
-4926 321 0
-4927 353 0
-4927 259 0
-355 4925 4926 4927 0
-4928 321 0
-4928 291 0
-4929 323 0
-4929 289 0
-4930 353 0
-4930 259 0
-355 4928 4929 4930 0
-4931 260 0
-4931 353 0
-4932 290 0
-4932 323 0
-4933 322 0
-4933 291 0
-356 4931 4932 4933 0
-4934 260 0
-4934 353 0
-4935 291 0
-4935 322 0
-4936 323 0
-4936 290 0
-356 4934 4935 4936 0
-4937 290 0
-4937 323 0
-4938 291 0
-4938 322 0
-4939 353 0
-4939 260 0
-356 4937 4938 4939 0
-4940 322 0
-4940 291 0
-4941 323 0
-4941 290 0
-4942 353 0
-4942 260 0
-356 4940 4941 4942 0
-4943 261 0
-4943 353 0
-4944 289 0
-4944 325 0
-4945 321 0
-4945 293 0
-357 4943 4944 4945 0
-4946 261 0
-4946 353 0
-4947 293 0
-4947 321 0
-4948 325 0
-4948 289 0
-357 4946 4947 4948 0
-4949 289 0
-4949 325 0
-4950 293 0
-4950 321 0
-4951 353 0
-4951 261 0
-357 4949 4950 4951 0
-4952 321 0
-4952 293 0
-4953 325 0
-4953 289 0
-4954 353 0
-4954 261 0
-357 4952 4953 4954 0
-4955 262 0
-4955 353 0
-4956 290 0
-4956 325 0
-4957 322 0
-4957 293 0
-358 4955 4956 4957 0
-4958 262 0
-4958 353 0
-4959 293 0
-4959 322 0
-4960 325 0
-4960 290 0
-358 4958 4959 4960 0
-4961 290 0
-4961 325 0
-4962 293 0
-4962 322 0
-4963 353 0
-4963 262 0
-358 4961 4962 4963 0
-4964 322 0
-4964 293 0
-4965 325 0
-4965 290 0
-4966 353 0
-4966 262 0
-358 4964 4965 4966 0
-4967 263 0
-4967 353 0
-4968 291 0
-4968 325 0
-4969 323 0
-4969 293 0
-359 4967 4968 4969 0
-4970 263 0
-4970 353 0
-4971 293 0
-4971 323 0
-4972 325 0
-4972 291 0
-359 4970 4971 4972 0
-4973 291 0
-4973 325 0
-4974 293 0
-4974 323 0
-4975 353 0
-4975 263 0
-359 4973 4974 4975 0
-4976 323 0
-4976 293 0
-4977 325 0
-4977 291 0
-4978 353 0
-4978 263 0
-359 4976 4977 4978 0
-4979 258 0
-4979 359 0
-4980 259 0
-4980 358 0
-4981 261 0
-4981 356 0
-4982 289 0
-4982 328 0
-4983 321 0
-4983 296 0
-360 4979 4980 4981 4982 4983 0
-4984 258 0
-4984 359 0
-4985 260 0
-4985 357 0
-4986 262 0
-4986 355 0
-4987 290 0
-4987 327 0
-4988 322 0
-4988 295 0
-360 4984 4985 4986 4987 4988 0
-4989 259 0
-4989 358 0
-4990 260 0
-4990 357 0
-4991 263 0
-4991 354 0
-4992 291 0
-4992 326 0
-4993 323 0
-4993 294 0
-360 4989 4990 4991 4992 4993 0
-4994 261 0
-4994 356 0
-4995 262 0
-4995 355 0
-4996 263 0
-4996 354 0
-4997 293 0
-4997 324 0
-4998 325 0
-4998 292 0
-360 4994 4995 4996 4997 4998 0
-4999 289 0
-4999 328 0
-5000 290 0
-5000 327 0
-5001 291 0
-5001 326 0
-5002 293 0
-5002 324 0
-5003 353 0
-5003 264 0
-360 4999 5000 5001 5002 5003 0
-5004 321 0
-5004 296 0
-5005 322 0
-5005 295 0
-5006 323 0
-5006 294 0
-5007 325 0
-5007 292 0
-5008 353 0
-5008 264 0
-360 5004 5005 5006 5007 5008 0
-5009 265 0
-5009 353 0
-5010 289 0
-5010 329 0
-5011 321 0
-5011 297 0
-361 5009 5010 5011 0
-5012 265 0
-5012 353 0
-5013 297 0
-5013 321 0
-5014 329 0
-5014 289 0
-361 5012 5013 5014 0
-5015 289 0
-5015 329 0
-5016 297 0
-5016 321 0
-5017 353 0
-5017 265 0
-361 5015 5016 5017 0
-5018 321 0
-5018 297 0
-5019 329 0
-5019 289 0
-5020 353 0
-5020 265 0
-361 5018 5019 5020 0
-5021 266 0
-5021 353 0
-5022 290 0
-5022 329 0
-5023 322 0
-5023 297 0
-362 5021 5022 5023 0
-5024 266 0
-5024 353 0
-5025 297 0
-5025 322 0
-5026 329 0
-5026 290 0
-362 5024 5025 5026 0
-5027 290 0
-5027 329 0
-5028 297 0
-5028 322 0
-5029 353 0
-5029 266 0
-362 5027 5028 5029 0
-5030 322 0
-5030 297 0
-5031 329 0
-5031 290 0
-5032 353 0
-5032 266 0
-362 5030 5031 5032 0
-5033 267 0
-5033 353 0
-5034 291 0
-5034 329 0
-5035 323 0
-5035 297 0
-363 5033 5034 5035 0
-5036 267 0
-5036 353 0
-5037 297 0
-5037 323 0
-5038 329 0
-5038 291 0
-363 5036 5037 5038 0
-5039 291 0
-5039 329 0
-5040 297 0
-5040 323 0
-5041 353 0
-5041 267 0
-363 5039 5040 5041 0
-5042 323 0
-5042 297 0
-5043 329 0
-5043 291 0
-5044 353 0
-5044 267 0
-363 5042 5043 5044 0
-5045 258 0
-5045 363 0
-5046 259 0
-5046 362 0
-5047 265 0
-5047 356 0
-5048 289 0
-5048 332 0
-5049 321 0
-5049 300 0
-364 5045 5046 5047 5048 5049 0
-5050 258 0
-5050 363 0
-5051 260 0
-5051 361 0
-5052 266 0
-5052 355 0
-5053 290 0
-5053 331 0
-5054 322 0
-5054 299 0
-364 5050 5051 5052 5053 5054 0
-5055 259 0
-5055 362 0
-5056 260 0
-5056 361 0
-5057 267 0
-5057 354 0
-5058 291 0
-5058 330 0
-5059 323 0
-5059 298 0
-364 5055 5056 5057 5058 5059 0
-5060 265 0
-5060 356 0
-5061 266 0
-5061 355 0
-5062 267 0
-5062 354 0
-5063 297 0
-5063 324 0
-5064 329 0
-5064 292 0
-364 5060 5061 5062 5063 5064 0
-5065 289 0
-5065 332 0
-5066 290 0
-5066 331 0
-5067 291 0
-5067 330 0
-5068 297 0
-5068 324 0
-5069 353 0
-5069 268 0
-364 5065 5066 5067 5068 5069 0
-5070 321 0
-5070 300 0
-5071 322 0
-5071 299 0
-5072 323 0
-5072 298 0
-5073 329 0
-5073 292 0
-5074 353 0
-5074 268 0
-364 5070 5071 5072 5073 5074 0
-5075 269 0
-5075 353 0
-5076 293 0
-5076 329 0
-5077 325 0
-5077 297 0
-365 5075 5076 5077 0
-5078 269 0
-5078 353 0
-5079 297 0
-5079 325 0
-5080 329 0
-5080 293 0
-365 5078 5079 5080 0
-5081 293 0
-5081 329 0
-5082 297 0
-5082 325 0
-5083 353 0
-5083 269 0
-365 5081 5082 5083 0
-5084 325 0
-5084 297 0
-5085 329 0
-5085 293 0
-5086 353 0
-5086 269 0
-365 5084 5085 5086 0
-5087 258 0
-5087 365 0
-5088 261 0
-5088 362 0
-5089 265 0
-5089 358 0
-5090 289 0
-5090 334 0
-5091 321 0
-5091 302 0
-366 5087 5088 5089 5090 5091 0
-5092 258 0
-5092 365 0
-5093 262 0
-5093 361 0
-5094 266 0
-5094 357 0
-5095 290 0
-5095 333 0
-5096 322 0
-5096 301 0
-366 5092 5093 5094 5095 5096 0
-5097 261 0
-5097 362 0
-5098 262 0
-5098 361 0
-5099 269 0
-5099 354 0
-5100 293 0
-5100 330 0
-5101 325 0
-5101 298 0
-366 5097 5098 5099 5100 5101 0
-5102 265 0
-5102 358 0
-5103 266 0
-5103 357 0
-5104 269 0
-5104 354 0
-5105 297 0
-5105 326 0
-5106 329 0
-5106 294 0
-366 5102 5103 5104 5105 5106 0
-5107 289 0
-5107 334 0
-5108 290 0
-5108 333 0
-5109 293 0
-5109 330 0
-5110 297 0
-5110 326 0
-5111 353 0
-5111 270 0
-366 5107 5108 5109 5110 5111 0
-5112 321 0
-5112 302 0
-5113 322 0
-5113 301 0
-5114 325 0
-5114 298 0
-5115 329 0
-5115 294 0
-5116 353 0
-5116 270 0
-366 5112 5113 5114 5115 5116 0
-5117 259 0
-5117 365 0
-5118 261 0
-5118 363 0
-5119 265 0
-5119 359 0
-5120 289 0
-5120 335 0
-5121 321 0
-5121 303 0
-367 5117 5118 5119 5120 5121 0
-5122 259 0
-5122 365 0
-5123 263 0
-5123 361 0
-5124 267 0
-5124 357 0
-5125 291 0
-5125 333 0
-5126 323 0
-5126 301 0
-367 5122 5123 5124 5125 5126 0
-5127 261 0
-5127 363 0
-5128 263 0
-5128 361 0
-5129 269 0
-5129 355 0
-5130 293 0
-5130 331 0
-5131 325 0
-5131 299 0
-367 5127 5128 5129 5130 5131 0
-5132 265 0
-5132 359 0
-5133 267 0
-5133 357 0
-5134 269 0
-5134 355 0
-5135 297 0
-5135 327 0
-5136 329 0
-5136 295 0
-367 5132 5133 5134 5135 5136 0
-5137 289 0
-5137 335 0
-5138 291 0
-5138 333 0
-5139 293 0
-5139 331 0
-5140 297 0
-5140 327 0
-5141 353 0
-5141 271 0
-367 5137 5138 5139 5140 5141 0
-5142 321 0
-5142 303 0
-5143 323 0
-5143 301 0
-5144 325 0
-5144 299 0
-5145 329 0
-5145 295 0
-5146 353 0
-5146 271 0
-367 5142 5143 5144 5145 5146 0
-5147 260 0
-5147 365 0
-5148 262 0
-5148 363 0
-5149 266 0
-5149 359 0
-5150 290 0
-5150 335 0
-5151 322 0
-5151 303 0
-368 5147 5148 5149 5150 5151 0
-5152 260 0
-5152 365 0
-5153 263 0
-5153 362 0
-5154 267 0
-5154 358 0
-5155 291 0
-5155 334 0
-5156 323 0
-5156 302 0
-368 5152 5153 5154 5155 5156 0
-5157 262 0
-5157 363 0
-5158 263 0
-5158 362 0
-5159 269 0
-5159 356 0
-5160 293 0
-5160 332 0
-5161 325 0
-5161 300 0
-368 5157 5158 5159 5160 5161 0
-5162 266 0
-5162 359 0
-5163 267 0
-5163 358 0
-5164 269 0
-5164 356 0
-5165 297 0
-5165 328 0
-5166 329 0
-5166 296 0
-368 5162 5163 5164 5165 5166 0
-5167 290 0
-5167 335 0
-5168 291 0
-5168 334 0
-5169 293 0
-5169 332 0
-5170 297 0
-5170 328 0
-5171 353 0
-5171 272 0
-368 5167 5168 5169 5170 5171 0
-5172 322 0
-5172 303 0
-5173 323 0
-5173 302 0
-5174 325 0
-5174 300 0
-5175 329 0
-5175 296 0
-5176 353 0
-5176 272 0
-368 5172 5173 5174 5175 5176 0
-5177 273 0
-5177 353 0
-5178 289 0
-5178 337 0
-5179 321 0
-5179 305 0
-369 5177 5178 5179 0
-5180 273 0
-5180 353 0
-5181 305 0
-5181 321 0
-5182 337 0
-5182 289 0
-369 5180 5181 5182 0
-5183 289 0
-5183 337 0
-5184 305 0
-5184 321 0
-5185 353 0
-5185 273 0
-369 5183 5184 5185 0
-5186 321 0
-5186 305 0
-5187 337 0
-5187 289 0
-5188 353 0
-5188 273 0
-369 5186 5187 5188 0
-5189 274 0
-5189 353 0
-5190 290 0
-5190 337 0
-5191 322 0
-5191 305 0
-370 5189 5190 5191 0
-5192 274 0
-5192 353 0
-5193 305 0
-5193 322 0
-5194 337 0
-5194 290 0
-370 5192 5193 5194 0
-5195 290 0
-5195 337 0
-5196 305 0
-5196 322 0
-5197 353 0
-5197 274 0
-370 5195 5196 5197 0
-5198 322 0
-5198 305 0
-5199 337 0
-5199 290 0
-5200 353 0
-5200 274 0
-370 5198 5199 5200 0
-5201 275 0
-5201 353 0
-5202 291 0
-5202 337 0
-5203 323 0
-5203 305 0
-371 5201 5202 5203 0
-5204 275 0
-5204 353 0
-5205 305 0
-5205 323 0
-5206 337 0
-5206 291 0
-371 5204 5205 5206 0
-5207 291 0
-5207 337 0
-5208 305 0
-5208 323 0
-5209 353 0
-5209 275 0
-371 5207 5208 5209 0
-5210 323 0
-5210 305 0
-5211 337 0
-5211 291 0
-5212 353 0
-5212 275 0
-371 5210 5211 5212 0
-5213 258 0
-5213 371 0
-5214 259 0
-5214 370 0
-5215 273 0
-5215 356 0
-5216 289 0
-5216 340 0
-5217 321 0
-5217 308 0
-372 5213 5214 5215 5216 5217 0
-5218 258 0
-5218 371 0
-5219 260 0
-5219 369 0
-5220 274 0
-5220 355 0
-5221 290 0
-5221 339 0
-5222 322 0
-5222 307 0
-372 5218 5219 5220 5221 5222 0
-5223 259 0
-5223 370 0
-5224 260 0
-5224 369 0
-5225 275 0
-5225 354 0
-5226 291 0
-5226 338 0
-5227 323 0
-5227 306 0
-372 5223 5224 5225 5226 5227 0
-5228 273 0
-5228 356 0
-5229 274 0
-5229 355 0
-5230 275 0
-5230 354 0
-5231 305 0
-5231 324 0
-5232 337 0
-5232 292 0
-372 5228 5229 5230 5231 5232 0
-5233 289 0
-5233 340 0
-5234 290 0
-5234 339 0
-5235 291 0
-5235 338 0
-5236 305 0
-5236 324 0
-5237 353 0
-5237 276 0
-372 5233 5234 5235 5236 5237 0
-5238 321 0
-5238 308 0
-5239 322 0
-5239 307 0
-5240 323 0
-5240 306 0
-5241 337 0
-5241 292 0
-5242 353 0
-5242 276 0
-372 5238 5239 5240 5241 5242 0
-5243 277 0
-5243 353 0
-5244 293 0
-5244 337 0
-5245 325 0
-5245 305 0
-373 5243 5244 5245 0
-5246 277 0
-5246 353 0
-5247 305 0
-5247 325 0
-5248 337 0
-5248 293 0
-373 5246 5247 5248 0
-5249 293 0
-5249 337 0
-5250 305 0
-5250 325 0
-5251 353 0
-5251 277 0
-373 5249 5250 5251 0
-5252 325 0
-5252 305 0
-5253 337 0
-5253 293 0
-5254 353 0
-5254 277 0
-373 5252 5253 5254 0
-5255 258 0
-5255 373 0
-5256 261 0
-5256 370 0
-5257 273 0
-5257 358 0
-5258 289 0
-5258 342 0
-5259 321 0
-5259 310 0
-374 5255 5256 5257 5258 5259 0
-5260 258 0
-5260 373 0
-5261 262 0
-5261 369 0
-5262 274 0
-5262 357 0
-5263 290 0
-5263 341 0
-5264 322 0
-5264 309 0
-374 5260 5261 5262 5263 5264 0
-5265 261 0
-5265 370 0
-5266 262 0
-5266 369 0
-5267 277 0
-5267 354 0
-5268 293 0
-5268 338 0
-5269 325 0
-5269 306 0
-374 5265 5266 5267 5268 5269 0
-5270 273 0
-5270 358 0
-5271 274 0
-5271 357 0
-5272 277 0
-5272 354 0
-5273 305 0
-5273 326 0
-5274 337 0
-5274 294 0
-374 5270 5271 5272 5273 5274 0
-5275 289 0
-5275 342 0
-5276 290 0
-5276 341 0
-5277 293 0
-5277 338 0
-5278 305 0
-5278 326 0
-5279 353 0
-5279 278 0
-374 5275 5276 5277 5278 5279 0
-5280 321 0
-5280 310 0
-5281 322 0
-5281 309 0
-5282 325 0
-5282 306 0
-5283 337 0
-5283 294 0
-5284 353 0
-5284 278 0
-374 5280 5281 5282 5283 5284 0
-5285 259 0
-5285 373 0
-5286 261 0
-5286 371 0
-5287 273 0
-5287 359 0
-5288 289 0
-5288 343 0
-5289 321 0
-5289 311 0
-375 5285 5286 5287 5288 5289 0
-5290 259 0
-5290 373 0
-5291 263 0
-5291 369 0
-5292 275 0
-5292 357 0
-5293 291 0
-5293 341 0
-5294 323 0
-5294 309 0
-375 5290 5291 5292 5293 5294 0
-5295 261 0
-5295 371 0
-5296 263 0
-5296 369 0
-5297 277 0
-5297 355 0
-5298 293 0
-5298 339 0
-5299 325 0
-5299 307 0
-375 5295 5296 5297 5298 5299 0
-5300 273 0
-5300 359 0
-5301 275 0
-5301 357 0
-5302 277 0
-5302 355 0
-5303 305 0
-5303 327 0
-5304 337 0
-5304 295 0
-375 5300 5301 5302 5303 5304 0
-5305 289 0
-5305 343 0
-5306 291 0
-5306 341 0
-5307 293 0
-5307 339 0
-5308 305 0
-5308 327 0
-5309 353 0
-5309 279 0
-375 5305 5306 5307 5308 5309 0
-5310 321 0
-5310 311 0
-5311 323 0
-5311 309 0
-5312 325 0
-5312 307 0
-5313 337 0
-5313 295 0
-5314 353 0
-5314 279 0
-375 5310 5311 5312 5313 5314 0
-5315 260 0
-5315 373 0
-5316 262 0
-5316 371 0
-5317 274 0
-5317 359 0
-5318 290 0
-5318 343 0
-5319 322 0
-5319 311 0
-376 5315 5316 5317 5318 5319 0
-5320 260 0
-5320 373 0
-5321 263 0
-5321 370 0
-5322 275 0
-5322 358 0
-5323 291 0
-5323 342 0
-5324 323 0
-5324 310 0
-376 5320 5321 5322 5323 5324 0
-5325 262 0
-5325 371 0
-5326 263 0
-5326 370 0
-5327 277 0
-5327 356 0
-5328 293 0
-5328 340 0
-5329 325 0
-5329 308 0
-376 5325 5326 5327 5328 5329 0
-5330 274 0
-5330 359 0
-5331 275 0
-5331 358 0
-5332 277 0
-5332 356 0
-5333 305 0
-5333 328 0
-5334 337 0
-5334 296 0
-376 5330 5331 5332 5333 5334 0
-5335 290 0
-5335 343 0
-5336 291 0
-5336 342 0
-5337 293 0
-5337 340 0
-5338 305 0
-5338 328 0
-5339 353 0
-5339 280 0
-376 5335 5336 5337 5338 5339 0
-5340 322 0
-5340 311 0
-5341 323 0
-5341 310 0
-5342 325 0
-5342 308 0
-5343 337 0
-5343 296 0
-5344 353 0
-5344 280 0
-376 5340 5341 5342 5343 5344 0
-5345 281 0
-5345 353 0
-5346 297 0
-5346 337 0
-5347 329 0
-5347 305 0
-377 5345 5346 5347 0
-5348 281 0
-5348 353 0
-5349 305 0
-5349 329 0
-5350 337 0
-5350 297 0
-377 5348 5349 5350 0
-5351 297 0
-5351 337 0
-5352 305 0
-5352 329 0
-5353 353 0
-5353 281 0
-377 5351 5352 5353 0
-5354 329 0
-5354 305 0
-5355 337 0
-5355 297 0
-5356 353 0
-5356 281 0
-377 5354 5355 5356 0
-5357 258 0
-5357 377 0
-5358 265 0
-5358 370 0
-5359 273 0
-5359 362 0
-5360 289 0
-5360 346 0
-5361 321 0
-5361 314 0
-378 5357 5358 5359 5360 5361 0
-5362 258 0
-5362 377 0
-5363 266 0
-5363 369 0
-5364 274 0
-5364 361 0
-5365 290 0
-5365 345 0
-5366 322 0
-5366 313 0
-378 5362 5363 5364 5365 5366 0
-5367 265 0
-5367 370 0
-5368 266 0
-5368 369 0
-5369 281 0
-5369 354 0
-5370 297 0
-5370 338 0
-5371 329 0
-5371 306 0
-378 5367 5368 5369 5370 5371 0
-5372 273 0
-5372 362 0
-5373 274 0
-5373 361 0
-5374 281 0
-5374 354 0
-5375 305 0
-5375 330 0
-5376 337 0
-5376 298 0
-378 5372 5373 5374 5375 5376 0
-5377 289 0
-5377 346 0
-5378 290 0
-5378 345 0
-5379 297 0
-5379 338 0
-5380 305 0
-5380 330 0
-5381 353 0
-5381 282 0
-378 5377 5378 5379 5380 5381 0
-5382 321 0
-5382 314 0
-5383 322 0
-5383 313 0
-5384 329 0
-5384 306 0
-5385 337 0
-5385 298 0
-5386 353 0
-5386 282 0
-378 5382 5383 5384 5385 5386 0
-5387 259 0
-5387 377 0
-5388 265 0
-5388 371 0
-5389 273 0
-5389 363 0
-5390 289 0
-5390 347 0
-5391 321 0
-5391 315 0
-379 5387 5388 5389 5390 5391 0
-5392 259 0
-5392 377 0
-5393 267 0
-5393 369 0
-5394 275 0
-5394 361 0
-5395 291 0
-5395 345 0
-5396 323 0
-5396 313 0
-379 5392 5393 5394 5395 5396 0
-5397 265 0
-5397 371 0
-5398 267 0
-5398 369 0
-5399 281 0
-5399 355 0
-5400 297 0
-5400 339 0
-5401 329 0
-5401 307 0
-379 5397 5398 5399 5400 5401 0
-5402 273 0
-5402 363 0
-5403 275 0
-5403 361 0
-5404 281 0
-5404 355 0
-5405 305 0
-5405 331 0
-5406 337 0
-5406 299 0
-379 5402 5403 5404 5405 5406 0
-5407 289 0
-5407 347 0
-5408 291 0
-5408 345 0
-5409 297 0
-5409 339 0
-5410 305 0
-5410 331 0
-5411 353 0
-5411 283 0
-379 5407 5408 5409 5410 5411 0
-5412 321 0
-5412 315 0
-5413 323 0
-5413 313 0
-5414 329 0
-5414 307 0
-5415 337 0
-5415 299 0
-5416 353 0
-5416 283 0
-379 5412 5413 5414 5415 5416 0
-5417 260 0
-5417 377 0
-5418 266 0
-5418 371 0
-5419 274 0
-5419 363 0
-5420 290 0
-5420 347 0
-5421 322 0
-5421 315 0
-380 5417 5418 5419 5420 5421 0
-5422 260 0
-5422 377 0
-5423 267 0
-5423 370 0
-5424 275 0
-5424 362 0
-5425 291 0
-5425 346 0
-5426 323 0
-5426 314 0
-380 5422 5423 5424 5425 5426 0
-5427 266 0
-5427 371 0
-5428 267 0
-5428 370 0
-5429 281 0
-5429 356 0
-5430 297 0
-5430 340 0
-5431 329 0
-5431 308 0
-380 5427 5428 5429 5430 5431 0
-5432 274 0
-5432 363 0
-5433 275 0
-5433 362 0
-5434 281 0
-5434 356 0
-5435 305 0
-5435 332 0
-5436 337 0
-5436 300 0
-380 5432 5433 5434 5435 5436 0
-5437 290 0
-5437 347 0
-5438 291 0
-5438 346 0
-5439 297 0
-5439 340 0
-5440 305 0
-5440 332 0
-5441 353 0
-5441 284 0
-380 5437 5438 5439 5440 5441 0
-5442 322 0
-5442 315 0
-5443 323 0
-5443 314 0
-5444 329 0
-5444 308 0
-5445 337 0
-5445 300 0
-5446 353 0
-5446 284 0
-380 5442 5443 5444 5445 5446 0
-5447 261 0
-5447 377 0
-5448 265 0
-5448 373 0
-5449 273 0
-5449 365 0
-5450 289 0
-5450 349 0
-5451 321 0
-5451 317 0
-381 5447 5448 5449 5450 5451 0
-5452 261 0
-5452 377 0
-5453 269 0
-5453 369 0
-5454 277 0
-5454 361 0
-5455 293 0
-5455 345 0
-5456 325 0
-5456 313 0
-381 5452 5453 5454 5455 5456 0
-5457 265 0
-5457 373 0
-5458 269 0
-5458 369 0
-5459 281 0
-5459 357 0
-5460 297 0
-5460 341 0
-5461 329 0
-5461 309 0
-381 5457 5458 5459 5460 5461 0
-5462 273 0
-5462 365 0
-5463 277 0
-5463 361 0
-5464 281 0
-5464 357 0
-5465 305 0
-5465 333 0
-5466 337 0
-5466 301 0
-381 5462 5463 5464 5465 5466 0
-5467 289 0
-5467 349 0
-5468 293 0
-5468 345 0
-5469 297 0
-5469 341 0
-5470 305 0
-5470 333 0
-5471 353 0
-5471 285 0
-381 5467 5468 5469 5470 5471 0
-5472 321 0
-5472 317 0
-5473 325 0
-5473 313 0
-5474 329 0
-5474 309 0
-5475 337 0
-5475 301 0
-5476 353 0
-5476 285 0
-381 5472 5473 5474 5475 5476 0
-5477 262 0
-5477 377 0
-5478 266 0
-5478 373 0
-5479 274 0
-5479 365 0
-5480 290 0
-5480 349 0
-5481 322 0
-5481 317 0
-382 5477 5478 5479 5480 5481 0
-5482 262 0
-5482 377 0
-5483 269 0
-5483 370 0
-5484 277 0
-5484 362 0
-5485 293 0
-5485 346 0
-5486 325 0
-5486 314 0
-382 5482 5483 5484 5485 5486 0
-5487 266 0
-5487 373 0
-5488 269 0
-5488 370 0
-5489 281 0
-5489 358 0
-5490 297 0
-5490 342 0
-5491 329 0
-5491 310 0
-382 5487 5488 5489 5490 5491 0
-5492 274 0
-5492 365 0
-5493 277 0
-5493 362 0
-5494 281 0
-5494 358 0
-5495 305 0
-5495 334 0
-5496 337 0
-5496 302 0
-382 5492 5493 5494 5495 5496 0
-5497 290 0
-5497 349 0
-5498 293 0
-5498 346 0
-5499 297 0
-5499 342 0
-5500 305 0
-5500 334 0
-5501 353 0
-5501 286 0
-382 5497 5498 5499 5500 5501 0
-5502 322 0
-5502 317 0
-5503 325 0
-5503 314 0
-5504 329 0
-5504 310 0
-5505 337 0
-5505 302 0
-5506 353 0
-5506 286 0
-382 5502 5503 5504 5505 5506 0
-5507 263 0
-5507 377 0
-5508 267 0
-5508 373 0
-5509 275 0
-5509 365 0
-5510 291 0
-5510 349 0
-5511 323 0
-5511 317 0
-383 5507 5508 5509 5510 5511 0
-5512 263 0
-5512 377 0
-5513 269 0
-5513 371 0
-5514 277 0
-5514 363 0
-5515 293 0
-5515 347 0
-5516 325 0
-5516 315 0
-383 5512 5513 5514 5515 5516 0
-5517 267 0
-5517 373 0
-5518 269 0
-5518 371 0
-5519 281 0
-5519 359 0
-5520 297 0
-5520 343 0
-5521 329 0
-5521 311 0
-383 5517 5518 5519 5520 5521 0
-5522 275 0
-5522 365 0
-5523 277 0
-5523 363 0
-5524 281 0
-5524 359 0
-5525 305 0
-5525 335 0
-5526 337 0
-5526 303 0
-383 5522 5523 5524 5525 5526 0
-5527 291 0
-5527 349 0
-5528 293 0
-5528 347 0
-5529 297 0
-5529 343 0
-5530 305 0
-5530 335 0
-5531 353 0
-5531 287 0
-383 5527 5528 5529 5530 5531 0
-5532 323 0
-5532 317 0
-5533 325 0
-5533 315 0
-5534 329 0
-5534 311 0
-5535 337 0
-5535 303 0
-5536 353 0
-5536 287 0
-383 5532 5533 5534 5535 5536 0
-5537 258 0
-5537 383 0
-5538 259 0
-5538 382 0
-5539 261 0
-5539 380 0
-5540 265 0
-5540 376 0
-5541 273 0
-5541 368 0
-5542 289 0
-5542 352 0
-5543 321 0
-5543 320 0
-384 5537 5538 5539 5540 5541 5542 5543 0
-5544 258 0
-5544 383 0
-5545 260 0
-5545 381 0
-5546 262 0
-5546 379 0
-5547 266 0
-5547 375 0
-5548 274 0
-5548 367 0
-5549 290 0
-5549 351 0
-5550 322 0
-5550 319 0
-384 5544 5545 5546 5547 5548 5549 5550 0
-5551 259 0
-5551 382 0
-5552 260 0
-5552 381 0
-5553 263 0
-5553 378 0
-5554 267 0
-5554 374 0
-5555 275 0
-5555 366 0
-5556 291 0
-5556 350 0
-5557 323 0
-5557 318 0
-384 5551 5552 5553 5554 5555 5556 5557 0
-5558 261 0
-5558 380 0
-5559 262 0
-5559 379 0
-5560 263 0
-5560 378 0
-5561 269 0
-5561 372 0
-5562 277 0
-5562 364 0
-5563 293 0
-5563 348 0
-5564 325 0
-5564 316 0
-384 5558 5559 5560 5561 5562 5563 5564 0
-5565 265 0
-5565 376 0
-5566 266 0
-5566 375 0
-5567 267 0
-5567 374 0
-5568 269 0
-5568 372 0
-5569 281 0
-5569 360 0
-5570 297 0
-5570 344 0
-5571 329 0
-5571 312 0
-384 5565 5566 5567 5568 5569 5570 5571 0
-5572 273 0
-5572 368 0
-5573 274 0
-5573 367 0
-5574 275 0
-5574 366 0
-5575 277 0
-5575 364 0
-5576 281 0
-5576 360 0
-5577 305 0
-5577 336 0
-5578 337 0
-5578 304 0
-384 5572 5573 5574 5575 5576 5577 5578 0
-5579 289 0
-5579 352 0
-5580 290 0
-5580 351 0
-5581 291 0
-5581 350 0
-5582 293 0
-5582 348 0
-5583 297 0
-5583 344 0
-5584 305 0
-5584 336 0
-5585 353 0
-5585 288 0
-384 5579 5580 5581 5582 5583 5584 5585 0
-5586 321 0
-5586 320 0
-5587 322 0
-5587 319 0
-5588 323 0
-5588 318 0
-5589 325 0
-5589 316 0
-5590 329 0
-5590 312 0
-5591 337 0
-5591 304 0
-5592 353 0
-5592 288 0
-384 5586 5587 5588 5589 5590 5591 5592 0
-255 -258 0
-254 -259 0
-253 -260 0
-252 -261 0
-251 -262 0
-250 -263 0
-249 -264 0
-248 -265 0
-247 -266 0
-246 -267 0
-245 -268 0
-244 -269 0
-243 -270 0
-242 -271 0
-241 -272 0
-240 -273 0
-239 -274 0
-238 -275 0
-237 -276 0
-236 -277 0
-235 -278 0
-234 -279 0
-233 -280 0
-232 -281 0
-231 -282 0
-230 -283 0
-229 -284 0
-228 -285 0
-227 -286 0
-226 -287 0
-225 -288 0
-224 -289 0
-223 -290 0
-222 -291 0
-221 -292 0
-220 -293 0
-219 -294 0
-218 -295 0
-217 -296 0
-216 -297 0
-215 -298 0
-214 -299 0
-213 -300 0
-212 -301 0
-211 -302 0
-210 -303 0
-209 -304 0
-208 -305 0
-207 -306 0
-206 -307 0
-205 -308 0
-204 -309 0
-203 -310 0
-202 -311 0
-201 -312 0
-200 -313 0
-199 -314 0
-198 -315 0
-197 -316 0
-196 -317 0
-195 -318 0
-194 -319 0
-193 -320 0
-192 -321 0
-191 -322 0
-190 -323 0
-189 -324 0
-188 -325 0
-187 -326 0
-186 -327 0
-185 -328 0
-184 -329 0
-183 -330 0
-182 -331 0
-181 -332 0
-180 -333 0
-179 -334 0
-178 -335 0
-177 -336 0
-176 -337 0
-175 -338 0
-174 -339 0
-173 -340 0
-172 -341 0
-171 -342 0
-170 -343 0
-169 -344 0
-168 -345 0
-167 -346 0
-166 -347 0
-165 -348 0
-164 -349 0
-163 -350 0
-162 -351 0
-161 -352 0
-160 -353 0
-159 -354 0
-158 -355 0
-157 -356 0
-156 -357 0
-155 -358 0
-154 -359 0
-153 -360 0
-152 -361 0
-151 -362 0
-150 -363 0
-149 -364 0
-148 -365 0
-147 -366 0
-146 -367 0
-145 -368 0
-144 -369 0
-143 -370 0
-142 -371 0
-141 -372 0
-140 -373 0
-139 -374 0
-138 -375 0
-137 -376 0
-136 -377 0
-135 -378 0
-134 -379 0
-133 -380 0
-132 -381 0
-131 -382 0
-130 -383 0
-2 -255 0
-2 -249 -263 0
-2 -245 -267 0
-2 -243 -269 0
-2 -237 -275 0
-2 -235 -277 0
-2 -231 -281 0
-2 -225 -287 0
-2 -221 -291 0
-2 -219 -293 0
-2 -215 -297 0
-2 -209 -303 0
-2 -207 -305 0
-2 -201 -311 0
-2 -197 -315 0
-2 -195 -317 0
-2 -189 -323 0
-2 -187 -325 0
-2 -183 -329 0
-2 -177 -335 0
-2 -175 -337 0
-2 -169 -343 0
-2 -165 -347 0
-2 -163 -349 0
-2 -159 -353 0
-2 -153 -359 0
-2 -149 -363 0
-2 -147 -365 0
-2 -141 -371 0
-2 -139 -373 0
-2 -135 -377 0
-2 -383 0
-3 -254 0
-3 -249 -262 0
-3 -245 -266 0
-3 -242 -269 0
-3 -237 -274 0
-3 -234 -277 0
-3 -230 -281 0
-3 -225 -286 0
-3 -221 -290 0
-3 -218 -293 0
-3 -214 -297 0
-3 -209 -302 0
-3 -206 -305 0
-3 -201 -310 0
-3 -197 -314 0
-3 -194 -317 0
-3 -189 -322 0
-3 -186 -325 0
-3 -182 -329 0
-3 -177 -334 0
-3 -174 -337 0
-3 -169 -342 0
-3 -165 -346 0
-3 -162 -349 0
-3 -158 -353 0
-3 -153 -358 0
-3 -149 -362 0
-3 -146 -365 0
-3 -141 -370 0
-3 -138 -373 0
-3 -134 -377 0
-3 -382 0
-4 -253 0
-4 -249 -261 0
-4 -245 -265 0
-4 -241 -269 0
-4 -237 -273 0
-4 -233 -277 0
-4 -229 -281 0
-4 -225 -285 0
-4 -221 -289 0
-4 -217 -293 0
-4 -213 -297 0
-4 -209 -301 0
-4 -205 -305 0
-4 -201 -309 0
-4 -197 -313 0
-4 -193 -317 0
-4 -189 -321 0
-4 -185 -325 0
-4 -181 -329 0
-4 -177 -333 0
-4 -173 -337 0
-4 -169 -341 0
-4 -165 -345 0
-4 -161 -349 0
-4 -157 -353 0
-4 -153 -357 0
-4 -149 -361 0
-4 -145 -365 0
-4 -141 -369 0
-4 -137 -373 0
-4 -133 -377 0
-4 -381 0
-5 -252 0
-5 -249 -260 0
-5 -243 -266 0
-5 -242 -267 0
-5 -235 -274 0
-5 -234 -275 0
-5 -228 -281 0
-5 -225 -284 0
-5 -219 -290 0
-5 -218 -291 0
-5 -212 -297 0
-5 -209 -300 0
-5 -204 -305 0
-5 -201 -308 0
-5 -195 -314 0
-5 -194 -315 0
-5 -187 -322 0
-5 -186 -323 0
-5 -180 -329 0
-5 -177 -332 0
-5 -172 -337 0
-5 -169 -340 0
-5 -163 -346 0
-5 -162 -347 0
-5 -156 -353 0
-5 -153 -356 0
-5 -147 -362 0
-5 -146 -363 0
-5 -139 -370 0
-5 -138 -371 0
-5 -132 -377 0
-5 -380 0
-6 -251 0
-6 -249 -259 0
-6 -243 -265 0
-6 -241 -267 0
-6 -235 -273 0
-6 -233 -275 0
-6 -227 -281 0
-6 -225 -283 0
-6 -219 -289 0
-6 -217 -291 0
-6 -211 -297 0
-6 -209 -299 0
-6 -203 -305 0
-6 -201 -307 0
-6 -195 -313 0
-6 -193 -315 0
-6 -187 -321 0
-6 -185 -323 0
-6 -179 -329 0
-6 -177 -331 0
-6 -171 -337 0
-6 -169 -339 0
-6 -163 -345 0
-6 -161 -347 0
-6 -155 -353 0
-6 -153 -355 0
-6 -147 -361 0
-6 -145 -363 0
-6 -139 -369 0
-6 -137 -371 0
-6 -131 -377 0
-6 -379 0
-7 -250 0
-7 -249 -258 0
-7 -242 -265 0
-7 -241 -266 0
-7 -234 -273 0
-7 -233 -274 0
-7 -226 -281 0
-7 -225 -282 0
-7 -218 -289 0
-7 -217 -290 0
-7 -210 -297 0
-7 -209 -298 0
-7 -202 -305 0
-7 -201 -306 0
-7 -194 -313 0
-7 -193 -314 0
-7 -186 -321 0
-7 -185 -322 0
-7 -178 -329 0
-7 -177 -330 0
-7 -170 -337 0
-7 -169 -338 0
-7 -162 -345 0
-7 -161 -346 0
-7 -154 -353 0
-7 -153 -354 0
-7 -146 -361 0
-7 -145 -362 0
-7 -138 -369 0
-7 -137 -370 0
-7 -130 -377 0
-7 -378 0
-8 -249 0
-8 -225 -281 0
-8 -209 -297 0
-8 -201 -305 0
-8 -177 -329 0
-8 -169 -337 0
-8 -153 -353 0
-8 -377 0
-9 -248 0
-9 -245 -260 0
-9 -243 -262 0
-9 -242 -263 0
-9 -231 -274 0
-9 -230 -275 0
-9 -228 -277 0
-9 -225 -280 0
-9 -215 -290 0
-9 -214 -291 0
-9 -212 -293 0
-9 -209 -296 0
-9 -200 -305 0
-9 -197 -308 0
-9 -195 -310 0
-9 -194 -311 0
-9 -183 -322 0
-9 -182 -323 0
-9 -180 -325 0
-9 -177 -328 0
-9 -168 -337 0
-9 -165 -340 0
-9 -163 -342 0
-9 -162 -343 0
-9 -152 -353 0
-9 -149 -356 0
-9 -147 -358 0
-9 -146 -359 0
-9 -135 -370 0
-9 -134 -371 0
-9 -132 -373 0
-9 -376 0
-10 -247 0
-10 -245 -259 0
-10 -243 -261 0
-10 -241 -263 0
-10 -231 -273 0
-10 -229 -275 0
-10 -227 -277 0
-10 -225 -279 0
-10 -215 -289 0
-10 -213 -291 0
-10 -211 -293 0
-10 -209 -295 0
-10 -199 -305 0
-10 -197 -307 0
-10 -195 -309 0
-10 -193 -311 0
-10 -183 -321 0
-10 -181 -323 0
-10 -179 -325 0
-10 -177 -327 0
-10 -167 -337 0
-10 -165 -339 0
-10 -163 -341 0
-10 -161 -343 0
-10 -151 -353 0
-10 -149 -355 0
-10 -147 -357 0
-10 -145 -359 0
-10 -135 -369 0
-10 -133 -371 0
-10 -131 -373 0
-10 -375 0
-11 -246 0
-11 -245 -258 0
-11 -242 -261 0
-11 -241 -262 0
-11 -230 -273 0
-11 -229 -274 0
-11 -226 -277 0
-11 -225 -278 0
-11 -214 -289 0
-11 -213 -290 0
-11 -210 -293 0
-11 -209 -294 0
-11 -198 -305 0
-11 -197 -306 0
-11 -194 -309 0
-11 -193 -310 0
-11 -182 -321 0
-11 -181 -322 0
-11 -178 -325 0
-11 -177 -326 0
-11 -166 -337 0
-11 -165 -338 0
-11 -162 -341 0
-11 -161 -342 0
-11 -150 -353 0
-11 -149 -354 0
-11 -146 -357 0
-11 -145 -358 0
-11 -134 -369 0
-11 -133 -370 0
-11 -130 -373 0
-11 -374 0
-12 -245 0
-12 -225 -277 0
-12 -209 -293 0
-12 -197 -305 0
-12 -177 -325 0
-12 -165 -337 0
-12 -149 -353 0
-12 -373 0
-13 -244 0
-13 -243 -258 0
-13 -242 -259 0
-13 -241 -260 0
-13 -228 -273 0
-13 -227 -274 0
-13 -226 -275 0
-13 -225 -276 0
-13 -212 -289 0
-13 -211 -290 0
-13 -210 -291 0
-13 -209 -292 0
-13 -196 -305 0
-13 -195 -306 0
-13 -194 -307 0
-13 -193 -308 0
-13 -180 -321 0
-13 -179 -322 0
-13 -178 -323 0
-13 -177 -324 0
-13 -164 -337 0
-13 -163 -338 0
-13 -162 -339 0
-13 -161 -340 0
-13 -148 -353 0
-13 -147 -354 0
-13 -146 -355 0
-13 -145 -356 0
-13 -132 -369 0
-13 -131 -370 0
-13 -130 -371 0
-13 -372 0
-14 -243 0
-14 -225 -275 0
-14 -209 -291 0
-14 -195 -305 0
-14 -177 -323 0
-14 -163 -337 0
-14 -147 -353 0
-14 -371 0
-15 -242 0
-15 -225 -274 0
-15 -209 -290 0
-15 -194 -305 0
-15 -177 -322 0
-15 -162 -337 0
-15 -146 -353 0
-15 -370 0
-16 -241 0
-16 -225 -273 0
-16 -209 -289 0
-16 -193 -305 0
-16 -177 -321 0
-16 -161 -337 0
-16 -145 -353 0
-16 -369 0
-17 -240 0
-17 -237 -260 0
-17 -235 -262 0
-17 -234 -263 0
-17 -231 -266 0
-17 -230 -267 0
-17 -228 -269 0
-17 -225 -272 0
-17 -207 -290 0
-17 -206 -291 0
-17 -204 -293 0
-17 -201 -296 0
-17 -200 -297 0
-17 -197 -300 0
-17 -195 -302 0
-17 -194 -303 0
-17 -175 -322 0
-17 -174 -323 0
-17 -172 -325 0
-17 -169 -328 0
-17 -168 -329 0
-17 -165 -332 0
-17 -163 -334 0
-17 -162 -335 0
-17 -144 -353 0
-17 -141 -356 0
-17 -139 -358 0
-17 -138 -359 0
-17 -135 -362 0
-17 -134 -363 0
-17 -132 -365 0
-17 -368 0
-18 -239 0
-18 -237 -259 0
-18 -235 -261 0
-18 -233 -263 0
-18 -231 -265 0
-18 -229 -267 0
-18 -227 -269 0
-18 -225 -271 0
-18 -207 -289 0
-18 -205 -291 0
-18 -203 -293 0
-18 -201 -295 0
-18 -199 -297 0
-18 -197 -299 0
-18 -195 -301 0
-18 -193 -303 0
-18 -175 -321 0
-18 -173 -323 0
-18 -171 -325 0
-18 -169 -327 0
-18 -167 -329 0
-18 -165 -331 0
-18 -163 -333 0
-18 -161 -335 0
-18 -143 -353 0
-18 -141 -355 0
-18 -139 -357 0
-18 -137 -359 0
-18 -135 -361 0
-18 -133 -363 0
-18 -131 -365 0
-18 -367 0
-19 -238 0
-19 -237 -258 0
-19 -234 -261 0
-19 -233 -262 0
-19 -230 -265 0
-19 -229 -266 0
-19 -226 -269 0
-19 -225 -270 0
-19 -206 -289 0
-19 -205 -290 0
-19 -202 -293 0
-19 -201 -294 0
-19 -198 -297 0
-19 -197 -298 0
-19 -194 -301 0
-19 -193 -302 0
-19 -174 -321 0
-19 -173 -322 0
-19 -170 -325 0
-19 -169 -326 0
-19 -166 -329 0
-19 -165 -330 0
-19 -162 -333 0
-19 -161 -334 0
-19 -142 -353 0
-19 -141 -354 0
-19 -138 -357 0
-19 -137 -358 0
-19 -134 -361 0
-19 -133 -362 0
-19 -130 -365 0
-19 -366 0
-20 -237 0
-20 -225 -269 0
-20 -201 -293 0
-20 -197 -297 0
-20 -169 -325 0
-20 -165 -329 0
-20 -141 -353 0
-20 -365 0
-21 -236 0
-21 -235 -258 0
-21 -234 -259 0
-21 -233 -260 0
-21 -228 -265 0
-21 -227 -266 0
-21 -226 -267 0
-21 -225 -268 0
-21 -204 -289 0
-21 -203 -290 0
-21 -202 -291 0
-21 -201 -292 0
-21 -196 -297 0
-21 -195 -298 0
-21 -194 -299 0
-21 -193 -300 0
-21 -172 -321 0
-21 -171 -322 0
-21 -170 -323 0
-21 -169 -324 0
-21 -164 -329 0
-21 -163 -330 0
-21 -162 -331 0
-21 -161 -332 0
-21 -140 -353 0
-21 -139 -354 0
-21 -138 -355 0
-21 -137 -356 0
-21 -132 -361 0
-21 -131 -362 0
-21 -130 -363 0
-21 -364 0
-22 -235 0
-22 -225 -267 0
-22 -201 -291 0
-22 -195 -297 0
-22 -169 -323 0
-22 -163 -329 0
-22 -139 -353 0
-22 -363 0
-23 -234 0
-23 -225 -266 0
-23 -201 -290 0
-23 -194 -297 0
-23 -169 -322 0
-23 -162 -329 0
-23 -138 -353 0
-23 -362 0
-24 -233 0
-24 -225 -265 0
-24 -201 -289 0
-24 -193 -297 0
-24 -169 -321 0
-24 -161 -329 0
-24 -137 -353 0
-24 -361 0
-25 -232 0
-25 -231 -258 0
-25 -230 -259 0
-25 -229 -260 0
-25 -228 -261 0
-25 -227 -262 0
-25 -226 -263 0
-25 -225 -264 0
-25 -200 -289 0
-25 -199 -290 0
-25 -198 -291 0
-25 -197 -292 0
-25 -196 -293 0
-25 -195 -294 0
-25 -194 -295 0
-25 -193 -296 0
-25 -168 -321 0
-25 -167 -322 0
-25 -166 -323 0
-25 -165 -324 0
-25 -164 -325 0
-25 -163 -326 0
-25 -162 -327 0
-25 -161 -328 0
-25 -136 -353 0
-25 -135 -354 0
-25 -134 -355 0
-25 -133 -356 0
-25 -132 -357 0
-25 -131 -358 0
-25 -130 -359 0
-25 -360 0
-26 -231 0
-26 -225 -263 0
-26 -197 -291 0
-26 -195 -293 0
-26 -165 -323 0
-26 -163 -325 0
-26 -135 -353 0
-26 -359 0
-27 -230 0
-27 -225 -262 0
-27 -197 -290 0
-27 -194 -293 0
-27 -165 -322 0
-27 -162 -325 0
-27 -134 -353 0
-27 -358 0
-28 -229 0
-28 -225 -261 0
-28 -197 -289 0
-28 -193 -293 0
-28 -165 -321 0
-28 -161 -325 0
-28 -133 -353 0
-28 -357 0
-29 -228 0
-29 -225 -260 0
-29 -195 -290 0
-29 -194 -291 0
-29 -163 -322 0
-29 -162 -323 0
-29 -132 -353 0
-29 -356 0
-30 -227 0
-30 -225 -259 0
-30 -195 -289 0
-30 -193 -291 0
-30 -163 -321 0
-30 -161 -323 0
-30 -131 -353 0
-30 -355 0
-31 -226 0
-31 -225 -258 0
-31 -194 -289 0
-31 -193 -290 0
-31 -162 -321 0
-31 -161 -322 0
-31 -130 -353 0
-31 -354 0
-32 -225 0
-32 -353 0
-33 -224 0
-33 -221 -260 0
-33 -219 -262 0
-33 -218 -263 0
-33 -215 -266 0
-33 -214 -267 0
-33 -212 -269 0
-33 -209 -272 0
-33 -207 -274 0
-33 -206 -275 0
-33 -204 -277 0
-33 -201 -280 0
-33 -200 -281 0
-33 -197 -284 0
-33 -195 -286 0
-33 -194 -287 0
-33 -159 -322 0
-33 -158 -323 0
-33 -156 -325 0
-33 -153 -328 0
-33 -152 -329 0
-33 -149 -332 0
-33 -147 -334 0
-33 -146 -335 0
-33 -144 -337 0
-33 -141 -340 0
-33 -139 -342 0
-33 -138 -343 0
-33 -135 -346 0
-33 -134 -347 0
-33 -132 -349 0
-33 -352 0
-34 -223 0
-34 -221 -259 0
-34 -219 -261 0
-34 -217 -263 0
-34 -215 -265 0
-34 -213 -267 0
-34 -211 -269 0
-34 -209 -271 0
-34 -207 -273 0
-34 -205 -275 0
-34 -203 -277 0
-34 -201 -279 0
-34 -199 -281 0
-34 -197 -283 0
-34 -195 -285 0
-34 -193 -287 0
-34 -159 -321 0
-34 -157 -323 0
-34 -155 -325 0
-34 -153 -327 0
-34 -151 -329 0
-34 -149 -331 0
-34 -147 -333 0
-34 -145 -335 0
-34 -143 -337 0
-34 -141 -339 0
-34 -139 -341 0
-34 -137 -343 0
-34 -135 -345 0
-34 -133 -347 0
-34 -131 -349 0
-34 -351 0
-35 -222 0
-35 -221 -258 0
-35 -218 -261 0
-35 -217 -262 0
-35 -214 -265 0
-35 -213 -266 0
-35 -210 -269 0
-35 -209 -270 0
-35 -206 -273 0
-35 -205 -274 0
-35 -202 -277 0
-35 -201 -278 0
-35 -198 -281 0
-35 -197 -282 0
-35 -194 -285 0
-35 -193 -286 0
-35 -158 -321 0
-35 -157 -322 0
-35 -154 -325 0
-35 -153 -326 0
-35 -150 -329 0
-35 -149 -330 0
-35 -146 -333 0
-35 -145 -334 0
-35 -142 -337 0
-35 -141 -338 0
-35 -138 -341 0
-35 -137 -342 0
-35 -134 -345 0
-35 -133 -346 0
-35 -130 -349 0
-35 -350 0
-36 -221 0
-36 -209 -269 0
-36 -201 -277 0
-36 -197 -281 0
-36 -153 -325 0
-36 -149 -329 0
-36 -141 -337 0
-36 -349 0
-37 -220 0
-37 -219 -258 0
-37 -218 -259 0
-37 -217 -260 0
-37 -212 -265 0
-37 -211 -266 0
-37 -210 -267 0
-37 -209 -268 0
-37 -204 -273 0
-37 -203 -274 0
-37 -202 -275 0
-37 -201 -276 0
-37 -196 -281 0
-37 -195 -282 0
-37 -194 -283 0
-37 -193 -284 0
-37 -156 -321 0
-37 -155 -322 0
-37 -154 -323 0
-37 -153 -324 0
-37 -148 -329 0
-37 -147 -330 0
-37 -146 -331 0
-37 -145 -332 0
-37 -140 -337 0
-37 -139 -338 0
-37 -138 -339 0
-37 -137 -340 0
-37 -132 -345 0
-37 -131 -346 0
-37 -130 -347 0
-37 -348 0
-38 -219 0
-38 -209 -267 0
-38 -201 -275 0
-38 -195 -281 0
-38 -153 -323 0
-38 -147 -329 0
-38 -139 -337 0
-38 -347 0
-39 -218 0
-39 -209 -266 0
-39 -201 -274 0
-39 -194 -281 0
-39 -153 -322 0
-39 -146 -329 0
-39 -138 -337 0
-39 -346 0
-40 -217 0
-40 -209 -265 0
-40 -201 -273 0
-40 -193 -281 0
-40 -153 -321 0
-40 -145 -329 0
-40 -137 -337 0
-40 -345 0
-41 -216 0
-41 -215 -258 0
-41 -214 -259 0
-41 -213 -260 0
-41 -212 -261 0
-41 -211 -262 0
-41 -210 -263 0
-41 -209 -264 0
-41 -200 -273 0
-41 -199 -274 0
-41 -198 -275 0
-41 -197 -276 0
-41 -196 -277 0
-41 -195 -278 0
-41 -194 -279 0
-41 -193 -280 0
-41 -152 -321 0
-41 -151 -322 0
-41 -150 -323 0
-41 -149 -324 0
-41 -148 -325 0
-41 -147 -326 0
-41 -146 -327 0
-41 -145 -328 0
-41 -136 -337 0
-41 -135 -338 0
-41 -134 -339 0
-41 -133 -340 0
-41 -132 -341 0
-41 -131 -342 0
-41 -130 -343 0
-41 -344 0
-42 -215 0
-42 -209 -263 0
-42 -197 -275 0
-42 -195 -277 0
-42 -149 -323 0
-42 -147 -325 0
-42 -135 -337 0
-42 -343 0
-43 -214 0
-43 -209 -262 0
-43 -197 -274 0
-43 -194 -277 0
-43 -149 -322 0
-43 -146 -325 0
-43 -134 -337 0
-43 -342 0
-44 -213 0
-44 -209 -261 0
-44 -197 -273 0
-44 -193 -277 0
-44 -149 -321 0
-44 -145 -325 0
-44 -133 -337 0
-44 -341 0
-45 -212 0
-45 -209 -260 0
-45 -195 -274 0
-45 -194 -275 0
-45 -147 -322 0
-45 -146 -323 0
-45 -132 -337 0
-45 -340 0
-46 -211 0
-46 -209 -259 0
-46 -195 -273 0
-46 -193 -275 0
-46 -147 -321 0
-46 -145 -323 0
-46 -131 -337 0
-46 -339 0
-47 -210 0
-47 -209 -258 0
-47 -194 -273 0
-47 -193 -274 0
-47 -146 -321 0
-47 -145 -322 0
-47 -130 -337 0
-47 -338 0
-48 -209 0
-48 -337 0
-49 -208 0
-49 -207 -258 0
-49 -206 -259 0
-49 -205 -260 0
-49 -204 -261 0
-49 -203 -262 0
-49 -202 -263 0
-49 -201 -264 0
-49 -200 -265 0
-49 -199 -266 0
-49 -198 -267 0
-49 -197 -268 0
-49 -196 -269 0
-49 -195 -270 0
-49 -194 -271 0
-49 -193 -272 0
-49 -144 -321 0
-49 -143 -322 0
-49 -142 -323 0
-49 -141 -324 0
-49 -140 -325 0
-49 -139 -326 0
-49 -138 -327 0
-49 -137 -328 0
-49 -136 -329 0
-49 -135 -330 0
-49 -134 -331 0
-49 -133 -332 0
-49 -132 -333 0
-49 -131 -334 0
-49 -130 -335 0
-49 -336 0
-50 -207 0
-50 -201 -263 0
-50 -197 -267 0
-50 -195 -269 0
-50 -141 -323 0
-50 -139 -325 0
-50 -135 -329 0
-50 -335 0
-51 -206 0
-51 -201 -262 0
-51 -197 -266 0
-51 -194 -269 0
-51 -141 -322 0
-51 -138 -325 0
-51 -134 -329 0
-51 -334 0
-52 -205 0
-52 -201 -261 0
-52 -197 -265 0
-52 -193 -269 0
-52 -141 -321 0
-52 -137 -325 0
-52 -133 -329 0
-52 -333 0
-53 -204 0
-53 -201 -260 0
-53 -195 -266 0
-53 -194 -267 0
-53 -139 -322 0
-53 -138 -323 0
-53 -132 -329 0
-53 -332 0
-54 -203 0
-54 -201 -259 0
-54 -195 -265 0
-54 -193 -267 0
-54 -139 -321 0
-54 -137 -323 0
-54 -131 -329 0
-54 -331 0
-55 -202 0
-55 -201 -258 0
-55 -194 -265 0
-55 -193 -266 0
-55 -138 -321 0
-55 -137 -322 0
-55 -130 -329 0
-55 -330 0
-56 -201 0
-56 -329 0
-57 -200 0
-57 -197 -260 0
-57 -195 -262 0
-57 -194 -263 0
-57 -135 -322 0
-57 -134 -323 0
-57 -132 -325 0
-57 -328 0
-58 -199 0
-58 -197 -259 0
-58 -195 -261 0
-58 -193 -263 0
-58 -135 -321 0
-58 -133 -323 0
-58 -131 -325 0
-58 -327 0
-59 -198 0
-59 -197 -258 0
-59 -194 -261 0
-59 -193 -262 0
-59 -134 -321 0
-59 -133 -322 0
-59 -130 -325 0
-59 -326 0
-60 -197 0
-60 -325 0
-61 -196 0
-61 -195 -258 0
-61 -194 -259 0
-61 -193 -260 0
-61 -132 -321 0
-61 -131 -322 0
-61 -130 -323 0
-61 -324 0
-62 -195 0
-62 -323 0
-63 -194 0
-63 -322 0
-64 -193 0
-64 -321 0
-65 -192 0
-65 -189 -260 0
-65 -187 -262 0
-65 -186 -263 0
-65 -183 -266 0
-65 -182 -267 0
-65 -180 -269 0
-65 -177 -272 0
-65 -175 -274 0
-65 -174 -275 0
-65 -172 -277 0
-65 -169 -280 0
-65 -168 -281 0
-65 -165 -284 0
-65 -163 -286 0
-65 -162 -287 0
-65 -159 -290 0
-65 -158 -291 0
-65 -156 -293 0
-65 -153 -296 0
-65 -152 -297 0
-65 -149 -300 0
-65 -147 -302 0
-65 -146 -303 0
-65 -144 -305 0
-65 -141 -308 0
-65 -139 -310 0
-65 -138 -311 0
-65 -135 -314 0
-65 -134 -315 0
-65 -132 -317 0
-65 -320 0
-66 -191 0
-66 -189 -259 0
-66 -187 -261 0
-66 -185 -263 0
-66 -183 -265 0
-66 -181 -267 0
-66 -179 -269 0
-66 -177 -271 0
-66 -175 -273 0
-66 -173 -275 0
-66 -171 -277 0
-66 -169 -279 0
-66 -167 -281 0
-66 -165 -283 0
-66 -163 -285 0
-66 -161 -287 0
-66 -159 -289 0
-66 -157 -291 0
-66 -155 -293 0
-66 -153 -295 0
-66 -151 -297 0
-66 -149 -299 0
-66 -147 -301 0
-66 -145 -303 0
-66 -143 -305 0
-66 -141 -307 0
-66 -139 -309 0
-66 -137 -311 0
-66 -135 -313 0
-66 -133 -315 0
-66 -131 -317 0
-66 -319 0
-67 -190 0
-67 -189 -258 0
-67 -186 -261 0
-67 -185 -262 0
-67 -182 -265 0
-67 -181 -266 0
-67 -178 -269 0
-67 -177 -270 0
-67 -174 -273 0
-67 -173 -274 0
-67 -170 -277 0
-67 -169 -278 0
-67 -166 -281 0
-67 -165 -282 0
-67 -162 -285 0
-67 -161 -286 0
-67 -158 -289 0
-67 -157 -290 0
-67 -154 -293 0
-67 -153 -294 0
-67 -150 -297 0
-67 -149 -298 0
-67 -146 -301 0
-67 -145 -302 0
-67 -142 -305 0
-67 -141 -306 0
-67 -138 -309 0
-67 -137 -310 0
-67 -134 -313 0
-67 -133 -314 0
-67 -130 -317 0
-67 -318 0
-68 -189 0
-68 -177 -269 0
-68 -169 -277 0
-68 -165 -281 0
-68 -153 -293 0
-68 -149 -297 0
-68 -141 -305 0
-68 -317 0
-69 -188 0
-69 -187 -258 0
-69 -186 -259 0
-69 -185 -260 0
-69 -180 -265 0
-69 -179 -266 0
-69 -178 -267 0
-69 -177 -268 0
-69 -172 -273 0
-69 -171 -274 0
-69 -170 -275 0
-69 -169 -276 0
-69 -164 -281 0
-69 -163 -282 0
-69 -162 -283 0
-69 -161 -284 0
-69 -156 -289 0
-69 -155 -290 0
-69 -154 -291 0
-69 -153 -292 0
-69 -148 -297 0
-69 -147 -298 0
-69 -146 -299 0
-69 -145 -300 0
-69 -140 -305 0
-69 -139 -306 0
-69 -138 -307 0
-69 -137 -308 0
-69 -132 -313 0
-69 -131 -314 0
-69 -130 -315 0
-69 -316 0
-70 -187 0
-70 -177 -267 0
-70 -169 -275 0
-70 -163 -281 0
-70 -153 -291 0
-70 -147 -297 0
-70 -139 -305 0
-70 -315 0
-71 -186 0
-71 -177 -266 0
-71 -169 -274 0
-71 -162 -281 0
-71 -153 -290 0
-71 -146 -297 0
-71 -138 -305 0
-71 -314 0
-72 -185 0
-72 -177 -265 0
-72 -169 -273 0
-72 -161 -281 0
-72 -153 -289 0
-72 -145 -297 0
-72 -137 -305 0
-72 -313 0
-73 -184 0
-73 -183 -258 0
-73 -182 -259 0
-73 -181 -260 0
-73 -180 -261 0
-73 -179 -262 0
-73 -178 -263 0
-73 -177 -264 0
-73 -168 -273 0
-73 -167 -274 0
-73 -166 -275 0
-73 -165 -276 0
-73 -164 -277 0
-73 -163 -278 0
-73 -162 -279 0
-73 -161 -280 0
-73 -152 -289 0
-73 -151 -290 0
-73 -150 -291 0
-73 -149 -292 0
-73 -148 -293 0
-73 -147 -294 0
-73 -146 -295 0
-73 -145 -296 0
-73 -136 -305 0
-73 -135 -306 0
-73 -134 -307 0
-73 -133 -308 0
-73 -132 -309 0
-73 -131 -310 0
-73 -130 -311 0
-73 -312 0
-74 -183 0
-74 -177 -263 0
-74 -165 -275 0
-74 -163 -277 0
-74 -149 -291 0
-74 -147 -293 0
-74 -135 -305 0
-74 -311 0
-75 -182 0
-75 -177 -262 0
-75 -165 -274 0
-75 -162 -277 0
-75 -149 -290 0
-75 -146 -293 0
-75 -134 -305 0
-75 -310 0
-76 -181 0
-76 -177 -261 0
-76 -165 -273 0
-76 -161 -277 0
-76 -149 -289 0
-76 -145 -293 0
-76 -133 -305 0
-76 -309 0
-77 -180 0
-77 -177 -260 0
-77 -163 -274 0
-77 -162 -275 0
-77 -147 -290 0
-77 -146 -291 0
-77 -132 -305 0
-77 -308 0
-78 -179 0
-78 -177 -259 0
-78 -163 -273 0
-78 -161 -275 0
-78 -147 -289 0
-78 -145 -291 0
-78 -131 -305 0
-78 -307 0
-79 -178 0
-79 -177 -258 0
-79 -162 -273 0
-79 -161 -274 0
-79 -146 -289 0
-79 -145 -290 0
-79 -130 -305 0
-79 -306 0
-80 -177 0
-80 -305 0
-81 -176 0
-81 -175 -258 0
-81 -174 -259 0
-81 -173 -260 0
-81 -172 -261 0
-81 -171 -262 0
-81 -170 -263 0
-81 -169 -264 0
-81 -168 -265 0
-81 -167 -266 0
-81 -166 -267 0
-81 -165 -268 0
-81 -164 -269 0
-81 -163 -270 0
-81 -162 -271 0
-81 -161 -272 0
-81 -144 -289 0
-81 -143 -290 0
-81 -142 -291 0
-81 -141 -292 0
-81 -140 -293 0
-81 -139 -294 0
-81 -138 -295 0
-81 -137 -296 0
-81 -136 -297 0
-81 -135 -298 0
-81 -134 -299 0
-81 -133 -300 0
-81 -132 -301 0
-81 -131 -302 0
-81 -130 -303 0
-81 -304 0
-82 -175 0
-82 -169 -263 0
-82 -165 -267 0
-82 -163 -269 0
-82 -141 -291 0
-82 -139 -293 0
-82 -135 -297 0
-82 -303 0
-83 -174 0
-83 -169 -262 0
-83 -165 -266 0
-83 -162 -269 0
-83 -141 -290 0
-83 -138 -293 0
-83 -134 -297 0
-83 -302 0
-84 -173 0
-84 -169 -261 0
-84 -165 -265 0
-84 -161 -269 0
-84 -141 -289 0
-84 -137 -293 0
-84 -133 -297 0
-84 -301 0
-85 -172 0
-85 -169 -260 0
-85 -163 -266 0
-85 -162 -267 0
-85 -139 -290 0
-85 -138 -291 0
-85 -132 -297 0
-85 -300 0
-86 -171 0
-86 -169 -259 0
-86 -163 -265 0
-86 -161 -267 0
-86 -139 -289 0
-86 -137 -291 0
-86 -131 -297 0
-86 -299 0
-87 -170 0
-87 -169 -258 0
-87 -162 -265 0
-87 -161 -266 0
-87 -138 -289 0
-87 -137 -290 0
-87 -130 -297 0
-87 -298 0
-88 -169 0
-88 -297 0
-89 -168 0
-89 -165 -260 0
-89 -163 -262 0
-89 -162 -263 0
-89 -135 -290 0
-89 -134 -291 0
-89 -132 -293 0
-89 -296 0
-90 -167 0
-90 -165 -259 0
-90 -163 -261 0
-90 -161 -263 0
-90 -135 -289 0
-90 -133 -291 0
-90 -131 -293 0
-90 -295 0
-91 -166 0
-91 -165 -258 0
-91 -162 -261 0
-91 -161 -262 0
-91 -134 -289 0
-91 -133 -290 0
-91 -130 -293 0
-91 -294 0
-92 -165 0
-92 -293 0
-93 -164 0
-93 -163 -258 0
-93 -162 -259 0
-93 -161 -260 0
-93 -132 -289 0
-93 -131 -290 0
-93 -130 -291 0
-93 -292 0
-94 -163 0
-94 -291 0
-95 -162 0
-95 -290 0
-96 -161 0
-96 -289 0
-97 -160 0
-97 -159 -258 0
-97 -158 -259 0
-97 -157 -260 0
-97 -156 -261 0
-97 -155 -262 0
-97 -154 -263 0
-97 -153 -264 0
-97 -152 -265 0
-97 -151 -266 0
-97 -150 -267 0
-97 -149 -268 0
-97 -148 -269 0
-97 -147 -270 0
-97 -146 -271 0
-97 -145 -272 0
-97 -144 -273 0
-97 -143 -274 0
-97 -142 -275 0
-97 -141 -276 0
-97 -140 -277 0
-97 -139 -278 0
-97 -138 -279 0
-97 -137 -280 0
-97 -136 -281 0
-97 -135 -282 0
-97 -134 -283 0
-97 -133 -284 0
-97 -132 -285 0
-97 -131 -286 0
-97 -130 -287 0
-97 -288 0
-98 -159 0
-98 -153 -263 0
-98 -149 -267 0
-98 -147 -269 0
-98 -141 -275 0
-98 -139 -277 0
-98 -135 -281 0
-98 -287 0
-99 -158 0
-99 -153 -262 0
-99 -149 -266 0
-99 -146 -269 0
-99 -141 -274 0
-99 -138 -277 0
-99 -134 -281 0
-99 -286 0
-100 -157 0
-100 -153 -261 0
-100 -149 -265 0
-100 -145 -269 0
-100 -141 -273 0
-100 -137 -277 0
-100 -133 -281 0
-100 -285 0
-101 -156 0
-101 -153 -260 0
-101 -147 -266 0
-101 -146 -267 0
-101 -139 -274 0
-101 -138 -275 0
-101 -132 -281 0
-101 -284 0
-102 -155 0
-102 -153 -259 0
-102 -147 -265 0
-102 -145 -267 0
-102 -139 -273 0
-102 -137 -275 0
-102 -131 -281 0
-102 -283 0
-103 -154 0
-103 -153 -258 0
-103 -146 -265 0
-103 -145 -266 0
-103 -138 -273 0
-103 -137 -274 0
-103 -130 -281 0
-103 -282 0
-104 -153 0
-104 -281 0
-105 -152 0
-105 -149 -260 0
-105 -147 -262 0
-105 -146 -263 0
-105 -135 -274 0
-105 -134 -275 0
-105 -132 -277 0
-105 -280 0
-106 -151 0
-106 -149 -259 0
-106 -147 -261 0
-106 -145 -263 0
-106 -135 -273 0
-106 -133 -275 0
-106 -131 -277 0
-106 -279 0
-107 -150 0
-107 -149 -258 0
-107 -146 -261 0
-107 -145 -262 0
-107 -134 -273 0
-107 -133 -274 0
-107 -130 -277 0
-107 -278 0
-108 -149 0
-108 -277 0
-109 -148 0
-109 -147 -258 0
-109 -146 -259 0
-109 -145 -260 0
-109 -132 -273 0
-109 -131 -274 0
-109 -130 -275 0
-109 -276 0
-110 -147 0
-110 -275 0
-111 -146 0
-111 -274 0
-112 -145 0
-112 -273 0
-113 -144 0
-113 -141 -260 0
-113 -139 -262 0
-113 -138 -263 0
-113 -135 -266 0
-113 -134 -267 0
-113 -132 -269 0
-113 -272 0
-114 -143 0
-114 -141 -259 0
-114 -139 -261 0
-114 -137 -263 0
-114 -135 -265 0
-114 -133 -267 0
-114 -131 -269 0
-114 -271 0
-115 -142 0
-115 -141 -258 0
-115 -138 -261 0
-115 -137 -262 0
-115 -134 -265 0
-115 -133 -266 0
-115 -130 -269 0
-115 -270 0
-116 -141 0
-116 -269 0
-117 -140 0
-117 -139 -258 0
-117 -138 -259 0
-117 -137 -260 0
-117 -132 -265 0
-117 -131 -266 0
-117 -130 -267 0
-117 -268 0
-118 -139 0
-118 -267 0
-119 -138 0
-119 -266 0
-120 -137 0
-120 -265 0
-121 -136 0
-121 -135 -258 0
-121 -134 -259 0
-121 -133 -260 0
-121 -132 -261 0
-121 -131 -262 0
-121 -130 -263 0
-121 -264 0
-122 -135 0
-122 -263 0
-123 -134 0
-123 -262 0
-124 -133 0
-124 -261 0
-125 -132 0
-125 -260 0
-126 -131 0
-126 -259 0
-127 -130 0
-127 -258 0
-66 0
-67 0
-69 0
-73 0
-81 0
-97 0
65 0
64 0
-192 0
-189 -260 0
-187 -262 0
-186 -263 0
-183 -266 0
-182 -267 0
-180 -269 0
-177 -272 0
-175 -274 0
-174 -275 0
-172 -277 0
-169 -280 0
-168 -281 0
-165 -284 0
-163 -286 0
-162 -287 0
-159 -290 0
-158 -291 0
-156 -293 0
-153 -296 0
-152 -297 0
-149 -300 0
-147 -302 0
-146 -303 0
-144 -305 0
-141 -308 0
-139 -310 0
-138 -311 0
-135 -314 0
-134 -315 0
-132 -317 0
-320 0
-64 128 0
64 -128 0
-61 125 0
61 -125 0
-59 123 0
59 -123 0
-58 122 0
58 -122 0
-55 119 0
55 -119 0
-54 118 0
54 -118 0
-52 116 0
52 -116 0
-49 113 0
49 -113 0
-47 111 0
47 -111 0
-46 110 0
46 -110 0
-44 108 0
44 -108 0
-41 105 0
41 -105 0
-40 104 0
40 -104 0
-37 101 0
37 -101 0
-35 99 0
35 -99 0
-34 98 0
34 -98 0
-31 95 0
31 -95 0
-30 94 0
30 -94 0
-28 92 0
28 -92 0
-25 89 0
25 -89 0
-24 88 0
24 -88 0
-21 85 0
21 -85 0
-19 83 0
19 -83 0
-18 82 0
18 -82 0
-16 80 0
16 -80 0
-13 77 0
13 -77 0
-11 75 0
11 -75 0
-10 74 0
10 -74 0
-7 71 0
7 -71 0
-6 70 0
6 -70 0
-4 68 0
4 -68 0
-1 65 0
1 -65 0
-193 0
-195 0
-201 0
-209 0
-225 0
194 0
191 0
-63 0
-61 -259 0
-59 -261 0
-57 -263 0
-55 -265 0
-53 -267 0
-51 -269 0
-49 -271 0
-47 -273 0
-45 -275 0
-43 -277 0
-41 -279 0
-39 -281 0
-37 -283 0
-35 -285 0
-33 -287 0
-31 -289 0
-29 -291 0
-27 -293 0
-25 -295 0
-23 -297 0
-21 -299 0
-19 -301 0
-17 -303 0
-15 -305 0
-13 -307 0
-11 -309 0
-9 -311 0
-7 -313 0
-5 -315 0
-3 -317 0
-319 0
-60 0
-59 -258 0
-58 -259 0
-57 -260 0
-52 -265 0
-51 -266 0
-50 -267 0
-49 -268 0
-44 -273 0
-43 -274 0
-42 -275 0
-41 -276 0
-36 -281 0
-35 -282 0
-34 -283 0
-33 -284 0
-28 -289 0
-27 -290 0
-26 -291 0
-25 -292 0
-20 -297 0
-19 -298 0
-18 -299 0
-17 -300 0
-12 -305 0
-11 -306 0
-10 -307 0
-9 -308 0
-4 -313 0
-3 -314 0
-2 -315 0
-316 0
-187 252 0
187 -252 0
-185 250 0
185 -250 0
-179 244 0
179 -244 0
-177 242 0
177 -242 0
-171 236 0
171 -236 0
-169 234 0
169 -234 0
-163 228 0
163 -228 0
-161 226 0
161 -226 0
-155 220 0
155 -220 0
-153 218 0
153 -218 0
-147 212 0
147 -212 0
-145 210 0
145 -210 0
-139 204 0
139 -204 0
-137 202 0
137 -202 0
-131 196 0
131 -196 0
-129 194 0
129 -194 0
-321 0
-322 0
323 0
318 0
-62 0
-61 -130 0
-58 -133 0
-57 -134 0
-54 -137 0
-53 -138 0
-50 -141 0
-49 -142 0
-46 -145 0
-45 -146 0
-42 -149 0
-41 -150 0
-38 -153 0
-37 -154 0
-34 -157 0
-33 -158 0
-30 -161 0
-29 -162 0
-26 -165 0
-25 -166 0
-22 -169 0
-21 -170 0
-18 -173 0
-17 -174 0
-14 -177 0
-13 -178 0
-10 -181 0
-9 -182 0
-6 -185 0
-5 -186 0
-2 -189 0
-190 0
-60 0
-59 -130 0
-58 -131 0
-57 -132 0
-52 -137 0
-51 -138 0
-50 -139 0
-49 -140 0
-44 -145 0
-43 -146 0
-42 -147 0
-41 -148 0
-36 -153 0
-35 -154 0
-34 -155 0
-33 -156 0
-28 -161 0
-27 -162 0
-26 -163 0
-25 -164 0
-20 -169 0
-19 -170 0
-18 -171 0
-17 -172 0
-12 -177 0
-11 -178 0
-10 -179 0
-9 -180 0
-4 -185 0
-3 -186 0
-2 -187 0
-188 0
-56 0
-55 -130 0
-54 -131 0
-53 -132 0
-52 -133 0
-51 -134 0
-50 -135 0
-49 -136 0
-40 -145 0
-39 -146 0
-38 -147 0
-37 -148 0
-36 -149 0
-35 -150 0
-34 -151 0
-33 -152 0
-24 -161 0
-23 -162 0
-22 -163 0
-21 -164 0
-20 -165 0
-19 -166 0
-18 -167 0
-17 -168 0
-8 -177 0
-7 -178 0
-6 -179 0
-5 -180 0
-4 -181 0
-3 -182 0
-2 -183 0
-184 0
-48 0
-47 -130 0
-46 -131 0
-45 -132 0
-44 -133 0
-43 -134 0
-42 -135 0
-41 -136 0
-40 -137 0
-39 -138 0
-38 -139 0
-37 -140 0
-36 -141 0
-35 -142 0
-34 -143 0
-33 -144 0
-16 -161 0
-15 -162 0
-14 -163 0
-13 -164 0
-12 -165 0
-11 -166 0
-10 -167 0
-9 -168 0
-8 -169 0
-7 -170 0
-6 -171 0
-5 -172 0
-4 -173 0
-3 -174 0
-2 -175 0
-176 0
-32 0
-31 -130 0
-30 -131 0
-29 -132 0
-28 -133 0
-27 -134 0
-26 -135 0
-25 -136 0
-24 -137 0
-23 -138 0
-22 -139 0
-21 -140 0
-20 -141 0
-19 -142 0
-18 -143 0
-17 -144 0
-16 -145 0
-15 -146 0
-14 -147 0
-13 -148 0
-12 -149 0
-11 -150 0
-10 -151 0
-9 -152 0
-8 -153 0
-7 -154 0
-6 -155 0
-5 -156 0
-4 -157 0
-3 -158 0
-2 -159 0
-160 0
-258 324 0
258 -324 0
-257 323 0
257 -323 0
