p cnf 5592 568
128 0
256 0
384 0
-421 3 0
-422 5 0
-423 7 0
-15 423 422 421 0
-457 21 0
-458 5 0
-459 6 0
-22 457 458 459 0
-469 3 0
-470 5 0
-471 7 0
-23 471 470 469 0
-505 3 0
-506 19 0
-507 11 0
-27 507 505 506 0
-575 3 0
-576 4 0
-577 7 0
-578 22 0
-579 19 0
-32 577 575 576 579 578 0
-631 4 0
-632 6 0
-633 7 0
-40 633 631 632 0
-805 7 0
-806 19 0
-807 21 0
-55 805 806 807 0
-817 55 0
-818 3 0
-819 5 0
-820 40 0
-821 33 0
-56 817 818 819 820 821 0
-827 3 0
-828 4 0
-829 7 0
-830 19 0
-831 22 0
-56 829 827 828 830 831 0
-871 11 0
-872 19 0
-873 35 0
871 -59 872 873 0
-1039 3 0
-1040 5 0
-1041 65 0
-71 1039 1040 1041 0
-1099 5 0
-1100 69 0
-1101 65 0
-77 1100 1099 1101 0
-1123 7 0
-1124 69 0
-1125 67 0
-79 1125 1123 1124 0
-1145 3 0
-1146 4 0
-1147 7 0
-1148 11 0
-1149 14 0
-80 1149 1145 1146 1147 1148 0
-1160 65 0
-1161 15 0
-1162 14 0
-1163 12 0
-1164 8 0
-80 1162 1160 1161 1163 1164 0
-1201 5 0
-1202 69 0
-1203 65 0
-85 1202 1201 1203 0
-1225 7 0
-1226 19 0
-1226 69 0
-1227 21 0
-87 1225 1226 1227 0
-1247 3 0
-1248 4 0
-1249 7 0
-1250 19 0
-1251 22 0
-88 1249 1247 1248 1250 1251 0
-1252 5 0
-1253 6 0
-1254 7 0
-1255 21 0
-1256 69 0
-88 1256 1252 1253 1254 1255 0
13 -1333 0
-1334 21 0
-1335 69 0
1333 -93 1334 1335 0
-1365 78 0
-1366 77 0
-1367 21 0
-1368 70 0
-1369 14 0
-94 1369 1366 1367 1368 1365 0
-1385 5 0
-1386 7 0
-1387 83 0
-1388 21 0
-1389 27 0
-95 1387 1385 1386 1388 1389 0
-1390 87 0
-1391 85 0
-1392 83 0
-1393 71 0
-1394 23 0
-95 1392 1390 1391 1393 1394 0
-1471 5 0
-1472 33 0
-1473 65 0
-101 1471 1472 1473 0
-1495 7 0
-1496 35 0
-1496 69 0
-1497 67 0
-1497 37 0
-103 1497 1495 1496 0
-1529 35 0
-1529 70 0
-1788 117 0
-1789 6 0
-1790 101 0
-1791 85 0
-1792 53 0
-118 1789 1788 1790 1791 1792 0
-1833 33 0
-1834 85 0
-1835 83 0
-1836 71 0
-1837 23 0
-119 1835 1833 1834 1836 1837 0
-2035 7 0
11 -2036 0
-2036 117 0
-2037 19 0
35 -2038 0
-2038 93 0
-2039 67 0
-2039 61 0
2035 2038 -127 2037 2036 2039 0
-2040 7 0
-2041 13 0
-2041 115 0
-2042 21 0
37 -2043 0
-2043 91 0
-2044 69 0
-2044 59 0
2043 2041 -127 2040 2042 2044 0
-2045 11 0
-2045 117 0
-2046 13 0
-2046 115 0
-2047 103 0
-2048 87 0
-2049 55 0
2046 2048 -127 2045 2047 2049 0
109 -2050 0
-2051 107 0
-2052 103 0
-2053 79 0
-2054 47 0
2050 2051 -127 2053 2052 2054 0
-2055 35 0
-2056 37 0
-2056 91 0
-2057 87 0
-2058 79 0
-2059 31 0
2055 2056 -127 2057 2058 2059 0
-2060 67 0
-2061 59 0
-2062 55 0
81 -2063 0
-2064 31 0
2060 2061 -127 2063 2062 2064 0
-2079 3 0
-2080 4 0
-2081 7 0
-2082 118 0
-2083 19 0
-2084 35 0
-2084 94 0
-2085 67 0
2081 2080 2082 2083 2084 2085 -128 2079 0
-2086 5 0
-2087 6 0
-2088 7 0
116 -2089 0
-2090 21 0
-2091 37 0
-2092 69 0
2088 2087 2089 2090 2091 2092 -128 2086 0
-2094 119 0
-2095 11 0
-2095 118 0
-2098 88 0
-2099 56 0
-2107 33 0
-2108 95 0
-2109 35 0
-2110 92 0
-2111 88 0
-2112 80 0
-2113 32 0
2108 2109 2110 2111 2112 2113 -128 2107 0
-2277 134 0
-2278 138 0
-2279 146 0
-158 2277 2278 2279 0
-2427 134 0
-2428 138 0
-2428 165 0
-2429 162 0
-2429 141 0
-174 2427 2428 2429 0
-2517 133 0
-2518 145 0
-2519 149 0
-181 2519 2518 2517 0
-2529 134 0
-2530 146 0
-2531 162 0
-2531 149 0
2529 -182 2530 2531 0
-2558 130 0
-2559 181 0
-2560 134 0
-2561 146 0
-2562 151 0
-184 2560 2558 2562 2561 2559 0
-2595 138 0
-2596 146 0
-2597 162 0
-186 2597 2596 2595 0
-2853 138 0
-2853 197 0
-2854 141 0
-2854 194 0
134 -2855 0
2855 2854 2853 -206 0
-2937 133 0
-2938 145 0
-2939 149 0
-213 2939 2938 2937 0
-2949 134 0
-2950 146 0
-2951 194 0
-2951 149 0
-214 2951 2950 2949 0
-2978 130 0
-2979 213 0
-2980 134 0
-2981 146 0
-2982 151 0
-216 2980 2978 2979 2981 2982 0
-3219 134 0
-3220 162 0
-3220 197 0
-3221 194 0
-3221 165 0
-230 3220 3221 3219 0
-3524 130 0
-3525 134 0
-3526 146 0
-3527 213 0
-3528 181 0
-246 3525 3524 3526 3527 3528 0
-3741 134 0
-3741 249 0
-3742 138 0
-3742 245 0
-3743 146 0
-3744 221 0
-3745 189 0
3745 3744 -254 3743 3741 3742 0
-3746 249 0
-3747 242 0
149 -3748 0
-3749 218 0
-3750 186 0
3748 3749 -254 3746 3750 3747 0
-3751 245 0
-3752 141 0
-3752 242 0
-3753 153 0
-3753 230 0
-3754 214 0
-3755 182 0
3755 3752 -254 3751 3753 3754 0
-3756 146 0
149 -3757 0
-3757 234 0
-3758 230 0
-3759 206 0
-3760 209 0
-3760 174 0
3756 3759 -254 3757 3760 3758 0
-3761 221 0
-3762 165 0
-3762 218 0
-3763 214 0
177 -3764 0
-3764 206 0
-3765 158 0
3765 3761 -254 3764 3762 3763 0
194 -3766 0
-3766 189 0
-3767 197 0
-3767 186 0
-3768 182 0
-3769 209 0
-3769 174 0
-3770 158 0
3768 3767 -254 3766 3770 3769 0
-3829 248 0
-3830 138 0
-3831 246 0
-3832 244 0
-3833 232 0
-3834 216 0
-3835 184 0
3831 3830 3832 3833 3834 3835 -256 3829 0
-3917 258 0
-3918 259 0
-3919 273 0
-276 3917 3918 3919 0
-3965 258 0
-3966 274 0
-3967 273 0
-282 3966 3965 3967 0
-3989 260 0
-3990 266 0
-3991 274 0
-284 3989 3990 3991 0
-4047 259 0
-4048 260 0
-4049 282 0
-4050 278 0
-4051 270 0
-288 4051 4047 4049 4050 4048 0
-4067 258 0
-4068 259 0
-4069 260 0
-292 4069 4068 4067 0
-4139 260 0
-4140 266 0
-4140 291 0
-4141 267 0
4141 4139 -300 4140 0
-4217 258 0
-4218 273 0
-4219 274 0
-306 4219 4218 4217 0
-4241 260 0
-4304 308 0
-4305 262 0
-4306 306 0
-4307 292 0
-4308 276 0
-312 4307 4304 4306 4305 4308 0
-4370 308 0
-4371 307 0
-4372 306 0
-4373 292 0
-4374 276 0
-316 4371 4370 4372 4373 4374 0
-4565 266 0
267 -4566 0
322 -4566 0
-4567 260 0
4566 -332 4565 4567 0
260 -5417 0
-5417 377 0
-5418 266 0
-5418 371 0
-5419 274 0
-5420 347 0
-5421 315 0
5417 5421 -380 5419 5418 5420 0
-5422 377 0
-5423 370 0
362 -5424 0
-5425 346 0
-5426 314 0
5424 5426 -380 5422 5425 5423 0
-5427 266 0
-5427 371 0
-5428 370 0
281 -5429 0
-5429 356 0
-5430 340 0
-5431 308 0
5430 5431 -380 5428 5427 5429 0
-5432 274 0
-5433 362 0
-5434 356 0
-5435 332 0
-5436 300 0
5435 5433 -380 5432 5436 5434 0
-5437 347 0
-5438 346 0
-5439 340 0
305 -5440 0
332 -5440 0
-5441 284 0
5440 5439 -380 5438 5437 5441 0
-5442 315 0
-5443 314 0
-5444 308 0
300 -5445 0
-5446 284 0
5445 5444 -380 5442 5443 5446 0
-5586 320 0
-5587 319 0
-5588 323 0
-5589 316 0
-5590 312 0
-5591 304 0
-5592 288 0
5588 5587 5589 5590 5591 5592 -384 5586 0
-232 -281 0
-319 -194 0
-151 -362 0
-221 -291 -2 0
-249 -8 0
-377 -8 0
-12 -245 0
-244 -13 0
-307 -194 -13 0
-14 -291 -209 0
-14 -371 0
-221 -36 0
-209 -267 -38 0
-347 -38 0
-53 -332 0
-59 -194 -261 0
-68 -189 0
-177 -267 -70 0
-153 -291 -70 0
-70 -315 0
-304 -81 0
-83 -174 0
-85 -300 0
-162 -91 -261 0
-92 -165 0
-104 -281 0
-107 -278 0
-148 -109 0
-138 -115 -261 0
-270 -115 0
-141 -116 0
-266 -117 -131 0
-118 -267 0
-119 -266 0
-3 0
-5 0
-33 0
-65 0
2 0
127 0
-245 -267 0
-315 -197 0
-323 -189 0
-347 -165 0
-141 -371 0
-248 0
-356 -149 0
-371 -134 0
-230 -267 0
-291 -206 0
-300 -197 0
-165 -332 0
-141 -356 0
-103 104 0
70 -69 0
-70 69 0
-67 68 0
38 -37 0
36 -35 0
8 -7 0
-8 7 0
-130 0
-133 0
-145 0
131 0
254 0
-274 -109 0
-78 -305 0
-314 -69 0
-61 -322 0
-346 -37 0
-21 -362 0
-370 -13 0
-377 -6 0
-117 -260 0
-262 -115 0
-103 -274 0
-308 -69 0
-37 -340 0
-21 -356 0
-370 -7 0
-371 -6 0
-93 -260 0
-79 -274 0
-284 -69 0
-21 -332 0
-340 -13 0
-346 -7 0
-347 -6 0
-61 -260 0
-55 -266 0
-47 -274 0
-284 -37 0
-21 -300 0
-308 -13 0
-314 -7 0
-315 -6 0
-320 0
151 -149 0
-151 149 0
148 -146 0
-258 0
-259 0
-273 0
261 0
380 0
-107 -146 0
-186 -67 0
-218 -35 0
-234 -19 0
-242 -11 0
-249 -4 0
-115 -134 0
-103 -146 0
-67 -182 0
-55 -194 0
-214 -35 0
-230 -19 0
-242 -7 0
-245 -4 0
-91 -134 0
-79 -146 0
-158 -67 0
-31 -194 0
-206 -19 0
-214 -11 0
-218 -7 0
-221 -4 0
-59 -134 0
-47 -146 0
-158 -35 0
-31 -162 0
-174 -19 0
-182 -11 0
-186 -7 0
-189 -4 0
278 -274 0
-278 274 0
