p cnf 5592 225
128 0
-1099 5 0
-1100 9 0
-1101 65 0
-77 1099 1100 1101 0
-1201 5 0
-1202 17 0
-1203 65 0
-85 1201 1202 1203 0
-1267 9 0
-1268 17 0
-1269 65 0
-89 1267 1268 1269 0
-1355 5 0
-1356 89 0
-1357 13 0
-1358 21 0
-1359 69 0
1358 -94 1355 1356 1357 1359 0
-1365 17 0
-1366 77 0
-1367 21 0
-1368 70 0
-1369 14 0
1367 -94 1365 1366 1368 1369 0
13 -1603 0
-1604 37 0
-1605 69 0
1603 1604 -109 1605 0
-1635 33 0
-1636 77 0
-1637 37 0
-1638 70 0
14 -1639 0
1639 1637 1635 1636 1638 -110 0
-1771 21 0
-1772 37 0
-1773 69 0
-117 1771 1772 1773 0
-1803 33 0
-1804 85 0
-1805 37 0
-1806 70 0
-1807 22 0
-118 1807 1803 1804 1806 1805 0
-1975 5 0
-1976 9 0
-1977 17 0
-1978 33 0
-1979 65 0
-125 1975 1976 1977 1978 1979 0
-2035 7 0
-2036 117 0
109 -2037 0
35 -2038 0
-2038 93 0
-2039 67 0
2037 2038 -127 2035 2036 2039 0
-2040 7 0
-2041 13 0
21 -2042 0
-2043 37 0
-2044 69 0
2042 2041 -127 2040 2043 2044 0
61 -2060 0
-2061 59 0
-2062 55 0
-2063 47 0
-2064 31 0
2060 2061 -127 2063 2062 2064 0
-2079 3 0
-2080 125 0
-2081 7 0
-2082 118 0
-2083 19 0
-2083 110 0
35 -2084 0
-2084 94 0
-2085 67 0
2082 2081 2083 2084 2085 -128 2079 2080 0
-3746 249 0
-3747 242 0
-3748 234 0
-3749 218 0
-3750 186 0
3746 3747 -254 3750 3749 3748 0
-3764 206 0
-3766 194 0
-3767 186 0
-3768 182 0
-3769 174 0
-3770 158 0
3766 3768 -254 3767 3769 3770 0
-3989 260 0
-3990 266 0
-3990 275 0
-3991 274 0
-3991 267 0
-284 3989 3990 3991 0
-4000 260 0
-4139 260 0
-4140 266 0
-4140 291 0
-4141 290 0
-4141 267 0
4141 4140 -300 4139 0
-4241 260 0
-4242 274 0
-4242 291 0
-4243 290 0
-4243 275 0
-308 4241 4242 4243 0
-4661 260 0
-4662 274 0
-4663 322 0
-340 4661 4662 4663 0
-5417 260 0
-5418 266 0
-5419 363 0
-5420 347 0
-5421 322 0
5418 5420 -380 5417 5419 5421 0
-5422 377 0
-5423 370 0
-5424 362 0
-5425 346 0
323 -5426 0
5426 5422 -380 5423 5425 5424 0
371 -5427 0
267 -5428 0
-5428 370 0
-5429 356 0
-5430 340 0
-5431 308 0
5427 5430 -380 5428 5431 5429 0
-5432 363 0
-5433 362 0
-5434 356 0
-5435 332 0
-5436 300 0
5432 5435 -380 5436 5433 5434 0
-5437 347 0
-5438 346 0
-5439 340 0
-5440 332 0
-5441 284 0
5440 5437 -380 5441 5439 5438 0
-5442 322 0
-5443 314 0
-5444 308 0
-5445 300 0
-5446 284 0
5445 5443 -380 5442 5446 5444 0
-327 -186 0
-249 -8 0
-377 -8 0
-14 -371 0
-363 -22 0
-347 -38 0
-59 -326 0
-196 -61 0
-290 -93 -131 0
-291 -94 0
-274 -109 -131 0
-275 -110 0
-266 -117 -131 0
-118 -267 0
-3 0
-5 0
-9 0
-17 0
-33 0
-65 0
127 0
-117 118 0
-118 117 0
110 -109 0
-110 109 0
-94 93 0
-70 69 0
38 -37 0
22 -21 0
8 -7 0
131 0
254 0
-69 -314 0
-322 -61 0
-346 -37 0
-362 -21 0
-370 -13 0
-117 -260 0
-308 -69 0
-55 -322 0
-340 -37 0
-356 -21 0
-370 -7 0
-109 -260 0
-300 -69 0
-47 -322 0
-332 -37 0
-356 -13 0
-362 -7 0
-93 -260 0
-284 -69 0
-31 -322 0
-332 -21 0
-13 -340 0
-346 -7 0
196 -194 0
380 0
-186 -67 0
-59 -194 0
-182 -67 0
-55 -194 0
-242 -7 0
-174 -67 0
-47 -194 0
-206 -35 0
-234 -7 0
-158 -67 0
-31 -194 0
-19 -206 0
-218 -7 0
327 -323 0
326 -322 0
