p cnf 5592 651
128 0
256 0
384 0
-421 3 0
-422 5 0
-423 7 0
-15 423 422 421 0
-469 3 0
-470 5 0
-471 7 0
-23 471 470 469 0
-703 7 0
-704 37 0
-705 35 0
-47 704 703 705 0
-728 38 0
-1051 4 0
-1052 6 0
-1053 7 0
-72 1053 1051 1052 0
-1075 3 0
-1076 67 0
-1077 65 0
-75 1076 1075 1077 0
-1135 79 0
-1136 3 0
-1137 5 0
-1138 72 0
-1139 65 0
-80 1135 1136 1137 1138 1139 0
-1160 65 0
-1161 15 0
-1162 67 0
-1163 69 0
-1164 8 0
-80 1161 1160 1163 1162 1164 0
-1177 3 0
-1178 67 0
-1179 65 0
-83 1178 1177 1179 0
-1201 5 0
-1202 69 0
-1203 65 0
-85 1202 1201 1203 0
-1262 65 0
-1263 23 0
-1264 67 0
-1265 69 0
-1266 8 0
-88 1263 1262 1265 1264 1266 0
-1318 84 0
-1319 83 0
11 -1320 0
-1321 68 0
-1322 20 0
1320 1318 1319 -92 1321 1322 0
-1323 76 0
-1324 75 0
-1325 19 0
-1326 68 0
-1327 12 0
1327 1323 1324 1325 1326 -92 0
-1400 65 0
-1401 67 0
-1402 69 0
-1403 23 0
-1404 15 0
-95 1403 1400 1402 1401 1404 0
-1459 4 0
-1460 67 0
-1461 35 0
-100 1461 1459 1460 0
-1483 6 0
-1484 69 0
-1485 37 0
-102 1485 1483 1484 0
-1495 7 0
-1496 69 0
-1497 37 0
-103 1497 1495 1496 0
11 -1561 0
-1561 97 0
-1562 35 0
-1563 67 0
-107 1561 1562 1563 0
-1573 107 0
-1574 3 0
-1575 100 0
-1576 33 0
-1577 65 0
-108 1575 1574 1573 1576 1577 0
-1578 107 0
-1615 109 0
-1616 5 0
-1617 102 0
-1618 33 0
-1619 65 0
-110 1617 1616 1615 1618 1619 0
19 -1729 0
-1729 97 0
-1730 35 0
-1731 67 0
-115 1729 1730 1731 0
-1741 115 0
-1742 3 0
-1743 100 0
-1744 33 0
-1745 65 0
-116 1741 1742 1743 1744 1745 0
-1783 117 0
-1784 5 0
-1785 102 0
-1786 33 0
-1787 65 0
1785 -118 1784 1783 1786 1787 0
-1803 33 0
-1804 85 0
-1805 37 0
-1806 70 0
-1807 22 0
-118 1805 1803 1807 1806 1804 0
-2035 7 0
-2036 117 0
19 -2037 0
-2037 109 0
35 -2038 0
-2038 93 0
-2039 67 0
2035 2038 -127 2039 2036 2037 0
-2040 7 0
13 -2041 0
-2041 115 0
-2042 21 0
-2042 107 0
37 -2043 0
91 -2043 0
-2044 69 0
2043 2041 -127 2040 2044 2042 0
-2050 109 0
-2051 107 0
-2052 103 0
-2053 79 0
-2054 47 0
2052 2051 -127 2054 2050 2053 0
61 -2060 0
-2061 59 0
-2062 55 0
-2063 47 0
-2064 31 0
2060 2061 -127 2064 2062 2063 0
-2079 3 0
-2080 4 0
-2081 7 0
118 -2082 0
-2083 110 0
-2084 35 0
-2085 67 0
2081 2080 2082 2083 2084 2085 -128 2079 0
-2086 5 0
-2087 6 0
-2088 7 0
-2089 116 0
-2090 108 0
-2091 37 0
92 -2091 0
-2092 69 0
2088 2087 2089 2090 2091 2092 -128 2086 0
-2101 111 0
-2104 104 0
-2105 80 0
-2107 33 0
-2108 95 0
-2109 35 0
92 -2110 0
-2111 88 0
-2112 80 0
-2113 97 0
-2113 32 0
2109 2108 2110 2111 2112 2113 -128 2107 0
-2117 69 0
-2145 130 0
-2146 133 0
-2147 134 0
-142 2147 2146 2145 0
-2193 130 0
-2194 133 0
-2195 134 0
-150 2195 2194 2193 0
-2277 134 0
-2278 138 0
-2278 149 0
-2279 146 0
141 -2279 0
2278 2279 -158 2277 0
-2343 130 0
-2344 133 0
-2345 134 0
-166 2345 2344 2343 0
-2427 134 0
-2428 138 0
-2428 165 0
-2429 162 0
141 -2429 0
-174 2427 2429 2428 0
-2476 144 0
-2477 162 0
143 -2477 0
-2478 142 0
-2479 165 0
-2479 140 0
-2480 136 0
-176 2476 2479 2477 2478 2480 0
-2529 134 0
-2530 165 0
-2531 162 0
-182 2530 2529 2531 0
-2578 152 0
-2579 162 0
-2579 151 0
-2580 150 0
-2581 165 0
-2581 148 0
-2582 136 0
-184 2578 2581 2579 2580 2582 0
-2686 158 0
-2687 162 0
-2688 165 0
-2689 150 0
-2690 142 0
-190 2687 2686 2688 2689 2690 0
-2763 130 0
-2764 133 0
-2765 193 0
-198 2763 2764 2765 0
-2799 130 0
-2800 194 0
-2801 193 0
-202 2800 2799 2801 0
-2886 133 0
-2887 134 0
-2888 202 0
-2889 196 0
-2890 197 0
-2890 140 0
-208 2890 2886 2888 2889 2887 0
-2901 130 0
-2902 194 0
-2903 193 0
-210 2902 2901 2903 0
-2988 133 0
-2989 134 0
-2990 210 0
-2991 196 0
-2992 197 0
-2992 148 0
-216 2992 2988 2990 2991 2989 0
-3171 130 0
-3172 194 0
-3173 193 0
-226 3172 3171 3173 0
-3195 132 0
-3195 225 0
-3196 162 0
-3197 194 0
-228 3195 3196 3197 0
-3207 133 0
-3208 197 0
-3209 193 0
-229 3208 3207 3209 0
-3219 134 0
-3220 162 0
-3220 197 0
-3221 194 0
-230 3220 3219 3221 0
-3253 230 0
-3254 229 0
-3255 226 0
-3256 198 0
-3257 166 0
-232 3257 3254 3255 3256 3253 0
-3258 133 0
-3259 134 0
-3260 226 0
-3261 196 0
-3262 197 0
-232 3262 3258 3260 3261 3259 0
-3268 193 0
-3269 194 0
-3270 166 0
-3271 197 0
-3272 136 0
-232 3270 3268 3269 3271 3272 0
-3285 225 0
-3286 162 0
-3287 194 0
-234 3286 3285 3287 0
-3309 130 0
-3310 234 0
-3311 228 0
-3312 204 0
-3313 193 0
-236 3312 3309 3310 3311 3313 0
-3361 133 0
-3362 134 0
-3363 226 0
-3364 202 0
-3365 197 0
-238 3365 3361 3363 3364 3362 0
-3366 230 0
-3367 229 0
-3368 226 0
-3369 198 0
-3370 166 0
-238 3370 3367 3368 3369 3366 0
-3529 133 0
-3530 134 0
-3531 226 0
-3532 210 0
-3533 197 0
-246 3533 3529 3531 3532 3530 0
-3534 230 0
-3535 146 0
-3535 229 0
-3536 226 0
-3537 198 0
-3538 166 0
-246 3538 3535 3536 3537 3534 0
-3741 249 0
-3742 245 0
-3743 237 0
-3744 221 0
-3745 194 0
3744 3743 -254 3741 3742 3745 0
-3746 249 0
-3747 242 0
-3748 234 0
-3749 218 0
-3750 186 0
3747 3746 -254 3750 3749 3748 0
-3751 245 0
-3752 141 0
-3752 242 0
-3753 230 0
-3754 214 0
-3755 182 0
3752 3751 -254 3755 3754 3753 0
146 -3756 0
-3756 237 0
-3757 234 0
-3758 230 0
-3759 206 0
-3760 174 0
3758 3756 -254 3760 3759 3757 0
-3761 221 0
-3762 218 0
-3763 214 0
-3764 206 0
225 -3765 0
-3765 158 0
3763 3761 -254 3765 3762 3764 0
-3766 194 0
-3767 197 0
-3767 186 0
-3768 182 0
-3769 174 0
-3770 225 0
-3770 158 0
3766 3769 -254 3767 3768 3770 0
-3829 248 0
-3830 138 0
-3831 246 0
-3832 244 0
-3833 232 0
-3834 216 0
-3835 184 0
3831 3830 3832 3833 3834 3835 -256 3829 0
-3836 240 0
-3837 146 0
-3837 239 0
-3838 238 0
-3839 149 0
-3839 236 0
-3840 232 0
-3841 208 0
-3842 176 0
3838 3837 3839 3840 3841 3842 -256 3836 0
-3850 193 0
-3851 194 0
-3852 190 0
-3853 188 0
-3854 184 0
-3855 176 0
-3856 160 0
3851 3852 3853 3854 3855 3856 -256 3850 0
-3995 266 0
-3995 275 0
267 -3996 0
274 -3996 0
-3997 260 0
3996 3995 -284 3997 0
-4487 258 0
-4488 259 0
-4489 321 0
-324 4487 4488 4489 0
-4535 258 0
-4536 322 0
-4537 321 0
-330 4536 4535 4537 0
-4547 259 0
-4548 323 0
-4549 321 0
-331 4548 4547 4549 0
-4622 332 0
-4623 262 0
-4624 330 0
-4625 324 0
-4626 325 0
-336 4626 4623 4624 4625 4622 0
-4637 258 0
-4638 322 0
-4639 321 0
-338 4638 4637 4639 0
-4649 259 0
-4650 323 0
-4651 321 0
-339 4650 4649 4651 0
-4724 340 0
-4725 262 0
-4726 338 0
-4727 324 0
-4728 325 0
-344 4728 4725 4726 4727 4724 0
-4827 346 0
-4828 262 0
-4829 338 0
-4830 330 0
-4831 325 0
-350 4831 4827 4829 4830 4828 0
-4857 347 0
-4858 263 0
-4858 345 0
-4859 339 0
-4860 331 0
-4861 325 0
4861 -351 4857 4859 4860 4858 0
260 -5417 0
-5417 377 0
-5418 266 0
-5418 371 0
-5419 274 0
-5419 363 0
-5420 347 0
-5421 322 0
5417 5420 -380 5418 5419 5421 0
-5422 377 0
-5423 370 0
-5424 362 0
-5425 346 0
323 -5426 0
5426 5424 -380 5422 5425 5423 0
-5427 266 0
-5427 371 0
-5428 267 0
-5428 370 0
-5429 356 0
-5430 340 0
329 -5431 0
-5431 308 0
5429 5430 -380 5428 5431 5427 0
274 -5432 0
-5432 363 0
-5433 362 0
-5434 356 0
-5435 332 0
337 -5436 0
-5436 300 0
5435 5433 -380 5432 5436 5434 0
-5437 347 0
-5438 346 0
-5439 340 0
-5440 332 0
353 -5441 0
-5441 284 0
5441 5439 -380 5437 5440 5438 0
-5442 322 0
-5443 323 0
-5443 314 0
-5444 308 0
-5445 300 0
284 -5446 0
5446 5444 -380 5442 5445 5443 0
-5579 352 0
351 -5580 0
-5581 350 0
-5582 348 0
-5583 344 0
-5584 336 0
-5585 288 0
5581 5580 5582 5583 5584 5585 -384 5579 0
-239 -274 0
-229 -284 0
-288 -225 0
-314 -199 0
-325 -188 0
-327 -186 0
-184 -329 0
-176 -337 0
-160 -353 0
-149 -363 -2 0
-371 -141 -2 0
-249 -8 0
-377 -8 0
-12 -149 -353 0
-244 -13 0
-148 -13 -353 0
-238 -19 0
-20 -141 -353 0
-236 -21 0
-140 -21 -353 0
-22 -363 0
-32 -353 0
-221 -36 0
-345 -132 -37 0
-348 -37 0
-347 -38 0
-59 -326 0
-196 -61 0
-162 -91 -261 0
-165 -92 0
-151 -266 -97 0
-143 -97 -274 0
-97 -288 0
-108 -149 0
-148 -109 0
-109 -274 -131 0
-110 -275 0
-111 -146 0
-138 -115 -261 0
-116 -141 0
-140 -117 0
-266 -117 -131 0
-3 0
-5 0
-33 0
-65 0
2 0
127 0
-245 -267 0
-275 -237 0
-248 0
-245 -260 0
-308 -197 0
-323 -182 0
-152 -353 0
-149 -356 0
-240 0
-237 -260 0
-263 -234 0
-300 -197 0
-323 -174 0
-144 -353 0
-141 -356 0
-104 103 0
-70 69 0
-68 67 0
38 -37 0
-38 37 0
36 -35 0
8 -7 0
-8 7 0
-130 0
-133 0
-193 0
131 0
254 0
-314 -69 0
-322 -61 0
-346 -37 0
-362 -21 0
-370 -13 0
-377 -6 0
-117 -260 0
-102 -275 0
-308 -69 0
-55 -322 0
-340 -37 0
-21 -356 0
-370 -7 0
-371 -6 0
-109 -260 0
-300 -69 0
-47 -322 0
-332 -37 0
-356 -13 0
-362 -7 0
-363 -6 0
-93 -260 0
-262 -91 0
-69 -284 0
-31 -322 0
-332 -21 0
-340 -13 0
-346 -7 0
-347 -6 0
-352 0
199 -197 0
196 -194 0
-196 194 0
-136 134 0
-258 0
-259 0
-321 0
261 0
380 0
-107 -146 0
-186 -67 0
-59 -194 0
-218 -35 0
-234 -19 0
-242 -11 0
-249 -4 0
-134 -115 0
-100 -149 0
-152 -97 0
-182 -67 0
-55 -194 0
-214 -35 0
-230 -19 0
-242 -7 0
-245 -4 0
-134 -107 0
-100 -141 0
-174 -67 0
-47 -194 0
-204 -37 0
-206 -35 0
-230 -11 0
-234 -7 0
-237 -4 0
-134 -91 0
-84 -141 0
-79 -146 0
-76 -149 0
-158 -67 0
-31 -194 0
-206 -19 0
-214 -11 0
-218 -7 0
-221 -4 0
-323 327 0
326 -322 0
