p cnf 5592 304
384 0
-553 7 0
-554 11 0
-555 13 0
-31 553 555 554 0
-703 7 0
-704 11 0
-705 13 0
-47 703 705 704 0
-871 11 0
-872 19 0
-873 35 0
873 872 871 -59 0
-1123 7 0
-1124 11 0
-1125 13 0
-79 1123 1125 1124 0
-1291 11 0
-1292 19 0
-1293 67 0
1292 -91 1291 1293 0
-1561 11 0
-1562 35 0
-1563 67 0
1562 1563 -107 1561 0
-2035 7 0
-2036 11 0
19 -2037 0
109 -2037 0
-2038 93 0
-2039 61 0
2037 2038 -127 2035 2036 2039 0
-2040 7 0
-2041 13 0
21 -2042 0
107 -2042 0
-2043 37 0
-2043 91 0
69 -2044 0
59 -2044 0
2042 2043 -127 2040 2041 2044 0
117 -2045 0
-2046 115 0
-2047 103 0
-2048 87 0
-2049 55 0
2045 2046 -127 2048 2047 2049 0
-2055 93 0
-2056 37 0
-2057 87 0
-2058 79 0
-2059 31 0
2056 2055 -127 2057 2058 2059 0
-2060 61 0
-2061 69 0
-2062 55 0
-2063 47 0
-2064 31 0
2061 2060 -127 2062 2063 2064 0
-2433 138 0
162 -2434 0
-2435 134 0
2434 -174 2433 2435 0
-2529 134 0
-2530 165 0
-2531 162 0
2531 -182 2530 2529 0
-2847 134 0
-2848 138 0
-2849 194 0
-206 2849 2848 2847 0
-2949 134 0
-2950 197 0
-2951 194 0
-214 2951 2950 2949 0
-3219 134 0
-3220 162 0
-3220 197 0
-3221 194 0
-3221 165 0
3221 3220 -230 3219 0
-3746 249 0
141 -3747 0
-3748 234 0
-3749 218 0
-3750 186 0
3747 3746 -254 3748 3749 3750 0
-3751 138 0
-3752 242 0
-3753 230 0
-3754 214 0
-3755 182 0
3751 3754 -254 3752 3755 3753 0
-3756 237 0
-3757 234 0
-3758 230 0
-3759 206 0
-3760 174 0
3760 3756 -254 3758 3759 3757 0
-3761 221 0
-3762 218 0
169 -3763 0
-3763 214 0
-3764 206 0
-3765 158 0
3761 3762 -254 3763 3764 3765 0
-3766 189 0
-3767 186 0
201 -3768 0
-3768 182 0
-3769 174 0
-3770 158 0
3770 3769 -254 3768 3766 3767 0
-3869 258 0
-3870 259 0
-3871 265 0
-268 3869 3870 3871 0
-3917 258 0
-3918 259 0
-3919 260 0
-276 3919 3918 3917 0
-3965 258 0
-3966 265 0
-3967 266 0
-282 3967 3966 3965 0
-4047 259 0
-4048 260 0
-4049 282 0
-4050 278 0
-4051 270 0
4048 -288 4047 4049 4050 4051 0
-4052 284 0
-4053 262 0
-4054 282 0
-4055 276 0
-4056 268 0
4055 -288 4052 4054 4053 4056 0
-4139 260 0
-4140 266 0
-4141 290 0
-300 4141 4140 4139 0
-4192 258 0
-4193 260 0
-4194 262 0
-4195 266 0
-4196 290 0
-304 4196 4192 4193 4195 4194 0
-4241 260 0
-4242 291 0
-4243 290 0
4243 -308 4241 4242 0
-4360 258 0
-4361 260 0
-4362 266 0
-4363 299 0
-4364 290 0
-316 4364 4360 4362 4361 4363 0
-4661 260 0
-4662 323 0
-4663 322 0
-340 4662 4661 4663 0
-4931 260 0
-4932 323 0
-4933 291 0
4932 4933 4931 -356 0
-5422 377 0
370 -5423 0
-5424 362 0
-5425 346 0
-5426 314 0
5423 5425 -380 5422 5424 5426 0
-5427 266 0
-5428 370 0
-5429 356 0
-5430 340 0
-5431 308 0
5429 5428 -380 5427 5430 5431 0
-5432 363 0
-5433 362 0
356 -5434 0
-5435 332 0
-5436 300 0
5434 5432 -380 5433 5435 5436 0
-5437 347 0
-5438 291 0
-5438 346 0
-5439 340 0
-5440 332 0
-5441 284 0
5437 5440 -380 5441 5438 5439 0
-5442 315 0
323 -5443 0
-5443 314 0
-5444 308 0
-5445 300 0
-5446 284 0
5445 5446 -380 5443 5444 5442 0
-5586 320 0
-5587 322 0
-5588 318 0
-5589 316 0
-5590 312 0
-5591 304 0
-5592 288 0
5587 5588 5589 5590 5591 5592 -384 5586 0
-299 -214 0
-312 -201 0
-143 -370 0
-347 -165 -2 0
-249 -8 0
-377 -8 0
-237 -20 0
-291 -201 -22 0
-169 -22 -323 0
-363 -22 0
-221 -36 0
-347 -38 0
-56 -201 0
-194 -59 -261 0
-322 -61 -131 0
-318 -67 0
-189 -68 0
-315 -70 0
-88 -169 0
-91 -162 -261 0
-278 -107 0
-115 -270 0
-140 -117 0
2 0
127 0
-291 -214 0
-308 -197 0
-182 -323 0
-340 -165 0
-87 88 0
70 -69 0
68 -67 0
-55 56 0
38 -37 0
36 -35 0
22 -21 0
20 -19 0
8 -7 0
131 0
254 0
-266 -117 0
-290 -93 0
-314 -69 0
-346 -37 0
-362 -21 0
-13 -370 0
-109 -260 0
-107 -262 0
-103 -266 0
-300 -69 0
-332 -37 0
-13 -356 0
-362 -7 0
-93 -260 0
-91 -262 0
-87 -266 0
-284 -69 0
-332 -21 0
-340 -13 0
-346 -7 0
-61 -260 0
-59 -262 0
-55 -266 0
-37 -284 0
-300 -21 0
-13 -308 0
-314 -7 0
-320 0
143 -141 0
140 -138 0
-258 0
-259 0
-265 0
261 0
380 0
-115 -138 0
-186 -67 0
-218 -35 0
-234 -19 0
-242 -11 0
-103 -138 0
-67 -174 0
-206 -35 0
-230 -11 0
-234 -7 0
-134 -91 0
-87 -138 0
-158 -67 0
-206 -19 0
-214 -11 0
-218 -7 0
-134 -59 0
-55 -138 0
-158 -35 0
-174 -19 0
-182 -11 0
-186 -7 0
270 -266 0
-270 266 0
