p cnf 5592 476
128 0
256 0
384 0
-556 7 0
-557 19 0
-558 21 0
-558 11 0
-31 558 556 557 0
-703 7 0
-704 37 0
-705 13 0
704 705 -47 703 0
-757 3 0
-758 17 0
-759 33 0
-51 757 758 759 0
-832 5 0
-833 51 0
-834 7 0
-835 36 0
-836 20 0
835 -56 832 833 836 834 0
-1177 3 0
-1178 17 0
-1179 65 0
-83 1177 1178 1179 0
-1252 5 0
-1253 83 0
-1254 7 0
-1255 68 0
-1256 20 0
-88 1254 1252 1253 1255 1256 0
-1447 3 0
-1448 33 0
-1449 65 0
-99 1447 1448 1449 0
-1495 7 0
-1495 97 0
-1496 35 0
-1496 69 0
-1497 67 0
-1497 37 0
-103 1495 1497 1496 0
-1519 7 0
-1522 5 0
-1523 99 0
-1524 7 0
-1525 37 0
-1525 68 0
-1526 69 0
-1526 36 0
-104 1526 1522 1523 1525 1524 0
-1561 97 0
-1562 35 0
-1563 67 0
-107 1562 1563 1561 0
-1729 19 0
-1730 35 0
-1731 67 0
-115 1730 1729 1731 0
-1766 65 0
-1767 51 0
-1768 67 0
-1769 36 0
-1770 20 0
-116 1769 1766 1767 1770 1768 0
-2035 7 0
-2036 11 0
-2036 117 0
-2037 19 0
-2038 35 0
93 -2038 0
-2039 67 0
-2039 61 0
2036 2035 -127 2039 2038 2037 0
-2040 7 0
115 -2041 0
-2042 21 0
-2042 107 0
37 -2043 0
91 -2043 0
69 -2044 0
-2044 59 0
2043 2040 -127 2044 2042 2041 0
11 -2045 0
117 -2045 0
-2046 115 0
-2047 25 0
-2047 103 0
-2048 87 0
-2049 55 0
2045 2046 -127 2047 2048 2049 0
-2050 19 0
-2051 107 0
-2052 103 0
-2053 79 0
-2054 47 0
2050 2054 -127 2051 2052 2053 0
-2055 93 0
-2056 91 0
-2057 87 0
-2058 49 0
-2059 31 0
2056 2055 -127 2059 2057 2058 0
-2060 61 0
-2061 59 0
-2062 55 0
81 -2063 0
-2063 47 0
-2064 31 0
2060 2062 -127 2063 2061 2064 0
-2079 3 0
-2080 4 0
-2081 7 0
-2082 11 0
-2082 118 0
-2083 19 0
-2084 35 0
94 -2084 0
-2085 67 0
-2085 62 0
2081 2080 2082 2083 2084 2085 -128 2079 0
-2088 7 0
-2090 21 0
-2277 134 0
-2278 138 0
-2279 141 0
-158 2277 2278 2279 0
-2343 130 0
-2344 133 0
-2345 161 0
-166 2343 2344 2345 0
-2471 137 0
-2472 138 0
-2473 166 0
-2474 141 0
-2474 164 0
-2475 169 0
-2475 136 0
-176 2475 2471 2473 2472 2474 0
-2553 130 0
-2554 182 0
-2555 133 0
-2556 168 0
-2557 161 0
-184 2556 2553 2555 2554 2557 0
-2847 134 0
-2847 201 0
-2848 138 0
-2848 197 0
-2849 194 0
-2849 141 0
-206 2848 2849 2847 0
-2973 130 0
-2974 214 0
-2975 133 0
-2976 200 0
-2977 193 0
-216 2974 2973 2975 2976 2977 0
-3015 138 0
-3016 146 0
-3016 201 0
-3017 194 0
-3017 153 0
-218 3015 3016 3017 0
-3219 134 0
-3220 162 0
-3220 197 0
-3221 194 0
165 -3221 0
-230 3219 3221 3220 0
-3285 138 0
-3286 162 0
-3286 201 0
-3287 194 0
-3287 169 0
-234 3285 3286 3287 0
-3453 146 0
-3454 162 0
-3455 194 0
-242 3454 3455 3453 0
-3477 130 0
-3478 242 0
-3479 228 0
-3480 161 0
-3481 193 0
-244 3478 3477 3479 3480 3481 0
-3519 130 0
-3520 133 0
-3521 230 0
-3522 161 0
-3523 193 0
-246 3521 3520 3519 3522 3523 0
-3741 134 0
-3741 249 0
-3742 138 0
-3742 245 0
146 -3743 0
237 -3743 0
-3744 162 0
-3744 221 0
194 -3745 0
189 -3745 0
3745 3744 -254 3743 3741 3742 0
-3746 134 0
-3746 249 0
-3747 242 0
149 -3748 0
-3748 234 0
-3749 218 0
-3750 186 0
3749 3750 -254 3746 3748 3747 0
-3751 138 0
-3752 242 0
153 -3753 0
-3753 230 0
-3754 214 0
-3755 182 0
3754 3752 -254 3755 3753 3751 0
-3756 237 0
-3757 234 0
-3758 230 0
-3759 206 0
-3760 174 0
3758 3759 -254 3760 3756 3757 0
-3761 221 0
-3762 218 0
-3763 214 0
177 -3764 0
-3764 206 0
-3765 158 0
3762 3765 -254 3761 3763 3764 0
-3766 189 0
-3767 186 0
-3768 182 0
209 -3769 0
-3769 174 0
-3770 158 0
3768 3767 -254 3766 3770 3769 0
-3829 248 0
-3830 138 0
-3831 246 0
-3832 244 0
-3833 153 0
-3834 216 0
-3835 201 0
-3835 184 0
3831 3830 3832 3833 3834 3835 -256 3829 0
-3989 281 0
-3990 266 0
-3991 267 0
-284 3991 3990 3989 0
-4139 260 0
-4139 297 0
-4140 266 0
-4141 267 0
-300 4139 4140 4141 0
-4241 305 0
-4242 291 0
-4243 290 0
4241 -308 4242 4243 0
-4343 267 0
-4343 305 0
-4344 275 0
-4345 281 0
-315 4343 4344 4345 0
-4661 337 0
-4662 323 0
-4663 322 0
4661 -340 4662 4663 0
-4763 267 0
-4763 337 0
-4764 275 0
-4764 329 0
-4765 281 0
-347 4763 4765 4764 0
-5087 258 0
-5088 362 0
-5089 358 0
-5090 334 0
-5091 302 0
-366 5090 5087 5089 5088 5091 0
260 -5417 0
377 -5417 0
-5418 266 0
-5419 363 0
-5420 347 0
-5421 315 0
5417 5418 -380 5419 5421 5420 0
-5432 274 0
-5432 363 0
-5433 275 0
-5433 362 0
-5434 281 0
305 -5435 0
-5435 332 0
337 -5436 0
-5436 300 0
5436 5435 -380 5432 5433 5434 0
-5437 347 0
-5438 346 0
297 -5439 0
340 -5439 0
-5440 305 0
-5440 332 0
-5441 284 0
5439 5441 -380 5438 5440 5437 0
-5442 315 0
-5443 314 0
-5444 329 0
308 -5444 0
337 -5445 0
-5445 300 0
-5446 284 0
5446 5445 -380 5444 5443 5442 0
-5551 382 0
-5552 260 0
-5553 263 0
-5554 267 0
-5555 366 0
-5556 350 0
-5557 318 0
5553 5552 5554 5555 5556 5557 -384 5551 0
-5574 275 0
-5576 281 0
-249 -264 0
-279 -234 0
-281 -232 0
-216 -297 0
-208 -305 0
-184 -329 0
-176 -337 0
-363 -149 -2 0
-249 -8 0
-209 -8 -297 0
-201 -8 -305 0
-377 -8 0
-13 -305 -196 0
-20 -237 0
-236 -21 0
-21 -297 -196 0
-363 -22 0
-25 -232 0
-201 -278 -35 0
-350 -35 0
-36 -221 0
-36 -329 -149 0
-140 -337 -37 0
-267 -209 -38 0
-347 -38 0
-208 -49 0
-201 -56 0
-61 -196 0
-322 -61 -131 0
-62 -323 0
-318 -67 0
-68 -189 0
-177 -267 -70 0
-315 -70 0
-176 -81 0
-169 -88 0
-162 -91 -261 0
-93 -164 0
-290 -93 -131 0
-291 -94 0
-97 -264 -153 0
-279 -138 -97 0
-98 -267 -149 0
-104 -153 0
-281 -104 0
-107 -146 -261 0
-141 -116 0
-140 -117 0
-266 -117 -131 0
-267 -118 0
-3 0
-5 0
-17 0
-33 0
-65 0
2 0
127 0
-263 -249 0
-245 -267 0
-323 -189 0
-248 0
-245 -260 0
-275 -230 0
-197 -308 0
-165 -340 0
118 -117 0
-118 117 0
-115 116 0
-103 104 0
-97 98 0
-87 88 0
70 -69 0
-67 68 0
-68 67 0
-55 56 0
38 -37 0
-35 36 0
35 -36 0
22 -21 0
-19 20 0
19 -20 0
8 -7 0
-130 0
-133 0
-137 0
-161 0
-193 0
131 0
254 0
-314 -69 0
-346 -37 0
-358 -25 0
-362 -21 0
-382 0
-266 -103 0
-300 -69 0
-302 -67 0
-322 -47 0
-332 -37 0
-334 -35 0
-234 236 0
232 -230 0
-206 208 0
196 -194 0
-174 176 0
164 -162 0
-164 162 0
140 -138 0
-136 134 0
-258 0
261 0
380 0
-115 -138 0
-186 -67 0
-59 -194 0
-218 -35 0
-228 -25 0
-234 -19 0
-242 -11 0
-249 -4 0
-134 -115 0
-103 -146 0
-162 -87 0
-182 -67 0
-55 -194 0
-214 -35 0
-230 -19 0
-242 -7 0
-245 -4 0
-134 -91 0
-87 -138 0
-79 -146 0
-158 -67 0
-31 -194 0
-200 -25 0
-206 -19 0
-214 -11 0
-218 -7 0
-221 -4 0
-134 -59 0
-138 -55 0
-47 -146 0
-158 -35 0
-168 -25 0
-174 -19 0
-182 -11 0
-186 -7 0
-189 -4 0
-275 279 0
-274 278 0
264 -260 0
