p cnf 5592 397
128 0
384 0
-457 21 0
-458 5 0
-459 6 0
-22 457 458 459 0
-469 3 0
-470 5 0
-471 7 0
-23 471 470 469 0
-481 4 0
-482 6 0
-483 7 0
-24 483 481 482 0
-575 3 0
-576 4 0
-577 7 0
-578 11 0
-578 22 0
19 -579 0
-579 14 0
-32 579 575 576 577 578 0
-585 24 0
-586 23 0
-587 22 0
13 -588 0
-589 8 0
588 -32 586 585 587 589 0
-679 5 0
-680 37 0
-681 33 0
-45 680 679 681 0
-703 7 0
-704 37 0
-705 35 0
-47 705 703 704 0
-725 3 0
-726 4 0
-727 7 0
-728 38 0
-729 35 0
-48 729 725 726 727 728 0
-781 5 0
-782 37 0
-783 33 0
-53 782 781 783 0
-805 7 0
-806 37 0
-807 35 0
807 806 805 -55 0
-827 3 0
-828 4 0
-829 7 0
-830 38 0
-831 35 0
-56 831 827 828 829 830 0
-960 3 0
-961 7 0
-962 53 0
-963 45 0
-964 35 0
-63 964 960 961 963 962 0
-1051 4 0
-1052 6 0
-1053 7 0
-72 1053 1051 1052 0
-1135 79 0
-1136 3 0
-1137 5 0
-1138 72 0
-1139 65 0
-80 1135 1136 1137 1138 1139 0
-1145 3 0
-1146 4 0
-1147 7 0
-1148 11 0
-1149 14 0
-80 1149 1145 1146 1147 1148 0
-1237 87 0
-1238 3 0
-1239 5 0
-1240 72 0
-1241 65 0
-88 1237 1238 1239 1240 1241 0
-1247 3 0
-1248 4 0
-1249 7 0
-1250 19 0
-1251 22 0
-88 1250 1247 1248 1249 1251 0
-1375 3 0
-1376 5 0
-1377 87 0
-1378 79 0
-1379 65 0
-95 1377 1376 1375 1378 1379 0
-1471 5 0
-1472 33 0
-1473 65 0
-101 1471 1472 1473 0
-1495 7 0
-1496 35 0
-1497 37 0
-103 1496 1495 1497 0
-1650 3 0
-1651 7 0
-1652 101 0
-1653 35 0
-1654 45 0
-111 1653 1650 1652 1651 1654 0
-1818 3 0
-1819 7 0
-1820 101 0
-1821 35 0
-1822 53 0
-119 1821 1818 1820 1819 1822 0
-2035 7 0
-2036 117 0
-2037 109 0
-2038 35 0
-2039 61 0
2035 2038 -127 2037 2036 2039 0
-2045 11 0
-2045 117 0
115 -2046 0
-2047 103 0
-2048 87 0
-2049 55 0
2046 2047 -127 2048 2045 2049 0
19 -2050 0
-2050 109 0
-2051 21 0
-2051 107 0
-2052 103 0
-2053 79 0
-2054 47 0
2051 2052 -127 2053 2050 2054 0
-2055 35 0
-2056 37 0
41 -2057 0
-2057 87 0
-2058 79 0
-2059 31 0
2056 2055 -127 2058 2057 2059 0
67 -2060 0
-2060 61 0
69 -2061 0
-2061 59 0
55 -2062 0
-2063 47 0
97 -2064 0
-2064 31 0
2061 2064 -127 2060 2063 2062 0
-2093 120 0
-2094 119 0
-2095 11 0
13 -2096 0
116 -2096 0
-2097 104 0
-2098 88 0
-2099 56 0
2095 2094 2096 2097 2098 2099 -128 2093 0
-2100 112 0
-2101 111 0
19 -2102 0
-2103 21 0
108 -2103 0
-2104 104 0
-2105 80 0
-2106 48 0
2101 2102 2103 2104 2105 2106 -128 2100 0
-2107 33 0
-2108 95 0
-2109 35 0
-2110 37 0
-2111 88 0
-2112 80 0
-2113 32 0
2109 2108 2110 2111 2112 2113 -128 2107 0
-2114 65 0
-2115 63 0
-2116 67 0
-2117 69 0
-2118 56 0
-2119 48 0
-2120 32 0
2116 2115 2117 2118 2119 2120 -128 2114 0
-2277 134 0
-2278 138 0
-2278 149 0
-2279 146 0
-2279 141 0
-158 2277 2278 2279 0
-2427 134 0
-2428 138 0
-2429 162 0
2427 -174 2428 2429 0
-2529 134 0
-2530 146 0
-2531 162 0
2530 2531 -182 2529 0
-2595 138 0
-2596 146 0
-2597 162 0
-186 2596 2595 2597 0
-3015 138 0
146 -3016 0
-3017 194 0
3016 -218 3015 3017 0
-3741 249 0
-3742 245 0
-3743 237 0
-3744 221 0
-3745 189 0
3743 3741 -254 3742 3744 3745 0
162 -3761 0
-3761 221 0
165 -3762 0
-3762 218 0
169 -3763 0
-3763 214 0
177 -3764 0
-3764 206 0
-3765 225 0
-3765 158 0
3764 3762 -254 3761 3765 3763 0
194 -3766 0
-3766 189 0
-3767 186 0
-3768 182 0
-3769 174 0
-3770 225 0
-3770 158 0
3769 3767 -254 3766 3768 3770 0
-4607 258 0
-4608 259 0
-4609 332 0
-4610 328 0
-4611 272 0
-336 4611 4608 4607 4609 4610 0
260 -5417 0
-5417 377 0
-5418 266 0
-5418 371 0
-5419 274 0
-5419 363 0
-5420 347 0
-5421 322 0
-5421 315 0
5417 5421 -380 5418 5419 5420 0
-5422 377 0
-5423 370 0
-5424 362 0
-5425 346 0
-5426 314 0
5423 5424 -380 5422 5425 5426 0
-5427 266 0
-5427 371 0
-5428 370 0
-5429 356 0
-5430 340 0
-5431 308 0
5431 5429 -380 5428 5427 5430 0
-5432 274 0
-5432 363 0
-5433 362 0
-5434 356 0
-5435 332 0
-5436 300 0
5436 5433 -380 5432 5435 5434 0
-5437 347 0
-5438 346 0
-5439 340 0
-5440 332 0
-5441 284 0
5441 5440 -380 5438 5439 5437 0
-5442 315 0
-5443 314 0
-5444 308 0
-5445 300 0
-5446 284 0
5444 5443 -380 5442 5445 5446 0
-5579 352 0
-5580 290 0
291 -5581 0
-5582 348 0
-5583 344 0
-5584 336 0
-5585 288 0
5580 5581 5582 5583 5584 5585 -384 5579 0
-348 -165 0
-347 -165 -2 0
-377 -8 0
-14 -371 0
-22 -363 0
-225 -32 0
-221 -36 0
-347 -38 0
-344 -41 0
-68 -189 0
-315 -70 0
-80 -177 0
-88 -169 0
-288 -97 0
-149 -108 0
-138 -115 -261 0
-141 -116 0
-3 0
-5 0
-33 0
-65 0
2 0
127 0
-149 -363 0
-214 -291 0
-340 -165 0
-134 -371 0
-206 -291 0
-332 -165 0
-104 103 0
70 -69 0
-67 68 0
38 -37 0
-38 37 0
36 -35 0
8 -7 0
-8 7 0
254 0
-117 -266 0
-274 -109 0
-314 -69 0
-322 -61 0
-346 -37 0
-362 -21 0
-370 -13 0
-377 -6 0
-120 0
-117 -260 0
-290 -87 0
-308 -69 0
-340 -37 0
-356 -21 0
-370 -7 0
-371 -6 0
-112 0
-109 -260 0
-272 -97 0
-300 -69 0
-328 -41 0
-332 -37 0
-356 -13 0
-362 -7 0
-363 -6 0
-266 -87 0
-79 -274 0
-284 -69 0
-322 -31 0
-332 -21 0
-340 -13 0
-346 -7 0
-347 -6 0
-352 0
-61 -260 0
-284 -37 0
-300 -21 0
-308 -13 0
-314 -7 0
-315 -6 0
-258 0
-259 0
261 0
380 0
-107 -146 0
-186 -67 0
-59 -194 0
-218 -35 0
-249 -4 0
-87 -162 0
-182 -67 0
-55 -194 0
-214 -35 0
-245 -4 0
-134 -107 0
-79 -162 0
-174 -67 0
-206 -35 0
-237 -4 0
-138 -87 0
-79 -146 0
-158 -67 0
-31 -194 0
-206 -19 0
-214 -11 0
-221 -4 0
-158 -35 0
-31 -162 0
-189 -4 0
