p cnf 5592 80
-2040 121 0
-2041 115 0
-2042 107 0
-2043 91 0
-2044 59 0
2040 2042 -127 2041 2043 2044 0
-2045 11 0
-2046 115 0
-2047 103 0
-2048 87 0
-2049 55 0
2045 2047 -127 2046 2048 2049 0
-2050 19 0
-2051 107 0
-2052 103 0
-2053 79 0
-2054 47 0
2052 2050 -127 2053 2051 2054 0
-2055 93 0
-2056 91 0
-2057 87 0
-2058 79 0
-2059 31 0
2055 2057 -127 2056 2058 2059 0
-2060 61 0
-2061 59 0
-2062 55 0
-2063 47 0
-2064 31 0
2060 2061 -127 2062 2063 2064 0
-3741 134 0
138 -3742 0
245 -3742 0
-3743 146 0
-3744 162 0
-3745 194 0
3744 3742 -254 3743 3741 3745 0
-3756 237 0
-3757 234 0
-3758 230 0
-3759 206 0
-3760 174 0
3758 3757 -254 3756 3759 3760 0
-12 -245 0
-237 -20 0
-59 -194 -261 0
-61 -196 0
-93 -164 0
-121 -136 0
127 0
20 -19 0
-11 12 0
254 0
196 -194 0
164 -162 0
136 -134 0
261 0
-115 -138 0
-107 -146 0
-91 -162 0
-234 -19 0
-115 -134 0
-103 -146 0
-87 -162 0
-55 -194 0
-230 -19 0
-107 -134 0
-103 -138 0
-79 -162 0
-47 -194 0
-91 -134 0
-87 -138 0
-79 -146 0
-31 -194 0
-206 -19 0
-59 -134 0
-55 -138 0
-47 -146 0
-31 -162 0
-174 -19 0
