p cnf 5592 944
128 0
256 0
384 0
-553 7 0
-553 25 0
-554 11 0
-554 21 0
-555 19 0
-555 13 0
554 553 -31 555 0
-583 13 0
-655 3 0
-656 35 0
-657 33 0
-43 656 655 657 0
-703 7 0
-704 11 0
-705 35 0
-705 13 0
704 703 705 -47 0
-757 3 0
-758 17 0
-759 33 0
-51 757 758 759 0
-781 5 0
-782 17 0
-783 33 0
-53 781 782 783 0
-805 7 0
-805 49 0
-806 19 0
-806 37 0
-807 35 0
-807 21 0
-55 805 806 807 0
-827 3 0
-828 53 0
-829 50 0
-830 19 0
-831 35 0
-56 829 827 828 830 831 0
-832 5 0
-833 51 0
-834 7 0
-835 36 0
-836 20 0
834 -56 832 833 836 835 0
11 -871 0
-872 19 0
-873 35 0
-873 25 0
871 872 -59 873 0
-903 17 0
-904 43 0
-905 19 0
-906 36 0
12 -907 0
907 905 903 -60 906 904 0
-913 13 0
-914 21 0
-915 25 0
-61 913 915 914 0
-955 3 0
-956 5 0
-957 55 0
-958 17 0
-959 33 0
-63 957 956 955 958 959 0
-1123 7 0
11 -1124 0
-1125 67 0
-1125 13 0
1124 -79 1123 1125 0
-1177 3 0
-1178 17 0
-1179 65 0
-83 1177 1178 1179 0
-1225 7 0
-1225 81 0
-1226 19 0
-1226 69 0
-1227 67 0
-1227 21 0
-87 1225 1227 1226 0
-1252 5 0
-1253 83 0
-1254 7 0
-1255 68 0
-1256 20 0
1254 -88 1252 1253 1256 1255 0
-1291 11 0
-1292 19 0
-1293 25 0
-91 1291 1292 1293 0
-1447 3 0
-1448 33 0
-1449 65 0
-99 1447 1448 1449 0
-1495 97 0
-1496 35 0
-1497 67 0
-103 1496 1495 1497 0
-1537 97 0
-1538 33 0
-1539 65 0
-105 1537 1538 1539 0
-1583 3 0
-1584 105 0
-1585 98 0
-1586 35 0
-1587 67 0
-108 1586 1583 1585 1584 1587 0
-1645 3 0
-1646 5 0
-1647 103 0
-1648 33 0
-1649 65 0
-111 1647 1646 1645 1648 1649 0
-1729 97 0
-1730 35 0
-1731 67 0
-115 1730 1729 1731 0
-1756 17 0
-1757 99 0
-1758 19 0
-1759 68 0
-1760 36 0
-116 1760 1756 1757 1758 1759 0
21 -1774 0
-1774 97 0
-1775 69 0
-1776 37 0
1775 1776 1774 -117 0
-1807 97 0
-1813 3 0
-1814 5 0
-1815 17 0
-1816 33 0
-1817 65 0
-119 1813 1814 1815 1816 1817 0
7 -2035 0
-2035 121 0
-2036 11 0
-2036 117 0
-2037 19 0
-2037 109 0
-2038 35 0
-2038 93 0
-2039 67 0
-2039 61 0
2036 2035 -127 2037 2039 2038 0
-2040 7 0
-2040 121 0
-2041 115 0
-2042 107 0
-2043 37 0
-2043 91 0
-2044 69 0
-2044 59 0
2042 2044 -127 2043 2040 2041 0
11 -2045 0
117 -2045 0
-2046 13 0
-2046 115 0
-2047 25 0
-2047 103 0
41 -2048 0
-2048 87 0
-2049 73 0
-2049 55 0
2045 2047 -127 2049 2048 2046 0
-2050 109 0
-2051 107 0
-2052 103 0
-2053 49 0
-2053 79 0
-2054 81 0
-2054 47 0
2051 2052 -127 2050 2053 2054 0
-2055 35 0
-2055 93 0
-2056 37 0
-2056 91 0
-2057 87 0
-2058 49 0
-2058 79 0
97 -2059 0
31 -2059 0
2059 2056 -127 2058 2055 2057 0
-2060 67 0
-2060 61 0
69 -2061 0
-2061 59 0
-2062 55 0
-2063 81 0
-2063 47 0
-2064 97 0
31 -2064 0
2061 2064 -127 2060 2062 2063 0
-2093 120 0
-2094 119 0
118 -2095 0
-2096 13 0
-2096 116 0
-2097 25 0
-2097 104 0
-2098 88 0
-2099 56 0
2096 2095 2097 2098 2099 -128 2093 2094 0
-2100 17 0
-2101 111 0
-2102 19 0
-2103 108 0
-2104 104 0
80 -2105 0
-2106 48 0
2101 2102 2103 2104 2105 2106 -128 2100 0
-2114 65 0
-2115 63 0
-2116 67 0
-2117 60 0
-2118 56 0
-2119 81 0
-2119 48 0
-2120 32 0
2116 2115 2117 2118 2119 2120 -128 2114 0
-2277 134 0
-2277 153 0
-2278 138 0
-2278 149 0
-2279 146 0
-2279 141 0
-158 2277 2279 2278 0
134 -2427 0
169 -2427 0
-2428 138 0
-2428 165 0
-2429 162 0
-2429 141 0
2427 -174 2428 2429 0
-2476 161 0
-2477 162 0
-2478 163 0
-2479 165 0
-2480 169 0
2477 2479 2476 -176 2478 2480 0
-2529 134 0
-2529 177 0
-2530 146 0
162 -2531 0
-2531 149 0
2531 2529 -182 2530 0
-2561 146 0
-2595 138 0
-2596 146 0
-2596 169 0
-2597 162 0
-2597 153 0
-186 2596 2595 2597 0
-2649 141 0
-2649 177 0
-2650 149 0
-2650 169 0
-2651 165 0
-189 2651 2650 2649 0
-2661 130 0
-2662 133 0
-2663 182 0
-2664 145 0
-2665 161 0
-190 2663 2662 2661 2664 2665 0
-2835 133 0
-2836 197 0
-2837 193 0
-205 2836 2835 2837 0
-2847 134 0
201 -2847 0
-2848 138 0
-2848 197 0
-2849 194 0
-2849 141 0
-206 2848 2847 2849 0
-2949 134 0
-2950 146 0
-2951 194 0
-2951 149 0
2949 -214 2950 2951 0
-2989 134 0
-2991 196 0
-2992 197 0
-3001 148 0
-3002 136 0
-3015 138 0
-3015 209 0
-3016 146 0
-3016 201 0
-3017 194 0
-3017 153 0
-218 3017 3015 3016 0
-3069 141 0
-3070 149 0
-3070 201 0
-3071 197 0
-221 3069 3071 3070 0
-3219 134 0
-3219 225 0
-3220 162 0
-3221 194 0
-230 3219 3221 3220 0
-3261 196 0
-3285 138 0
-3285 225 0
-3286 162 0
-3286 201 0
-3287 194 0
-234 3286 3287 3285 0
-3309 130 0
-3310 234 0
-3311 228 0
-3312 161 0
-3313 193 0
-236 3311 3309 3310 3312 3313 0
-3339 141 0
-3339 225 0
-3340 165 0
-3340 201 0
-3341 197 0
-3341 169 0
-237 3340 3339 3341 0
-3389 205 0
-3401 161 0
-3402 163 0
-3403 165 0
-3404 169 0
-3405 143 0
3403 -239 3401 3405 3402 3404 0
-3453 146 0
-3453 225 0
-3454 162 0
-3455 194 0
-242 3454 3455 3453 0
-3507 149 0
-3508 165 0
-3509 197 0
-245 3508 3507 3509 0
-3609 153 0
-3609 225 0
-3610 169 0
-3610 209 0
-3611 201 0
-3611 177 0
3610 3609 3611 -249 0
-3619 169 0
-3621 130 0
-3622 242 0
-3623 145 0
-3624 161 0
-3625 193 0
-250 3622 3621 3623 3624 3625 0
134 -3741 0
249 -3741 0
-3742 138 0
-3742 245 0
-3743 146 0
-3743 237 0
-3744 162 0
-3744 221 0
-3745 194 0
-3745 189 0
3741 3745 -254 3744 3742 3743 0
-3746 134 0
-3746 249 0
-3747 141 0
-3747 242 0
-3748 149 0
-3748 234 0
-3749 165 0
-3749 218 0
-3750 197 0
-3750 186 0
3746 3747 -254 3749 3750 3748 0
-3751 138 0
-3751 245 0
-3752 141 0
-3752 242 0
-3753 230 0
-3754 169 0
-3754 214 0
201 -3755 0
-3755 182 0
3755 3754 -254 3751 3753 3752 0
-3756 237 0
-3757 234 0
-3758 230 0
-3759 177 0
-3759 206 0
-3760 209 0
-3760 174 0
3759 3756 -254 3760 3757 3758 0
-3761 221 0
-3762 218 0
-3763 214 0
-3764 206 0
-3765 225 0
-3765 158 0
3761 3764 -254 3765 3762 3763 0
-3766 194 0
-3766 189 0
-3767 197 0
-3767 186 0
-3768 201 0
-3768 182 0
209 -3769 0
-3769 174 0
-3770 225 0
-3770 158 0
3768 3770 -254 3767 3766 3769 0
-3808 255 0
-3809 132 0
-3810 134 0
-3811 247 0
239 -3812 0
-3813 162 0
-3814 194 0
3810 3809 3811 3812 3813 3814 -256 3808 0
-3823 134 0
-3824 250 0
-3825 244 0
-3832 244 0
-3835 184 0
-3836 145 0
-3837 146 0
-3837 239 0
-3838 238 0
-3839 149 0
-3839 236 0
-3840 232 0
-3841 177 0
-3841 208 0
209 -3842 0
176 -3842 0
3837 3838 3839 3840 3841 3842 -256 3836 0
-3850 193 0
-3851 194 0
-3852 190 0
-3853 197 0
-3853 188 0
-3854 184 0
176 -3855 0
-3856 225 0
3851 3852 3853 3854 3855 3856 -256 3850 0
-3989 260 0
-3990 266 0
-3991 267 0
3991 3990 -284 3989 0
-4139 260 0
-4139 297 0
-4140 266 0
-4140 291 0
-4141 290 0
-4141 267 0
-300 4140 4141 4139 0
-4193 301 0
-4197 259 0
-4198 260 0
-4199 298 0
-4200 294 0
-4201 291 0
4201 4198 4197 -304 4200 4199 0
-4241 260 0
-4242 291 0
-4243 290 0
-308 4241 4243 4242 0
-4331 266 0
-4332 297 0
-4333 290 0
-314 4332 4331 4333 0
-4355 258 0
-4356 259 0
-4357 308 0
-4358 300 0
-4359 289 0
-316 4358 4356 4355 4357 4359 0
-4487 258 0
-4488 259 0
-4489 321 0
-324 4487 4488 4489 0
-4535 258 0
-4536 322 0
-4537 321 0
-330 4536 4535 4537 0
-4559 260 0
-4559 329 0
-4560 266 0
-4560 323 0
-4561 322 0
-4561 267 0
-332 4561 4559 4560 0
-4570 260 0
-4661 260 0
-4662 274 0
-4662 323 0
-4663 322 0
-340 4661 4662 4663 0
-4751 266 0
-4752 329 0
-4753 322 0
-346 4751 4753 4752 0
-4763 267 0
-4773 329 0
-4907 258 0
-4908 289 0
-4909 321 0
-354 4907 4908 4909 0
-4919 259 0
-4920 289 0
-4921 321 0
-355 4919 4920 4921 0
-4931 260 0
-4931 353 0
-4932 290 0
-4932 323 0
-4933 322 0
-4933 291 0
-356 4931 4932 4933 0
-4984 258 0
-4985 357 0
-4986 355 0
-4987 290 0
-4988 295 0
-360 4985 4984 4986 4987 4988 0
-4989 259 0
-4990 260 0
-4991 354 0
-4992 326 0
-4993 323 0
-4993 294 0
-360 4990 4989 4991 4992 4993 0
-4999 289 0
-5000 327 0
-5001 326 0
-5002 324 0
-5003 353 0
-5003 264 0
-360 5003 4999 5001 5002 5000 0
-5009 353 0
-5010 289 0
-5011 321 0
-361 5009 5010 5011 0
-5021 266 0
-5021 353 0
-5022 290 0
-5022 329 0
-5023 322 0
-5023 297 0
-362 5021 5023 5022 0
-5033 267 0
-5033 353 0
-5034 329 0
-5035 323 0
-5035 297 0
-363 5033 5035 5034 0
-5118 363 0
-5126 301 0
-5189 274 0
-5189 353 0
-5190 290 0
-5190 337 0
-5191 322 0
5189 -370 5190 5191 0
-5202 291 0
-5213 258 0
-5214 259 0
-5215 356 0
-5216 289 0
-5217 321 0
-372 5215 5214 5213 5216 5217 0
-5285 259 0
-5286 371 0
-5287 359 0
-5288 289 0
-5289 321 0
-375 5287 5285 5286 5288 5289 0
-5294 323 0
-5345 353 0
-5346 297 0
-5347 329 0
5345 -377 5347 5346 0
-5372 362 0
-5373 361 0
-5374 354 0
-5375 330 0
-5376 298 0
-378 5373 5372 5374 5375 5376 0
-5386 353 0
-5396 323 0
-5417 260 0
-5417 377 0
-5418 266 0
-5418 371 0
274 -5419 0
-5419 363 0
-5420 290 0
347 -5420 0
-5421 322 0
-5421 315 0
5419 5418 -380 5421 5420 5417 0
-5422 260 0
-5422 377 0
-5423 267 0
-5423 370 0
-5424 362 0
-5425 291 0
-5425 346 0
-5426 323 0
-5426 314 0
5424 5423 -380 5425 5422 5426 0
-5427 266 0
-5427 371 0
-5428 267 0
-5428 370 0
281 -5429 0
-5429 356 0
-5430 297 0
-5430 340 0
-5431 329 0
-5431 308 0
5429 5428 -380 5427 5431 5430 0
-5432 363 0
-5433 362 0
-5434 356 0
-5435 332 0
-5436 337 0
-5436 300 0
5434 5433 -380 5435 5436 5432 0
-5437 290 0
-5437 347 0
-5438 346 0
-5439 297 0
-5439 340 0
-5440 305 0
-5440 332 0
353 -5441 0
-5441 284 0
5438 5441 -380 5440 5439 5437 0
-5442 315 0
-5443 323 0
-5443 314 0
-5444 329 0
-5444 308 0
-5445 337 0
-5445 300 0
-5446 353 0
284 -5446 0
5446 5445 -380 5444 5442 5443 0
-5544 383 0
-5545 260 0
-5546 379 0
-5547 375 0
-5548 367 0
-5549 290 0
-5550 322 0
-5550 319 0
5545 5546 5547 5548 5549 5550 -384 5544 0
-5551 382 0
-5552 260 0
-5553 378 0
-5554 374 0
-5555 366 0
-5556 291 0
-5557 323 0
5552 5553 5554 5555 5556 5557 -384 5551 0
-5566 375 0
-5567 267 0
-5568 269 0
-5568 372 0
-5569 360 0
-5571 329 0
-5586 321 0
-5587 322 0
-5587 319 0
-5588 323 0
-5589 316 0
-5590 329 0
304 -5591 0
353 -5592 0
-5592 288 0
5588 5587 5589 5590 5591 5592 -384 5586 0
-264 -249 0
-247 -266 0
-274 -239 0
-281 -232 0
-225 -288 0
-295 -218 0
-297 -216 0
-305 -208 0
-314 -199 0
-319 -194 0
-327 -186 0
-329 -184 0
-337 -176 0
-167 -346 0
-153 -360 0
-151 -362 0
-367 -146 0
-143 -370 0
-377 -136 0
-379 -134 0
-267 -245 -2 0
-315 -197 -2 0
-189 -323 -2 0
-165 -347 -2 0
-141 -371 -2 0
-8 -249 0
-225 -281 -8 0
-305 -8 -201 0
-337 -8 -169 0
-377 -8 0
-294 -209 -11 0
-11 -326 -177 0
-146 -11 -357 0
-374 -11 0
-149 -12 -353 0
-13 -244 0
-13 -305 -196 0
-13 -322 -179 0
-13 -370 -131 0
-238 -19 0
-201 -294 -19 0
-298 -197 -19 0
-301 -194 -19 0
-326 -169 -19 0
-138 -19 -357 0
-366 -19 0
-237 -20 0
-269 -225 -20 0
-297 -197 -20 0
-329 -165 -20 0
-141 -353 -20 0
-227 -266 -21 0
-297 -21 -196 0
-225 -267 -22 0
-291 -201 -22 0
-22 -323 -169 0
-363 -22 0
-232 -25 0
-225 -25 -264 0
-25 -290 -199 0
-25 -167 -322 0
-163 -25 -326 0
-25 -327 -162 0
-25 -136 -353 0
-360 -25 0
-32 -353 0
-153 -326 -35 0
-221 -36 0
-141 -337 -36 0
-37 -266 -211 0
-281 -37 -196 0
-329 -37 -148 0
-267 -38 -209 0
-38 -347 0
-41 -216 0
-264 -41 -209 0
-274 -41 -199 0
-41 -327 -146 0
-337 -41 -136 0
-48 -209 0
-337 -48 0
-208 -49 0
-264 -201 -49 0
-266 -199 -49 0
-327 -49 -138 0
-267 -197 -50 0
-141 -323 -50 0
-56 -201 0
-329 -56 0
-194 -59 -261 0
-326 -59 0
-197 -60 0
-61 -196 0
-63 -194 0
-189 -68 0
-297 -149 -68 0
-188 -69 0
-266 -179 -69 0
-297 -148 -69 0
-267 -177 -70 0
-315 -70 0
-305 -73 -136 0
-177 -80 0
-81 -176 0
-167 -266 -81 0
-295 -138 -81 0
-297 -81 -136 0
-291 -141 -82 0
-298 -87 0
-88 -169 0
-297 -88 0
-91 -162 -261 0
-91 -294 0
-93 -164 0
-151 -266 -97 0
-288 -97 0
-149 -267 -98 0
-153 -104 0
-107 -146 -261 0
-109 -148 0
-116 -141 0
-267 -118 0
-121 -136 0
-132 -121 -261 0
-264 -121 0
-3 0
-5 0
-17 0
-33 0
-65 0
2 0
127 0
-255 0
-291 -221 0
-149 -363 0
-383 0
-260 -245 0
-291 -214 0
-308 -197 0
-323 -182 0
-340 -165 0
-356 -149 0
-359 -146 0
-371 -134 0
118 -117 0
117 -118 0
-115 116 0
-116 115 0
104 -103 0
-104 103 0
98 -97 0
-98 97 0
-87 88 0
-88 87 0
82 -81 0
70 -69 0
68 -67 0
-68 67 0
-55 56 0
-56 55 0
50 -49 0
-50 49 0
-37 38 0
36 -35 0
-36 35 0
22 -21 0
-22 21 0
20 -19 0
-20 19 0
-7 8 0
-8 7 0
-130 0
-133 0
-145 0
-161 0
-193 0
131 0
254 0
-266 -117 0
-109 -274 0
-93 -290 0
-314 -69 0
-61 -322 0
-346 -37 0
-362 -21 0
-382 0
-120 0
-260 -117 0
-103 -274 0
-87 -290 0
-308 -69 0
-55 -322 0
-340 -37 0
-356 -21 0
-370 -7 0
-245 247 0
244 -242 0
-244 242 0
-230 232 0
-232 230 0
227 -225 0
216 -214 0
211 -209 0
199 -197 0
196 -194 0
-196 194 0
184 -182 0
-184 182 0
179 -177 0
-165 167 0
164 -162 0
-164 162 0
-149 151 0
148 -146 0
136 -134 0
-136 134 0
-258 0
-259 0
-289 0
-321 0
261 0
380 0
-115 -138 0
-186 -67 0
-218 -35 0
-228 -25 0
-234 -19 0
-242 -11 0
-115 -134 0
-103 -146 0
-87 -162 0
-67 -182 0
-55 -194 0
-214 -35 0
-230 -19 0
-242 -7 0
-107 -134 0
-103 -138 0
-79 -162 0
-174 -67 0
-47 -194 0
-206 -35 0
-228 -13 0
-230 -11 0
-234 -7 0
-356 360 0
-360 356 0
357 -353 0
-323 327 0
-327 323 0
-322 326 0
-326 322 0
-291 295 0
-290 294 0
-294 290 0
-260 264 0
