p cnf 5592 792
128 0
256 0
384 0
-529 5 0
-530 9 0
-531 17 0
-29 529 530 531 0
-655 3 0
-656 9 0
-657 33 0
-43 655 656 657 0
-703 7 0
-703 41 0
11 -704 0
-704 37 0
-705 35 0
-705 13 0
704 -47 705 703 0
-913 49 0
-914 21 0
-915 25 0
913 915 -61 914 0
-950 33 0
-951 29 0
37 -952 0
-952 26 0
-953 41 0
-953 22 0
-954 14 0
952 953 950 951 -62 954 0
-1039 3 0
-1040 5 0
-1041 65 0
-71 1039 1040 1041 0
-1123 7 0
-1123 73 0
-1124 69 0
-1125 67 0
-1125 13 0
-79 1125 1124 1123 0
-1155 9 0
-1156 71 0
-1157 70 0
-1158 13 0
-1159 8 0
-80 1159 1155 1156 1157 1158 0
-1225 7 0
-1226 69 0
-1227 67 0
-1227 21 0
-87 1227 1226 1225 0
-1333 13 0
-1333 81 0
-1334 21 0
-1334 73 0
-1335 69 0
-1335 25 0
-93 1334 1335 1333 0
-1363 25 0
-1363 70 0
-1367 21 0
-1368 70 0
-1369 14 0
-1495 7 0
-1496 69 0
-1497 37 0
-103 1497 1496 1495 0
-1537 9 0
-1538 33 0
-1539 65 0
-105 1537 1538 1539 0
-1583 3 0
-1584 105 0
11 -1585 0
-1586 35 0
-1587 67 0
1585 -108 1583 1584 1586 1587 0
-1598 65 0
-1599 43 0
-1600 67 0
-1601 36 0
-1602 12 0
1602 -108 1598 1599 1601 1600 0
-1603 13 0
-1604 37 0
-1605 69 0
-109 1604 1603 1605 0
-1645 3 0
-1646 5 0
-1647 9 0
-1648 33 0
-1649 65 0
-111 1645 1646 1647 1648 1649 0
-1705 17 0
-1706 33 0
-1707 65 0
-113 1705 1706 1707 0
-1895 9 0
-1896 113 0
-1897 25 0
41 -1898 0
-1898 82 0
-1899 73 0
50 -1899 0
1898 1899 1895 1896 -122 1897 0
7 -2035 0
-2035 121 0
11 -2036 0
-2036 117 0
-2037 109 0
-2038 35 0
93 -2038 0
67 -2039 0
-2039 61 0
2035 2036 -127 2039 2038 2037 0
-2040 7 0
-2040 121 0
-2041 13 0
115 -2041 0
-2042 21 0
107 -2042 0
-2043 37 0
-2044 69 0
2043 2042 -127 2044 2040 2041 0
-2045 117 0
-2046 13 0
-2047 25 0
-2047 103 0
-2048 41 0
-2048 87 0
73 -2049 0
-2049 55 0
2048 2046 -127 2049 2047 2045 0
-2050 109 0
-2051 21 0
107 -2051 0
-2052 25 0
-2052 103 0
-2053 49 0
-2053 79 0
-2054 81 0
-2054 47 0
2053 2051 -127 2050 2054 2052 0
-2055 35 0
-2055 93 0
-2056 37 0
-2057 41 0
-2057 87 0
-2058 79 0
-2059 31 0
2056 2058 -127 2059 2055 2057 0
67 -2060 0
61 -2060 0
-2061 59 0
-2062 73 0
-2062 55 0
-2063 47 0
31 -2064 0
2060 2061 -127 2064 2063 2062 0
67 -2085 0
-2100 17 0
-2101 111 0
-2102 110 0
-2103 21 0
108 -2103 0
-2104 104 0
-2105 80 0
-2106 48 0
2102 2103 2104 2105 2106 -128 2100 2101 0
-2193 130 0
-2194 133 0
-2195 134 0
-150 2195 2194 2193 0
-2277 134 0
138 -2278 0
149 -2278 0
-2279 146 0
-2279 141 0
2278 2279 -158 2277 0
-2288 134 0
-2343 130 0
-2344 133 0
-2345 161 0
-166 2343 2344 2345 0
-2517 133 0
-2518 165 0
-2519 161 0
-181 2518 2517 2519 0
-2529 134 0
-2530 146 0
-2530 165 0
-2531 149 0
-182 2531 2529 2530 0
-2563 182 0
-2564 181 0
-2565 135 0
-2566 166 0
-2567 150 0
-184 2564 2563 2565 2566 2567 0
-2595 138 0
-2595 177 0
-2596 146 0
-2596 169 0
-2597 162 0
-2597 153 0
-186 2595 2597 2596 0
-2763 130 0
-2764 133 0
-2765 193 0
-198 2763 2764 2765 0
-2799 130 0
-2800 194 0
-2801 193 0
-202 2800 2799 2801 0
-2901 130 0
-2902 194 0
-2903 193 0
-210 2902 2901 2903 0
-2949 134 0
-2950 146 0
-2950 197 0
-2951 194 0
-2951 149 0
-214 2949 2951 2950 0
-2988 133 0
-2989 134 0
-2990 135 0
-2991 196 0
-2992 197 0
-216 2992 2988 2991 2990 2989 0
-3001 197 0
-3024 194 0
153 -3024 0
-3025 146 0
-3026 209 0
-3026 138 0
3026 -218 3024 3025 0
-3049 218 0
-3050 132 0
-3051 210 0
-3052 202 0
-3053 195 0
-220 3053 3050 3051 3052 3049 0
-3263 161 0
-3264 162 0
-3265 198 0
-3266 196 0
-3267 136 0
-232 3264 3263 3265 3266 3267 0
-3381 237 0
-3382 133 0
-3383 231 0
-3384 161 0
-3385 193 0
-239 3383 3382 3381 3384 3385 0
-3519 130 0
-3520 133 0
-3521 230 0
-3522 161 0
-3523 193 0
-246 3521 3520 3519 3522 3523 0
-3549 245 0
-3550 133 0
-3551 231 0
-3552 161 0
-3553 193 0
-247 3551 3550 3549 3552 3553 0
-3651 249 0
-3652 243 0
-3653 235 0
-3654 161 0
-3655 193 0
-251 3653 3652 3651 3654 3655 0
-3741 134 0
-3741 249 0
-3742 138 0
-3742 245 0
-3743 146 0
-3744 162 0
-3745 194 0
3742 3743 -254 3744 3741 3745 0
-3746 249 0
-3747 242 0
-3748 234 0
165 -3749 0
-3749 218 0
-3750 197 0
-3750 186 0
3748 3749 -254 3750 3747 3746 0
-3751 245 0
-3752 242 0
-3753 230 0
-3754 214 0
-3755 182 0
3751 3752 -254 3754 3755 3753 0
-3756 146 0
-3757 234 0
-3758 230 0
-3759 177 0
-3760 209 0
3757 3760 -254 3759 3758 3756 0
-3761 221 0
-3762 218 0
-3763 214 0
-3764 206 0
-3765 225 0
158 -3765 0
3761 3764 -254 3765 3763 3762 0
-3766 189 0
-3767 186 0
-3768 182 0
-3769 174 0
225 -3770 0
158 -3770 0
3770 3768 -254 3767 3769 3766 0
-3808 255 0
-3809 132 0
-3810 134 0
-3811 138 0
-3811 247 0
-3812 239 0
-3813 162 0
-3814 194 0
3810 3809 3811 3812 3813 3814 -256 3808 0
-3822 133 0
-3823 251 0
-3824 135 0
-3825 244 0
-3826 236 0
-3827 165 0
-3827 220 0
-3828 197 0
-3828 188 0
3824 3823 3825 3826 3827 3828 -256 3822 0
-3829 248 0
-3830 138 0
-3831 246 0
-3832 141 0
-3832 244 0
-3833 232 0
-3834 169 0
-3834 216 0
-3835 201 0
-3835 184 0
3831 3830 3832 3833 3834 3835 -256 3829 0
-3989 260 0
281 -3989 0
-3990 266 0
275 -3990 0
-3991 274 0
-3991 267 0
3991 -284 3990 3989 0
-4115 258 0
-4116 290 0
-4117 289 0
-298 4116 4115 4117 0
-4139 260 0
-4139 297 0
-4140 266 0
-4140 291 0
-4141 290 0
-4141 267 0
-300 4141 4139 4140 0
-4192 258 0
-4193 260 0
-4194 262 0
-4195 295 0
-4196 290 0
-304 4196 4192 4195 4193 4194 0
-4217 258 0
-4218 290 0
-4219 289 0
-306 4218 4217 4219 0
-4241 260 0
-4241 305 0
-4242 274 0
-4243 275 0
-308 4243 4241 4242 0
-4299 259 0
-4300 260 0
-4301 306 0
-4302 294 0
-4303 291 0
-4303 278 0
-312 4302 4299 4300 4303 4301 0
-4331 266 0
305 -4331 0
-4332 274 0
-4333 290 0
4333 -314 4331 4332 0
-4535 258 0
-4536 322 0
-4537 321 0
-330 4536 4535 4537 0
-4559 260 0
-4559 329 0
-4560 266 0
-4560 323 0
-4561 322 0
-4561 267 0
-332 4559 4561 4560 0
-4637 258 0
-4638 322 0
-4639 321 0
-338 4638 4637 4639 0
-4661 260 0
-4661 337 0
-4662 274 0
-4663 275 0
-340 4663 4661 4662 0
-4719 259 0
-4720 260 0
-4721 338 0
-4722 326 0
-4723 323 0
-4723 278 0
-344 4720 4719 4723 4722 4721 0
-4763 267 0
-4764 275 0
-4765 323 0
-347 4763 4765 4764 0
-4907 258 0
-4908 289 0
-4909 321 0
-354 4907 4908 4909 0
-4919 259 0
-4920 289 0
-4921 321 0
-355 4919 4920 4921 0
-4984 258 0
-4985 260 0
-4986 355 0
-4987 290 0
-4987 327 0
-4988 322 0
-360 4985 4984 4986 4987 4988 0
-5045 258 0
-5046 259 0
-5047 356 0
-5048 289 0
-5049 321 0
-364 5047 5046 5045 5048 5049 0
-5050 258 0
-5051 260 0
-5052 355 0
-5053 290 0
-5054 322 0
-364 5053 5050 5052 5054 5051 0
-5097 362 0
-5098 262 0
-5099 354 0
-5100 330 0
-5101 298 0
-366 5101 5097 5099 5098 5100 0
-5213 258 0
-5214 259 0
-5215 356 0
-5216 289 0
-5217 321 0
-372 5215 5214 5213 5216 5217 0
-5218 258 0
-5219 260 0
-5220 355 0
-5221 290 0
-5222 322 0
-372 5221 5218 5220 5222 5219 0
-5265 370 0
-5266 262 0
-5267 354 0
-5268 338 0
-5269 306 0
-374 5265 5268 5267 5266 5269 0
-5387 259 0
-5388 371 0
-5389 363 0
-5390 289 0
-5391 321 0
-379 5389 5387 5388 5390 5391 0
-5417 260 0
-5417 377 0
-5418 266 0
-5418 371 0
-5419 274 0
-5419 363 0
-5420 290 0
-5420 347 0
-5421 322 0
5419 5418 -380 5421 5420 5417 0
-5422 260 0
-5422 377 0
-5423 267 0
-5423 370 0
-5424 275 0
-5424 362 0
-5425 291 0
-5425 346 0
-5426 323 0
314 -5426 0
5424 5423 -380 5425 5426 5422 0
-5427 266 0
-5427 371 0
-5428 370 0
-5429 356 0
-5430 340 0
-5431 308 0
5431 5430 -380 5427 5429 5428 0
-5432 274 0
-5432 363 0
-5433 275 0
-5433 362 0
-5434 356 0
-5435 305 0
-5435 332 0
-5436 337 0
-5436 300 0
5436 5433 -380 5435 5432 5434 0
-5437 347 0
-5438 346 0
-5439 340 0
-5440 332 0
-5441 353 0
284 -5441 0
5439 5438 -380 5441 5437 5440 0
-5442 322 0
-5442 315 0
-5443 323 0
-5443 314 0
-5444 329 0
-5444 308 0
-5445 337 0
-5445 300 0
-5446 353 0
284 -5446 0
5445 5444 -380 5446 5443 5442 0
-5544 383 0
-5545 260 0
-5545 381 0
-5546 262 0
-5546 379 0
-5547 266 0
-5547 375 0
-5548 274 0
-5548 367 0
-5549 290 0
-5550 322 0
5545 5546 5547 5548 5549 5550 -384 5544 0
-5565 376 0
-5566 266 0
-5566 375 0
-5567 267 0
374 -5567 0
-5568 372 0
-5569 360 0
297 -5570 0
-5570 344 0
-5571 312 0
5566 5567 5568 5569 5570 5571 -384 5565 0
-5572 368 0
-5573 274 0
-5573 367 0
-5574 275 0
366 -5574 0
-5575 364 0
-5576 360 0
305 -5577 0
336 -5577 0
337 -5578 0
-5578 304 0
5573 5574 5575 5576 5577 5578 -384 5572 0
-249 -264 0
-247 -266 0
-239 -274 0
-232 -281 0
-295 -218 0
-216 -297 0
-199 -314 0
-186 -327 0
-346 -167 0
-367 -146 0
-375 -138 0
-136 -377 0
-381 -132 0
-245 -267 -2 0
-237 -275 -2 0
-141 -371 -2 0
-249 -8 0
-281 -8 -225 0
-209 -297 -8 0
-177 -329 -8 0
-169 -337 -8 0
-377 -8 0
-278 -11 -225 0
-146 -357 -11 0
-12 -245 0
-244 -13 0
-13 -274 -227 0
-243 -14 0
-14 -275 -225 0
-195 -305 -14 0
-371 -14 0
-236 -21 0
-21 -266 -227 0
-235 -22 0
-22 -267 -225 0
-195 -297 -22 0
-363 -22 0
-232 -25 0
-262 -25 -227 0
-25 -264 -225 0
-25 -167 -322 0
-136 -353 -25 0
-132 -357 -25 0
-231 -26 0
-197 -291 -26 0
-26 -323 -165 0
-32 -225 0
-353 -32 0
-221 -36 0
-197 -281 -36 0
-141 -337 -36 0
-347 -38 0
-41 -199 -274 0
-146 -41 -327 0
-344 -41 0
-42 -197 -275 0
-209 -48 0
-337 -48 0
-201 -49 -264 0
-199 -49 -266 0
-49 -336 0
-50 -197 -267 0
-329 -56 0
-59 -326 0
-196 -61 0
-323 -62 0
-189 -68 0
-281 -165 -68 0
-141 -305 -68 0
-188 -69 0
-315 -70 0
-274 -73 -167 0
-146 -295 -73 0
-312 -73 0
-74 -165 -275 0
-177 -80 0
-80 -305 0
-169 -81 -264 0
-81 -167 -266 0
-304 -81 0
-82 -267 -165 0
-169 -88 0
-88 -297 0
-164 -93 0
-291 -94 0
-104 -153 0
-104 -281 0
-146 -107 -261 0
-278 -107 0
-149 -108 0
-110 -275 0
-138 -115 -261 0
-141 -116 0
-266 -117 -131 0
-267 -118 0
-136 -121 0
-132 -121 -261 0
-262 -121 -131 0
-121 -264 0
-3 0
-5 0
-9 0
-17 0
-33 0
-65 0
2 0
127 0
-255 0
-315 -197 0
-363 -149 0
-135 -377 0
-383 0
122 -121 0
118 -117 0
116 -115 0
-109 110 0
-110 109 0
-107 108 0
107 -108 0
94 -93 0
-94 93 0
-87 88 0
-88 87 0
-82 81 0
-79 80 0
-80 79 0
-73 74 0
70 -69 0
-70 69 0
68 -67 0
62 -61 0
56 -55 0
48 -47 0
-48 47 0
42 -41 0
38 -37 0
36 -35 0
-36 35 0
-31 32 0
-25 26 0
-26 25 0
-21 22 0
-22 21 0
-13 14 0
-14 13 0
8 -7 0
-130 0
-133 0
-161 0
-193 0
131 0
254 0
-109 -274 0
-290 -93 0
-69 -314 0
-322 -61 0
-346 -37 0
-362 -21 0
-370 -13 0
-117 -260 0
-103 -274 0
-87 -290 0
-308 -69 0
-55 -322 0
-340 -37 0
-356 -21 0
-370 -7 0
-376 0
-109 -260 0
-103 -266 0
-290 -79 0
-300 -69 0
-47 -322 0
-332 -37 0
-356 -13 0
-362 -7 0
-368 0
-230 232 0
227 -225 0
-227 225 0
-197 199 0
196 -194 0
-196 194 0
167 -165 0
-162 164 0
-134 136 0
-258 0
-259 0
-289 0
-321 0
261 0
380 0
-186 -67 0
-59 -194 0
-218 -35 0
-242 -11 0
-134 -115 0
-103 -146 0
-87 -162 0
-182 -67 0
-55 -194 0
-214 -35 0
-242 -7 0
-248 0
-134 -107 0
-103 -138 0
-79 -162 0
-174 -67 0
-47 -194 0
-206 -35 0
-230 -11 0
-234 -7 0
-356 360 0
-360 356 0
357 -353 0
327 -323 0
-327 323 0
326 -322 0
-326 322 0
-291 295 0
-294 290 0
264 -260 0
-264 260 0
