p cnf 5592 69
-2035 7 0
11 -2036 0
117 -2036 0
-2037 19 0
-2038 35 0
-2039 67 0
2039 2038 -127 2035 2037 2036 0
-3746 249 0
-3747 242 0
-3748 234 0
-3749 218 0
-3750 186 0
3746 3747 -254 3748 3749 3750 0
-3751 138 0
-3752 242 0
-3753 230 0
-3754 214 0
-3755 182 0
3751 3753 -254 3752 3754 3755 0
-3756 237 0
-3757 234 0
-3758 230 0
-3759 206 0
-3760 174 0
3756 3758 -254 3757 3759 3760 0
-3761 221 0
-3762 218 0
-3763 214 0
-3764 206 0
-3765 158 0
3761 3763 -254 3762 3764 3765 0
-3766 189 0
-3767 186 0
-3768 182 0
-3769 174 0
-3770 158 0
3766 3768 -254 3767 3769 3770 0
-249 -8 0
-237 -20 0
-221 -36 0
-189 -68 0
-140 -117 0
127 0
68 -67 0
36 -35 0
20 -19 0
8 -7 0
254 0
-138 140 0
-186 -67 0
-218 -35 0
-234 -19 0
-242 -11 0
-182 -67 0
-214 -35 0
-230 -19 0
-242 -7 0
-174 -67 0
-206 -35 0
-230 -11 0
-234 -7 0
-158 -67 0
-206 -19 0
-214 -11 0
-218 -7 0
-158 -35 0
-174 -19 0
-182 -11 0
-186 -7 0
