p cnf 5592 519
128 0
256 0
-469 3 0
-470 5 0
-471 17 0
-23 469 470 471 0
-505 3 0
-506 19 0
-507 17 0
-27 506 505 507 0
-553 7 0
-554 11 0
-555 19 0
-31 553 554 555 0
-570 31 0
-571 4 0
-572 27 0
-573 23 0
-574 15 0
-32 574 571 572 573 570 0
-703 7 0
-704 11 0
-705 13 0
703 -47 705 704 0
-781 5 0
-782 17 0
-783 33 0
-53 781 782 783 0
-805 7 0
-805 49 0
-806 19 0
-806 37 0
-807 35 0
-807 21 0
-55 807 805 806 0
-847 49 0
-848 17 0
-849 33 0
-57 847 848 849 0
-871 11 0
-871 49 0
-872 19 0
-873 35 0
-59 873 871 872 0
-898 52 0
-900 11 0
-902 20 0
-913 49 0
21 -914 0
-915 37 0
914 915 913 -61 0
-960 3 0
-961 57 0
-962 53 0
-963 19 0
-964 35 0
-964 29 0
-63 963 960 962 964 961 0
-1123 7 0
-1124 11 0
-1125 67 0
-79 1123 1124 1125 0
-1225 7 0
-1226 19 0
-1226 69 0
67 -1227 0
21 -1227 0
1227 -87 1226 1225 0
-1260 68 0
-1291 11 0
-1292 19 0
-1293 67 0
1293 -91 1291 1292 0
-1311 75 0
-1312 27 0
-1447 3 0
-1448 33 0
-1449 65 0
-99 1447 1448 1449 0
-1561 11 0
-1562 35 0
-1563 67 0
1562 1563 -107 1561 0
-1603 13 0
37 -1604 0
-1605 69 0
1604 -109 1605 1603 0
-1756 17 0
-1757 99 0
-1758 19 0
-1759 49 0
-1760 36 0
-116 1760 1756 1757 1759 1758 0
-1922 19 0
-1924 57 0
-2035 7 0
-2035 121 0
-2036 11 0
19 -2037 0
-2037 109 0
35 -2038 0
-2038 93 0
67 -2039 0
-2039 61 0
2037 2038 -127 2039 2035 2036 0
-2040 7 0
-2040 121 0
-2041 13 0
-2041 115 0
-2042 21 0
-2042 107 0
-2043 37 0
-2043 91 0
-2044 69 0
-2044 59 0
2042 2044 -127 2041 2040 2043 0
11 -2045 0
117 -2045 0
-2046 13 0
-2046 115 0
-2047 103 0
-2048 87 0
-2049 55 0
2045 2046 -127 2048 2049 2047 0
-2050 19 0
-2050 109 0
21 -2051 0
107 -2051 0
25 -2052 0
-2052 103 0
-2053 49 0
-2053 79 0
-2054 47 0
2051 2053 -127 2052 2054 2050 0
-2055 35 0
-2055 93 0
-2056 37 0
-2056 91 0
-2057 41 0
-2057 87 0
-2058 49 0
-2058 79 0
-2059 97 0
-2059 31 0
2055 2059 -127 2057 2056 2058 0
-2060 67 0
-2060 61 0
-2061 69 0
-2061 59 0
-2062 55 0
-2063 47 0
97 -2064 0
-2064 31 0
2061 2063 -127 2062 2060 2064 0
-2079 3 0
-2080 4 0
-2081 7 0
-2082 11 0
-2083 19 0
-2084 35 0
-2085 67 0
2081 2080 2082 2083 2084 2085 -128 2079 0
-2110 37 0
-2114 65 0
-2115 63 0
-2116 67 0
-2117 69 0
-2118 56 0
-2119 48 0
-2120 32 0
2115 2116 2117 2118 2119 2120 -128 2114 0
-2145 130 0
-2146 133 0
-2147 137 0
-142 2145 2146 2147 0
-2277 134 0
-2277 153 0
-2278 138 0
-2279 146 0
-2279 141 0
-158 2277 2278 2279 0
-2379 130 0
-2380 137 0
-2381 138 0
-170 2381 2380 2379 0
-2415 133 0
-2416 137 0
-2417 141 0
-173 2417 2416 2415 0
-2427 134 0
-2428 138 0
-2429 162 0
2429 -174 2428 2427 0
-2451 130 0
-2452 174 0
-2453 133 0
-2454 137 0
-2455 144 0
-176 2455 2451 2453 2454 2452 0
-2529 134 0
-2530 146 0
149 -2531 0
2531 2530 -182 2529 0
-2681 174 0
-2682 173 0
-2683 170 0
-2684 166 0
-2685 142 0
-190 2684 2681 2683 2682 2685 0
-3015 138 0
-3016 146 0
-3017 194 0
-218 3017 3015 3016 0
-3069 141 0
201 -3070 0
-3071 197 0
3069 -221 3070 3071 0
-3453 146 0
225 -3453 0
162 -3454 0
209 -3454 0
-3455 194 0
3454 -242 3453 3455 0
-3741 249 0
-3742 138 0
-3743 146 0
-3743 237 0
162 -3744 0
-3744 221 0
194 -3745 0
189 -3745 0
3745 3744 -254 3742 3743 3741 0
-3746 249 0
-3747 141 0
-3747 242 0
-3748 149 0
-3748 234 0
165 -3749 0
-3749 218 0
-3750 186 0
3749 3748 -254 3747 3746 3750 0
-3751 138 0
-3752 242 0
-3753 153 0
-3753 230 0
-3754 214 0
-3755 182 0
3751 3755 -254 3754 3753 3752 0
-3756 237 0
-3757 234 0
153 -3758 0
-3758 230 0
-3759 206 0
-3760 174 0
3759 3756 -254 3758 3757 3760 0
-3761 221 0
-3762 218 0
169 -3763 0
-3763 214 0
-3764 177 0
-3764 206 0
-3765 158 0
3762 3761 -254 3763 3764 3765 0
-3766 189 0
-3767 197 0
-3767 186 0
201 -3768 0
-3768 182 0
209 -3769 0
-3769 174 0
225 -3770 0
-3770 158 0
3767 3769 -254 3768 3770 3766 0
-3850 193 0
-3851 194 0
-3852 190 0
-3853 197 0
-3854 184 0
-3855 176 0
160 -3856 0
3852 3851 3853 3854 3855 3856 -256 3850 0
-3989 260 0
-3989 281 0
-3990 266 0
-3990 275 0
-3991 274 0
-284 3990 3989 3991 0
260 -4139 0
297 -4139 0
-4140 291 0
-4141 290 0
4139 4140 -300 4141 0
-4241 260 0
-4242 274 0
-4242 291 0
-4243 290 0
-4243 275 0
-308 4241 4243 4242 0
-4331 266 0
-4332 274 0
-4332 297 0
-4333 290 0
-4333 281 0
-314 4332 4333 4331 0
-4559 260 0
-4560 266 0
-4561 322 0
-4561 267 0
-332 4561 4559 4560 0
-4661 260 0
-4662 274 0
-4663 275 0
-340 4663 4661 4662 0
-4931 260 0
-4932 290 0
-4933 291 0
4931 -356 4933 4932 0
-5201 275 0
-5202 291 0
-5203 323 0
-371 5201 5202 5203 0
-5418 266 0
-5418 371 0
-5422 260 0
-5423 370 0
-5424 275 0
-5424 362 0
-5425 291 0
-5425 346 0
-5426 323 0
-5426 314 0
5423 5422 -380 5426 5424 5425 0
-5427 266 0
-5428 370 0
-5429 356 0
-5430 340 0
329 -5431 0
-5431 308 0
5427 5429 -380 5431 5430 5428 0
-5432 274 0
-5432 363 0
-5433 275 0
-5433 362 0
281 -5434 0
356 -5434 0
-5435 332 0
-5436 300 0
5434 5436 -380 5433 5435 5432 0
-5437 290 0
-5437 347 0
-5438 291 0
-5438 346 0
-5439 297 0
-5439 340 0
-5440 332 0
-5441 284 0
5441 5439 -380 5437 5438 5440 0
-5442 315 0
-5443 314 0
-5444 308 0
-5445 300 0
-5446 284 0
5442 5446 -380 5444 5445 5443 0
-249 -264 0
-314 -199 0
-184 -329 0
-370 -143 0
-291 -221 -2 0
-323 -189 -2 0
-363 -149 -2 0
-249 -8 0
-225 -8 -281 0
-8 -297 -209 0
-15 -242 0
-225 -270 -19 0
-166 -329 -19 0
-237 -20 0
-290 -203 -21 0
-291 -22 -201 0
-323 -22 -169 0
-363 -22 0
-25 -225 -264 0
-29 -323 -162 0
-35 -270 -209 0
-221 -36 0
-274 -37 -203 0
-275 -38 -201 0
-323 -38 -153 0
-347 -38 0
-41 -209 -264 0
-48 -209 0
-49 -264 -201 0
-50 -323 -141 0
-52 -201 -261 0
-56 -201 0
-61 -196 0
-189 -68 0
-297 -149 -68 0
-177 -267 -70 0
-275 -169 -70 0
-291 -153 -70 0
-315 -70 0
-75 -182 0
-88 -169 0
-297 -88 0
-91 -162 -261 0
-97 -160 0
-97 -143 -274 0
-98 -275 -141 0
-104 -153 0
-104 -281 0
-115 -270 0
-141 -116 0
-117 -140 0
-136 -121 0
-121 -264 0
-3 0
-5 0
-17 0
-33 0
-65 0
2 0
127 0
-275 -237 0
-275 -230 0
-291 -214 0
-308 -197 0
-323 -182 0
-165 -340 0
-356 -149 0
-115 116 0
-103 104 0
-104 103 0
98 -97 0
-87 88 0
70 -69 0
68 -67 0
67 -68 0
-55 56 0
-56 55 0
-49 50 0
38 -37 0
36 -35 0
22 -21 0
20 -19 0
-20 19 0
-7 8 0
-130 0
-133 0
-137 0
-193 0
254 0
-274 -109 0
-290 -93 0
-314 -69 0
-322 -61 0
-346 -37 0
-362 -21 0
-370 -13 0
-109 -260 0
-266 -103 0
-79 -290 0
-69 -300 0
-322 -47 0
-332 -37 0
-13 -356 0
-362 -7 0
-93 -260 0
-266 -87 0
-79 -274 0
-284 -69 0
-322 -31 0
-332 -21 0
-340 -13 0
-346 -7 0
203 -201 0
201 -203 0
199 -197 0
196 -194 0
143 -141 0
140 -138 0
-134 136 0
261 0
380 0
-115 -138 0
-146 -107 0
-186 -67 0
-218 -35 0
-234 -19 0
-242 -11 0
-249 -4 0
-134 -107 0
-103 -138 0
-144 -97 0
-79 -162 0
-174 -67 0
-47 -194 0
-206 -35 0
-230 -11 0
-7 -234 0
-237 -4 0
-91 -134 0
-87 -138 0
-158 -67 0
-31 -194 0
-206 -19 0
-214 -11 0
-7 -218 0
-221 -4 0
-55 -138 0
-146 -47 0
-158 -35 0
-31 -162 0
-174 -19 0
-182 -11 0
-186 -7 0
-189 -4 0
270 -266 0
264 -260 0
