p cnf 5592 728
128 0
256 0
384 0
-421 3 0
-422 5 0
-423 7 0
-15 423 422 421 0
-590 16 0
-591 15 0
-592 14 0
-593 12 0
-594 8 0
-32 592 593 590 591 594 0
-703 7 0
11 -704 0
-704 37 0
-705 35 0
-705 13 0
-47 703 705 704 0
-805 7 0
-806 19 0
-806 37 0
-807 21 0
-55 805 807 806 0
-1054 4 0
-1055 7 0
-1056 67 0
-72 1054 1056 1055 0
-1123 7 0
11 -1124 0
-1124 69 0
-1125 67 0
-79 1123 1125 1124 0
-1135 79 0
-1136 3 0
-1137 5 0
-1138 72 0
-1139 65 0
-80 1138 1136 1137 1135 1139 0
-1160 65 0
-1161 15 0
-1162 67 0
-1163 69 0
-1163 12 0
-1164 8 0
-80 1163 1160 1161 1162 1164 0
-1177 3 0
-1178 67 0
-1179 65 0
-83 1178 1177 1179 0
-1225 7 0
-1226 19 0
-1227 67 0
-87 1226 1227 1225 0
-1237 87 0
-1238 3 0
-1239 5 0
-1240 72 0
-1241 65 0
-88 1240 1238 1239 1237 1241 0
-1291 81 0
-1292 19 0
-1293 67 0
1292 -91 1291 1293 0
-1308 91 0
-1309 4 0
-1310 83 0
-1311 75 0
-1312 27 0
-92 1312 1309 1310 1311 1308 0
-1375 3 0
-1376 5 0
-1377 87 0
-1378 79 0
-1379 65 0
-95 1378 1376 1375 1377 1379 0
-1382 85 0
-1447 3 0
-1448 33 0
-1449 65 0
-99 1447 1448 1449 0
-1471 5 0
-1472 33 0
-1473 65 0
-101 1471 1472 1473 0
-1522 5 0
-1523 99 0
-1524 7 0
-1525 68 0
-1526 36 0
-104 1524 1522 1523 1526 1525 0
-1578 107 0
-1650 3 0
-1651 7 0
-1652 101 0
-1653 35 0
-1654 67 0
-111 1651 1650 1652 1653 1654 0
-1729 19 0
-1730 35 0
-1731 67 0
-115 1730 1731 1729 0
-1818 3 0
-1819 7 0
-1820 101 0
-1821 35 0
-1822 67 0
-119 1819 1818 1820 1821 1822 0
-2035 7 0
-2036 117 0
-2039 67 0
-2040 7 0
-2040 121 0
-2041 13 0
-2041 115 0
-2042 21 0
-2042 107 0
-2043 37 0
-2043 91 0
69 -2044 0
-2044 59 0
2040 2041 -127 2044 2043 2042 0
-2045 117 0
-2046 115 0
-2047 103 0
-2048 87 0
-2049 73 0
-2049 55 0
2045 2046 -127 2049 2048 2047 0
-2050 109 0
-2051 107 0
-2052 103 0
-2053 79 0
-2054 81 0
-2054 47 0
2050 2052 -127 2054 2053 2051 0
-2055 35 0
93 -2055 0
-2056 37 0
-2056 91 0
-2057 41 0
-2057 87 0
49 -2058 0
-2058 79 0
97 -2059 0
-2059 31 0
2055 2057 -127 2059 2056 2058 0
-2060 67 0
-2061 59 0
-2062 55 0
-2063 47 0
-2064 31 0
2062 2063 -127 2064 2060 2061 0
-2093 120 0
-2094 119 0
11 -2095 0
-2095 118 0
-2096 13 0
-2096 116 0
-2097 104 0
-2098 88 0
-2099 73 0
56 -2099 0
2095 2094 2096 2097 2098 2099 -128 2093 0
-2100 112 0
-2101 111 0
-2102 19 0
-2103 108 0
-2104 104 0
-2105 80 0
-2106 81 0
2102 2101 2103 2104 2105 2106 -128 2100 0
-2107 33 0
-2108 95 0
-2109 35 0
-2109 94 0
-2110 37 0
-2110 92 0
-2111 88 0
-2112 80 0
-2113 32 0
2109 2108 2110 2111 2112 2113 -128 2107 0
-2145 130 0
-2146 133 0
-2147 137 0
-142 2145 2146 2147 0
-2193 130 0
-2194 133 0
-2195 145 0
-150 2193 2194 2195 0
-2265 133 0
-2266 137 0
-2267 145 0
-157 2265 2266 2267 0
-2277 134 0
-2277 153 0
-2278 138 0
-2278 149 0
-2279 146 0
-2279 141 0
-158 2279 2278 2277 0
-2306 130 0
-2307 157 0
-2308 134 0
-2308 155 0
-2309 138 0
-2309 151 0
-2310 146 0
-2310 143 0
-160 2310 2306 2307 2308 2309 0
-2427 134 0
-2427 169 0
-2428 138 0
-2428 165 0
-2429 162 0
-2429 141 0
-174 2429 2428 2427 0
-2538 162 0
-2538 149 0
-2539 165 0
-2539 146 0
-2540 134 0
-182 2540 2538 2539 0
-2763 130 0
-2764 133 0
-2765 134 0
-198 2765 2764 2763 0
-2799 130 0
-2800 137 0
-2801 138 0
-202 2801 2800 2799 0
-2835 133 0
-2836 137 0
-2837 141 0
-205 2837 2836 2835 0
-2847 134 0
-2848 138 0
-2848 197 0
-2849 194 0
-206 2847 2849 2848 0
-2876 130 0
-2877 205 0
-2878 134 0
-2879 138 0
-2880 194 0
-208 2877 2876 2879 2878 2880 0
-2881 206 0
-2882 205 0
-2883 202 0
-2884 198 0
-2885 142 0
-208 2882 2883 2884 2881 2885 0
-2901 130 0
-2902 145 0
-2903 146 0
-210 2903 2902 2901 0
-2937 133 0
-2938 145 0
-2939 149 0
-213 2939 2938 2937 0
-2949 209 0
-2950 197 0
-2951 194 0
-214 2949 2950 2951 0
-2973 130 0
-2974 214 0
-2975 133 0
-2976 145 0
-2977 152 0
-216 2974 2973 2975 2976 2977 0
-2983 214 0
-2984 213 0
-2985 210 0
-2986 198 0
-2987 150 0
-216 2983 2985 2984 2986 2987 0
-3003 137 0
-3004 145 0
-3005 153 0
-217 3005 3004 3003 0
-3015 138 0
-3015 209 0
-3016 146 0
-3016 201 0
-3017 194 0
-218 3016 3017 3015 0
-3069 141 0
-3070 149 0
-3070 201 0
-3071 197 0
-3071 153 0
3069 3071 -221 3070 0
-3086 130 0
-3087 134 0
-3087 217 0
-3088 138 0
-3088 213 0
-3089 146 0
-3089 205 0
-3090 157 0
-222 3089 3086 3087 3088 3090 0
-3285 138 0
-3286 201 0
-3287 194 0
-234 3286 3287 3285 0
-3339 141 0
-3340 165 0
-3340 201 0
-3341 197 0
3341 -237 3340 3339 0
-3456 146 0
-3457 194 0
-3458 209 0
-242 3458 3457 3456 0
-3507 149 0
-3508 165 0
209 -3508 0
-3509 197 0
3509 -245 3508 3507 0
-3518 149 0
-3539 214 0
-3540 213 0
-3541 210 0
-3542 198 0
-3543 150 0
-246 3539 3541 3540 3542 3543 0
134 -3741 0
-3741 249 0
-3742 138 0
-3742 245 0
-3743 146 0
-3743 237 0
162 -3744 0
221 -3744 0
194 -3745 0
189 -3745 0
3744 3743 -254 3741 3742 3745 0
-3746 134 0
-3746 249 0
-3747 141 0
-3747 242 0
-3748 149 0
-3748 234 0
-3749 218 0
197 -3750 0
186 -3750 0
3750 3749 -254 3748 3747 3746 0
-3756 146 0
-3757 234 0
-3758 230 0
-3759 206 0
-3760 209 0
3760 3757 -254 3756 3759 3758 0
-3761 162 0
-3761 221 0
-3762 218 0
-3763 214 0
-3764 206 0
-3765 158 0
3764 3761 -254 3765 3762 3763 0
-3766 194 0
-3766 189 0
-3767 197 0
-3767 186 0
-3768 201 0
-3768 182 0
-3769 209 0
-3769 174 0
-3770 158 0
3769 3767 -254 3766 3770 3768 0
-3829 248 0
-3830 138 0
-3831 246 0
-3832 141 0
-3833 232 0
-3834 216 0
-3835 184 0
3830 3831 3832 3833 3834 3835 -256 3829 0
-3843 224 0
-3844 162 0
-3844 223 0
-3845 222 0
-3846 165 0
-3846 220 0
-3847 169 0
-3847 216 0
-3848 208 0
-3849 160 0
3845 3844 3846 3847 3848 3849 -256 3843 0
-3908 260 0
-3909 263 0
-3909 266 0
-3910 267 0
-3910 262 0
-272 3910 3908 3909 0
-3929 258 0
-3930 274 0
-3931 262 0
-278 3930 3929 3931 0
-3956 260 0
-3957 263 0
-3957 274 0
275 -3958 0
-3958 262 0
3958 -280 3956 3957 0
-3989 260 0
-3990 266 0
-3990 275 0
-3991 274 0
-3991 267 0
-284 3990 3989 3991 0
-4013 262 0
-4014 266 0
-4015 274 0
-286 4015 4013 4014 0
-4037 258 0
-4038 259 0
-4039 284 0
280 -4040 0
-4041 272 0
4040 4041 4038 4037 -288 4039 0
-4139 260 0
-4140 266 0
-4141 267 0
-300 4139 4140 4141 0
-4190 296 0
-4241 260 0
-4242 274 0
-4242 291 0
-4243 290 0
-4243 275 0
-308 4241 4242 4243 0
-4299 259 0
-4300 260 0
-4301 263 0
-4302 275 0
-4303 278 0
-312 4301 4299 4303 4302 4300 0
-4331 266 0
-4332 274 0
-4333 290 0
-314 4331 4333 4332 0
-4397 258 0
-4398 314 0
-4399 310 0
-4400 302 0
-4401 286 0
4401 -318 4397 4400 4399 4398 0
-4559 260 0
-4560 266 0
-4560 323 0
-4561 322 0
-4561 267 0
-332 4559 4560 4561 0
-4661 260 0
-4662 274 0
-4663 322 0
-4663 275 0
-340 4663 4662 4661 0
-4931 260 0
-4931 353 0
-4932 290 0
-4933 291 0
-356 4931 4933 4932 0
-5189 274 0
-5190 290 0
-5190 337 0
-5191 322 0
305 -5191 0
-370 5189 5190 5191 0
-5417 260 0
-5417 377 0
-5418 266 0
-5418 371 0
-5419 274 0
-5419 363 0
-5420 290 0
347 -5420 0
-5421 322 0
-5421 315 0
5417 5418 -380 5420 5421 5419 0
-5422 260 0
-5423 267 0
-5423 370 0
-5424 275 0
-5425 291 0
346 -5425 0
-5426 323 0
-5426 314 0
5423 5425 -380 5426 5424 5422 0
-5427 266 0
-5427 371 0
370 -5428 0
281 -5429 0
-5429 356 0
-5430 340 0
-5431 308 0
5429 5431 -380 5427 5428 5430 0
-5432 274 0
-5432 363 0
-5433 275 0
-5433 362 0
281 -5434 0
356 -5434 0
305 -5435 0
-5435 332 0
-5436 337 0
-5436 300 0
5434 5433 -380 5436 5435 5432 0
-5437 347 0
-5438 291 0
-5438 346 0
-5439 340 0
-5440 332 0
-5441 284 0
5437 5441 -380 5438 5440 5439 0
-5442 322 0
-5442 315 0
-5443 323 0
-5443 314 0
329 -5444 0
-5444 308 0
-5445 337 0
-5445 300 0
353 -5446 0
-5446 284 0
5444 5445 -380 5443 5442 5446 0
-5586 320 0
-5587 322 0
-5588 323 0
318 -5588 0
325 -5589 0
-5589 316 0
-5590 312 0
337 -5591 0
-5591 304 0
-5592 288 0
5587 5588 5589 5590 5591 5592 -384 5586 0
-264 -249 0
-232 -281 0
-223 -290 0
-300 -213 0
-304 -209 0
-208 -305 0
-312 -201 0
-316 -197 0
-327 -186 0
-362 -151 0
-370 -143 0
-377 -136 0
-315 -197 -2 0
-323 -189 -2 0
-363 -149 -2 0
-371 -141 -2 0
-8 -249 0
-201 -305 -8 0
-153 -353 -8 0
-213 -11 -290 0
-12 -245 0
-14 -209 -291 0
-15 -209 -290 0
-205 -19 -290 0
-27 -325 -162 0
-32 -353 0
-198 -35 -281 0
-36 -221 0
-220 -37 0
-37 -329 -148 0
-337 -37 -140 0
-201 -38 -275 0
-38 -347 0
-41 -216 0
-41 -327 -146 0
-41 -337 -136 0
-210 -47 0
-208 -49 0
-201 -56 0
-198 -59 0
-59 -194 -261 0
-326 -59 0
-68 -189 0
-155 -290 -69 0
-316 -69 0
-169 -275 -70 0
-315 -70 0
-184 -73 0
-151 -73 -290 0
-305 -73 -136 0
-312 -73 0
-75 -182 0
-143 -81 -290 0
-304 -81 0
-85 -291 -138 0
-92 -165 0
-94 -291 0
-95 -162 0
-95 -290 0
-160 -97 0
-264 -153 -97 0
-266 -151 -97 0
-274 -143 -97 0
-288 -97 0
-107 -146 -261 0
-108 -149 0
-109 -148 0
-115 -138 -261 0
-116 -141 0
-117 -140 0
-118 -267 0
-119 -138 0
-121 -136 0
-264 -121 0
-3 0
-5 0
-33 0
-65 0
2 0
127 0
-263 -249 0
-267 -245 0
-237 -275 0
-291 -221 0
-165 -347 0
-248 0
-260 -245 0
-214 -291 0
-197 -308 0
-182 -323 0
-340 -165 0
-149 -356 0
-371 -134 0
-260 -237 0
-206 -291 0
-296 -201 0
-300 -197 0
-174 -323 0
-165 -332 0
-141 -356 0
-363 -134 0
-104 103 0
70 -69 0
-67 68 0
-68 67 0
-37 38 0
-35 36 0
-7 8 0
-8 7 0
-130 0
-133 0
-137 0
-145 0
254 0
-290 -93 0
-302 -81 0
-310 -73 0
-314 -69 0
-37 -346 0
-21 -362 0
-13 -370 0
-87 -266 0
-81 -272 0
-79 -274 0
-73 -280 0
-72 -281 0
-284 -69 0
-322 -31 0
-21 -332 0
-340 -13 0
-262 -59 0
-266 -55 0
-274 -47 0
-284 -37 0
-290 -31 0
-300 -21 0
-13 -308 0
-314 -7 0
-320 0
-158 160 0
-153 155 0
-149 151 0
-151 149 0
148 -146 0
-141 143 0
-143 141 0
140 -138 0
136 -134 0
-258 0
-259 0
261 0
380 0
-91 -162 0
-218 -35 0
-19 -234 0
-242 -11 0
-249 -4 0
-120 0
-115 -134 0
-103 -146 0
-87 -162 0
-182 -67 0
-55 -194 0
-230 -19 0
-242 -7 0
-245 -4 0
-112 0
-107 -134 0
-103 -138 0
-79 -162 0
-67 -174 0
-47 -194 0
-234 -7 0
-237 -4 0
-91 -134 0
-87 -138 0
-79 -146 0
-152 -73 0
-72 -153 0
-67 -158 0
-31 -194 0
-206 -19 0
-16 -209 0
-214 -11 0
-218 -7 0
-221 -4 0
-224 0
-323 327 0
-322 326 0
-260 264 0
