p cnf 5592 133
256 0
-2035 121 0
-2036 117 0
-2037 109 0
-2038 93 0
-2039 61 0
2036 2035 -127 2037 2038 2039 0
-2040 121 0
-2041 115 0
-2042 107 0
-2043 91 0
-2044 59 0
2040 2041 -127 2042 2043 2044 0
-2045 117 0
-2046 115 0
-2047 103 0
-2048 87 0
-2049 55 0
2045 2046 -127 2047 2048 2049 0
-2050 109 0
-2051 107 0
-2052 103 0
-2053 79 0
-2054 47 0
2050 2052 -127 2051 2053 2054 0
-2055 93 0
-2056 91 0
-2057 87 0
-2058 79 0
-2059 31 0
2055 2057 -127 2056 2058 2059 0
-2060 61 0
-2061 59 0
55 -2062 0
-2063 47 0
-2064 31 0
2060 2061 -127 2062 2063 2064 0
-2133 130 0
-2134 138 0
132 -2135 0
2135 2134 2133 -140 0
-2145 130 0
-2146 133 0
-2147 134 0
-142 2147 2146 2145 0
-2229 130 0
-2230 146 0
-2231 145 0
-154 2230 2229 2231 0
-2316 133 0
-2317 134 0
-2318 154 0
-2319 148 0
-2320 140 0
-160 2320 2316 2317 2319 2318 0
-2476 161 0
-2477 162 0
-2478 142 0
-2479 140 0
-2480 136 0
-176 2478 2476 2477 2479 2480 0
-2517 133 0
-2518 145 0
-2519 161 0
-181 2517 2518 2519 0
-2558 130 0
-2559 181 0
-2560 134 0
-2561 146 0
-2562 162 0
-184 2560 2558 2559 2562 2561 0
-2644 161 0
-2645 162 0
-2646 154 0
-2647 148 0
-2648 140 0
-188 2646 2644 2645 2647 2648 0
-2666 130 0
-2667 134 0
-2668 181 0
-2669 146 0
-2670 162 0
-190 2667 2666 2668 2670 2669 0
-3850 193 0
-3851 194 0
-3852 190 0
-3853 188 0
-3854 184 0
-3855 176 0
-3856 160 0
3851 3852 3853 3854 3855 3856 -256 3850 0
-59 -194 -261 0
-61 -196 0
-91 -162 -261 0
-93 -164 0
-109 -148 0
-117 -140 0
-121 -136 0
127 0
-130 0
-133 0
-145 0
-161 0
-193 0
196 -194 0
164 -162 0
148 -146 0
-148 146 0
136 -134 0
-136 134 0
261 0
-121 -132 0
-115 -138 0
-107 -146 0
-115 -134 0
-103 -146 0
-87 -162 0
-55 -194 0
-109 -132 0
-107 -134 0
-103 -138 0
-79 -162 0
-47 -194 0
-93 -132 0
-91 -134 0
-87 -138 0
-79 -146 0
-31 -194 0
-61 -132 0
-59 -134 0
-55 -138 0
-47 -146 0
-31 -162 0
