p cnf 5592 368
-469 3 0
-470 5 0
-471 17 0
-23 469 470 471 0
-781 5 0
-782 17 0
-783 33 0
-53 781 782 783 0
35 -807 0
-842 33 0
-843 23 0
35 -844 0
22 -844 0
-845 20 0
-846 8 0
844 -56 842 843 845 846 0
-1039 3 0
-1040 5 0
-1041 65 0
-71 1039 1040 1041 0
-1123 7 0
-1124 69 0
-1125 67 0
-79 1125 1124 1123 0
-1177 3 0
-1178 17 0
-1179 65 0
-83 1177 1178 1179 0
-1257 17 0
-1258 71 0
-1259 19 0
-1260 68 0
-1261 8 0
-88 1261 1257 1258 1259 1260 0
-1262 65 0
-1263 23 0
-1264 67 0
-1265 20 0
-1266 8 0
-88 1266 1262 1263 1265 1264 0
-1447 3 0
-1448 33 0
-1449 65 0
-99 1447 1448 1449 0
-1471 5 0
-1472 33 0
-1473 65 0
-101 1471 1472 1473 0
-1517 3 0
-1518 101 0
-1519 7 0
-1520 70 0
38 -1521 0
1521 1520 1517 1518 -104 1519 0
-1527 33 0
-1528 71 0
-1529 70 0
37 -1530 0
-1531 8 0
1530 1529 1527 1528 -104 1531 0
-1756 17 0
-1757 99 0
-1758 19 0
-1759 68 0
36 -1760 0
1760 1759 1756 1757 1758 -116 0
-1761 33 0
-1762 83 0
35 -1763 0
-1764 68 0
-1765 20 0
1763 1764 1761 1762 -116 1765 0
-1771 97 0
37 -1772 0
-1773 69 0
1772 1771 -117 1773 0
-1808 65 0
-1809 53 0
-1810 69 0
38 -1811 0
-1812 97 0
1811 1812 1808 1809 -118 1810 0
-2040 7 0
-2041 115 0
-2042 107 0
-2043 91 0
-2044 69 0
2041 2044 -127 2042 2043 2040 0
11 -2045 0
-2045 117 0
-2046 115 0
-2047 103 0
-2048 87 0
-2049 55 0
2045 2049 -127 2047 2048 2046 0
19 -2050 0
-2051 107 0
-2052 103 0
-2053 79 0
-2054 47 0
2050 2052 -127 2053 2054 2051 0
-2055 93 0
-2056 91 0
-2057 87 0
-2058 79 0
-2059 31 0
2055 2057 -127 2058 2056 2059 0
67 -2060 0
61 -2060 0
-2061 69 0
-2061 59 0
-2062 55 0
81 -2063 0
-2063 47 0
-2064 31 0
2060 2061 -127 2063 2062 2064 0
-2277 134 0
-2278 138 0
-2279 146 0
-158 2277 2278 2279 0
-2427 134 0
-2427 169 0
-2428 138 0
-2429 162 0
-2429 141 0
-174 2429 2428 2427 0
-2595 138 0
-2596 146 0
-2597 162 0
-186 2597 2596 2595 0
-2847 134 0
-2847 201 0
-2848 138 0
-2849 194 0
-2849 141 0
-206 2849 2848 2847 0
-3015 138 0
-3016 146 0
194 -3017 0
3017 -218 3016 3015 0
-3219 225 0
-3220 162 0
-3221 165 0
-230 3220 3219 3221 0
-3285 138 0
-3286 162 0
-3286 201 0
-3287 194 0
-3287 169 0
-234 3286 3287 3285 0
-3513 165 0
-3514 197 0
-3515 149 0
-245 3513 3514 3515 0
-3741 249 0
-3742 138 0
146 -3743 0
-3744 162 0
-3745 194 0
-3745 189 0
3744 3741 -254 3743 3745 3742 0
-3746 134 0
-3746 249 0
-3747 242 0
149 -3748 0
-3748 234 0
-3749 218 0
-3750 186 0
3749 3746 -254 3748 3747 3750 0
-3751 138 0
-3751 245 0
-3752 242 0
-3753 230 0
-3754 214 0
-3755 182 0
3751 3755 -254 3753 3752 3754 0
-3756 237 0
-3757 234 0
-3758 230 0
-3759 206 0
-3760 174 0
3756 3758 -254 3757 3760 3759 0
-3761 162 0
-3761 221 0
218 -3762 0
-3763 214 0
-3764 206 0
-3765 158 0
3762 3763 -254 3765 3764 3761 0
-3766 189 0
-3767 186 0
-3768 182 0
-3769 174 0
-3770 158 0
3769 3766 -254 3768 3767 3770 0
-3990 266 0
-3995 266 0
-3996 267 0
274 -3996 0
-3997 281 0
-3997 260 0
3996 3997 -284 3995 0
-4139 260 0
-4140 266 0
-4141 267 0
-300 4141 4139 4140 0
-4331 266 0
-4332 274 0
-4333 281 0
-314 4333 4331 4332 0
-4559 260 0
-4560 266 0
-4560 323 0
-4561 267 0
-332 4561 4560 4559 0
-4751 266 0
-4751 337 0
-4752 274 0
-4753 281 0
-346 4753 4751 4752 0
-5417 260 0
-5417 377 0
-5418 266 0
371 -5418 0
-5419 274 0
-5419 363 0
-5420 290 0
-5421 322 0
-5421 315 0
5419 5418 -380 5421 5417 5420 0
-5422 377 0
-5423 370 0
-5424 362 0
-5425 346 0
-5426 323 0
-5426 314 0
5423 5426 -380 5422 5425 5424 0
-5432 274 0
-5432 363 0
-5433 275 0
-5433 362 0
-5434 281 0
-5434 356 0
-5435 332 0
-5436 337 0
-5436 300 0
5433 5434 -380 5436 5435 5432 0
-5437 347 0
-5438 346 0
-5439 340 0
-5440 332 0
-5441 284 0
5437 5438 -380 5440 5439 5441 0
-5442 315 0
-5443 314 0
308 -5444 0
-5445 300 0
-5446 284 0
5444 5443 -380 5445 5442 5446 0
-232 -281 0
-314 -199 0
-167 -346 0
-197 -315 -2 0
-165 -347 -2 0
-363 -149 -2 0
-249 -8 0
-337 -169 -8 0
-377 -8 0
-225 -11 -278 0
-237 -20 0
-363 -22 0
-221 -36 0
-347 -38 0
-201 -56 0
-59 -194 -261 0
-61 -196 0
-189 -68 0
-315 -70 0
-169 -264 -81 0
-88 -169 0
-93 -164 0
-279 -138 -97 0
-281 -104 0
-107 -278 0
-138 -115 -261 0
-141 -116 0
-267 -118 0
-3 0
-5 0
-17 0
-33 0
-65 0
2 0
127 0
-323 -189 0
-275 -230 0
-197 -308 0
-340 -165 0
-356 -149 0
-134 -371 0
118 -117 0
116 -115 0
104 -103 0
-87 88 0
-69 70 0
69 -70 0
67 -68 0
56 -55 0
36 -35 0
20 -19 0
-20 19 0
8 -7 0
-8 7 0
254 0
-266 -117 0
-314 -69 0
-322 -61 0
-346 -37 0
-260 -117 0
-103 -274 0
-308 -69 0
-322 -55 0
-340 -37 0
-370 -7 0
-266 -103 0
-290 -79 0
-300 -69 0
-322 -47 0
-332 -37 0
-362 -7 0
-230 232 0
-197 199 0
196 -194 0
-165 167 0
164 -162 0
261 0
380 0
-107 -146 0
-91 -162 0
-186 -67 0
-218 -35 0
-234 -19 0
-242 -11 0
-134 -115 0
-103 -146 0
-87 -162 0
-182 -67 0
-55 -194 0
-214 -35 0
-230 -19 0
-242 -7 0
-87 -138 0
-79 -146 0
-158 -67 0
-31 -194 0
-206 -19 0
-214 -11 0
-7 -218 0
-138 -55 0
-47 -146 0
-158 -35 0
-31 -162 0
-174 -19 0
-182 -11 0
-186 -7 0
-275 279 0
278 -274 0
264 -260 0
