p cnf 5592 843
128 0
256 0
384 0
-553 7 0
-553 25 0
-554 11 0
-554 21 0
-555 19 0
-555 13 0
555 554 553 -31 0
-703 7 0
-704 11 0
-705 13 0
705 704 703 -47 0
-805 7 0
-806 19 0
-807 21 0
806 805 -55 807 0
-827 3 0
-828 4 0
-829 7 0
-829 50 0
-830 19 0
-830 38 0
-831 22 0
-56 828 827 830 829 831 0
-919 21 0
-920 25 0
-921 13 0
921 -61 920 919 0
-1135 79 0
-1136 3 0
-1137 5 0
-1138 72 0
-1139 65 0
-80 1138 1136 1137 1135 1139 0
-1237 87 0
-1238 3 0
-1239 5 0
-1240 72 0
-1241 65 0
-88 1240 1238 1239 1237 1241 0
-1247 3 0
-1248 4 0
-1249 7 0
-1250 19 0
-1251 67 0
-1251 22 0
-88 1250 1247 1248 1251 1249 0
-1333 13 0
-1334 21 0
-1335 25 0
1334 1333 -93 1335 0
-1741 115 0
-1742 3 0
-1743 100 0
-1744 33 0
-1745 65 0
-116 1743 1742 1741 1744 1745 0
-1813 3 0
-1814 5 0
-1815 103 0
-1816 33 0
-1817 65 0
-119 1815 1814 1813 1816 1817 0
-2035 7 0
-2035 121 0
-2036 11 0
-2036 117 0
-2037 109 0
35 -2038 0
-2038 93 0
67 -2039 0
-2039 61 0
2036 2038 -127 2039 2035 2037 0
-2040 7 0
-2040 121 0
-2041 13 0
-2041 115 0
-2042 21 0
-2042 107 0
-2043 91 0
69 -2044 0
-2044 59 0
2040 2043 -127 2044 2042 2041 0
-2045 11 0
-2045 117 0
-2046 13 0
-2046 115 0
-2047 103 0
-2048 41 0
-2048 87 0
73 -2049 0
-2049 55 0
2045 2046 -127 2049 2048 2047 0
-2050 19 0
-2050 109 0
-2051 21 0
-2051 107 0
-2052 103 0
49 -2053 0
-2053 79 0
81 -2054 0
-2054 47 0
2050 2053 -127 2054 2051 2052 0
-2055 35 0
-2055 93 0
37 -2056 0
-2056 91 0
-2057 41 0
-2057 87 0
-2058 79 0
97 -2059 0
-2059 31 0
2055 2056 -127 2059 2058 2057 0
-2060 61 0
-2061 59 0
-2062 55 0
-2063 47 0
-2064 31 0
2060 2062 -127 2061 2063 2064 0
-2093 120 0
-2094 119 0
-2095 118 0
-2096 13 0
-2096 116 0
-2097 104 0
-2098 41 0
-2098 88 0
-2099 56 0
2095 2094 2096 2097 2098 2099 -128 2093 0
-2107 33 0
-2108 95 0
-2109 35 0
-2110 37 0
-2110 92 0
-2111 88 0
-2112 80 0
-2113 32 0
2108 2109 2110 2111 2112 2113 -128 2107 0
-2145 130 0
-2146 133 0
-2147 134 0
-142 2147 2146 2145 0
-2193 130 0
-2194 133 0
-2195 134 0
-150 2195 2194 2193 0
-2379 130 0
-2380 162 0
-2381 161 0
-170 2380 2379 2381 0
-2415 133 0
-2416 165 0
-2417 161 0
-173 2416 2415 2417 0
-2427 134 0
-2428 138 0
-2428 165 0
-2429 162 0
-174 2429 2428 2427 0
-2466 133 0
-2467 134 0
-2468 170 0
-2469 164 0
-2470 165 0
-176 2467 2466 2470 2468 2469 0
-2476 161 0
-2477 162 0
-2477 143 0
-2478 142 0
-2479 165 0
-2479 140 0
-2480 136 0
-176 2477 2476 2479 2478 2480 0
-2481 130 0
-2482 162 0
-2483 161 0
-178 2482 2481 2483 0
-2529 134 0
-2530 146 0
-2531 162 0
-182 2530 2531 2529 0
-2568 133 0
-2569 134 0
-2570 178 0
-2571 164 0
-2572 165 0
-2572 148 0
-184 2569 2568 2572 2571 2570 0
-2578 161 0
-2579 162 0
-2579 151 0
-2580 150 0
-2581 165 0
-2581 148 0
-2582 136 0
-184 2579 2578 2581 2580 2582 0
-2619 130 0
-2620 186 0
-2621 180 0
-2622 172 0
-2623 161 0
-188 2620 2619 2621 2622 2623 0
-2671 133 0
-2672 134 0
-2673 178 0
-2674 170 0
-2675 165 0
-190 2672 2671 2675 2674 2673 0
-2763 130 0
-2764 133 0
-2765 193 0
-198 2763 2764 2765 0
-2799 130 0
-2800 194 0
-2801 193 0
-202 2800 2799 2801 0
-2847 134 0
-2848 138 0
197 -2848 0
-2849 194 0
-206 2848 2847 2849 0
-2881 206 0
-2882 132 0
-2883 202 0
-2884 198 0
-2885 142 0
2885 -208 2881 2883 2884 2882 0
-2886 133 0
-2887 134 0
-2888 202 0
-2889 196 0
197 -2890 0
140 -2890 0
2890 -208 2886 2888 2889 2887 0
-2901 130 0
-2902 194 0
-2903 193 0
-210 2902 2901 2903 0
-2937 133 0
-2938 197 0
-2939 193 0
-213 2938 2937 2939 0
-2949 134 0
-2950 146 0
197 -2950 0
-2951 194 0
-214 2950 2949 2951 0
-2973 130 0
-2974 214 0
-2975 133 0
-2976 200 0
-2977 193 0
-216 2976 2973 2975 2974 2977 0
-2983 214 0
-2984 213 0
-2985 210 0
-2986 198 0
-2987 150 0
-216 2984 2987 2985 2986 2983 0
-2988 133 0
-2989 134 0
-2990 210 0
-2991 196 0
-2992 197 0
-2992 148 0
-216 2992 2988 2990 2991 2989 0
-3049 218 0
-3050 132 0
-3051 210 0
-3052 202 0
-3053 154 0
-220 3053 3050 3051 3052 3049 0
-3059 204 0
-3060 146 0
-3060 203 0
-3061 202 0
-3062 196 0
-3063 140 0
-220 3063 3059 3061 3062 3060 0
-3091 133 0
-3092 134 0
-3093 210 0
-3094 202 0
-3095 197 0
154 -3095 0
3095 -222 3091 3093 3094 3092 0
-3096 214 0
-3097 213 0
-3098 210 0
-3099 198 0
-3100 150 0
3097 -222 3100 3098 3099 3096 0
-3195 132 0
-3196 162 0
-3197 194 0
-228 3195 3196 3197 0
-3207 133 0
-3208 161 0
-3209 193 0
-229 3207 3208 3209 0
-3248 130 0
-3249 229 0
-3250 134 0
-3251 162 0
-3251 199 0
-3252 194 0
-232 3250 3248 3249 3251 3252 0
-3285 138 0
-3285 225 0
-3286 162 0
-3287 194 0
-234 3285 3286 3287 0
-3351 130 0
-3352 133 0
-3353 230 0
-3354 161 0
-3355 193 0
-238 3353 3352 3351 3354 3355 0
-3381 237 0
-3382 133 0
-3383 231 0
-3384 161 0
-3385 193 0
-239 3383 3382 3381 3384 3385 0
-3406 193 0
-3407 173 0
-3408 197 0
-3409 167 0
-3410 225 0
-239 3410 3406 3407 3409 3408 0
-3453 146 0
-3454 162 0
-3455 194 0
-242 3453 3454 3455 0
-3477 130 0
-3478 242 0
-3479 228 0
-3480 161 0
-3481 193 0
-244 3478 3477 3479 3480 3481 0
-3497 161 0
-3498 162 0
-3499 210 0
-3500 196 0
148 -3501 0
3501 -244 3497 3499 3500 3498 0
-3519 130 0
-3520 133 0
-3521 230 0
-3522 161 0
-3523 193 0
-246 3521 3520 3519 3522 3523 0
-3524 130 0
-3525 134 0
-3526 229 0
-3527 162 0
-3527 213 0
-3528 194 0
-246 3525 3524 3526 3527 3528 0
-3549 245 0
-3550 133 0
-3551 231 0
-3552 161 0
-3553 193 0
-247 3551 3550 3549 3552 3553 0
-3569 161 0
-3570 213 0
-3571 165 0
-3572 199 0
-3573 151 0
3572 3570 3569 -247 3573 3571 0
134 -3741 0
-3741 249 0
138 -3742 0
-3742 245 0
146 -3743 0
-3743 237 0
-3744 162 0
-3744 221 0
-3745 194 0
3741 3744 -254 3742 3743 3745 0
-3746 134 0
-3747 141 0
-3747 242 0
-3748 149 0
-3748 234 0
-3749 165 0
197 -3750 0
-3750 186 0
3746 3750 -254 3749 3748 3747 0
-3751 138 0
-3751 245 0
-3752 242 0
-3753 230 0
-3754 214 0
-3755 182 0
3752 3755 -254 3751 3753 3754 0
-3761 162 0
-3761 221 0
-3762 165 0
-3762 218 0
-3763 214 0
-3764 206 0
225 -3765 0
158 -3765 0
3765 3764 -254 3761 3763 3762 0
-3766 194 0
197 -3767 0
-3767 186 0
-3768 182 0
-3769 174 0
-3770 225 0
-3770 158 0
3767 3768 -254 3766 3770 3769 0
-3808 255 0
-3809 132 0
-3810 134 0
-3811 247 0
-3812 239 0
-3813 162 0
-3814 194 0
3809 3810 3811 3812 3813 3814 -256 3808 0
-3822 133 0
-3823 134 0
135 -3824 0
-3825 244 0
-3826 236 0
-3827 165 0
-3828 197 0
3823 3824 3825 3826 3827 3828 -256 3822 0
-3829 248 0
-3830 138 0
-3830 247 0
-3831 246 0
244 -3832 0
-3833 232 0
-3834 216 0
201 -3835 0
-3835 184 0
3831 3830 3832 3833 3834 3835 -256 3829 0
-3836 240 0
-3837 146 0
-3837 239 0
-3838 238 0
-3839 149 0
-3839 236 0
-3840 232 0
177 -3841 0
208 -3841 0
-3842 176 0
3838 3837 3839 3840 3841 3842 -256 3836 0
-3843 161 0
-3844 162 0
-3844 223 0
-3845 222 0
-3846 165 0
-3846 220 0
-3847 216 0
-3848 208 0
-3849 160 0
3844 3845 3846 3847 3848 3849 -256 3843 0
-3850 193 0
-3851 194 0
-3852 190 0
197 -3853 0
-3853 188 0
-3854 184 0
-3855 176 0
-3856 160 0
3852 3851 3853 3854 3855 3856 -256 3850 0
-3917 258 0
-3918 259 0
-3919 260 0
-276 3919 3918 3917 0
-3989 260 0
-3989 281 0
266 -3990 0
-3990 275 0
274 -3991 0
-3991 267 0
3990 3991 3989 -284 0
-4067 258 0
-4068 259 0
-4069 260 0
-292 4069 4068 4067 0
-4139 260 0
-4140 266 0
-4141 290 0
-4141 267 0
-300 4140 4141 4139 0
-4487 258 0
-4488 259 0
-4489 321 0
-324 4487 4488 4489 0
-4523 260 0
-4524 262 0
-4525 322 0
-328 4524 4525 4523 0
-4559 260 0
329 -4559 0
-4560 266 0
323 -4560 0
-4561 322 0
-4561 267 0
-332 4560 4559 4561 0
337 -4661 0
-4662 274 0
-4663 275 0
-340 4661 4663 4662 0
-4709 258 0
-4710 259 0
-4711 340 0
-4712 328 0
-4713 321 0
-344 4712 4710 4709 4711 4713 0
-4734 321 0
-4735 322 0
-4736 278 0
-4737 276 0
-4738 264 0
-344 4736 4734 4737 4735 4738 0
-4877 349 0
-4878 347 0
-4879 343 0
-4880 335 0
-4881 287 0
-352 4879 4878 4880 4877 4881 0
-4907 258 0
-4908 322 0
-4909 321 0
-354 4908 4907 4909 0
-4979 258 0
-4980 259 0
-4981 356 0
-4982 328 0
-4983 321 0
-360 4981 4980 4979 4982 4983 0
-5228 356 0
-5229 355 0
-5230 354 0
-5231 324 0
-5232 292 0
-372 5228 5230 5229 5231 5232 0
-5417 260 0
-5417 377 0
-5418 266 0
-5418 371 0
-5419 274 0
-5419 363 0
290 -5420 0
347 -5420 0
-5421 322 0
5420 5421 -380 5419 5417 5418 0
-5422 377 0
-5423 370 0
-5424 362 0
-5425 291 0
-5425 346 0
-5426 323 0
5426 5423 -380 5424 5422 5425 0
-5427 266 0
-5427 371 0
-5428 370 0
-5429 356 0
297 -5430 0
-5430 340 0
-5431 329 0
-5431 308 0
5429 5428 -380 5430 5427 5431 0
-5432 274 0
-5432 363 0
-5433 362 0
-5434 281 0
-5434 356 0
305 -5435 0
-5435 332 0
-5436 337 0
-5436 300 0
5433 5435 -380 5432 5434 5436 0
-5437 347 0
-5438 346 0
-5439 340 0
-5440 332 0
353 -5441 0
284 -5441 0
5441 5439 -380 5437 5440 5438 0
-5442 322 0
-5442 315 0
-5443 314 0
-5444 308 0
-5445 300 0
353 -5446 0
284 -5446 0
5446 5443 -380 5444 5442 5445 0
-5565 376 0
-5566 375 0
-5567 267 0
-5568 372 0
-5569 360 0
-5570 344 0
-5571 312 0
5567 5566 5568 5569 5570 5571 -384 5565 0
-5579 352 0
-5580 351 0
-5581 350 0
-5582 348 0
-5583 344 0
-5584 336 0
-5585 288 0
5580 5579 5581 5582 5583 5584 5585 -384 0
-5586 321 0
-5587 322 0
-5588 323 0
-5589 316 0
-5590 312 0
-5591 304 0
-5592 288 0
5587 5588 5589 5590 5591 5592 -384 5586 0
-247 -266 0
-239 -274 0
-288 -225 0
-223 -290 0
-297 -216 0
-312 -201 0
-314 -199 0
-316 -197 0
-327 -186 0
-184 -329 0
-336 -177 0
-176 -337 0
-346 -167 0
-348 -165 0
-349 -164 0
-351 -162 0
-160 -353 0
-151 -362 0
-375 -138 0
-377 -136 0
-267 -245 -2 0
-275 -237 -2 0
-221 -291 -2 0
-315 -197 -2 0
-335 -177 -2 0
-165 -347 -2 0
-149 -363 -2 0
-141 -371 -2 0
-377 -135 -2 0
-7 -154 -353 0
-377 -8 0
-246 -11 0
-213 -11 -290 0
-13 -244 0
-13 -274 -227 0
-337 -13 -164 0
-148 -13 -353 0
-236 -21 0
-21 -266 -227 0
-203 -21 -290 0
-329 -21 -164 0
-21 -140 -353 0
-355 -21 -138 0
-22 -267 -225 0
-232 -25 0
-25 -327 -162 0
-25 -353 -136 0
-32 -353 0
-222 -35 0
-350 -35 0
-221 -36 0
-38 -347 0
-216 -41 0
-41 -274 -199 0
-49 -208 0
-50 -267 -197 0
-326 -59 0
-61 -196 0
-315 -70 0
-184 -73 0
-274 -167 -73 0
-151 -73 -290 0
-312 -73 0
-176 -81 0
-266 -81 -167 0
-304 -81 0
-92 -165 0
-164 -93 0
-95 -162 0
-95 -290 0
-160 -97 0
-151 -266 -97 0
-143 -274 -97 0
-281 -97 -136 0
-288 -97 0
-149 -267 -98 0
-141 -275 -98 0
-287 -98 0
-107 -146 -261 0
-278 -107 0
-148 -109 0
-118 -267 0
-119 -138 0
-121 -136 0
-121 -264 0
-3 0
-5 0
-33 0
-65 0
2 0
127 0
-255 0
-248 0
-245 -260 0
-231 -274 0
-291 -214 0
-308 -197 0
-182 -323 0
-328 -177 0
-340 -165 0
-343 -162 0
-356 -149 0
-370 -135 0
-371 -134 0
-376 0
-240 0
-237 -260 0
-231 -266 0
-230 -267 0
-291 -206 0
-300 -197 0
-174 -323 0
-332 -165 0
-363 -134 0
-104 103 0
98 -97 0
70 -69 0
-37 38 0
-38 37 0
36 -35 0
8 -7 0
-130 0
-133 0
-161 0
-193 0
254 0
-117 -266 0
-109 -274 0
-93 -290 0
-314 -69 0
-346 -37 0
-362 -21 0
-370 -13 0
-120 0
-117 -260 0
-103 -274 0
-87 -290 0
-72 -305 0
-308 -69 0
-322 -55 0
-340 -37 0
-356 -21 0
-370 -7 0
-109 -260 0
-262 -107 0
-103 -266 0
-79 -290 0
-72 -297 0
-300 -69 0
-322 -47 0
-332 -37 0
-356 -13 0
-7 -362 0
-230 232 0
-232 230 0
227 -225 0
199 -197 0
-199 197 0
196 -194 0
-196 194 0
167 -165 0
-167 165 0
-162 164 0
-164 162 0
136 -134 0
-136 134 0
-258 0
-259 0
-321 0
261 0
380 0
-121 -132 0
-115 -138 0
-91 -162 0
-172 -81 0
-180 -73 0
-186 -67 0
-59 -194 0
-218 -35 0
-25 -228 0
-234 -19 0
-242 -11 0
-249 -4 0
-117 -132 0
-115 -134 0
-103 -146 0
-100 -149 0
-87 -162 0
-72 -177 0
-182 -67 0
-55 -194 0
-200 -49 0
-214 -35 0
-21 -228 0
-230 -19 0
-7 -242 0
-245 -4 0
-109 -132 0
-107 -134 0
-103 -138 0
-79 -162 0
-174 -67 0
-47 -194 0
-206 -35 0
-230 -11 0
-7 -234 0
-237 -4 0
-132 -93 0
-91 -134 0
-87 -138 0
-79 -146 0
-67 -158 0
-31 -194 0
-25 -200 0
-204 -21 0
-19 -206 0
-11 -214 0
-7 -218 0
-221 -4 0
-323 327 0
-322 326 0
264 -260 0
-264 260 0
