p cnf 5592 1312
128 0
256 0
384 0
-469 3 0
-470 5 0
-471 17 0
-23 469 470 471 0
-554 11 0
-554 21 0
-556 7 0
-557 13 0
-558 11 0
-31 558 556 557 0
-619 3 0
-620 5 0
-621 33 0
-39 619 620 621 0
-655 3 0
-656 35 0
-657 33 0
-43 656 655 657 0
-679 5 0
-680 37 0
-681 33 0
-45 680 679 681 0
-703 7 0
-703 41 0
-704 11 0
-705 13 0
-47 705 703 704 0
-727 7 0
-730 5 0
-731 6 0
-732 7 0
-733 36 0
-734 37 0
-48 731 732 733 734 730 0
-757 3 0
-758 17 0
-759 33 0
-51 757 758 759 0
-832 5 0
-833 51 0
-834 7 0
-834 50 0
-835 21 0
36 -835 0
-836 37 0
-836 20 0
-56 835 836 834 832 833 0
-837 17 0
-838 39 0
-839 38 0
-840 36 0
-841 8 0
840 -56 839 841 837 838 0
-842 33 0
-843 23 0
35 -844 0
-844 22 0
-845 37 0
-845 20 0
49 -846 0
8 -846 0
-56 844 845 846 842 843 0
-847 49 0
-848 17 0
-849 33 0
-57 847 848 849 0
-883 59 0
-884 3 0
-885 52 0
-886 17 0
-887 33 0
-60 885 883 884 886 887 0
-898 52 0
-899 51 0
50 -900 0
-901 25 0
-902 41 0
900 901 898 -60 902 899 0
-903 17 0
-904 43 0
-905 19 0
-906 36 0
-907 49 0
-907 12 0
905 904 -60 907 906 903 0
-955 3 0
-956 5 0
-957 55 0
-958 17 0
-959 33 0
-63 957 956 955 958 959 0
-965 5 0
-966 57 0
-967 51 0
-968 43 0
-969 27 0
-63 966 968 969 965 967 0
-1039 3 0
-1040 5 0
-1041 65 0
-71 1039 1040 1041 0
-1123 7 0
-1123 73 0
-1124 11 0
-1125 13 0
-79 1124 1123 1125 0
-1177 3 0
-1178 17 0
-1179 65 0
-83 1177 1178 1179 0
-1225 7 0
-1225 81 0
-1226 19 0
-1227 67 0
-1227 21 0
1225 -87 1227 1226 0
-1257 17 0
-1258 71 0
-1259 19 0
-1259 70 0
-1260 21 0
-1260 68 0
-1261 81 0
-1261 8 0
1261 -88 1260 1259 1257 1258 0
-1266 8 0
-1447 3 0
-1448 33 0
-1449 65 0
-99 1447 1448 1449 0
-1459 97 0
-1460 34 0
-1461 35 0
-100 1460 1461 1459 0
-1471 5 0
-1472 33 0
-1473 65 0
-101 1471 1472 1473 0
-1495 7 0
-1495 97 0
-1496 35 0
-1496 69 0
-1497 67 0
-1497 37 0
-103 1496 1497 1495 0
-1522 5 0
-1523 99 0
-1524 7 0
-1524 98 0
-1525 37 0
-1525 68 0
-1526 69 0
-1526 36 0
-104 1526 1525 1524 1522 1523 0
-1530 37 0
-1531 8 0
-1535 69 0
-1537 97 0
-1538 33 0
-1539 65 0
-105 1537 1538 1539 0
-1561 97 0
-1562 35 0
-1562 73 0
-1563 67 0
-1563 41 0
-107 1562 1561 1563 0
-1573 107 0
-1574 3 0
-1575 100 0
-1576 33 0
-1577 65 0
-108 1573 1575 1574 1576 1577 0
-1603 97 0
-1604 37 0
-1604 73 0
-1605 69 0
-1605 41 0
-109 1605 1604 1603 0
-1612 41 0
-1613 37 0
-1614 13 0
-109 1612 1613 1614 0
-1650 3 0
-1651 7 0
-1651 105 0
-1652 101 0
-1653 35 0
-1654 45 0
-111 1653 1654 1651 1650 1652 0
-1761 33 0
-1762 83 0
-1763 35 0
-1763 82 0
-1764 49 0
-1764 68 0
-1765 97 0
-1765 20 0
-116 1763 1764 1765 1761 1762 0
-1768 67 0
-1771 21 0
-1771 97 0
-1772 37 0
-1772 81 0
-1773 69 0
-1773 49 0
1773 -117 1772 1771 0
-1802 81 0
-1811 81 0
-1813 3 0
-1814 5 0
-1815 17 0
-1816 33 0
-1817 65 0
-119 1813 1814 1815 1816 1817 0
-1873 25 0
-1873 97 0
-1874 41 0
-1874 81 0
-1875 73 0
-1875 49 0
-121 1874 1875 1873 0
-2035 7 0
-2035 121 0
-2036 11 0
-2036 117 0
-2037 19 0
-2037 109 0
-2038 35 0
-2038 93 0
-2039 67 0
-2039 61 0
2036 2039 2035 2037 2038 -127 0
-2040 7 0
-2040 121 0
-2041 115 0
-2042 21 0
-2042 107 0
-2043 37 0
-2043 91 0
-2044 69 0
-2044 59 0
2044 2040 2043 2042 2041 -127 0
-2045 11 0
117 -2045 0
-2046 13 0
-2046 115 0
-2047 25 0
-2047 103 0
-2048 41 0
87 -2048 0
-2049 73 0
-2049 55 0
2045 2047 2049 2048 2046 -127 0
-2050 19 0
-2050 109 0
-2051 107 0
-2052 103 0
-2053 49 0
-2053 79 0
-2054 81 0
-2054 47 0
2054 2051 2053 2050 2052 -127 0
-2055 93 0
-2056 91 0
-2057 87 0
-2058 49 0
-2058 79 0
-2059 97 0
31 -2059 0
2056 2058 2059 2057 -127 2055 0
-2060 61 0
-2061 59 0
-2062 55 0
-2063 81 0
-2063 47 0
-2064 97 0
-2064 31 0
2062 2061 2064 2063 2060 -127 0
-2093 120 0
-2094 119 0
11 -2095 0
118 -2095 0
-2096 13 0
-2096 116 0
-2097 25 0
-2097 104 0
-2098 41 0
-2098 88 0
-2099 56 0
2096 2095 2097 2098 2099 -128 2093 2094 0
-2100 17 0
-2101 18 0
-2101 111 0
-2102 19 0
-2102 110 0
-2103 21 0
-2103 108 0
-2104 25 0
-2104 104 0
-2105 49 0
-2105 80 0
-2106 48 0
2102 2101 2103 2104 2105 2106 -128 2100 0
-2114 65 0
-2115 63 0
-2116 67 0
62 -2116 0
-2117 69 0
-2117 60 0
-2118 73 0
-2118 56 0
-2119 81 0
-2119 48 0
-2120 97 0
2116 2115 2117 2118 2119 2120 -128 2114 0
-2277 134 0
-2277 153 0
-2278 138 0
-2278 149 0
-2279 146 0
-2279 141 0
-158 2277 2278 2279 0
-2379 130 0
-2380 162 0
-2381 161 0
-170 2380 2379 2381 0
-2427 134 0
-2427 169 0
-2428 138 0
-2428 165 0
-2429 162 0
-2429 141 0
-174 2429 2428 2427 0
-2430 134 0
-2430 169 0
-2431 141 0
-2431 162 0
-2432 138 0
-174 2431 2432 2430 0
-2458 171 0
-2481 130 0
-2482 145 0
-2483 161 0
-178 2481 2482 2483 0
-2529 134 0
-2529 177 0
-2530 146 0
-2530 165 0
-2531 162 0
-2531 149 0
-182 2529 2531 2530 0
-2577 136 0
-2595 138 0
-2596 169 0
-2597 162 0
2597 2595 -186 2596 0
-2619 130 0
-2620 186 0
-2621 180 0
-2622 145 0
-2623 161 0
-188 2621 2620 2619 2622 2623 0
-2634 180 0
-2635 138 0
-2636 178 0
-2637 164 0
-2638 169 0
-2638 148 0
-188 2638 2635 2637 2634 2636 0
-2639 145 0
-2640 146 0
-2641 170 0
-2642 164 0
-2643 140 0
-188 2641 2640 2642 2643 2639 0
-2649 141 0
-2649 177 0
-2650 149 0
-2650 169 0
-2651 165 0
-2651 153 0
2649 -189 2650 2651 0
-2661 130 0
-2662 133 0
-2663 182 0
-2664 145 0
-2665 161 0
-190 2663 2662 2661 2664 2665 0
-2691 189 0
-2692 133 0
183 -2693 0
-2694 145 0
-2695 161 0
2693 -191 2691 2692 2694 2695 0
-2712 173 0
-2714 167 0
-2811 201 0
-2812 195 0
-2813 193 0
-203 2811 2812 2813 0
-2835 133 0
-2836 197 0
-2837 193 0
-205 2836 2835 2837 0
134 -2847 0
201 -2847 0
-2848 138 0
-2848 197 0
-2849 194 0
-2849 141 0
-206 2848 2847 2849 0
-2876 130 0
-2877 205 0
-2878 134 0
-2878 203 0
-2879 199 0
-2880 194 0
-208 2878 2879 2880 2877 2876 0
-2886 133 0
-2887 134 0
-2888 202 0
-2889 196 0
-2890 140 0
2887 -208 2890 2889 2888 2886 0
-3015 209 0
-3016 201 0
-3017 194 0
3015 -218 3016 3017 0
-3069 141 0
-3070 201 0
-3071 153 0
-221 3069 3071 3070 0
-3081 130 0
-3082 133 0
-3083 214 0
-3084 145 0
-3085 193 0
-222 3083 3082 3081 3084 3085 0
-3111 221 0
-3112 133 0
-3113 215 0
-3114 145 0
-3115 193 0
-223 3113 3111 3112 3114 3115 0
-3195 225 0
-3196 162 0
-3197 194 0
-3197 163 0
-228 3196 3197 3195 0
-3207 133 0
-3208 161 0
-3209 193 0
-229 3207 3208 3209 0
-3219 225 0
-3220 162 0
-3220 197 0
-3221 194 0
-3221 165 0
-230 3220 3221 3219 0
-3251 162 0
-3273 225 0
-3274 161 0
-3275 193 0
-233 3273 3274 3275 0
-3294 194 0
-3294 169 0
-3295 201 0
-3295 162 0
-3296 225 0
-3296 138 0
-234 3295 3296 3294 0
-3309 130 0
-3310 234 0
-3311 228 0
-3312 161 0
-3313 193 0
3311 -236 3310 3309 3312 3313 0
-3314 130 0
-3315 233 0
-3316 227 0
-3317 162 0
-3318 194 0
3318 -236 3316 3317 3315 3314 0
-3339 141 0
-3339 225 0
-3340 165 0
-3340 201 0
-3341 197 0
-3341 169 0
-237 3339 3340 3341 0
-3351 130 0
-3352 133 0
-3353 230 0
-3354 161 0
-3355 193 0
-238 3353 3352 3351 3354 3355 0
-3359 162 0
-3373 165 0
-3391 133 0
-3392 233 0
-3393 227 0
-3394 203 0
-3395 197 0
-239 3394 3392 3393 3395 3391 0
-3441 145 0
-3442 161 0
-3443 193 0
-241 3441 3442 3443 0
-3453 146 0
-3453 225 0
-3454 162 0
-3455 194 0
-242 3454 3455 3453 0
-3519 130 0
-3520 133 0
-3521 145 0
-3522 161 0
-3523 193 0
-246 3519 3520 3521 3522 3523 0
-3564 145 0
-3565 229 0
-3566 227 0
-3567 199 0
-3568 167 0
-247 3566 3568 3567 3564 3565 0
-3609 225 0
-3610 169 0
209 -3610 0
-3611 201 0
-249 3610 3611 3609 0
-3621 130 0
-3622 242 0
-3623 145 0
-3624 161 0
-3625 193 0
-250 3622 3621 3623 3624 3625 0
-3656 249 0
-3657 241 0
-3658 233 0
-3659 163 0
-3660 195 0
-251 3660 3656 3659 3658 3657 0
-3741 134 0
-3741 249 0
-3742 138 0
245 -3742 0
-3743 146 0
-3743 237 0
-3744 162 0
-3744 221 0
-3745 194 0
-3745 189 0
3741 3744 3743 3742 3745 -254 0
-3746 134 0
-3746 249 0
-3747 141 0
-3747 242 0
-3748 149 0
-3748 234 0
165 -3749 0
-3749 218 0
-3750 197 0
-3750 186 0
3750 3746 3748 3747 3749 -254 0
-3751 138 0
-3751 245 0
-3752 141 0
-3752 242 0
-3753 230 0
-3754 169 0
-3754 214 0
-3755 201 0
-3755 182 0
3754 3755 3753 3751 3752 -254 0
-3756 146 0
-3756 237 0
-3757 149 0
-3757 234 0
-3758 230 0
177 -3759 0
206 -3759 0
209 -3760 0
174 -3760 0
3759 3758 3760 3757 3756 -254 0
-3761 162 0
-3761 221 0
165 -3762 0
-3762 218 0
-3763 169 0
-3763 214 0
177 -3764 0
-3764 206 0
-3765 225 0
-3765 158 0
3764 3765 3763 3761 3762 -254 0
-3766 194 0
-3766 189 0
197 -3767 0
186 -3767 0
-3768 201 0
-3768 182 0
209 -3769 0
174 -3769 0
-3770 225 0
-3770 158 0
3769 3768 3767 3770 3766 -254 0
-3808 255 0
-3809 253 0
-3810 251 0
-3811 247 0
-3812 239 0
-3813 223 0
-3814 194 0
3809 3810 3811 3812 3813 3814 -256 3808 0
-3822 133 0
-3823 134 0
-3823 251 0
-3824 250 0
-3825 244 0
-3826 236 0
-3827 165 0
-3827 220 0
-3828 197 0
3823 3824 3825 3826 3827 3828 -256 3822 0
-3829 248 0
-3830 138 0
-3830 247 0
-3831 246 0
-3832 141 0
-3832 244 0
-3833 153 0
-3833 232 0
-3834 169 0
-3834 216 0
-3835 184 0
3832 3830 3833 3834 3835 -256 3829 3831 0
-3836 145 0
-3837 146 0
-3837 239 0
-3838 238 0
149 -3839 0
236 -3839 0
-3840 153 0
-3840 232 0
177 -3841 0
-3841 208 0
209 -3842 0
-3842 176 0
3838 3837 3839 3840 3841 3842 -256 3836 0
-3843 161 0
-3844 162 0
-3845 222 0
-3846 165 0
-3847 169 0
-3848 208 0
-3849 225 0
3845 3844 3846 3847 3848 3849 -256 3843 0
-3850 193 0
-3851 194 0
191 -3851 0
-3852 195 0
-3852 190 0
-3853 188 0
-3854 201 0
-3854 184 0
-3855 176 0
-3856 225 0
3852 3851 3853 3854 3855 3856 -256 3850 0
-3869 258 0
-3870 259 0
-3871 260 0
-268 3871 3870 3869 0
-3917 258 0
-3918 259 0
-3919 273 0
-276 3917 3918 3919 0
-3965 258 0
-3966 274 0
-3967 273 0
-282 3966 3965 3967 0
-3977 259 0
-3978 275 0
-3979 273 0
-283 3978 3977 3979 0
-3989 260 0
-3989 281 0
-3990 266 0
-3990 275 0
-3991 274 0
-3991 267 0
-284 3989 3990 3991 0
-4000 281 0
-4000 260 0
-4042 258 0
-4043 260 0
285 -4043 0
-4044 262 0
-4044 283 0
-4045 266 0
-4045 279 0
-4046 274 0
-4046 271 0
4046 4044 -288 4043 4045 4042 0
-4047 259 0
-4048 260 0
263 -4049 0
-4049 282 0
-4050 267 0
-4050 278 0
-4051 275 0
270 -4051 0
4051 4049 -288 4050 4048 4047 0
-4052 284 0
-4053 262 0
-4054 282 0
-4055 276 0
-4056 268 0
4054 4053 -288 4052 4056 4055 0
-4062 273 0
-4063 274 0
-4063 271 0
-4064 275 0
-4064 270 0
-4065 268 0
-4066 264 0
4063 4064 -288 4065 4066 4062 0
-4139 260 0
-4139 297 0
-4140 266 0
-4140 291 0
-4141 290 0
-4141 267 0
-300 4139 4141 4140 0
-4217 258 0
-4218 273 0
-4219 289 0
-306 4217 4218 4219 0
-4241 260 0
-4242 274 0
-4242 291 0
-4243 290 0
4243 4242 -308 4241 0
-4300 260 0
-4314 289 0
-4315 290 0
-4315 279 0
-4316 278 0
-4317 276 0
-4318 305 0
-4318 264 0
4315 4316 -312 4318 4317 4314 0
-4332 274 0
-4332 297 0
-4343 267 0
-4344 275 0
-4344 297 0
-4345 291 0
-4345 281 0
-315 4344 4345 4343 0
-4355 258 0
-4356 259 0
-4357 308 0
-4358 273 0
-4359 289 0
-316 4357 4356 4355 4358 4359 0
-4559 260 0
-4559 329 0
-4560 266 0
-4560 323 0
-4561 322 0
-4561 267 0
-332 4559 4560 4561 0
-4649 259 0
-4650 273 0
-4651 321 0
-339 4649 4650 4651 0
-4661 337 0
-4662 323 0
-4663 322 0
-4663 275 0
-340 4661 4663 4662 0
-4714 258 0
-4715 260 0
-4715 341 0
-4716 339 0
-4717 274 0
-4717 327 0
-4718 322 0
-4718 279 0
-344 4715 4718 4717 4714 4716 0
-4734 321 0
-4735 322 0
-4736 278 0
-4737 276 0
-4738 337 0
-344 4736 4738 4735 4737 4734 0
-4751 266 0
337 -4751 0
-4752 274 0
-4752 329 0
-4753 322 0
-4753 281 0
4751 -346 4753 4752 0
-4763 267 0
-4763 337 0
-4764 275 0
-4764 329 0
-4765 323 0
-4765 281 0
-347 4764 4763 4765 0
-4931 260 0
-4932 290 0
-4933 322 0
-356 4932 4931 4933 0
-4990 260 0
-4992 326 0
-5021 266 0
353 -5021 0
-5022 290 0
-5022 329 0
-5023 322 0
-5023 297 0
-362 5021 5023 5022 0
-5033 267 0
-5033 353 0
-5034 291 0
-5034 329 0
-5035 323 0
-5035 297 0
-363 5034 5033 5035 0
-5045 258 0
-5046 259 0
-5047 356 0
-5048 289 0
-5049 321 0
-364 5047 5046 5045 5048 5049 0
-5087 258 0
-5088 362 0
-5089 358 0
-5090 289 0
-5091 321 0
-366 5089 5088 5087 5090 5091 0
-5189 274 0
-5190 290 0
-5191 322 0
5190 5189 5191 -370 0
-5204 275 0
-5205 323 0
-5206 337 0
-5206 291 0
-371 5204 5205 5206 0
-5213 258 0
-5214 259 0
-5215 273 0
-5216 289 0
-5217 321 0
-372 5213 5214 5215 5216 5217 0
-5280 321 0
-5281 322 0
-5282 306 0
-5283 294 0
-5284 278 0
5283 5284 5281 -374 5280 5282 0
-5345 281 0
-5345 353 0
-5346 297 0
-5346 337 0
-5347 329 0
-5347 305 0
-377 5346 5345 5347 0
-5417 260 0
-5417 377 0
-5418 371 0
-5419 274 0
-5419 363 0
-5420 290 0
-5420 347 0
-5421 322 0
-5421 315 0
5420 5418 5419 5417 -380 5421 0
-5422 260 0
-5422 377 0
-5423 267 0
-5423 370 0
-5424 275 0
-5424 362 0
291 -5425 0
346 -5425 0
-5426 323 0
-5426 314 0
5425 5422 5424 5423 5426 -380 0
-5427 371 0
-5428 267 0
-5428 370 0
-5429 281 0
-5429 356 0
-5430 297 0
-5430 340 0
-5431 329 0
-5431 308 0
5430 5429 5431 5428 -380 5427 0
-5432 274 0
-5432 363 0
-5433 275 0
-5433 362 0
-5434 281 0
-5434 356 0
-5435 305 0
-5435 332 0
-5436 337 0
-5436 300 0
5436 5435 5432 5433 5434 -380 0
-5437 290 0
-5437 347 0
-5438 291 0
-5438 346 0
-5439 297 0
-5439 340 0
-5440 305 0
-5440 332 0
-5441 353 0
-5441 284 0
5438 5437 5441 5440 5439 -380 0
-5442 322 0
-5442 315 0
-5443 323 0
-5443 314 0
329 -5444 0
-5444 308 0
-5445 337 0
-5445 300 0
-5446 353 0
-5446 284 0
5445 5446 5442 5444 5443 -380 0
-5565 376 0
-5566 375 0
-5567 267 0
-5567 374 0
-5568 372 0
-5569 360 0
-5570 297 0
-5570 344 0
-5571 329 0
-5571 312 0
5566 5567 5569 5570 5571 -384 5565 5568 0
-5572 273 0
-5573 274 0
-5574 366 0
-5575 364 0
-5576 360 0
-5577 305 0
-5577 336 0
-5578 304 0
5574 5573 5575 5576 5577 5578 -384 5572 0
-5579 289 0
-5580 290 0
-5581 291 0
-5582 293 0
-5583 297 0
-5584 336 0
-5585 353 0
5581 5580 5582 5583 5584 5585 -384 5579 0
-5586 321 0
-5587 322 0
-5588 323 0
-5588 318 0
-5589 325 0
-5589 316 0
-5590 329 0
-5590 312 0
-5591 304 0
353 -5592 0
288 -5592 0
5587 5588 5589 5590 5591 5592 -384 5586 0
-253 -260 0
-251 -262 0
-249 -264 0
-266 -247 0
-242 -271 0
-239 -274 0
-234 -279 0
-232 -281 0
-225 -288 0
-218 -295 0
-304 -209 0
-305 -208 0
-312 -201 0
-314 -199 0
-191 -322 0
-327 -186 0
-184 -329 0
-336 -177 0
-176 -337 0
-173 -340 0
-344 -169 0
-167 -346 0
-153 -360 0
-362 -151 0
-364 -149 0
-375 -138 0
-377 -136 0
-263 -249 -2 0
-267 -245 -2 0
-275 -237 -2 0
-221 -291 -2 0
-183 -329 -2 0
-6 -179 -329 0
-250 -7 0
-249 -8 0
-225 -281 -8 0
-297 -209 -8 0
-305 -201 -8 0
-177 -329 -8 0
-169 -337 -8 0
-153 -353 -8 0
-377 -8 0
-162 -11 -341 0
-146 -11 -357 0
-374 -11 0
-12 -165 -337 0
-244 -13 0
-290 -13 -211 0
-13 -322 -179 0
-13 -164 -337 0
-13 -148 -353 0
-13 -370 -131 0
-18 -297 -199 0
-326 -169 -19 0
-138 -19 -357 0
-366 -19 0
-237 -20 0
-293 -201 -20 0
-297 -20 -197 0
-165 -329 -20 0
-141 -353 -20 0
-21 -236 0
-233 -21 -260 0
-227 -266 -21 0
-203 -290 -21 0
-297 -21 -196 0
-171 -322 -21 0
-364 -21 0
-225 -267 -22 0
-195 -297 -22 0
-169 -22 -323 0
-363 -22 0
-232 -25 0
-225 -264 -25 0
-290 -25 -199 0
-25 -295 -194 0
-322 -25 -167 0
-25 -136 -353 0
-360 -25 0
-27 -134 -353 0
-34 -279 -201 0
-270 -209 -35 0
-285 -35 -194 0
-138 -35 -341 0
-221 -36 0
-281 -36 -197 0
-36 -329 -149 0
-141 -36 -337 0
-220 -37 0
-37 -266 -211 0
-37 -281 -196 0
-37 -140 -337 0
-38 -267 -209 0
-38 -275 -201 0
-347 -38 0
-216 -41 0
-262 -41 -211 0
-274 -41 -199 0
-279 -41 -194 0
-322 -151 -41 0
-146 -41 -327 0
-41 -136 -337 0
-344 -41 0
-43 -134 -337 0
-45 -340 0
-48 -209 0
-48 -337 0
-208 -49 0
-264 -201 -49 0
-266 -49 -199 0
-195 -270 -49 0
-271 -49 -194 0
-138 -327 -49 0
-329 -136 -49 0
-336 -49 0
-263 -201 -50 0
-267 -50 -197 0
-52 -201 -261 0
-202 -55 0
-56 -201 0
-329 -56 0
-326 -59 0
-60 -197 0
-61 -196 0
-323 -62 0
-63 -194 0
-169 -278 -67 0
-162 -285 -67 0
-309 -138 -67 0
-318 -67 0
-189 -68 0
-281 -165 -68 0
-297 -68 -149 0
-305 -141 -68 0
-266 -69 -179 0
-281 -164 -69 0
-283 -162 -69 0
-70 -267 -177 0
-275 -169 -70 0
-153 -70 -291 0
-315 -70 0
-73 -184 0
-274 -167 -73 0
-163 -278 -73 0
-162 -279 -73 0
-290 -73 -151 0
-73 -312 0
-80 -177 0
-305 -80 0
-81 -176 0
-264 -169 -81 0
-163 -270 -81 0
-271 -162 -81 0
-81 -138 -295 0
-297 -81 -136 0
-304 -81 0
-82 -267 -165 0
-82 -141 -291 0
-169 -88 0
-297 -88 0
-294 -91 0
-93 -164 0
-97 -279 -138 0
-97 -288 0
-98 -267 -149 0
-153 -104 0
-281 -104 0
-107 -146 -261 0
-107 -278 0
-109 -148 0
-109 -274 -131 0
-110 -275 0
-111 -274 0
-270 -115 0
-116 -141 0
-140 -117 0
-266 -117 -131 0
-267 -118 0
-121 -136 0
-264 -121 0
-3 0
-5 0
-17 0
-33 0
-65 0
2 0
127 0
-255 0
-215 -297 0
-315 -197 0
-189 -323 0
-347 -165 0
-363 -149 0
-371 -141 0
-248 0
-260 -245 0
-230 -275 0
-214 -291 0
-308 -197 0
-182 -323 0
-340 -165 0
-356 -149 0
-371 -134 0
-376 0
118 -117 0
-118 117 0
-115 116 0
-116 115 0
104 -103 0
-104 103 0
98 -97 0
-98 97 0
88 -87 0
-88 87 0
-81 82 0
-82 81 0
70 -69 0
-70 69 0
68 -67 0
-68 67 0
-55 56 0
-56 55 0
50 -49 0
49 -50 0
-37 38 0
-38 37 0
36 -35 0
-36 35 0
-21 22 0
-22 21 0
-19 20 0
19 -20 0
8 -7 0
7 -8 0
-130 0
-133 0
-145 0
-161 0
-193 0
131 0
254 0
-262 -121 0
-93 -290 0
-69 -314 0
-61 -322 0
-37 -346 0
-358 -25 0
-362 -21 0
-120 0
-260 -117 0
-115 -262 0
-274 -103 0
-290 -87 0
-69 -308 0
-322 -55 0
-340 -37 0
-356 -21 0
-370 -7 0
247 -245 0
-247 245 0
-242 244 0
-244 242 0
-230 232 0
-232 230 0
227 -225 0
-227 225 0
-214 216 0
211 -209 0
199 -197 0
-199 197 0
196 -194 0
-196 194 0
-182 184 0
-184 182 0
179 -177 0
-165 167 0
-167 165 0
164 -162 0
-164 162 0
151 -149 0
148 -146 0
-148 146 0
136 -134 0
-136 134 0
-258 0
-259 0
-273 0
-289 0
-321 0
261 0
380 0
-115 -138 0
-91 -162 0
-180 -73 0
-67 -186 0
-59 -194 0
-218 -35 0
-228 -25 0
-234 -19 0
-115 -134 0
-146 -103 0
-87 -162 0
-182 -67 0
-55 -194 0
-214 -35 0
-230 -19 0
-242 -7 0
-371 375 0
-375 371 0
-370 374 0
-374 370 0
-356 360 0
-360 356 0
357 -353 0
-340 344 0
-344 340 0
341 -337 0
337 -341 0
-323 327 0
-327 323 0
-322 326 0
-326 322 0
-308 312 0
-312 308 0
-305 309 0
295 -291 0
-295 291 0
-290 294 0
-275 279 0
-279 275 0
278 -274 0
-278 274 0
-260 264 0
-264 260 0
