p cnf 5592 171
128 0
-580 5 0
-581 6 0
-582 7 0
-583 20 0
-584 12 0
-32 584 580 581 582 583 0
-1075 3 0
-1076 67 0
-1077 65 0
-75 1076 1075 1077 0
-1099 5 0
-1100 69 0
-1101 65 0
-77 1100 1099 1101 0
-1145 3 0
-1146 4 0
-1147 7 0
-1148 70 0
-1149 67 0
-80 1149 1145 1146 1147 1148 0
-1201 5 0
-1202 17 0
-1203 65 0
-85 1201 1202 1203 0
-1247 3 0
-1248 85 0
-1249 7 0
-1250 70 0
-1251 67 0
-88 1251 1247 1248 1249 1250 0
-1323 17 0
-1324 75 0
-1325 19 0
-1326 68 0
-1327 12 0
-92 1327 1323 1325 1326 1324 0
-1380 3 0
-1381 7 0
-1382 85 0
-1383 77 0
-1384 67 0
-95 1384 1380 1382 1381 1383 0
-2035 7 0
11 -2036 0
-2037 19 0
-2038 35 0
-2039 67 0
2036 2035 -127 2039 2038 2037 0
-2060 61 0
-2061 69 0
-2062 55 0
-2063 47 0
-2064 31 0
2063 2064 -127 2061 2062 2060 0
-2107 33 0
-2108 95 0
-2109 35 0
-2110 92 0
-2111 88 0
-2112 80 0
-2113 32 0
2108 2109 2110 2111 2112 2113 -128 2107 0
-3741 249 0
-3742 245 0
-3743 237 0
-3744 221 0
-3745 189 0
3742 3741 -254 3743 3744 3745 0
-3746 249 0
-3747 242 0
-3748 234 0
-3749 218 0
-3750 186 0
3747 3748 -254 3746 3749 3750 0
-3751 245 0
-3752 242 0
-3753 230 0
-3754 214 0
-3755 182 0
3753 3752 -254 3751 3754 3755 0
-3756 237 0
-3757 234 0
-3758 230 0
-3759 206 0
-3760 174 0
3758 3757 -254 3756 3759 3760 0
-3761 221 0
-3762 218 0
-3763 214 0
-3764 206 0
-3765 158 0
3763 3762 -254 3761 3764 3765 0
-3766 189 0
-3767 186 0
-3768 182 0
-3769 174 0
-3770 158 0
3768 3767 -254 3766 3769 3770 0
-5417 377 0
-5418 371 0
-5419 363 0
-5420 347 0
322 -5421 0
315 -5421 0
5420 5419 -380 5418 5417 5421 0
-5442 315 0
-5443 314 0
-5444 308 0
-5445 300 0
-5446 284 0
5442 5443 -380 5444 5445 5446 0
-249 -8 0
-12 -245 0
-237 -20 0
-221 -36 0
-189 -68 0
-70 -315 0
-3 0
-5 0
-17 0
-33 0
-65 0
127 0
-69 70 0
-70 69 0
68 -67 0
-68 67 0
36 -35 0
20 -19 0
-20 19 0
8 -7 0
254 0
-314 -69 0
-61 -322 0
-377 -6 0
-308 -69 0
-55 -322 0
-371 -6 0
-300 -69 0
-47 -322 0
-363 -6 0
-284 -69 0
-31 -322 0
-347 -6 0
380 0
-186 -67 0
-218 -35 0
-234 -19 0
-242 -11 0
-249 -4 0
-182 -67 0
-214 -35 0
-230 -19 0
-242 -7 0
-245 -4 0
-174 -67 0
-206 -35 0
-230 -11 0
-234 -7 0
-237 -4 0
-158 -67 0
-206 -19 0
-214 -11 0
-218 -7 0
-221 -4 0
-158 -35 0
-174 -19 0
-182 -11 0
-186 -7 0
-189 -4 0
