p cnf 5592 254
128 0
-397 11 0
-398 3 0
-399 4 0
-12 397 398 399 0
-421 3 0
-422 5 0
-423 7 0
-15 423 422 421 0
-433 4 0
-434 6 0
-435 7 0
-16 435 433 434 0
-469 3 0
-470 5 0
-471 7 0
-23 471 470 469 0
-481 4 0
-482 6 0
-483 7 0
-24 483 481 482 0
-585 24 0
-586 23 0
-587 11 0
-588 20 0
-589 8 0
587 -32 586 585 588 589 0
-590 16 0
-591 15 0
19 -592 0
-593 12 0
-594 8 0
592 -32 591 590 593 594 0
-631 4 0
-632 6 0
-633 7 0
-40 633 631 632 0
-703 7 0
11 -704 0
37 -704 0
-705 35 0
-47 704 703 705 0
-715 47 0
-716 3 0
-717 5 0
-718 40 0
-719 33 0
-48 718 716 717 715 719 0
-805 7 0
19 -806 0
37 -806 0
-807 35 0
-55 807 805 806 0
-817 55 0
-818 3 0
-819 5 0
-820 40 0
-821 33 0
-56 820 818 819 817 821 0
-955 3 0
-956 5 0
-957 55 0
-958 47 0
-959 33 0
-63 957 956 955 958 959 0
-1225 7 0
-1226 69 0
-1227 67 0
-87 1227 1225 1226 0
-1495 7 0
-1496 69 0
-1497 67 0
-103 1497 1495 1496 0
117 -2045 0
-2046 115 0
-2047 103 0
-2048 87 0
-2049 55 0
2045 2046 -127 2047 2048 2049 0
109 -2050 0
-2051 107 0
-2052 103 0
-2053 79 0
-2054 47 0
2050 2051 -127 2052 2053 2054 0
67 -2060 0
61 -2060 0
-2061 69 0
-2061 59 0
-2062 55 0
-2063 47 0
-2064 31 0
2060 2062 -127 2061 2063 2064 0
-2114 65 0
-2115 63 0
-2116 67 0
-2117 69 0
-2118 56 0
-2119 48 0
-2120 32 0
2115 2116 2117 2118 2119 2120 -128 2114 0
-3741 249 0
-3742 245 0
-3743 237 0
-3744 162 0
-3744 221 0
-3745 194 0
-3745 189 0
3742 3741 -254 3743 3744 3745 0
-3746 249 0
-3747 242 0
-3748 234 0
-3749 218 0
-3750 186 0
3747 3749 -254 3746 3748 3750 0
138 -3751 0
-3751 245 0
-3752 242 0
-3753 230 0
-3754 214 0
-3755 182 0
3753 3754 -254 3751 3752 3755 0
146 -3756 0
-3756 237 0
-3757 234 0
-3758 230 0
-3759 206 0
-3760 174 0
3758 3759 -254 3757 3756 3760 0
-3761 221 0
-3762 218 0
-3763 214 0
-3764 206 0
-3765 158 0
3763 3762 -254 3761 3764 3765 0
-3766 194 0
197 -3767 0
-3767 186 0
-3768 182 0
-3769 174 0
225 -3770 0
-3770 158 0
3768 3770 -254 3766 3767 3769 0
-3989 260 0
266 -3990 0
275 -3990 0
-3991 274 0
-3991 267 0
3990 3991 -284 3989 0
-5417 377 0
-5418 371 0
-5419 363 0
-5420 347 0
322 -5421 0
315 -5421 0
5419 5418 -380 5417 5420 5421 0
-5437 347 0
-5438 346 0
-5439 340 0
-5440 332 0
-5441 284 0
5439 5441 -380 5437 5440 5438 0
322 -5442 0
-5442 315 0
-5443 314 0
-5444 308 0
-5445 300 0
-5446 353 0
-5446 284 0
5442 5446 -380 5444 5445 5443 0
-314 -199 0
-249 -8 0
-12 -245 0
-20 -237 0
-32 -225 0
-32 -353 0
-221 -36 0
-347 -38 0
-59 -194 -261 0
-196 -61 0
-70 -315 0
-274 -109 -131 0
-3 0
-5 0
-33 0
-65 0
127 0
-267 -245 0
-237 -275 0
-260 -245 0
-308 -197 0
-260 -237 0
-300 -197 0
-69 70 0
38 -37 0
36 -35 0
8 -7 0
-8 7 0
131 0
254 0
-117 -266 0
-314 -69 0
-346 -37 0
-377 -6 0
-308 -69 0
-55 -322 0
-340 -37 0
-371 -6 0
-300 -69 0
-47 -322 0
-332 -37 0
-363 -6 0
-284 -69 0
-31 -322 0
-347 -6 0
199 -197 0
-194 196 0
261 0
380 0
-115 -138 0
-107 -146 0
-186 -67 0
-218 -35 0
-234 -19 0
-242 -11 0
-249 -4 0
-103 -146 0
-182 -67 0
-214 -35 0
-230 -19 0
-242 -7 0
-245 -4 0
-103 -138 0
-174 -67 0
-47 -194 0
-206 -35 0
-230 -11 0
-234 -7 0
-237 -4 0
-87 -138 0
-79 -146 0
-158 -67 0
-31 -194 0
-206 -19 0
-214 -11 0
-218 -7 0
-221 -4 0
-47 -146 0
-158 -35 0
-162 -31 0
-174 -19 0
-182 -11 0
-186 -7 0
-189 -4 0
