p cnf 5592 919
128 0
256 0
384 0
-421 3 0
-422 5 0
-423 7 0
-15 423 422 421 0
-469 3 0
-470 5 0
-471 7 0
-23 471 470 469 0
-553 7 0
-554 11 0
-555 13 0
-31 555 553 554 0
-619 3 0
-620 5 0
-621 33 0
-39 619 620 621 0
-655 3 0
-656 35 0
-657 33 0
-43 656 655 657 0
-703 7 0
-704 11 0
-704 37 0
-705 35 0
-705 13 0
-47 704 705 703 0
-720 47 0
-721 4 0
-721 45 0
-722 43 0
-723 39 0
-724 15 0
-48 724 720 722 723 721 0
-805 7 0
-806 37 0
-807 35 0
806 -55 805 807 0
-842 33 0
-843 23 0
-844 35 0
-845 37 0
-846 8 0
-56 845 846 843 842 844 0
-913 13 0
-914 41 0
-915 37 0
915 -61 914 913 0
-975 47 0
-976 19 0
-976 45 0
-977 21 0
-977 43 0
-978 39 0
-979 15 0
-63 975 976 979 978 977 0
-1075 3 0
-1076 67 0
-1077 65 0
-75 1076 1075 1077 0
-1123 7 0
-1124 11 0
-1124 69 0
-1125 67 0
-1125 13 0
1125 -79 1123 1124 0
-1145 3 0
-1146 4 0
-1147 7 0
-1148 11 0
-1149 67 0
-80 1148 1147 1146 1145 1149 0
-1150 5 0
-1151 75 0
-1152 7 0
-1153 13 0
-1153 68 0
-1154 69 0
-1154 12 0
-80 1154 1152 1151 1150 1153 0
-1225 7 0
-1226 19 0
-1226 69 0
-1227 67 0
-1227 21 0
1226 1225 -87 1227 0
-1247 3 0
-1248 4 0
-1249 7 0
-1250 70 0
-1251 67 0
-88 1249 1248 1250 1247 1251 0
-1333 13 0
-1333 81 0
-1334 21 0
-1335 69 0
-93 1334 1335 1333 0
-1345 93 0
-1346 5 0
-1347 86 0
-1348 78 0
-1349 65 0
-94 1348 1347 1345 1346 1349 0
-1400 65 0
-1401 67 0
-1402 69 0
-1403 23 0
-1404 15 0
-95 1401 1402 1400 1403 1404 0
-1447 3 0
-1448 33 0
-1449 65 0
-99 1447 1448 1449 0
-1471 5 0
-1472 33 0
-1473 65 0
-101 1471 1472 1473 0
-1495 7 0
-1495 97 0
-1496 35 0
-1496 69 0
-1497 67 0
-1497 37 0
-103 1497 1496 1495 0
-1517 3 0
-1518 101 0
-1519 98 0
-1520 70 0
-1521 38 0
-104 1521 1520 1518 1519 1517 0
-1536 8 0
-1593 33 0
-1594 75 0
-1595 35 0
-1596 68 0
-1597 12 0
-108 1596 1595 1594 1597 1593 0
-1603 13 0
-1603 97 0
-1604 37 0
-1604 73 0
-1605 69 0
-1605 41 0
-109 1604 1603 1605 0
-1645 3 0
-1646 5 0
-1647 103 0
-1648 33 0
-1649 65 0
-111 1647 1646 1645 1648 1649 0
-1655 5 0
-1656 7 0
-1657 99 0
-1658 75 0
-1659 43 0
-111 1656 1658 1657 1659 1655 0
-1670 65 0
-1671 67 0
-1672 69 0
-1673 39 0
-1674 15 0
-111 1671 1672 1670 1673 1674 0
-1729 19 0
-1729 97 0
-1730 35 0
-1731 49 0
1731 -115 1729 1730 0
-1813 3 0
-1814 5 0
-1815 103 0
-1816 33 0
-1817 65 0
-119 1815 1814 1813 1816 1817 0
-2035 7 0
-2036 11 0
-2036 117 0
-2037 19 0
-2037 109 0
-2038 35 0
-2038 93 0
-2039 67 0
-2039 61 0
2037 2039 2035 2036 -127 2038 0
-2040 7 0
-2040 121 0
13 -2041 0
115 -2041 0
-2042 21 0
-2042 107 0
-2043 37 0
-2043 91 0
-2044 69 0
-2044 59 0
2041 2044 2043 2042 -127 2040 0
-2045 11 0
-2045 117 0
-2046 13 0
-2046 115 0
-2047 103 0
-2048 41 0
-2048 87 0
-2049 73 0
-2049 55 0
2047 2046 2048 2049 2045 -127 0
-2050 109 0
-2051 107 0
-2052 103 0
-2053 49 0
-2053 79 0
-2054 81 0
-2054 47 0
2052 2053 2054 2051 2050 -127 0
35 -2055 0
-2055 93 0
-2056 37 0
-2056 91 0
-2057 41 0
87 -2057 0
-2058 49 0
-2058 79 0
-2059 97 0
-2059 31 0
2056 2055 2057 2059 2058 -127 0
-2060 61 0
-2061 69 0
-2061 59 0
73 -2062 0
55 -2062 0
-2063 81 0
-2063 47 0
-2064 97 0
-2064 31 0
2062 2060 2061 2064 2063 -127 0
-2079 3 0
-2080 4 0
-2081 7 0
-2082 11 0
-2082 118 0
-2083 110 0
-2084 35 0
94 -2084 0
-2085 67 0
2081 2080 2082 2083 2084 2085 -128 2079 0
-2093 120 0
-2094 119 0
-2095 11 0
-2095 118 0
-2096 13 0
116 -2096 0
-2097 104 0
-2098 41 0
-2098 88 0
-2099 73 0
-2099 56 0
2095 2094 2096 2097 2098 2099 -128 2093 0
-2100 112 0
-2101 111 0
-2102 19 0
-2102 110 0
-2103 21 0
-2103 108 0
-2104 104 0
-2105 49 0
-2105 80 0
-2106 81 0
48 -2106 0
2101 2102 2103 2104 2105 2106 -128 2100 0
-2107 33 0
-2108 95 0
-2109 35 0
-2110 37 0
-2110 92 0
-2111 88 0
-2112 80 0
-2113 97 0
-2113 32 0
2109 2108 2110 2111 2112 2113 -128 2107 0
-2114 65 0
-2115 63 0
-2116 67 0
62 -2116 0
-2117 69 0
-2118 73 0
-2118 56 0
-2119 81 0
-2119 48 0
-2120 97 0
-2120 32 0
2115 2116 2117 2118 2119 2120 -128 2114 0
-2277 134 0
-2277 153 0
-2278 138 0
-2278 149 0
-2279 146 0
-2279 141 0
-158 2277 2279 2278 0
-2451 130 0
-2452 174 0
-2453 133 0
-2454 168 0
-2455 144 0
-176 2452 2454 2455 2451 2453 0
-2529 134 0
146 -2530 0
-2530 165 0
-2531 162 0
-2531 149 0
2529 2531 -182 2530 0
-2538 162 0
-2538 149 0
-2539 165 0
146 -2539 0
177 -2540 0
-2540 134 0
2540 2538 2539 -182 0
-2649 141 0
-2649 177 0
-2650 149 0
-2651 153 0
-189 2649 2650 2651 0
-2691 189 0
-2692 133 0
-2693 183 0
-2694 145 0
-2695 159 0
2693 -191 2691 2695 2694 2692 0
-2847 134 0
-2847 201 0
-2848 197 0
-2849 141 0
2847 -206 2849 2848 0
-2949 134 0
-2949 209 0
-2950 146 0
-2950 197 0
194 -2951 0
149 -2951 0
2951 2950 -214 2949 0
-3015 209 0
-3016 201 0
-3017 153 0
3016 -218 3017 3015 0
-3069 209 0
149 -3070 0
-3071 197 0
-3071 153 0
3070 -221 3071 3069 0
-3285 138 0
-3286 162 0
-3287 194 0
3286 3285 -234 3287 0
-3339 141 0
-3339 225 0
-3340 165 0
-3341 197 0
-237 3340 3341 3339 0
-3381 237 0
-3382 133 0
-3383 231 0
-3384 207 0
-3385 193 0
-239 3384 3381 3383 3382 3385 0
-3453 146 0
-3454 162 0
-3454 209 0
-3455 194 0
-3455 177 0
-242 3455 3454 3453 0
-3507 225 0
-3508 165 0
-3509 197 0
-245 3507 3509 3508 0
134 -3741 0
-3741 249 0
-3742 138 0
-3742 245 0
-3743 146 0
-3743 237 0
162 -3744 0
221 -3744 0
-3745 194 0
-3745 189 0
3744 3743 3741 3742 -254 3745 0
-3746 134 0
-3746 249 0
-3747 141 0
-3747 242 0
-3748 149 0
234 -3748 0
-3749 165 0
-3749 218 0
-3750 197 0
-3750 186 0
3748 3749 3746 3747 3750 -254 0
-3751 138 0
-3751 245 0
-3752 141 0
-3752 242 0
-3753 230 0
169 -3754 0
-3754 214 0
201 -3755 0
-3755 182 0
3755 3753 3754 3751 3752 -254 0
-3756 146 0
-3756 237 0
-3757 149 0
-3757 234 0
-3758 230 0
177 -3759 0
-3759 206 0
-3760 209 0
-3760 174 0
3759 3757 3760 3756 3758 -254 0
-3761 221 0
-3762 165 0
-3762 218 0
169 -3763 0
-3763 214 0
-3764 206 0
-3765 225 0
-3765 158 0
3764 3765 3763 3762 3761 -254 0
-3766 194 0
-3766 189 0
-3767 186 0
201 -3768 0
182 -3768 0
-3769 209 0
-3769 174 0
-3770 225 0
-3770 158 0
3768 3770 3767 3769 3766 -254 0
-3836 240 0
-3837 239 0
-3838 238 0
-3839 149 0
-3840 153 0
-3841 208 0
-3842 209 0
3837 3838 3839 3840 3841 3842 -256 3836 0
-3850 193 0
-3851 194 0
191 -3851 0
-3852 190 0
-3853 197 0
-3854 184 0
-3855 176 0
225 -3856 0
-3856 160 0
3852 3851 3853 3854 3855 3856 -256 3850 0
-3869 258 0
-3870 259 0
-3871 265 0
-268 3869 3870 3871 0
-3953 260 0
-3954 262 0
-3955 263 0
-280 3954 3955 3953 0
-3989 260 0
-3989 281 0
-3990 266 0
-3990 275 0
-3991 274 0
267 -3991 0
-284 3991 3990 3989 0
-4037 258 0
-4038 259 0
-4039 284 0
-4040 265 0
272 -4041 0
4041 4039 -288 4037 4040 4038 0
-4103 260 0
-4104 262 0
-4104 291 0
-4105 290 0
-4105 263 0
-296 4103 4104 4105 0
-4139 260 0
-4139 297 0
-4140 266 0
-4140 291 0
290 -4141 0
267 -4141 0
4141 4139 -300 4140 0
-4200 294 0
-4212 289 0
-4213 290 0
271 -4213 0
-4214 291 0
-4214 270 0
-4215 268 0
264 -4216 0
4216 4213 -304 4214 4215 4212 0
-4241 260 0
-4241 305 0
-4242 274 0
-4242 291 0
-4243 290 0
-4243 275 0
4241 -308 4243 4242 0
-4289 258 0
-4290 259 0
-4291 308 0
-4292 296 0
-4293 289 0
-312 4292 4291 4289 4290 4293 0
-4343 267 0
-4344 275 0
-4345 281 0
4343 -315 4345 4344 0
-4355 258 0
-4356 259 0
-4357 265 0
-4358 300 0
-4359 289 0
-316 4358 4356 4357 4355 4359 0
-4413 266 0
-4457 260 0
-4458 315 0
-4459 311 0
-4460 303 0
-4461 287 0
-320 4461 4460 4457 4458 4459 0
-4462 317 0
-4463 263 0
-4464 267 0
-4465 302 0
-4466 286 0
-320 4463 4466 4465 4464 4462 0
-4472 311 0
-4473 310 0
-4474 308 0
-4475 296 0
-4476 297 0
-320 4474 4473 4472 4476 4475 0
-4480 296 0
-4523 260 0
-4524 262 0
-4525 263 0
-328 4523 4524 4525 0
-4559 260 0
-4560 266 0
-4561 322 0
-4561 267 0
4559 4561 -332 4560 0
-4709 258 0
-4710 259 0
-4711 340 0
-4712 328 0
-4713 280 0
-344 4712 4711 4713 4710 4709 0
-4763 267 0
-4764 275 0
-4765 281 0
4763 -347 4765 4764 0
-4931 260 0
-4932 290 0
-4932 323 0
-4933 322 0
-4933 291 0
-356 4931 4932 4933 0
-4979 258 0
-4980 259 0
-4981 356 0
-4982 289 0
-4983 296 0
-360 4983 4981 4979 4982 4980 0
-5103 266 0
-5189 274 0
-5190 290 0
-5191 322 0
5189 5191 5190 -370 0
-5201 275 0
-5202 291 0
-5203 323 0
-371 5201 5202 5203 0
-5266 262 0
-5417 260 0
-5417 377 0
-5418 266 0
-5418 371 0
-5419 274 0
-5419 363 0
-5420 290 0
-5420 347 0
-5421 322 0
-5421 315 0
5421 5417 5418 5419 5420 -380 0
260 -5422 0
-5422 377 0
267 -5423 0
-5423 370 0
275 -5424 0
-5424 362 0
-5425 291 0
-5425 346 0
-5426 323 0
5423 5426 5424 5422 5425 -380 0
-5427 266 0
-5427 371 0
-5428 267 0
-5428 370 0
281 -5429 0
-5429 356 0
-5430 297 0
-5430 340 0
-5431 329 0
-5431 308 0
5428 5431 5430 5427 5429 -380 0
-5432 274 0
-5432 363 0
-5433 275 0
-5433 362 0
-5434 281 0
-5434 356 0
305 -5435 0
332 -5435 0
-5436 300 0
5435 5436 5432 5433 5434 -380 0
-5437 290 0
-5437 347 0
-5438 291 0
-5438 346 0
-5439 340 0
-5440 305 0
-5440 332 0
353 -5441 0
-5441 284 0
5440 5439 5441 5438 5437 -380 0
-5442 322 0
315 -5442 0
-5443 323 0
314 -5443 0
329 -5444 0
308 -5444 0
-5445 300 0
-5446 353 0
-5446 284 0
5444 5442 5445 5446 5443 -380 0
-5552 260 0
-5553 263 0
-5554 267 0
-5555 366 0
-5556 291 0
-5565 376 0
-5566 266 0
-5567 267 0
-5568 372 0
-5569 360 0
-5570 344 0
-5571 312 0
5566 5567 5568 5569 5570 5571 -384 5565 0
-5586 320 0
-5587 322 0
-5587 319 0
-5588 323 0
-5588 318 0
-5589 316 0
-5590 312 0
-5591 304 0
353 -5592 0
288 -5592 0
5586 5587 5588 5589 5590 5591 5592 -384 0
-249 -264 0
-242 -271 0
-238 -275 0
-225 -288 0
-218 -295 0
-297 -216 0
-302 -211 0
-209 -304 0
-312 -201 0
-314 -199 0
-319 -194 0
-184 -329 0
-160 -353 0
-153 -360 0
-362 -151 0
-372 -141 0
-377 -136 0
-237 -275 -2 0
-291 -221 -2 0
-197 -315 -2 0
-189 -323 -2 0
-183 -329 -2 0
-159 -353 -2 0
-371 -141 -2 0
-8 -249 0
-281 -8 -225 0
-297 -8 -209 0
-8 -177 -329 0
-153 -8 -353 0
-377 -8 0
-12 -245 0
-13 -211 -290 0
-148 -13 -353 0
-372 -13 0
-15 -242 0
-19 -270 -225 0
-19 -201 -294 0
-19 -301 -194 0
-366 -19 0
-23 -266 -225 0
-23 -297 -194 0
-32 -225 0
-32 -353 0
-218 -35 -261 0
-36 -221 0
-36 -281 -197 0
-37 -281 -196 0
-148 -37 -329 0
-38 -209 -267 0
-38 -275 -201 0
-347 -38 0
-41 -216 0
-209 -41 -264 0
-344 -41 0
-43 -214 0
-45 -323 -146 0
-48 -209 0
-208 -49 0
-266 -49 -199 0
-49 -271 -194 0
-136 -49 -329 0
-56 -201 0
-56 -329 0
-61 -196 0
-61 -322 -131 0
-62 -323 0
-63 -194 0
-190 -67 0
-270 -177 -67 0
-153 -294 -67 0
-301 -146 -67 0
-318 -67 0
-189 -68 0
-281 -165 -68 0
-297 -149 -68 0
-141 -305 -68 0
-317 -68 0
-70 -177 -267 0
-169 -70 -275 0
-153 -70 -291 0
-70 -315 0
-184 -73 0
-177 -264 -73 0
-151 -290 -73 0
-146 -295 -73 0
-312 -73 0
-75 -182 0
-80 -177 0
-81 -271 -162 0
-138 -81 -295 0
-81 -304 0
-88 -297 0
-91 -162 -261 0
-91 -294 0
-92 -165 0
-95 -162 0
-97 -266 -151 0
-97 -146 -271 0
-281 -97 -136 0
-97 -288 0
-153 -263 -98 0
-98 -267 -149 0
-141 -98 -275 0
-287 -98 0
-153 -104 0
-281 -104 0
-107 -146 -261 0
-108 -149 0
-109 -148 0
-110 -275 0
-270 -115 0
-141 -116 0
-118 -267 0
-121 -136 0
-3 0
-5 0
-33 0
-65 0
2 0
127 0
-263 -249 0
-245 -267 0
-231 -281 0
-347 -165 0
-363 -149 0
-245 -260 0
-263 -242 0
-230 -275 0
-291 -214 0
-296 -209 0
-197 -308 0
-311 -194 0
-323 -182 0
-340 -165 0
-356 -149 0
-371 -134 0
-376 0
-240 0
-237 -260 0
-263 -234 0
-230 -267 0
-207 -290 0
-206 -291 0
-296 -201 0
-197 -300 0
-303 -194 0
-174 -323 0
-168 -329 0
-165 -332 0
-144 -353 0
-141 -356 0
-363 -134 0
-103 104 0
-104 103 0
-97 98 0
-98 97 0
-69 70 0
-70 69 0
68 -67 0
-37 38 0
-35 36 0
-7 8 0
-8 7 0
-130 0
-133 0
-145 0
-193 0
131 0
254 0
-117 -266 0
-109 -274 0
-93 -290 0
-310 -73 0
-314 -69 0
-346 -37 0
-21 -362 0
-370 -13 0
-120 0
-117 -260 0
-262 -115 0
-103 -274 0
-87 -290 0
-81 -296 0
-69 -308 0
-322 -55 0
-340 -37 0
-356 -21 0
-7 -370 0
-93 -260 0
-262 -91 0
-266 -87 0
-86 -267 0
-81 -272 0
-274 -79 0
-78 -275 0
-69 -284 0
-286 -67 0
-31 -322 0
-21 -332 0
-340 -13 0
-346 -7 0
216 -214 0
-216 214 0
211 -209 0
199 -197 0
196 -194 0
151 -149 0
-146 148 0
-148 146 0
136 -134 0
-136 134 0
-258 0
-259 0
-265 0
-289 0
261 0
380 0
-138 -115 0
-186 -67 0
-59 -194 0
-19 -234 0
-11 -242 0
-112 0
-107 -134 0
-138 -103 0
-79 -162 0
-168 -73 0
-174 -67 0
-47 -194 0
-35 -206 0
-11 -230 0
-7 -234 0
-59 -134 0
-138 -55 0
-47 -146 0
-158 -35 0
-31 -162 0
-174 -19 0
-11 -182 0
-186 -7 0
-4 -189 0
-300 304 0
300 -304 0
-297 301 0
295 -291 0
294 -290 0
-294 290 0
271 -267 0
267 -271 0
-266 270 0
-270 266 0
-260 264 0
260 -264 0
