p cnf 5592 794
128 0
256 0
384 0
-553 7 0
-554 11 0
-554 21 0
-555 19 0
13 -555 0
554 555 -31 553 0
-631 4 0
-632 6 0
-633 7 0
-40 632 631 633 0
-655 3 0
-656 35 0
-657 33 0
-43 656 655 657 0
-715 47 0
-716 3 0
-717 5 0
-718 40 0
-719 33 0
-48 718 716 717 715 719 0
-757 3 0
-758 17 0
-759 33 0
-51 757 758 759 0
-769 4 0
-770 35 0
-771 19 0
-52 771 769 770 0
-806 19 0
-808 7 0
-809 35 0
19 -810 0
810 -55 809 808 0
-832 5 0
-833 51 0
-834 7 0
21 -835 0
-835 36 0
-836 20 0
-56 834 832 833 835 836 0
-845 20 0
-883 59 0
-884 3 0
-885 52 0
-886 17 0
-887 33 0
-60 885 884 883 886 887 0
-893 3 0
-894 4 0
-895 11 0
-896 19 0
-897 35 0
-60 895 893 894 897 896 0
-903 17 0
-904 43 0
-905 19 0
-906 36 0
-907 12 0
-60 907 903 904 905 906 0
-925 61 0
-926 5 0
-927 54 0
-928 17 0
-929 33 0
-62 927 926 925 928 929 0
-955 3 0
-956 5 0
-957 55 0
-958 17 0
-959 33 0
-63 957 956 955 958 959 0
-1123 73 0
-1124 11 0
-1125 67 0
1124 -79 1125 1123 0
-1225 7 0
-1227 67 0
-1228 7 0
-1229 21 0
-1229 67 0
-1230 69 0
-1230 19 0
-87 1230 1229 1228 0
-1291 11 0
-1291 81 0
-1292 19 0
-1293 67 0
-1293 25 0
1292 -91 1293 1291 0
-1447 3 0
-1448 33 0
-1449 65 0
-99 1447 1448 1449 0
-1573 107 0
-1574 3 0
-1575 100 0
-1576 33 0
-1577 65 0
-108 1575 1574 1573 1576 1577 0
-1756 17 0
-1757 99 0
-1758 19 0
-1759 68 0
-1760 36 0
-116 1758 1756 1757 1759 1760 0
-1915 3 0
-1916 115 0
-1917 17 0
-1918 33 0
-1919 65 0
-123 1916 1915 1917 1918 1919 0
-2035 7 0
-2035 121 0
-2036 11 0
-2036 117 0
-2037 19 0
-2037 109 0
-2038 35 0
93 -2038 0
-2039 67 0
-2039 61 0
2037 2039 -127 2038 2035 2036 0
-2040 7 0
-2040 121 0
-2041 115 0
-2042 107 0
37 -2043 0
-2043 91 0
69 -2044 0
-2044 59 0
2042 2044 -127 2043 2040 2041 0
-2045 11 0
-2045 117 0
13 -2046 0
-2046 115 0
-2047 103 0
-2048 87 0
-2049 55 0
2046 2049 -127 2048 2047 2045 0
19 -2050 0
109 -2050 0
-2051 21 0
-2051 107 0
25 -2052 0
-2052 103 0
49 -2053 0
-2053 79 0
81 -2054 0
-2054 47 0
2050 2052 -127 2053 2054 2051 0
35 -2055 0
93 -2055 0
-2056 37 0
-2056 91 0
-2057 87 0
-2058 79 0
-2059 31 0
2055 2056 -127 2059 2057 2058 0
-2060 67 0
-2060 61 0
69 -2061 0
-2061 59 0
-2062 55 0
-2063 47 0
97 -2064 0
-2064 31 0
2060 2061 -127 2064 2062 2063 0
-2086 5 0
-2087 6 0
-2087 123 0
-2088 7 0
-2089 116 0
-2090 21 0
-2090 108 0
-2091 37 0
-2092 60 0
2088 2087 2089 2090 2091 2092 -128 2086 0
-2100 17 0
-2101 111 0
-2102 19 0
-2103 108 0
-2104 104 0
-2105 80 0
48 -2106 0
2101 2102 2103 2104 2105 2106 -128 2100 0
-2114 65 0
-2115 63 0
-2116 67 0
62 -2116 0
-2117 69 0
-2117 60 0
-2118 56 0
-2119 81 0
-2119 48 0
-2120 32 0
2116 2115 2117 2118 2119 2120 -128 2114 0
-2145 130 0
-2146 133 0
-2147 137 0
-142 2145 2146 2147 0
-2277 134 0
-2278 138 0
149 -2278 0
146 -2279 0
141 -2279 0
2279 -158 2278 2277 0
-2288 134 0
-2308 134 0
-2326 144 0
-2327 143 0
-2328 142 0
-2329 140 0
-2330 136 0
-160 2327 2326 2328 2329 2330 0
-2343 130 0
-2344 133 0
-2345 134 0
-166 2345 2344 2343 0
-2379 130 0
-2380 137 0
-2381 138 0
-170 2381 2380 2379 0
-2415 133 0
-2416 137 0
-2417 141 0
-173 2417 2416 2415 0
-2427 134 0
-2428 138 0
-2428 165 0
-2429 162 0
-174 2428 2429 2427 0
-2458 134 0
-2461 174 0
-2462 132 0
-2462 173 0
-2463 170 0
-2464 139 0
-2464 166 0
-2465 142 0
-176 2462 2463 2464 2461 2465 0
-2476 144 0
-2477 162 0
-2478 142 0
-2479 165 0
-2480 136 0
-176 2479 2477 2478 2480 2476 0
-2595 138 0
146 -2596 0
-2597 162 0
2596 2595 -186 2597 0
-2655 149 0
-2656 153 0
-2657 177 0
-2657 141 0
2655 2657 -189 2656 0
-2666 130 0
-2667 134 0
-2668 138 0
-2669 173 0
-2670 162 0
-190 2669 2666 2667 2670 2668 0
-2763 130 0
-2764 133 0
-2765 193 0
-198 2763 2764 2765 0
-2847 134 0
-2847 201 0
-2848 138 0
-2848 197 0
-2849 194 0
-2849 141 0
-206 2849 2848 2847 0
-2895 136 0
-2896 193 0
-2897 194 0
-2897 143 0
-2898 142 0
-2899 140 0
-2900 201 0
-2900 136 0
-208 2899 2896 2898 2897 2900 0
-2937 133 0
-2938 197 0
-2939 193 0
-213 2938 2937 2939 0
-2949 134 0
-2950 146 0
-2950 197 0
-2951 194 0
149 -2951 0
-214 2949 2950 2951 0
-2978 130 0
-2979 213 0
-2980 134 0
-2981 199 0
-2982 151 0
-216 2980 2978 2981 2979 2982 0
-3015 138 0
-3016 201 0
-3017 194 0
-218 3016 3017 3015 0
-3039 130 0
-3040 218 0
-3041 137 0
-3042 204 0
-3043 193 0
-220 3040 3039 3041 3042 3043 0
-3081 130 0
-3082 133 0
-3083 137 0
-3084 206 0
-3085 193 0
-222 3084 3082 3083 3081 3085 0
-3161 207 0
-3162 206 0
-3163 204 0
-3164 153 0
-3164 200 0
-3165 144 0
-224 3164 3161 3163 3162 3165 0
-3171 130 0
-3172 194 0
-3173 193 0
-226 3172 3171 3173 0
-3207 133 0
-3208 197 0
-3209 193 0
-229 3208 3207 3209 0
-3219 134 0
-3220 162 0
-3220 197 0
-3221 194 0
-230 3221 3220 3219 0
-3253 230 0
-3254 229 0
-3255 226 0
-3256 198 0
-3257 166 0
-232 3253 3254 3257 3256 3255 0
-3330 162 0
141 -3339 0
-3340 201 0
-3341 197 0
3339 3340 3341 -237 0
-3351 130 0
-3352 133 0
-3353 137 0
-3354 206 0
-3355 193 0
-238 3354 3352 3353 3351 3355 0
-3366 137 0
-3367 138 0
-3367 229 0
-3368 226 0
-3369 198 0
-3370 201 0
-238 3370 3366 3368 3369 3367 0
-3396 137 0
-3397 229 0
-3398 141 0
-3399 199 0
-3400 201 0
-239 3398 3396 3400 3399 3397 0
-3741 134 0
-3741 249 0
-3742 138 0
-3742 245 0
146 -3743 0
-3743 237 0
162 -3744 0
221 -3744 0
194 -3745 0
189 -3745 0
3745 3743 -254 3742 3744 3741 0
-3746 134 0
-3746 249 0
-3747 141 0
-3747 242 0
-3748 234 0
-3749 165 0
-3750 186 0
3750 3747 -254 3749 3748 3746 0
-3751 138 0
-3751 245 0
141 -3752 0
242 -3752 0
-3753 153 0
-3753 230 0
-3754 169 0
-3754 214 0
-3755 201 0
182 -3755 0
3752 3754 -254 3755 3751 3753 0
-3756 237 0
-3757 234 0
-3758 230 0
-3759 206 0
-3760 174 0
3760 3757 -254 3756 3759 3758 0
-3761 162 0
221 -3761 0
-3762 218 0
-3763 214 0
-3764 206 0
-3765 158 0
3765 3764 -254 3761 3762 3763 0
-3766 194 0
-3766 189 0
-3767 197 0
186 -3767 0
-3768 201 0
182 -3768 0
-3769 174 0
225 -3770 0
-3770 158 0
3770 3766 -254 3767 3768 3769 0
-3836 240 0
-3837 146 0
239 -3837 0
-3838 238 0
-3839 149 0
-3839 236 0
-3840 153 0
-3840 232 0
-3841 208 0
-3842 176 0
3838 3837 3839 3840 3841 3842 -256 3836 0
-3843 224 0
-3844 162 0
-3845 222 0
-3846 220 0
-3847 169 0
-3847 216 0
-3848 208 0
-3849 160 0
3843 3844 3845 3846 3847 3848 3849 -256 0
-3850 193 0
-3851 194 0
-3852 190 0
-3853 197 0
184 -3854 0
-3855 176 0
-3856 160 0
3851 3852 3853 3854 3855 3856 -256 3850 0
-3917 258 0
-3918 259 0
-3919 260 0
-276 3919 3918 3917 0
-3989 260 0
-3990 266 0
-3991 267 0
-284 3990 3989 3991 0
-4229 259 0
-4230 291 0
-4231 289 0
-307 4230 4229 4231 0
-4241 260 0
-4241 305 0
-4242 274 0
-4243 275 0
4243 -308 4241 4242 0
-4314 289 0
-4315 290 0
-4316 291 0
-4317 276 0
-4318 305 0
-312 4318 4314 4316 4315 4317 0
305 -4331 0
-4332 274 0
-4333 290 0
4331 -314 4332 4333 0
-4559 260 0
-4559 329 0
-4560 266 0
-4560 323 0
-4561 322 0
-4561 267 0
-332 4560 4559 4561 0
-4637 258 0
-4638 322 0
-4639 274 0
-338 4639 4637 4638 0
-4751 266 0
-4752 274 0
-4753 322 0
-346 4751 4753 4752 0
-4984 258 0
-4985 357 0
-4986 355 0
-4987 290 0
-4988 322 0
4985 -360 4984 4986 4988 4987 0
-5071 322 0
-5233 289 0
-5234 290 0
-5235 338 0
-5236 324 0
-5237 276 0
-372 5236 5233 5234 5235 5237 0
-5239 307 0
-5240 306 0
-5242 276 0
-5417 260 0
-5417 377 0
-5418 266 0
-5418 371 0
-5419 274 0
-5419 363 0
-5420 290 0
-5420 347 0
-5421 322 0
-5421 315 0
5421 5419 -380 5420 5417 5418 0
-5422 260 0
377 -5422 0
-5423 267 0
-5423 370 0
-5424 275 0
-5424 362 0
-5425 291 0
-5425 346 0
-5426 323 0
-5426 314 0
5426 5423 -380 5425 5422 5424 0
-5427 371 0
-5428 370 0
281 -5429 0
-5429 356 0
-5430 297 0
-5431 308 0
5429 5430 -380 5431 5427 5428 0
-5437 290 0
-5437 347 0
-5438 291 0
-5438 346 0
297 -5439 0
-5439 340 0
-5440 305 0
-5440 332 0
353 -5441 0
-5441 284 0
5439 5441 -380 5437 5438 5440 0
-5442 322 0
-5442 315 0
-5443 314 0
308 -5444 0
-5445 300 0
353 -5446 0
-5446 284 0
5444 5446 -380 5442 5443 5445 0
-5565 376 0
-5566 266 0
-5567 267 0
-5568 372 0
360 -5569 0
-5570 344 0
-5571 312 0
5567 5566 5568 5569 5570 5571 -384 5565 0
-5574 275 0
-5579 352 0
-5580 290 0
-5581 291 0
-5582 293 0
-5582 348 0
-5583 344 0
-5584 336 0
-5585 288 0
5581 5580 5582 5583 5584 5585 -384 5579 0
-249 -264 0
-274 -239 0
-276 -237 0
-229 -284 0
-293 -220 0
-295 -218 0
-216 -297 0
-305 -208 0
-314 -199 0
-173 -340 0
-344 -169 0
-166 -347 0
-348 -165 0
-160 -353 0
-355 -158 0
-370 -143 0
-136 -377 0
-291 -221 -2 0
-315 -197 -2 0
-371 -141 -2 0
-249 -8 0
-329 -177 -8 0
-153 -8 -353 0
-8 -377 0
-357 -11 -146 0
-12 -245 0
-305 -13 -196 0
-294 -201 -19 0
-20 -237 0
-20 -141 -353 0
-236 -21 0
-203 -290 -21 0
-297 -21 -196 0
-140 -21 -353 0
-323 -22 -169 0
-363 -22 0
-232 -25 0
-25 -264 -225 0
-25 -136 -353 0
-226 -31 0
-32 -353 0
-36 -221 0
-220 -37 0
-274 -203 -37 0
-281 -37 -196 0
-348 -37 0
-347 -38 0
-208 -49 0
-264 -201 -49 0
-266 -49 -199 0
-322 -143 -49 0
-336 -49 0
-207 -50 0
-267 -50 -197 0
-323 -141 -50 0
-54 -203 0
-201 -56 0
-59 -194 -261 0
-60 -197 0
-61 -196 0
-324 -61 0
-63 -194 0
-68 -189 0
-315 -70 0
-73 -184 0
-306 -79 0
-80 -305 0
-176 -81 0
-81 -264 -169 0
-81 -297 -136 0
-170 -87 0
-88 -169 0
-297 -88 0
-166 -91 0
-91 -162 -261 0
-294 -91 0
-160 -97 0
-153 -264 -97 0
-151 -266 -97 0
-274 -143 -97 0
-288 -97 0
-267 -149 -98 0
-275 -141 -98 0
-281 -104 0
-108 -149 0
-111 -146 0
-116 -141 0
-140 -117 0
-139 -118 0
-267 -118 0
-121 -136 0
-121 -264 0
-3 0
-5 0
-17 0
-33 0
-65 0
2 0
127 0
-267 -245 0
-275 -237 0
-323 -189 0
-347 -165 0
-363 -149 0
-245 -260 0
-214 -291 0
-197 -308 0
-340 -165 0
-371 -134 0
-376 0
118 -117 0
-115 116 0
-116 115 0
-103 104 0
-104 103 0
98 -97 0
-87 88 0
70 -69 0
-67 68 0
56 -55 0
-56 55 0
50 -49 0
38 -37 0
-35 36 0
35 -36 0
22 -21 0
20 -19 0
-7 8 0
-130 0
-133 0
-137 0
-193 0
254 0
-117 -266 0
-274 -109 0
-290 -93 0
-314 -69 0
-61 -322 0
-346 -37 0
-362 -21 0
-370 -13 0
-6 -377 0
-260 -109 0
-103 -266 0
-290 -79 0
-300 -69 0
-47 -322 0
-332 -37 0
-356 -13 0
-7 -362 0
-260 -93 0
-87 -266 0
-274 -79 0
-284 -69 0
-322 -31 0
-332 -21 0
-340 -13 0
-346 -7 0
-6 -347 0
-352 0
-206 208 0
-208 206 0
203 -201 0
199 -197 0
-199 197 0
196 -194 0
-196 194 0
143 -141 0
-143 141 0
-138 140 0
-140 138 0
-134 136 0
-136 134 0
-258 0
-259 0
-289 0
261 0
380 0
-138 -115 0
-107 -146 0
-67 -186 0
-52 -201 0
-204 -49 0
-234 -19 0
-11 -242 0
-249 -4 0
-132 -117 0
-115 -134 0
-103 -146 0
-87 -162 0
-67 -182 0
-55 -194 0
-200 -49 0
-214 -35 0
-230 -19 0
-7 -242 0
-245 -4 0
-107 -134 0
-103 -138 0
-100 -141 0
-79 -162 0
-174 -67 0
-47 -194 0
-40 -201 0
-35 -206 0
-230 -11 0
-234 -7 0
-237 -4 0
-240 0
-134 -59 0
-138 -55 0
-52 -141 0
-144 -49 0
-47 -146 0
-158 -35 0
-31 -162 0
-174 -19 0
-11 -182 0
-7 -186 0
-189 -4 0
295 -291 0
294 -290 0
264 -260 0
