p cnf 5592 613
128 0
384 0
-409 13 0
-410 5 0
-411 6 0
-14 409 410 411 0
-421 3 0
-422 5 0
-423 7 0
-15 423 422 421 0
-469 3 0
-470 5 0
-471 7 0
-23 471 470 469 0
-570 31 0
-571 4 0
-572 6 0
-573 23 0
-574 15 0
-32 572 570 571 573 574 0
-590 16 0
-591 15 0
-592 19 0
12 -593 0
-594 8 0
593 -32 591 592 590 594 0
-619 3 0
-620 5 0
-621 33 0
-39 619 620 621 0
-655 3 0
-656 35 0
-657 33 0
-43 656 655 657 0
-703 7 0
-704 37 0
-705 35 0
-47 703 705 704 0
-730 5 0
-731 43 0
-732 42 0
-733 36 0
-734 37 0
-48 732 730 734 731 733 0
-757 3 0
-758 35 0
-759 33 0
-51 758 757 759 0
-805 7 0
-806 19 0
-807 35 0
21 -807 0
805 -55 807 806 0
-817 55 0
-818 3 0
-819 5 0
-820 40 0
-821 33 0
820 -56 818 819 817 821 0
-832 5 0
-833 51 0
-834 7 0
-835 36 0
-836 20 0
836 834 832 835 833 -56 0
-837 40 0
-838 39 0
-839 19 0
-840 36 0
-841 8 0
837 -56 838 840 841 839 0
-1039 3 0
-1040 5 0
-1041 65 0
-71 1039 1040 1041 0
-1099 5 0
-1100 69 0
-1101 65 0
-77 1100 1099 1101 0
-1123 7 0
-1124 69 0
-1125 67 0
-1125 13 0
-79 1123 1124 1125 0
-1135 79 0
-1136 3 0
-1137 5 0
-1138 72 0
-1139 65 0
-80 1138 1136 1137 1135 1139 0
-1140 79 0
-1141 77 0
-1142 6 0
-1143 71 0
-1144 15 0
-80 1142 1141 1144 1143 1140 0
-1145 3 0
-1146 77 0
-1147 7 0
-1148 70 0
-1149 67 0
-1149 14 0
-80 1147 1145 1146 1148 1149 0
-1177 3 0
-1178 67 0
-1179 65 0
-83 1178 1177 1179 0
-1201 5 0
-1202 69 0
-1203 65 0
-85 1202 1201 1203 0
-1225 7 0
-1226 69 0
-1227 67 0
21 -1227 0
-87 1225 1226 1227 0
-1242 87 0
-1243 85 0
-1244 83 0
-1245 71 0
-1246 23 0
-88 1246 1243 1244 1245 1242 0
-1247 3 0
-1248 85 0
-1249 7 0
-1250 70 0
-1251 67 0
-88 1249 1247 1248 1250 1251 0
-1390 87 0
-1391 85 0
-1392 83 0
-1393 71 0
-1394 23 0
-95 1390 1391 1392 1393 1394 0
-1495 7 0
-1496 69 0
-1497 37 0
-103 1495 1496 1497 0
-1645 3 0
-1646 5 0
-1647 103 0
-1648 33 0
-1649 65 0
-111 1647 1646 1645 1648 1649 0
-1766 65 0
-1767 51 0
-1768 67 0
-1769 36 0
-1770 20 0
-116 1770 1766 1768 1769 1767 0
-1813 3 0
-1814 5 0
-1815 103 0
-1816 33 0
-1817 65 0
-119 1815 1814 1813 1816 1817 0
-2035 7 0
-2036 11 0
-2036 117 0
-2037 19 0
-2037 109 0
-2038 35 0
-2038 93 0
-2039 67 0
-2039 61 0
2035 2036 -127 2039 2037 2038 0
-2040 7 0
-2041 13 0
107 -2042 0
-2043 37 0
-2044 69 0
2042 2041 -127 2043 2040 2044 0
-2045 11 0
-2045 117 0
-2046 13 0
-2046 115 0
-2047 103 0
-2048 41 0
-2048 87 0
-2049 55 0
2047 2048 -127 2045 2049 2046 0
-2050 19 0
-2051 107 0
-2052 103 0
-2053 79 0
-2054 47 0
2051 2053 -127 2054 2050 2052 0
-2055 35 0
-2055 93 0
-2056 37 0
91 -2056 0
-2057 41 0
-2057 87 0
49 -2058 0
-2058 79 0
-2059 31 0
2057 2056 -127 2059 2055 2058 0
-2060 61 0
69 -2061 0
-2062 55 0
-2063 47 0
-2064 31 0
2061 2060 -127 2063 2064 2062 0
-2093 120 0
-2094 119 0
-2095 11 0
-2095 118 0
-2096 13 0
116 -2096 0
-2097 104 0
-2098 88 0
56 -2099 0
2094 2095 2096 2097 2098 2099 -128 2093 0
-2100 112 0
-2101 111 0
-2102 19 0
21 -2103 0
108 -2103 0
-2104 104 0
-2105 80 0
-2106 48 0
2102 2101 2103 2104 2105 2106 -128 2100 0
-2107 33 0
-2108 95 0
-2109 35 0
-2110 37 0
92 -2110 0
-2111 88 0
-2112 80 0
-2113 32 0
2109 2108 2110 2111 2112 2113 -128 2107 0
-2277 134 0
-2278 149 0
-2279 146 0
2277 2278 -158 2279 0
-2427 134 0
169 -2427 0
-2428 138 0
-2429 162 0
-174 2427 2428 2429 0
-2849 141 0
134 -2850 0
201 -2850 0
-2851 141 0
-2851 194 0
-2852 138 0
2850 -206 2851 2852 0
-2949 134 0
-2950 146 0
-2951 194 0
-214 2950 2949 2951 0
-3741 249 0
-3742 245 0
-3743 237 0
-3744 162 0
-3744 221 0
-3745 189 0
3743 3744 -254 3745 3741 3742 0
-3746 249 0
-3747 242 0
-3748 149 0
-3748 234 0
-3749 218 0
-3750 197 0
3750 3748 -254 3746 3747 3749 0
-3751 245 0
141 -3752 0
-3752 242 0
-3753 230 0
-3754 214 0
-3755 182 0
3753 3752 -254 3755 3751 3754 0
-3756 146 0
-3756 237 0
-3757 234 0
-3758 230 0
-3759 206 0
-3760 174 0
3760 3756 -254 3759 3757 3758 0
-3761 162 0
-3761 221 0
-3762 165 0
-3762 218 0
-3763 214 0
-3764 206 0
225 -3765 0
-3765 158 0
3764 3762 -254 3765 3761 3763 0
-3766 194 0
189 -3766 0
197 -3767 0
186 -3767 0
-3768 201 0
-3768 182 0
209 -3769 0
174 -3769 0
-3770 225 0
-3770 158 0
3767 3768 -254 3766 3770 3769 0
-3917 258 0
-3918 259 0
-3919 273 0
-276 3917 3918 3919 0
-3965 258 0
-3966 274 0
-3967 273 0
-282 3966 3965 3967 0
-3989 260 0
-3989 281 0
-3990 266 0
-3990 275 0
-3991 274 0
267 -3991 0
3990 -284 3989 3991 0
-4047 259 0
-4048 285 0
-4049 282 0
-4050 278 0
270 -4051 0
4051 -288 4047 4048 4050 4049 0
-4241 260 0
305 -4241 0
-4242 274 0
-4242 291 0
-4243 290 0
275 -4243 0
-308 4241 4243 4242 0
-4331 266 0
305 -4331 0
-4332 274 0
-4332 297 0
-4333 290 0
-4333 281 0
4331 -314 4333 4332 0
-4637 258 0
-4638 273 0
-4639 274 0
-338 4639 4638 4637 0
-4661 260 0
-4662 274 0
-4663 322 0
-340 4661 4662 4663 0
-4724 340 0
-4725 339 0
-4726 338 0
-4727 324 0
-4728 276 0
-344 4725 4724 4726 4727 4728 0
-4751 266 0
-4751 337 0
-4752 274 0
-4753 322 0
4751 4753 -346 4752 0
-4790 340 0
-4791 339 0
-4792 338 0
-4793 324 0
-4794 276 0
-348 4791 4790 4792 4793 4794 0
-4907 258 0
-4908 322 0
-4909 290 0
-354 4909 4907 4908 0
-4919 259 0
-4920 323 0
-4921 291 0
-355 4921 4919 4920 0
-4931 260 0
-4932 290 0
-4933 322 0
-356 4932 4933 4931 0
-4979 258 0
-4980 259 0
-4981 356 0
-4982 328 0
-4983 296 0
-360 4982 4980 4979 4983 4981 0
-5033 267 0
-5034 291 0
-5035 323 0
-363 5033 5034 5035 0
-5060 356 0
-5061 355 0
-5062 354 0
-5063 324 0
-5064 292 0
-364 5061 5062 5060 5063 5064 0
-5190 290 0
-5417 260 0
-5417 377 0
-5418 266 0
-5418 371 0
-5419 363 0
290 -5420 0
347 -5420 0
-5421 322 0
5420 5418 -380 5419 5417 5421 0
-5422 260 0
-5422 377 0
267 -5423 0
-5423 370 0
-5424 362 0
291 -5425 0
346 -5425 0
-5426 323 0
-5426 314 0
5425 5423 -380 5422 5426 5424 0
-5427 266 0
-5427 371 0
267 -5428 0
-5428 370 0
-5429 356 0
-5430 340 0
-5431 329 0
-5431 308 0
5430 5427 -380 5428 5429 5431 0
-5432 363 0
-5433 362 0
-5434 281 0
-5435 332 0
337 -5436 0
5432 5434 -380 5436 5433 5435 0
-5437 290 0
-5437 347 0
-5438 291 0
-5438 346 0
-5439 340 0
-5440 332 0
-5441 284 0
5439 5438 -380 5441 5440 5437 0
322 -5442 0
-5442 315 0
-5443 314 0
-5444 308 0
-5445 300 0
-5446 284 0
5442 5446 -380 5445 5443 5444 0
-5572 368 0
-5573 274 0
275 -5574 0
-5575 364 0
-5576 360 0
-5577 336 0
-5578 304 0
5573 5574 5575 5576 5577 5578 -384 5572 0
-5579 352 0
-5580 351 0
-5581 291 0
-5582 348 0
-5583 344 0
-5584 336 0
288 -5585 0
5581 5580 5582 5583 5584 5585 -384 5579 0
-249 -264 0
-292 -221 0
-304 -209 0
-314 -199 0
-339 -174 0
-351 -162 0
-377 -136 0
-245 -267 -2 0
-221 -291 -2 0
-323 -189 -2 0
-149 -363 -2 0
-249 -8 0
-281 -225 -8 0
-377 -8 0
-11 -278 -225 0
-12 -165 -337 0
-14 -209 -291 0
-371 -14 0
-20 -237 0
-32 -225 0
-201 -278 -35 0
-221 -36 0
-209 -38 -267 0
-38 -347 0
-41 -209 -264 0
-42 -149 -323 0
-48 -209 0
-48 -337 0
-336 -49 0
-201 -56 0
-329 -56 0
-61 -196 0
-61 -322 -131 0
-324 -61 0
-169 -278 -67 0
-285 -162 -67 0
-189 -68 0
-315 -70 0
-80 -305 0
-83 -174 0
-88 -169 0
-92 -165 0
-93 -290 -131 0
-281 -104 0
-278 -107 0
-149 -108 0
-138 -115 -261 0
-115 -270 0
-117 -266 -131 0
-118 -267 0
-3 0
-5 0
-33 0
-65 0
2 0
127 0
-237 -275 0
-371 -141 0
-245 -260 0
-230 -275 0
-214 -291 0
-296 -209 0
-308 -197 0
-323 -182 0
-371 -134 0
-237 -260 0
-230 -267 0
-206 -291 0
-300 -197 0
-323 -174 0
-363 -134 0
-368 0
104 -103 0
-104 103 0
70 -69 0
-70 69 0
68 -67 0
-37 38 0
36 -35 0
-36 35 0
8 -7 0
-8 7 0
131 0
254 0
-109 -274 0
-314 -69 0
-37 -346 0
-362 -21 0
-13 -370 0
-6 -377 0
-120 0
-117 -260 0
-274 -103 0
-87 -290 0
-308 -69 0
-55 -322 0
-328 -49 0
-340 -37 0
-356 -21 0
-370 -7 0
-112 0
-109 -260 0
-266 -103 0
-79 -290 0
-297 -72 0
-300 -69 0
-47 -322 0
-332 -37 0
-356 -13 0
-362 -7 0
-6 -363 0
-93 -260 0
-266 -87 0
-274 -79 0
-281 -72 0
-284 -69 0
-31 -322 0
-340 -13 0
-346 -7 0
-6 -347 0
-352 0
199 -197 0
196 -194 0
136 -134 0
-258 0
-259 0
-273 0
261 0
380 0
-162 -91 0
-186 -67 0
-218 -35 0
-234 -19 0
-11 -242 0
-87 -162 0
-182 -67 0
-55 -194 0
-40 -209 0
-214 -35 0
-230 -19 0
-242 -7 0
-138 -87 0
-146 -79 0
-158 -67 0
-31 -194 0
-19 -206 0
-16 -209 0
-214 -11 0
-218 -7 0
-4 -221 0
-138 -55 0
-47 -146 0
-35 -158 0
-162 -31 0
-19 -174 0
-11 -182 0
-4 -189 0
-274 278 0
-278 274 0
264 -260 0
