p cnf 5592 697
128 0
256 0
-505 3 0
-506 9 0
-507 17 0
-27 505 506 507 0
-553 7 0
-553 25 0
-554 11 0
-554 21 0
19 -555 0
-555 13 0
555 -31 554 553 0
-619 3 0
-620 5 0
-621 33 0
-39 619 620 621 0
-679 5 0
-680 9 0
-681 33 0
-45 679 680 681 0
-703 7 0
-703 41 0
-704 11 0
-705 13 0
-47 705 704 703 0
-725 3 0
-726 45 0
-727 7 0
-728 11 0
-729 35 0
-48 727 725 726 728 729 0
-757 3 0
-758 17 0
-759 33 0
-51 757 758 759 0
-871 11 0
-872 19 0
-873 35 0
872 -59 871 873 0
-898 9 0
-899 51 0
-900 11 0
-901 36 0
-902 41 0
901 -60 898 899 900 902 0
-906 36 0
-955 3 0
-956 5 0
-957 9 0
-958 17 0
-959 33 0
-63 955 956 957 958 959 0
-1099 5 0
-1100 9 0
-1101 65 0
-77 1099 1100 1101 0
-1123 7 0
-1123 73 0
-1124 11 0
-1125 67 0
-1125 13 0
-79 1125 1123 1124 0
-1145 3 0
-1146 77 0
-1147 7 0
-1148 11 0
-1149 14 0
-80 1147 1145 1146 1148 1149 0
-1163 12 0
-1291 11 0
-1292 19 0
-1293 67 0
-91 1292 1293 1291 0
-1328 65 0
-1329 27 0
-1330 67 0
-1331 20 0
-1332 12 0
-92 1331 1328 1329 1330 1332 0
-1375 3 0
-1376 5 0
-1377 9 0
-1378 17 0
-1379 65 0
-95 1375 1376 1377 1378 1379 0
-1447 3 0
-1448 33 0
-1449 65 0
-99 1447 1448 1449 0
-1471 5 0
-1472 33 0
-1473 65 0
-101 1471 1472 1473 0
-1517 3 0
-1518 101 0
-1519 7 0
-1520 35 0
-1521 67 0
38 -1521 0
1521 1520 1517 1518 -104 1519 0
-1522 5 0
-1523 99 0
-1524 7 0
37 -1525 0
-1525 68 0
-1526 36 0
1524 1525 1522 1523 -104 1526 0
-1532 65 0
-1533 39 0
-1534 67 0
38 -1534 0
-1535 69 0
-1535 36 0
-1536 97 0
-1536 8 0
1534 1535 1532 1533 -104 1536 0
-1537 9 0
-1538 33 0
-1539 65 0
-105 1537 1538 1539 0
-1561 11 0
-1562 35 0
-1563 67 0
-107 1562 1561 1563 0
-1583 3 0
-1584 105 0
-1585 11 0
-1586 35 0
-1587 67 0
-108 1587 1583 1584 1586 1585 0
-1645 3 0
-1646 5 0
-1647 9 0
-1648 33 0
-1649 65 0
-111 1645 1646 1647 1648 1649 0
-1729 19 0
-1729 97 0
-1730 35 0
-1731 67 0
1729 -115 1731 1730 0
-2035 121 0
-2036 11 0
-2037 109 0
-2038 35 0
-2039 67 0
2037 2035 -127 2038 2039 2036 0
-2040 7 0
-2040 121 0
-2041 13 0
-2041 115 0
-2042 107 0
-2043 91 0
-2044 69 0
-2044 59 0
2043 2042 -127 2044 2041 2040 0
11 -2045 0
-2046 115 0
-2047 103 0
-2048 87 0
-2049 55 0
2045 2048 -127 2047 2049 2046 0
19 -2050 0
109 -2050 0
-2051 21 0
-2051 107 0
25 -2052 0
-2052 103 0
-2053 79 0
81 -2054 0
-2054 47 0
2050 2051 -127 2054 2053 2052 0
35 -2055 0
-2055 93 0
-2056 37 0
-2056 91 0
41 -2057 0
-2057 87 0
-2058 79 0
-2059 31 0
2055 2058 -127 2057 2059 2056 0
67 -2060 0
61 -2060 0
-2061 69 0
-2061 59 0
73 -2062 0
-2062 55 0
-2063 47 0
-2064 31 0
2060 2061 -127 2063 2062 2064 0
-2084 94 0
-2100 17 0
-2101 111 0
-2102 19 0
110 -2102 0
-2103 108 0
-2104 25 0
-2104 104 0
-2105 80 0
-2106 48 0
2103 2102 2104 2105 2106 -128 2100 2101 0
-2107 33 0
-2108 95 0
-2109 35 0
-2110 37 0
-2110 92 0
-2111 88 0
-2112 80 0
-2113 32 0
2110 2109 2111 2112 2113 -128 2107 2108 0
-2114 65 0
-2115 63 0
-2116 67 0
62 -2116 0
-2117 69 0
-2117 60 0
-2118 73 0
-2118 56 0
-2119 48 0
-2120 32 0
2117 2116 2118 2119 2120 -128 2114 2115 0
-2193 130 0
-2194 133 0
-2195 145 0
-150 2193 2194 2195 0
-2277 153 0
-2278 138 0
-2279 146 0
-158 2279 2278 2277 0
-2301 130 0
-2302 158 0
-2303 133 0
-2304 152 0
-2305 145 0
-160 2304 2301 2303 2302 2305 0
-2481 130 0
-2482 145 0
-2483 161 0
-178 2481 2482 2483 0
-2529 134 0
-2529 177 0
-2530 146 0
165 -2530 0
-2531 162 0
-2531 149 0
2530 2531 -182 2529 0
-2568 133 0
-2569 134 0
-2570 178 0
-2571 149 0
-2571 164 0
-2572 148 0
2571 2569 2568 2570 -184 2572 0
-2595 138 0
-2595 177 0
-2596 146 0
-2597 162 0
-2597 153 0
-186 2596 2597 2595 0
-2835 133 0
-2836 197 0
-2837 193 0
-205 2836 2835 2837 0
-2847 134 0
-2848 138 0
-2849 194 0
-2849 141 0
-206 2848 2847 2849 0
-2871 130 0
-2872 206 0
-2873 133 0
-2874 200 0
-2875 193 0
-208 2874 2871 2873 2872 2875 0
-2949 134 0
-2949 209 0
-2950 146 0
-2950 197 0
-2951 194 0
149 -2951 0
-214 2951 2950 2949 0
-2998 193 0
151 -2999 0
-3000 150 0
-3001 148 0
-3002 136 0
2999 -216 2998 3000 3002 3001 0
-3015 138 0
-3016 146 0
-3016 201 0
-3017 194 0
-3017 153 0
-218 3016 3017 3015 0
-3039 130 0
-3040 218 0
-3041 212 0
-3042 145 0
-3043 193 0
-220 3040 3039 3041 3042 3043 0
-3081 130 0
-3082 133 0
-3083 214 0
-3084 145 0
-3085 193 0
-222 3083 3082 3081 3084 3085 0
-3131 145 0
-3132 205 0
-3133 149 0
-3134 153 0
-3135 143 0
3133 3135 3131 3134 -223 3132 0
-3219 134 0
-3220 162 0
-3220 197 0
-3221 194 0
-3221 165 0
3219 3220 -230 3221 0
-3285 138 0
-3286 162 0
-3287 194 0
-234 3286 3287 3285 0
-3459 162 0
-3459 209 0
-3460 177 0
-3460 194 0
-3461 225 0
-3461 146 0
-242 3459 3460 3461 0
-3519 130 0
-3520 133 0
-3521 145 0
-3522 161 0
-3523 193 0
-246 3519 3520 3521 3522 3523 0
-3594 146 0
-3595 230 0
-3596 228 0
-3597 200 0
-3598 168 0
-248 3594 3597 3595 3596 3598 0
-3741 134 0
249 -3741 0
138 -3742 0
-3743 146 0
-3743 237 0
-3744 162 0
-3744 221 0
-3745 194 0
-3745 189 0
3744 3743 -254 3742 3745 3741 0
-3746 134 0
-3746 249 0
-3747 141 0
-3747 242 0
-3748 149 0
-3748 234 0
165 -3749 0
-3749 218 0
-3750 197 0
-3750 186 0
3749 3748 -254 3750 3746 3747 0
-3751 138 0
-3751 245 0
-3752 141 0
-3752 242 0
153 -3753 0
-3753 230 0
-3754 214 0
-3755 182 0
3755 3752 -254 3754 3753 3751 0
146 -3756 0
-3756 237 0
-3757 149 0
-3757 234 0
153 -3758 0
-3758 230 0
-3759 206 0
-3760 209 0
-3760 174 0
3758 3756 -254 3760 3759 3757 0
162 -3761 0
221 -3761 0
-3762 165 0
-3762 218 0
-3763 214 0
-3764 206 0
-3765 225 0
-3765 158 0
3761 3763 -254 3762 3765 3764 0
-3766 189 0
-3767 186 0
-3768 182 0
-3769 174 0
-3770 158 0
3768 3767 -254 3769 3766 3770 0
-3829 248 0
-3830 138 0
-3831 246 0
141 -3832 0
244 -3832 0
-3833 232 0
-3834 216 0
-3835 184 0
3829 3830 3832 3833 3834 3835 -256 3831 0
-3843 161 0
-3844 223 0
-3845 222 0
-3846 165 0
-3846 220 0
-3847 216 0
-3848 177 0
-3848 208 0
-3849 160 0
3845 3844 3846 3847 3848 3849 -256 3843 0
-3989 281 0
-3990 275 0
-3991 274 0
3990 -284 3991 3989 0
-4331 266 0
-4332 274 0
-4332 297 0
-4333 290 0
-4333 281 0
-314 4331 4332 4333 0
-4343 305 0
-4344 297 0
-4345 281 0
-315 4343 4344 4345 0
-4559 260 0
-4559 329 0
-4560 323 0
-4561 322 0
-332 4560 4559 4561 0
-4751 266 0
-4752 274 0
-4753 281 0
-346 4751 4752 4753 0
-4763 267 0
-4764 329 0
-4765 281 0
-347 4763 4764 4765 0
-5021 266 0
-5021 353 0
-5022 290 0
-5023 297 0
5021 -362 5023 5022 0
-5189 274 0
-5190 290 0
-5191 322 0
305 -5191 0
-370 5190 5189 5191 0
-5345 281 0
-5346 297 0
-5347 329 0
305 -5347 0
-377 5345 5347 5346 0
260 -5417 0
-5417 377 0
-5418 266 0
-5418 371 0
-5419 274 0
-5419 363 0
-5420 290 0
347 -5420 0
-5421 322 0
-5421 315 0
5417 5418 -380 5420 5419 5421 0
377 -5422 0
-5423 370 0
-5424 362 0
-5425 291 0
-5425 346 0
-5426 323 0
-5426 314 0
5422 5424 -380 5423 5426 5425 0
266 -5427 0
-5427 371 0
-5428 370 0
-5429 281 0
-5430 297 0
-5430 340 0
-5431 329 0
308 -5431 0
5427 5428 -380 5429 5431 5430 0
-5432 274 0
-5434 281 0
-5437 290 0
-5437 347 0
-5438 291 0
-5438 346 0
-5439 297 0
-5439 340 0
305 -5440 0
-5440 332 0
353 -5441 0
284 -5441 0
5441 5438 -380 5440 5439 5437 0
-264 -249 0
-271 -242 0
-281 -232 0
-223 -290 0
-297 -216 0
-199 -314 0
-329 -184 0
-346 -167 0
-362 -151 0
-143 -370 0
-377 -136 0
-237 -275 -2 0
-347 -165 -2 0
-8 -249 0
-177 -8 -329 0
-8 -377 0
-245 -12 0
-13 -244 0
-211 -13 -290 0
-291 -209 -14 0
-14 -371 0
-237 -20 0
-297 -197 -20 0
-165 -329 -20 0
-353 -141 -20 0
-22 -363 0
-25 -232 0
-199 -290 -25 0
-167 -322 -25 0
-136 -353 -25 0
-165 -323 -26 0
-225 -32 0
-209 -270 -35 0
-36 -221 0
-201 -38 -275 0
-347 -38 0
-216 -41 0
-209 -264 -41 0
-322 -151 -41 0
-209 -48 0
-329 -56 0
-197 -60 0
-196 -61 0
-323 -62 0
-186 -67 -261 0
-189 -68 0
-165 -281 -68 0
-297 -149 -68 0
-305 -141 -68 0
-315 -70 0
-73 -184 0
-274 -167 -73 0
-290 -151 -73 0
-305 -136 -73 0
-291 -149 -74 0
-177 -80 0
-80 -305 0
-81 -297 -136 0
-297 -88 0
-91 -162 -261 0
-92 -165 0
-93 -164 0
-291 -94 0
-160 -97 0
-97 -264 -153 0
-97 -151 -266 0
-104 -153 0
-281 -104 0
-108 -149 0
-148 -109 0
-115 -270 0
-116 -141 0
-121 -136 0
-264 -121 0
-3 0
-5 0
-9 0
-17 0
-33 0
-65 0
2 0
127 0
-291 -221 0
-315 -197 0
-323 -189 0
-363 -149 0
-371 -141 0
116 -115 0
-110 109 0
-107 108 0
-108 107 0
-103 104 0
-104 103 0
94 -93 0
-94 93 0
-91 92 0
-92 91 0
88 -87 0
-88 87 0
-79 80 0
-80 79 0
74 -73 0
70 -69 0
68 -67 0
67 -68 0
-62 61 0
-59 60 0
-60 59 0
56 -55 0
-56 55 0
48 -47 0
-48 47 0
38 -37 0
-35 36 0
-36 35 0
-32 31 0
26 -25 0
-21 22 0
20 -19 0
19 -20 0
-13 14 0
-14 13 0
12 -11 0
-12 11 0
-7 8 0
-130 0
-133 0
-145 0
-161 0
-193 0
254 0
-274 -109 0
-290 -93 0
-69 -314 0
-322 -61 0
-21 -362 0
-370 -13 0
-274 -103 0
-290 -87 0
-69 -308 0
-322 -55 0
-340 -37 0
-370 -7 0
-242 244 0
232 -230 0
-214 216 0
-216 214 0
-209 211 0
-197 199 0
196 -194 0
184 -182 0
167 -165 0
164 -162 0
-164 162 0
-149 151 0
148 -146 0
-148 146 0
-134 136 0
-136 134 0
261 0
380 0
-115 -138 0
-107 -146 0
-59 -194 0
-212 -41 0
-218 -35 0
-228 -25 0
-234 -19 0
-242 -11 0
-107 -134 0
-103 -138 0
-79 -162 0
-174 -67 0
-47 -194 0
-206 -35 0
-230 -11 0
-234 -7 0
-91 -134 0
-87 -138 0
-79 -146 0
-158 -67 0
-31 -194 0
-200 -25 0
-206 -19 0
-214 -11 0
-218 -7 0
-134 -59 0
-55 -138 0
-47 -146 0
-152 -41 0
-158 -35 0
-31 -162 0
-168 -25 0
-174 -19 0
-182 -11 0
-186 -7 0
-267 271 0
270 -266 0
-260 264 0
