p cnf 5592 86
-805 7 0
19 -806 0
-807 35 0
806 807 -55 805 0
-2035 7 0
-2036 11 0
-2037 19 0
-2038 35 0
-2039 67 0
2036 2037 -127 2035 2038 2039 0
-2045 117 0
-2046 115 0
-2047 103 0
-2048 87 0
-2049 55 0
2046 2048 -127 2045 2047 2049 0
-3746 249 0
-3747 242 0
-3748 234 0
-3749 218 0
-3750 186 0
3746 3748 -254 3749 3747 3750 0
-3751 138 0
-3752 242 0
-3753 230 0
-3754 214 0
-3755 182 0
3751 3752 -254 3754 3753 3755 0
-3756 237 0
-3757 234 0
-3758 230 0
-3759 206 0
-3760 174 0
3756 3758 -254 3760 3759 3757 0
-3761 221 0
-3762 218 0
-3763 214 0
-3764 206 0
-3765 158 0
3761 3762 -254 3763 3764 3765 0
-3766 194 0
-3766 189 0
-3767 186 0
-3768 201 0
-3768 182 0
-3769 174 0
-3770 158 0
3768 3769 -254 3770 3767 3766 0
-249 -8 0
-237 -20 0
-221 -36 0
-201 -56 0
-189 -68 0
-117 -140 0
127 0
68 -67 0
56 -55 0
36 -35 0
20 -19 0
8 -7 0
254 0
140 -138 0
-115 -138 0
-67 -186 0
-218 -35 0
-234 -19 0
-242 -11 0
-182 -67 0
-194 -55 0
-214 -35 0
-230 -19 0
-242 -7 0
-103 -138 0
-67 -174 0
-206 -35 0
-230 -11 0
-234 -7 0
-87 -138 0
-67 -158 0
-206 -19 0
-214 -11 0
-218 -7 0
-158 -35 0
-19 -174 0
-182 -11 0
-186 -7 0
