p cnf 5592 542
128 0
384 0
-421 3 0
-422 5 0
-423 7 0
-15 423 422 421 0
-469 3 0
-470 5 0
-471 7 0
-23 471 470 469 0
-619 3 0
-620 5 0
-621 33 0
-39 619 620 621 0
-720 47 0
-721 4 0
-722 6 0
-723 39 0
-724 15 0
-48 724 721 722 723 720 0
-805 7 0
-806 19 0
-807 35 0
-55 806 807 805 0
-822 55 0
-823 4 0
-824 6 0
-825 39 0
-826 23 0
-56 826 823 824 825 822 0
-832 5 0
-833 6 0
-834 7 0
-834 50 0
-835 36 0
-836 20 0
-56 834 832 833 836 835 0
-842 33 0
-843 23 0
-844 35 0
-845 20 0
-846 8 0
843 -56 842 845 844 846 0
-955 3 0
-956 5 0
-957 55 0
-958 47 0
-959 33 0
-63 958 956 955 957 959 0
-1039 3 0
-1040 5 0
-1041 65 0
-71 1039 1040 1041 0
-1099 5 0
-1100 69 0
-1101 65 0
-77 1100 1099 1101 0
-1123 7 0
-1124 69 0
-1125 13 0
-79 1125 1124 1123 0
-1145 3 0
-1146 4 0
-1147 7 0
-1148 70 0
-1149 67 0
-80 1147 1145 1146 1148 1149 0
-1201 5 0
-1202 69 0
-1203 65 0
-85 1202 1201 1203 0
-1242 87 0
-1243 4 0
-1244 6 0
-1245 71 0
-1246 23 0
-88 1246 1243 1244 1245 1242 0
-1247 3 0
-1248 4 0
-1249 7 0
-1250 70 0
-1251 67 0
-1251 22 0
-88 1249 1247 1248 1250 1251 0
-1380 3 0
-1381 7 0
-1382 85 0
-1383 77 0
-1384 67 0
-95 1381 1380 1382 1383 1384 0
-1447 3 0
-1448 33 0
-1449 65 0
-99 1447 1448 1449 0
-1471 5 0
-1472 33 0
-1473 65 0
-101 1471 1472 1473 0
-1517 3 0
-1518 101 0
-1519 7 0
-1520 70 0
-1521 38 0
-104 1519 1517 1518 1520 1521 0
-1522 5 0
-1523 99 0
-1524 7 0
-1525 68 0
-1526 69 0
-104 1524 1522 1523 1525 1526 0
-1645 3 0
-1646 5 0
-1647 103 0
-1648 33 0
-1649 65 0
-111 1647 1646 1645 1648 1649 0
-1741 115 0
-1742 3 0
-1743 100 0
-1744 33 0
-1745 65 0
-116 1743 1742 1741 1744 1745 0
-1771 21 0
97 -1771 0
-1772 37 0
-1773 69 0
-117 1771 1772 1773 0
117 -1783 0
-1802 81 0
-1813 3 0
-1814 5 0
-1815 103 0
-1816 33 0
-1817 65 0
-119 1815 1814 1813 1816 1817 0
-1824 7 0
-2035 121 0
-2036 117 0
-2037 109 0
-2038 93 0
-2039 67 0
2039 2037 -127 2035 2038 2036 0
-2040 121 0
-2041 115 0
-2042 107 0
-2043 37 0
-2044 69 0
2044 2042 -127 2043 2041 2040 0
11 -2045 0
117 -2045 0
-2046 115 0
-2047 103 0
41 -2048 0
-2048 87 0
-2049 55 0
2045 2047 -127 2046 2048 2049 0
-2050 19 0
-2050 109 0
-2051 107 0
-2052 103 0
-2053 79 0
-2054 47 0
2052 2054 -127 2051 2053 2050 0
-2055 35 0
-2056 91 0
-2057 87 0
-2058 79 0
-2059 31 0
2056 2059 -127 2055 2058 2057 0
67 -2060 0
-2060 61 0
-2061 69 0
-2061 59 0
-2062 55 0
-2063 81 0
-2063 47 0
97 -2064 0
-2064 31 0
2060 2061 -127 2064 2063 2062 0
-2093 120 0
-2094 119 0
11 -2095 0
118 -2095 0
13 -2096 0
-2096 116 0
-2097 104 0
-2098 88 0
73 -2099 0
-2099 56 0
2094 2095 2096 2097 2098 2099 -128 2093 0
-2100 112 0
-2101 111 0
-2102 110 0
-2103 21 0
-2104 104 0
-2105 80 0
-2106 48 0
2102 2101 2103 2104 2105 2106 -128 2100 0
-2107 33 0
-2108 95 0
-2109 35 0
-2110 37 0
-2111 88 0
-2112 80 0
-2113 32 0
2109 2108 2110 2111 2112 2113 -128 2107 0
-2114 65 0
-2115 63 0
-2116 67 0
-2116 62 0
-2117 69 0
73 -2118 0
-2118 56 0
-2119 81 0
-2119 48 0
-2120 32 0
2116 2115 2117 2118 2119 2120 -128 2114 0
-2277 134 0
-2278 138 0
-2278 149 0
146 -2279 0
141 -2279 0
2279 -158 2277 2278 0
-2949 134 0
-2950 197 0
194 -2951 0
-2951 149 0
-214 2949 2950 2951 0
134 -3741 0
-3741 249 0
-3742 138 0
-3742 245 0
146 -3743 0
-3743 237 0
162 -3744 0
221 -3744 0
194 -3745 0
-3745 189 0
3741 3745 -254 3742 3744 3743 0
-3746 134 0
-3747 242 0
-3748 149 0
-3748 234 0
218 -3749 0
-3750 197 0
-3750 186 0
3749 3746 -254 3750 3748 3747 0
-3751 138 0
-3751 245 0
-3752 141 0
-3752 242 0
-3753 230 0
-3754 169 0
-3754 214 0
-3755 182 0
3754 3752 -254 3751 3755 3753 0
221 -3761 0
-3762 218 0
-3763 214 0
-3764 206 0
-3765 225 0
-3765 158 0
3764 3765 -254 3761 3762 3763 0
-3766 189 0
-3767 197 0
-3768 182 0
209 -3769 0
-3769 174 0
225 -3770 0
158 -3770 0
3770 3769 -254 3767 3768 3766 0
-3917 258 0
-3918 259 0
-3919 260 0
-276 3919 3918 3917 0
-3989 260 0
-3990 266 0
-3991 267 0
-284 3990 3989 3991 0
-4067 258 0
-4068 259 0
-4069 289 0
-292 4067 4068 4069 0
-4139 260 0
-4140 291 0
-4141 267 0
-300 4141 4139 4140 0
-4241 260 0
-4242 291 0
-4243 275 0
-308 4243 4241 4242 0
-4314 289 0
-4315 290 0
-4315 279 0
-4316 291 0
-4316 278 0
-4317 276 0
-4318 264 0
-312 4315 4314 4316 4317 4318 0
-4487 258 0
-4488 259 0
-4489 260 0
-324 4489 4488 4487 0
-4661 260 0
274 -4662 0
-4663 275 0
4662 -340 4661 4663 0
-4734 280 0
-4735 322 0
-4735 279 0
-4736 278 0
-4737 276 0
-4738 264 0
-344 4735 4737 4734 4736 4738 0
-4907 258 0
-4908 289 0
-4909 290 0
-354 4909 4908 4907 0
-4919 259 0
-4920 289 0
-4921 291 0
-355 4921 4920 4919 0
-4931 260 0
-4932 290 0
-4933 291 0
-356 4932 4931 4933 0
-4994 356 0
-4995 355 0
263 -4996 0
-4996 354 0
-4997 324 0
-4998 292 0
-360 4994 4995 4996 4997 4998 0
-5228 356 0
-5229 355 0
-5230 354 0
-5231 324 0
-5232 292 0
-372 5228 5230 5229 5231 5232 0
-5417 260 0
-5417 377 0
-5418 266 0
-5418 371 0
-5419 363 0
290 -5420 0
347 -5420 0
322 -5421 0
315 -5421 0
5420 5421 -380 5417 5418 5419 0
-5422 260 0
-5423 267 0
-5423 370 0
275 -5424 0
362 -5424 0
-5425 291 0
-5425 346 0
-5426 323 0
-5426 314 0
5424 5422 -380 5426 5425 5423 0
-5427 371 0
-5428 267 0
-5429 356 0
-5430 340 0
-5431 308 0
5428 5430 -380 5431 5429 5427 0
274 -5432 0
-5432 363 0
-5433 275 0
-5433 362 0
-5434 356 0
-5435 332 0
-5436 300 0
5435 5436 -380 5432 5433 5434 0
-5437 347 0
-5438 291 0
-5439 340 0
-5440 332 0
-5441 284 0
5439 5437 -380 5440 5441 5438 0
-5442 315 0
-5443 314 0
-5444 308 0
-5445 300 0
-5446 284 0
5442 5443 -380 5446 5445 5444 0
-5565 376 0
-5566 375 0
-5567 267 0
-5568 372 0
-5569 360 0
-5570 297 0
-5570 344 0
-5571 312 0
5566 5567 5568 5569 5570 5571 -384 5565 0
-279 -234 0
-295 -218 0
-199 -314 0
-355 -158 0
-372 -141 0
-375 -138 0
-377 -136 0
-245 -267 -2 0
-291 -221 -2 0
-189 -323 -2 0
-149 -363 -2 0
-278 -11 -225 0
-354 -149 -11 0
-372 -13 0
-354 -19 -141 0
-20 -237 0
-22 -363 0
-32 -225 0
-36 -221 0
-38 -347 0
-344 -41 0
-48 -209 0
-50 -141 -323 0
-61 -196 0
-62 -323 0
-63 -322 0
-189 -68 0
-149 -297 -68 0
-70 -315 0
-295 -73 -146 0
-295 -138 -81 0
-169 -88 0
-279 -138 -97 0
-149 -267 -98 0
-110 -275 0
-111 -146 0
-116 -141 0
-118 -267 0
-121 -136 0
-121 -264 0
-3 0
-5 0
-33 0
-65 0
2 0
127 0
-237 -275 0
-371 -141 0
-245 -260 0
-280 -225 0
-291 -214 0
-182 -323 0
-356 -149 0
-371 -134 0
-376 0
-260 -237 0
-263 -234 0
-230 -267 0
-206 -291 0
-323 -174 0
-356 -141 0
-363 -134 0
-103 104 0
-104 103 0
98 -97 0
-69 70 0
-70 69 0
68 -67 0
-37 38 0
-35 36 0
-36 35 0
-8 7 0
254 0
-266 -117 0
-109 -274 0
-314 -69 0
-61 -322 0
-346 -37 0
-21 -362 0
-370 -13 0
-377 -6 0
-120 0
-260 -117 0
-87 -290 0
-308 -69 0
-55 -322 0
-340 -37 0
-356 -21 0
-370 -7 0
-371 -6 0
-112 0
-109 -260 0
-79 -290 0
-300 -69 0
-47 -322 0
-332 -37 0
-7 -362 0
-363 -6 0
-93 -260 0
-266 -87 0
-79 -274 0
-284 -69 0
-31 -322 0
-332 -21 0
-347 -6 0
-197 199 0
196 -194 0
136 -134 0
-258 0
-259 0
-289 0
380 0
-115 -138 0
-107 -146 0
-91 -162 0
-186 -67 0
-59 -194 0
-35 -218 0
-234 -19 0
-242 -11 0
-249 -4 0
-115 -134 0
-103 -146 0
-100 -149 0
-87 -162 0
-55 -194 0
-35 -214 0
-7 -242 0
-245 -4 0
-107 -134 0
-103 -138 0
-79 -162 0
-174 -67 0
-47 -194 0
-206 -35 0
-230 -11 0
-234 -7 0
-237 -4 0
-55 -138 0
-47 -146 0
-35 -158 0
-31 -162 0
-182 -11 0
-186 -7 0
-189 -4 0
-291 295 0
264 -260 0
-264 260 0
