p cnf 5592 576
128 0
384 0
-409 13 0
-410 5 0
-411 6 0
-14 409 410 411 0
-457 21 0
-458 5 0
-459 6 0
-22 457 458 459 0
-469 3 0
-470 5 0
-471 7 0
-23 471 470 469 0
-481 4 0
-482 6 0
-483 7 0
-24 483 481 482 0
-553 7 0
-554 11 0
-555 19 0
-555 13 0
-31 555 553 554 0
-575 3 0
-576 4 0
-577 7 0
-578 11 0
-578 22 0
-579 14 0
-32 579 575 576 577 578 0
-580 5 0
-581 6 0
-582 7 0
-583 13 0
-584 12 0
-32 584 580 581 582 583 0
-619 3 0
-620 5 0
-621 7 0
-39 621 620 619 0
-631 4 0
-632 6 0
-633 7 0
-40 633 631 632 0
-725 3 0
-726 4 0
-727 7 0
-728 11 0
-728 38 0
-729 14 0
-48 729 725 726 727 728 0
-730 5 0
-731 6 0
-732 7 0
-733 13 0
-734 12 0
-48 734 730 731 732 733 0
-805 7 0
-806 19 0
35 -807 0
807 806 805 -55 0
-817 55 0
-818 3 0
-819 5 0
-820 40 0
-821 24 0
-56 817 818 819 820 821 0
-827 3 0
-828 4 0
-829 7 0
-830 19 0
-830 38 0
-831 22 0
-56 830 827 828 829 831 0
-970 55 0
-971 11 0
-971 53 0
-972 13 0
51 -972 0
-973 39 0
-974 23 0
-63 971 970 972 973 974 0
-1039 3 0
-1040 5 0
-1041 65 0
-71 1039 1040 1041 0
-1051 4 0
-1052 6 0
-1053 7 0
-72 1053 1051 1052 0
-1123 7 0
-1124 69 0
-1125 67 0
-79 1125 1123 1124 0
-1145 3 0
-1146 4 0
-1147 7 0
-1148 70 0
-1149 67 0
-1149 14 0
-80 1149 1145 1146 1147 1148 0
-1201 5 0
-1202 69 0
-1203 65 0
-85 1202 1201 1203 0
-1225 7 0
-1226 69 0
-1227 67 0
-1227 21 0
-87 1227 1225 1226 0
-1237 87 0
-1238 3 0
-1239 5 0
-1240 72 0
-1241 65 0
-88 1237 1238 1239 1240 1241 0
-1247 3 0
-1248 4 0
-1249 7 0
-1250 70 0
-1251 67 0
-1251 22 0
-88 1250 1247 1248 1249 1251 0
-1390 87 0
-1391 85 0
-1392 13 0
-1392 83 0
-1393 71 0
-1394 23 0
-95 1392 1391 1390 1393 1394 0
-1447 3 0
-1448 67 0
-1449 65 0
-99 1448 1447 1449 0
-1471 5 0
-1472 69 0
-1473 65 0
-101 1472 1471 1473 0
-1495 7 0
-1496 69 0
-1497 67 0
-103 1497 1495 1496 0
-1507 103 0
-1508 3 0
-1509 5 0
-1510 72 0
-1511 65 0
-104 1507 1508 1509 1510 1511 0
-1517 3 0
-1518 4 0
-1519 7 0
-1520 70 0
-1521 67 0
-1521 38 0
-104 1521 1517 1518 1519 1520 0
-1660 103 0
-1661 101 0
-1662 13 0
-1662 99 0
-1663 71 0
-1664 39 0
-111 1662 1661 1660 1663 1664 0
-1818 3 0
-1819 7 0
-1820 101 0
-1821 85 0
-1822 67 0
-119 1821 1818 1819 1822 1820 0
-1823 5 0
-1824 7 0
-1825 21 0
-1826 83 0
-1827 69 0
1826 -119 1823 1824 1825 1827 0
-2035 7 0
-2036 11 0
-2036 117 0
-2037 109 0
35 -2038 0
-2038 93 0
-2039 67 0
-2039 61 0
2038 2039 -127 2035 2037 2036 0
-2040 7 0
-2041 13 0
-2041 115 0
21 -2042 0
-2042 107 0
-2043 37 0
-2043 91 0
-2044 69 0
2040 2041 -127 2043 2042 2044 0
-2045 11 0
-2045 117 0
-2046 13 0
115 -2046 0
-2047 103 0
-2048 87 0
73 -2049 0
-2049 55 0
2048 2045 -127 2049 2046 2047 0
-2050 19 0
-2050 109 0
-2051 21 0
-2051 107 0
-2052 103 0
-2053 79 0
-2054 47 0
2053 2054 -127 2051 2052 2050 0
35 -2055 0
-2056 91 0
-2057 87 0
-2058 79 0
-2059 31 0
2055 2057 -127 2056 2059 2058 0
67 -2060 0
-2061 69 0
-2061 59 0
73 -2062 0
-2062 55 0
81 -2063 0
-2063 47 0
-2064 97 0
-2064 31 0
2060 2061 -127 2063 2064 2062 0
-2093 120 0
-2094 119 0
-2095 11 0
-2096 13 0
-2097 104 0
-2098 88 0
-2099 56 0
2095 2094 2096 2097 2098 2099 -128 2093 0
-2100 112 0
-2101 111 0
-2102 19 0
21 -2103 0
-2103 108 0
-2104 104 0
-2105 80 0
-2106 48 0
2101 2102 2103 2104 2105 2106 -128 2100 0
-2107 96 0
-2108 95 0
-2109 35 0
-2110 92 0
-2111 88 0
-2112 80 0
-2113 32 0
2108 2109 2110 2111 2112 2113 -128 2107 0
-2114 65 0
-2115 63 0
-2116 67 0
-2117 69 0
-2118 56 0
-2119 48 0
-2120 97 0
-2120 32 0
2115 2116 2117 2118 2119 2120 -128 2114 0
-2595 138 0
-2596 146 0
153 -2597 0
2597 -186 2596 2595 0
-2847 134 0
-2847 201 0
-2848 138 0
-2849 194 0
-206 2849 2847 2848 0
-3018 138 0
-3019 194 0
-3020 201 0
-3020 146 0
-218 3018 3020 3019 0
-3285 138 0
-3286 201 0
-3287 194 0
3286 -234 3285 3287 0
-3741 134 0
-3741 249 0
-3742 138 0
-3742 245 0
-3743 237 0
-3744 221 0
-3745 189 0
3744 3743 -254 3745 3742 3741 0
134 -3746 0
-3746 249 0
-3747 141 0
-3747 242 0
-3748 149 0
-3748 234 0
165 -3749 0
-3749 218 0
-3750 197 0
-3750 186 0
3750 3747 -254 3746 3748 3749 0
-3751 138 0
-3751 245 0
-3752 242 0
-3753 230 0
-3754 214 0
-3755 182 0
3753 3752 -254 3751 3754 3755 0
-3756 146 0
-3757 149 0
-3757 234 0
230 -3758 0
-3759 206 0
-3760 174 0
3758 3760 -254 3757 3756 3759 0
162 -3761 0
-3762 218 0
-3763 214 0
-3764 206 0
-3765 158 0
3765 3762 -254 3761 3763 3764 0
194 -3766 0
-3766 189 0
-3767 197 0
-3767 186 0
201 -3768 0
-3768 182 0
209 -3769 0
-3769 174 0
-3770 225 0
-3770 158 0
3769 3768 -254 3766 3767 3770 0
-3869 258 0
-3870 259 0
-3871 260 0
-268 3871 3870 3869 0
-3881 258 0
-3882 266 0
-3883 262 0
-270 3883 3881 3882 0
260 -3905 0
-3906 262 0
-3907 266 0
3905 -272 3907 3906 0
-3917 258 0
-3918 259 0
-3919 260 0
-276 3919 3918 3917 0
-3989 260 0
-3990 266 0
-3991 267 0
3991 3989 3990 -284 0
-4037 258 0
-4038 259 0
-4039 284 0
-4040 280 0
-4041 272 0
4041 -288 4038 4037 4039 4040 0
-4139 260 0
-4140 266 0
-4141 267 0
-300 4141 4140 4139 0
-4187 258 0
-4188 259 0
-4189 300 0
-4190 296 0
-4191 272 0
-304 4191 4188 4187 4190 4189 0
-4417 302 0
-4418 274 0
-4419 298 0
-4420 294 0
-4421 270 0
-318 4419 4418 4417 4420 4421 0
-4632 272 0
-4633 322 0
-4634 270 0
-4635 268 0
-4636 264 0
-336 4635 4633 4632 4634 4636 0
-4714 258 0
-4715 260 0
-4716 262 0
-4717 327 0
-4718 322 0
-344 4715 4714 4717 4718 4716 0
-4800 284 0
-4801 322 0
-4802 282 0
-4803 276 0
-4804 268 0
-348 4803 4800 4801 4802 4804 0
-5417 377 0
-5418 371 0
-5419 363 0
-5420 347 0
-5421 315 0
5420 5417 -380 5419 5418 5421 0
-5427 266 0
-5427 371 0
-5428 370 0
-5429 356 0
-5430 340 0
-5431 308 0
5431 5430 -380 5427 5428 5429 0
274 -5432 0
-5432 363 0
-5433 362 0
-5434 356 0
-5435 332 0
-5436 300 0
5436 5433 -380 5432 5434 5435 0
290 -5437 0
-5437 347 0
-5438 346 0
-5439 340 0
-5440 332 0
-5441 284 0
5441 5438 -380 5437 5440 5439 0
-5442 322 0
-5442 315 0
-5443 323 0
-5443 314 0
-5444 308 0
-5445 300 0
-5446 284 0
5446 5444 -380 5442 5443 5445 0
-5579 352 0
-5580 351 0
-5581 350 0
-5582 348 0
-5583 344 0
-5584 336 0
-5585 288 0
5581 5580 5582 5583 5584 5585 -384 5579 0
-5586 320 0
-5587 322 0
-5588 318 0
-5589 316 0
-5590 312 0
-5591 304 0
-5592 288 0
5587 5588 5589 5590 5591 5592 -384 5586 0
-225 -288 0
-316 -197 0
-327 -186 0
-351 -162 0
-197 -315 -2 0
-323 -189 -2 0
-141 -371 -2 0
-249 -8 0
-12 -245 0
-14 -371 0
-298 -19 -197 0
-22 -363 0
-282 -197 -35 0
-350 -35 0
-38 -153 -323 0
-38 -347 0
-48 -209 0
-51 -197 -266 0
-53 -138 -323 0
-56 -201 0
-63 -322 0
-68 -189 0
-315 -70 0
-312 -73 0
-83 -165 -266 0
-83 -141 -290 0
-294 -91 0
-92 -165 0
-97 -288 0
-99 -266 -149 0
-108 -149 0
-117 -266 -131 0
-3 0
-5 0
-65 0
2 0
127 0
-267 -245 0
-149 -363 0
-308 -197 0
-323 -182 0
-371 -134 0
-300 -197 0
-323 -174 0
-141 -356 0
-272 -209 0
-280 -201 0
-197 -284 0
-158 -323 0
-332 -149 0
-141 -340 0
-352 0
70 -69 0
-70 69 0
-67 68 0
8 -7 0
131 0
254 0
-109 -274 0
-314 -69 0
-346 -37 0
-362 -21 0
-370 -13 0
-377 -6 0
-120 0
-117 -260 0
-103 -274 0
-308 -69 0
-322 -55 0
-340 -37 0
-356 -21 0
-371 -6 0
-112 0
-109 -260 0
-107 -262 0
-103 -266 0
-296 -73 0
-300 -69 0
-332 -37 0
-356 -13 0
-363 -6 0
-96 0
-93 -260 0
-91 -262 0
-87 -266 0
-272 -81 0
-280 -73 0
-284 -69 0
-332 -21 0
-340 -13 0
-347 -6 0
-61 -260 0
-266 -55 0
-47 -274 0
-37 -284 0
-300 -21 0
-302 -19 0
-308 -13 0
-315 -6 0
-320 0
-258 0
-259 0
380 0
-138 -115 0
-146 -107 0
-186 -67 0
-59 -194 0
-218 -35 0
-19 -234 0
-242 -11 0
-249 -4 0
-182 -67 0
-55 -194 0
-214 -35 0
-19 -230 0
-242 -7 0
-245 -4 0
-107 -134 0
-103 -138 0
-174 -67 0
-47 -194 0
-230 -11 0
-234 -7 0
-237 -4 0
-91 -134 0
-87 -138 0
-158 -67 0
-206 -19 0
-214 -11 0
-218 -7 0
-221 -4 0
-138 -55 0
-146 -47 0
-19 -174 0
-11 -182 0
-186 -7 0
-189 -4 0
-264 260 0
