p cnf 5592 619
256 0
384 0
-553 7 0
-554 11 0
-554 21 0
-555 19 0
-555 13 0
-31 555 553 554 0
-703 7 0
-704 11 0
-704 37 0
-705 35 0
-47 705 704 703 0
-781 5 0
-782 17 0
-783 33 0
-53 781 782 783 0
-805 7 0
-805 49 0
-806 19 0
-806 37 0
21 -807 0
807 806 -55 805 0
-827 3 0
-828 53 0
-829 7 0
-829 50 0
-830 19 0
-830 38 0
-831 35 0
830 831 827 828 -56 829 0
-1123 7 0
-1124 69 0
-1125 67 0
-79 1124 1125 1123 0
-1201 5 0
-1202 17 0
-1203 65 0
-85 1201 1202 1203 0
-1225 7 0
-1226 69 0
21 -1227 0
1227 1225 1226 -87 0
-1291 11 0
-1292 19 0
-1293 67 0
1292 -91 1293 1291 0
-1333 13 0
-1334 21 0
-1335 69 0
1334 -93 1333 1335 0
-1495 7 0
-1496 69 0
-1497 37 0
1497 -103 1496 1495 0
-1561 11 0
-1562 35 0
-1563 67 0
1562 1561 1563 -107 0
-1732 19 0
-1733 67 0
-1734 35 0
1734 -115 1733 1732 0
-1803 33 0
-1804 85 0
-1805 37 0
-1806 70 0
-1807 22 0
-118 1807 1803 1804 1806 1805 0
-2035 7 0
121 -2035 0
-2036 117 0
-2037 19 0
-2037 109 0
93 -2038 0
-2039 67 0
-2039 61 0
2038 2035 -127 2039 2036 2037 0
-2040 7 0
-2040 121 0
-2041 13 0
-2041 115 0
-2042 21 0
107 -2042 0
-2043 37 0
-2043 91 0
-2044 69 0
2042 2043 -127 2040 2041 2044 0
-2045 117 0
-2046 13 0
-2046 115 0
-2047 103 0
-2048 87 0
-2049 55 0
2046 2047 -127 2049 2048 2045 0
-2050 19 0
-2050 109 0
21 -2051 0
107 -2051 0
-2052 103 0
-2053 49 0
-2053 79 0
81 -2054 0
-2054 47 0
2051 2050 -127 2054 2052 2053 0
-2055 35 0
-2055 93 0
37 -2056 0
91 -2056 0
-2057 87 0
-2058 49 0
-2058 79 0
97 -2059 0
-2059 31 0
2056 2055 -127 2057 2058 2059 0
-2060 67 0
-2060 61 0
69 -2061 0
-2062 55 0
-2063 47 0
-2064 31 0
2061 2060 -127 2063 2062 2064 0
-2106 48 0
-2145 130 0
-2146 133 0
-2147 134 0
-142 2147 2146 2145 0
-2277 134 0
-2278 138 0
-2279 146 0
-2279 141 0
-158 2277 2279 2278 0
-2427 134 0
-2428 138 0
-2429 162 0
-2429 141 0
-174 2429 2428 2427 0
-2476 144 0
-2477 162 0
-2478 142 0
-2479 140 0
-2480 136 0
-176 2479 2477 2476 2478 2480 0
-2529 134 0
-2530 146 0
165 -2530 0
-2531 162 0
2531 2530 -182 2529 0
-2799 130 0
-2800 194 0
-2801 193 0
-202 2800 2799 2801 0
-2847 201 0
-2848 138 0
-2849 194 0
-2849 141 0
-206 2849 2848 2847 0
-2886 133 0
-2887 134 0
-2888 202 0
-2889 196 0
-2890 197 0
-208 2889 2886 2890 2887 2888 0
-2901 130 0
-2902 194 0
-2903 193 0
-210 2902 2901 2903 0
-2949 134 0
-2950 146 0
-2950 197 0
194 -2951 0
2951 -214 2950 2949 0
-2988 133 0
-2989 134 0
-2990 210 0
-2991 196 0
-2992 197 0
2991 2990 2988 2992 2989 -216 0
-3015 138 0
-3016 146 0
-3016 201 0
-3017 194 0
3017 -218 3016 3015 0
-3091 133 0
-3092 134 0
-3093 210 0
-3094 202 0
-3095 197 0
-222 3093 3091 3095 3094 3092 0
-3171 130 0
-3172 194 0
-3173 193 0
-226 3172 3171 3173 0
-3219 134 0
-3219 225 0
-3220 162 0
-3220 197 0
-3221 194 0
3221 -230 3220 3219 0
-3258 133 0
-3259 134 0
-3260 226 0
-3261 196 0
-3262 197 0
-232 3261 3258 3262 3259 3260 0
-3285 138 0
-3286 201 0
-3287 194 0
-234 3286 3285 3287 0
-3507 149 0
-3508 165 0
-3509 197 0
3507 3508 -245 3509 0
-3529 133 0
-3530 134 0
-3531 226 0
-3532 210 0
-3533 197 0
-246 3531 3529 3533 3530 3532 0
-3741 134 0
-3741 249 0
-3742 138 0
-3742 245 0
-3743 146 0
-3744 162 0
-3744 221 0
-3745 194 0
3745 3744 -254 3742 3743 3741 0
-3751 138 0
-3752 242 0
-3753 230 0
-3754 214 0
-3755 201 0
3753 3752 -254 3751 3755 3754 0
-3756 237 0
-3757 234 0
153 -3758 0
230 -3758 0
-3759 206 0
-3760 174 0
3758 3757 -254 3756 3760 3759 0
-3761 162 0
-3761 221 0
218 -3762 0
-3763 214 0
-3764 206 0
-3765 158 0
3762 3761 -254 3763 3765 3764 0
-3766 194 0
-3766 189 0
197 -3767 0
186 -3767 0
201 -3768 0
182 -3768 0
-3769 174 0
-3770 158 0
3768 3766 -254 3767 3770 3769 0
-3829 248 0
-3830 138 0
-3831 246 0
-3832 141 0
-3832 244 0
-3833 232 0
-3834 216 0
-3835 201 0
-3835 184 0
3831 3830 3832 3833 3834 3835 -256 3829 0
-3843 224 0
-3844 162 0
-3845 222 0
-3846 165 0
-3846 220 0
216 -3847 0
-3848 208 0
-3849 160 0
3844 3845 3846 3847 3848 3849 -256 3843 0
-3850 193 0
-3851 194 0
-3852 190 0
-3853 197 0
-3854 184 0
-3855 176 0
-3856 160 0
3852 3851 3853 3854 3855 3856 -256 3850 0
-3869 258 0
-3870 259 0
-3871 265 0
-268 3869 3870 3871 0
-3989 260 0
-3989 281 0
-3990 266 0
-3990 275 0
274 -3991 0
267 -3991 0
3991 -284 3990 3989 0
-4115 258 0
-4116 265 0
-4117 266 0
-298 4117 4116 4115 0
-4139 260 0
-4139 297 0
-4140 266 0
291 -4140 0
-4141 290 0
267 -4141 0
-300 4139 4140 4141 0
-4197 259 0
-4198 260 0
-4198 301 0
-4199 298 0
-4200 294 0
-4201 270 0
-304 4200 4197 4199 4198 4201 0
-4241 260 0
-4242 291 0
-4243 290 0
-308 4242 4241 4243 0
-4331 266 0
-4332 274 0
-4332 297 0
-4333 290 0
-4333 281 0
-314 4331 4332 4333 0
-4499 258 0
-4500 322 0
-4501 262 0
-326 4501 4499 4500 0
-4535 258 0
-4536 265 0
-4537 266 0
-330 4537 4536 4535 0
-4559 260 0
-4559 329 0
-4560 266 0
-4561 322 0
-332 4559 4560 4561 0
-4612 258 0
-4613 260 0
-4614 262 0
-4615 266 0
-4616 322 0
-336 4614 4612 4615 4613 4616 0
-4622 332 0
-4623 262 0
-4624 330 0
-4625 324 0
-4626 268 0
-336 4625 4622 4624 4623 4626 0
-4751 266 0
-4752 274 0
-4752 329 0
-4753 322 0
-346 4752 4751 4753 0
-4931 260 0
-4932 290 0
-4933 322 0
-356 4931 4933 4932 0
-4989 259 0
-4990 260 0
-4991 354 0
-4992 326 0
-4993 294 0
-360 4991 4989 4993 4990 4992 0
-5021 266 0
-5022 290 0
-5023 322 0
-5023 297 0
-362 5021 5023 5022 0
-5055 259 0
-5056 260 0
-5057 354 0
-5058 330 0
-5059 298 0
-364 5057 5055 5059 5058 5056 0
-5065 332 0
-5066 331 0
-5067 330 0
-5068 324 0
-5069 268 0
-364 5065 5068 5067 5066 5069 0
-5097 362 0
-5098 262 0
-5099 354 0
-5100 330 0
-5101 298 0
-366 5099 5097 5098 5100 5101 0
-5112 302 0
-5113 322 0
-5114 298 0
-5115 294 0
-5116 270 0
-366 5113 5114 5112 5115 5116 0
274 -5189 0
-5190 290 0
-5191 322 0
5189 -370 5190 5191 0
-5345 281 0
-5346 297 0
-5347 329 0
-377 5345 5346 5347 0
-5417 260 0
-5417 377 0
-5418 266 0
371 -5418 0
-5419 274 0
-5419 363 0
-5420 290 0
-5420 347 0
-5421 322 0
5417 5419 -380 5418 5421 5420 0
-5422 260 0
-5422 377 0
267 -5423 0
-5423 370 0
-5424 275 0
-5424 362 0
-5425 291 0
-5425 346 0
-5426 323 0
-5426 314 0
5422 5423 -380 5425 5424 5426 0
-5427 266 0
371 -5427 0
-5428 370 0
-5429 281 0
-5429 356 0
-5430 340 0
-5431 329 0
-5431 308 0
5428 5427 -380 5431 5429 5430 0
-5432 363 0
-5433 362 0
-5434 356 0
-5435 332 0
337 -5436 0
-5436 300 0
5432 5435 -380 5436 5433 5434 0
-5437 347 0
-5438 346 0
-5439 340 0
-5440 332 0
-5441 284 0
5440 5439 -380 5441 5437 5438 0
-5442 315 0
-5443 314 0
-5444 308 0
-5445 300 0
-5446 284 0
5442 5446 -380 5445 5444 5443 0
-5572 368 0
-5573 274 0
-5573 367 0
-5574 366 0
-5575 364 0
-5576 281 0
-5576 360 0
-5577 336 0
-5578 304 0
5574 5573 5575 5576 5577 5578 -384 5572 0
-249 -264 0
-314 -199 0
-190 -323 0
-184 -329 0
-331 -182 0
-367 -146 0
-136 -377 0
-221 -291 -2 0
-323 -189 -2 0
-347 -165 -2 0
-149 -363 -2 0
-377 -8 0
-244 -13 0
-225 -270 -19 0
-237 -20 0
-297 -21 -196 0
-363 -22 0
-226 -31 0
-354 -31 0
-221 -36 0
-220 -37 0
-281 -37 -196 0
-323 -38 -153 0
-347 -38 0
-48 -337 0
-49 -266 -199 0
-141 -323 -50 0
-202 -55 0
-56 -201 0
-329 -56 0
-61 -196 0
-324 -61 0
-301 -146 -67 0
-189 -68 0
-281 -165 -68 0
-315 -70 0
-297 -81 -136 0
-297 -88 0
-294 -91 0
-290 -93 -131 0
-160 -97 0
-281 -97 -136 0
-104 -153 0
-281 -104 0
-146 -107 -261 0
-115 -270 0
-140 -117 0
-118 -267 0
-121 -136 0
-264 -121 0
-3 0
-5 0
-17 0
-33 0
-65 0
2 0
127 0
-245 -267 0
-141 -371 0
-248 0
-245 -260 0
-230 -275 0
-214 -291 0
-308 -197 0
-340 -165 0
-356 -149 0
-134 -371 0
-117 118 0
-103 104 0
88 -87 0
87 -88 0
70 -69 0
-70 69 0
68 -67 0
-55 56 0
-50 49 0
38 -37 0
-38 37 0
36 -35 0
22 -21 0
20 -19 0
8 -7 0
-130 0
-133 0
-193 0
131 0
254 0
-117 -266 0
-109 -274 0
-314 -69 0
-322 -61 0
-346 -37 0
-362 -21 0
-13 -370 0
-117 -260 0
-274 -103 0
-290 -87 0
-308 -69 0
-322 -55 0
-340 -37 0
-356 -21 0
-370 -7 0
-260 -109 0
-103 -266 0
-79 -290 0
-300 -69 0
-302 -67 0
-47 -322 0
-332 -37 0
-356 -13 0
-362 -7 0
-368 0
-260 -93 0
-262 -91 0
-266 -87 0
-79 -274 0
-284 -69 0
-31 -322 0
-332 -21 0
-340 -13 0
-346 -7 0
199 -197 0
196 -194 0
-196 194 0
-134 136 0
-136 134 0
-258 0
-259 0
-265 0
261 0
380 0
-138 -115 0
-162 -91 0
-67 -186 0
-35 -218 0
-234 -19 0
-242 -11 0
-134 -107 0
-103 -138 0
-144 -97 0
-162 -79 0
-174 -67 0
-47 -194 0
-206 -35 0
-11 -230 0
-134 -91 0
-146 -79 0
-158 -67 0
-31 -194 0
-206 -19 0
-11 -214 0
-224 0
-138 -55 0
-47 -146 0
-158 -35 0
-31 -162 0
-174 -19 0
270 -266 0
-270 266 0
-260 264 0
