p cnf 5592 147
256 0
-2040 121 0
-2041 115 0
-2042 107 0
-2043 91 0
-2044 59 0
2040 2041 -127 2043 2042 2044 0
117 -2045 0
-2046 115 0
-2047 103 0
-2048 87 0
-2049 55 0
2045 2047 -127 2046 2048 2049 0
-2050 19 0
-2051 107 0
103 -2052 0
-2053 79 0
-2054 47 0
2052 2050 -127 2051 2053 2054 0
-2055 93 0
-2056 91 0
-2057 87 0
-2058 79 0
-2059 31 0
2055 2057 -127 2056 2058 2059 0
-2060 61 0
-2061 59 0
-2062 55 0
-2063 47 0
-2064 31 0
2060 2061 -127 2062 2063 2064 0
-2379 130 0
-2380 162 0
-2381 161 0
-170 2380 2379 2381 0
-2427 134 0
-2428 138 0
-2429 162 0
-174 2428 2427 2429 0
-2466 133 0
-2467 134 0
-2468 170 0
-2469 164 0
-2470 140 0
-176 2470 2466 2467 2469 2468 0
-2799 130 0
-2800 194 0
-2801 193 0
-202 2800 2799 2801 0
-2847 134 0
-2848 138 0
-2849 194 0
-206 2848 2847 2849 0
-2886 133 0
-2887 134 0
-2888 202 0
-2889 196 0
-2890 140 0
-208 2890 2886 2887 2889 2888 0
-3207 133 0
-3208 161 0
-3209 193 0
-229 3207 3208 3209 0
-3219 134 0
-3220 162 0
-3221 194 0
-230 3221 3219 3220 0
-3248 130 0
-3249 229 0
-3250 134 0
-3251 162 0
-3252 194 0
-232 3252 3248 3249 3250 3251 0
-3329 161 0
-3330 162 0
-3331 202 0
-3332 196 0
-3333 140 0
-236 3333 3329 3330 3332 3331 0
-3356 130 0
-3357 134 0
-3358 229 0
-3359 162 0
-3360 194 0
-238 3360 3356 3358 3357 3359 0
-3741 134 0
-3742 138 0
146 -3743 0
-3744 162 0
-3745 194 0
3743 3742 -254 3741 3744 3745 0
-3756 237 0
-3757 234 0
-3758 230 0
-3759 206 0
-3760 174 0
3756 3757 -254 3758 3759 3760 0
-3836 240 0
146 -3837 0
-3838 238 0
-3839 236 0
-3840 232 0
-3841 208 0
-3842 176 0
3838 3837 3839 3840 3841 3842 -256 3836 0
-237 -20 0
-59 -194 -261 0
-61 -196 0
-91 -162 -261 0
-93 -164 0
-140 -117 0
-121 -136 0
127 0
20 -19 0
-130 0
-133 0
-161 0
-193 0
254 0
196 -194 0
-196 194 0
164 -162 0
-164 162 0
136 -134 0
261 0
-115 -138 0
-107 -146 0
-234 -19 0
-115 -134 0
-103 -146 0
-87 -162 0
-55 -194 0
-107 -134 0
-103 -138 0
-79 -162 0
-47 -194 0
-240 0
-91 -134 0
-87 -138 0
-79 -146 0
-31 -194 0
-206 -19 0
-59 -134 0
-138 -55 0
-47 -146 0
-31 -162 0
-174 -19 0
