p cnf 5592 997
128 0
256 0
384 0
-421 3 0
-422 5 0
-423 7 0
-15 423 422 421 0
-469 3 0
-470 5 0
-471 7 0
-23 471 470 469 0
-553 7 0
-554 11 0
-555 19 0
-31 553 555 554 0
-655 3 0
-656 35 0
-657 33 0
-43 656 655 657 0
-679 5 0
-680 37 0
-681 33 0
-45 680 679 681 0
41 -703 0
-704 11 0
-705 13 0
703 -47 704 705 0
-730 5 0
-731 6 0
-732 7 0
-733 36 0
-734 37 0
-734 12 0
732 733 730 734 -48 731 0
-740 33 0
-741 15 0
-742 35 0
-743 12 0
-744 41 0
-744 8 0
744 -48 740 742 743 741 0
-781 5 0
-782 37 0
-783 33 0
-53 782 781 783 0
-805 7 0
-806 19 0
-806 37 0
-807 35 0
-807 21 0
-55 805 807 806 0
-974 23 0
-1039 3 0
-1040 5 0
-1041 65 0
-71 1039 1040 1041 0
-1075 3 0
-1076 67 0
-1077 65 0
-75 1076 1075 1077 0
-1099 5 0
-1100 69 0
-1101 65 0
-77 1100 1099 1101 0
-1145 3 0
-1146 4 0
-1146 77 0
-1147 7 0
-1148 11 0
-1148 70 0
-1149 67 0
1147 -80 1145 1149 1146 1148 0
-1161 15 0
-1162 14 0
-1164 8 0
-1201 5 0
-1202 69 0
-1203 65 0
-85 1202 1201 1203 0
7 -1225 0
-1225 81 0
-1226 19 0
-1226 69 0
-1227 67 0
-1227 21 0
-87 1225 1226 1227 0
-1252 5 0
-1253 6 0
-1254 82 0
-1255 21 0
-1256 69 0
1254 -88 1252 1256 1253 1255 0
-1333 13 0
-1334 21 0
-1335 69 0
-1335 25 0
-93 1335 1334 1333 0
-1447 3 0
-1448 33 0
-1449 65 0
-99 1447 1448 1449 0
-1461 66 0
-1471 5 0
-1472 33 0
-1473 65 0
-101 1471 1472 1473 0
-1495 7 0
-1496 69 0
-1497 67 0
-1497 37 0
-103 1496 1495 1497 0
-1527 33 0
-1528 71 0
-1529 35 0
-1529 70 0
-1530 37 0
-1531 8 0
-104 1530 1527 1528 1529 1531 0
-1537 97 0
-1538 33 0
-1539 65 0
-105 1537 1538 1539 0
-1578 107 0
-1579 105 0
-1580 99 0
-1581 75 0
-1582 66 0
1582 -108 1581 1580 1578 1579 0
-1620 109 0
-1621 6 0
-1622 101 0
-1623 34 0
-1623 77 0
-1624 66 0
-1624 45 0
1624 1623 1620 1622 -110 1621 0
-1645 3 0
-1646 5 0
-1647 103 0
-1648 33 0
-1649 65 0
-111 1647 1646 1645 1648 1649 0
-1655 5 0
-1656 7 0
-1657 99 0
-1658 37 0
-1658 75 0
-1659 69 0
-1659 43 0
1659 1656 1655 1657 -111 1658 0
-1705 97 0
-1706 33 0
-1707 65 0
-113 1705 1706 1707 0
-1746 115 0
-1747 113 0
-1748 99 0
-1749 34 0
-1750 51 0
-116 1750 1746 1748 1749 1747 0
-1783 117 0
-1784 5 0
-1785 102 0
-1786 33 0
-1787 65 0
-118 1785 1784 1783 1786 1787 0
-1788 117 0
-1789 6 0
-1790 101 0
-1791 34 0
-1792 53 0
-118 1791 1788 1790 1792 1789 0
-1803 33 0
-1804 85 0
-1805 82 0
-1806 70 0
-1807 22 0
-118 1805 1803 1806 1804 1807 0
-1808 65 0
-1809 53 0
-1810 50 0
-1811 38 0
-1812 97 0
-1812 22 0
-118 1809 1808 1810 1811 1812 0
-1813 3 0
-1814 5 0
-1815 103 0
-1816 33 0
-1817 65 0
-119 1815 1814 1813 1816 1817 0
-1833 33 0
-1834 35 0
-1835 83 0
-1836 71 0
-1837 97 0
-119 1835 1833 1834 1836 1837 0
-2035 7 0
-2035 121 0
-2036 11 0
-2036 117 0
-2037 19 0
-2037 109 0
-2038 35 0
-2038 93 0
-2039 67 0
-2039 61 0
2035 2038 -127 2039 2037 2036 0
7 -2040 0
-2041 13 0
-2041 115 0
-2042 107 0
-2043 91 0
-2044 69 0
2040 2044 -127 2041 2043 2042 0
-2045 11 0
-2045 117 0
-2046 13 0
-2046 115 0
-2047 103 0
41 -2048 0
-2048 87 0
-2049 73 0
-2049 55 0
2049 2047 -127 2048 2046 2045 0
-2050 19 0
-2050 109 0
-2051 107 0
-2052 103 0
-2053 49 0
-2053 79 0
-2054 81 0
-2054 47 0
2054 2051 -127 2053 2050 2052 0
-2055 93 0
-2056 37 0
-2056 91 0
-2057 87 0
49 -2058 0
79 -2058 0
-2059 97 0
-2059 31 0
2058 2057 -127 2055 2059 2056 0
-2060 61 0
69 -2061 0
59 -2061 0
-2062 73 0
-2062 55 0
-2063 81 0
-2063 47 0
-2064 97 0
-2064 31 0
2061 2060 -127 2062 2064 2063 0
-2079 3 0
-2080 125 0
-2081 7 0
-2082 11 0
-2082 118 0
-2083 110 0
-2084 35 0
-2084 94 0
-2085 67 0
-2085 62 0
2080 2081 2082 2083 2084 2085 -128 2079 0
-2093 120 0
-2094 119 0
-2095 11 0
-2095 118 0
-2096 116 0
-2097 104 0
-2098 41 0
-2098 88 0
-2099 73 0
-2099 56 0
2094 2095 2096 2097 2098 2099 -128 2093 0
-2100 112 0
-2101 111 0
19 -2102 0
-2102 110 0
-2103 108 0
-2104 104 0
49 -2105 0
80 -2105 0
81 -2106 0
-2106 48 0
2101 2102 2103 2104 2105 2106 -128 2100 0
-2118 73 0
-2277 134 0
-2278 138 0
-2278 149 0
-2279 146 0
-2279 141 0
-158 2278 2279 2277 0
-2415 133 0
-2416 165 0
-2417 161 0
-173 2416 2415 2417 0
-2427 134 0
-2428 138 0
-2428 165 0
-2429 162 0
-2429 141 0
-174 2428 2429 2427 0
-2456 130 0
-2457 173 0
-2458 134 0
-2459 138 0
-2460 162 0
-176 2457 2456 2458 2460 2459 0
-2466 133 0
-2467 134 0
-2468 135 0
-2469 164 0
-2470 165 0
2469 -176 2466 2470 2468 2467 0
-2517 133 0
-2518 165 0
-2519 161 0
-181 2518 2517 2519 0
-2529 134 0
-2529 177 0
-2530 146 0
-2530 165 0
-2531 162 0
-2531 149 0
-182 2531 2529 2530 0
-2558 130 0
-2559 181 0
-2560 134 0
-2561 167 0
-2562 162 0
-184 2559 2558 2560 2562 2561 0
-2568 133 0
-2569 134 0
-2570 135 0
-2571 164 0
-2572 165 0
-184 2571 2568 2569 2570 2572 0
-2649 177 0
-2650 149 0
-2651 165 0
2650 2649 -189 2651 0
-2666 130 0
-2667 134 0
-2668 138 0
-2669 173 0
-2670 162 0
-190 2670 2666 2667 2668 2669 0
-2763 130 0
-2764 133 0
-2765 193 0
-198 2763 2764 2765 0
-2835 133 0
-2836 197 0
-2837 193 0
-205 2836 2835 2837 0
-2847 134 0
-2848 138 0
-2848 197 0
-2849 194 0
-2849 141 0
-206 2848 2849 2847 0
-2876 130 0
-2877 132 0
-2878 134 0
-2879 138 0
-2880 194 0
2877 -208 2876 2879 2878 2880 0
-2901 130 0
-2902 194 0
-2903 193 0
-210 2902 2901 2903 0
-2937 133 0
-2938 197 0
-2939 193 0
-213 2938 2937 2939 0
-2949 134 0
-2949 209 0
-2950 146 0
-2950 197 0
-2951 194 0
-2951 149 0
-214 2950 2949 2951 0
-2955 146 0
-2955 197 0
-2956 149 0
-2956 194 0
-2957 134 0
-214 2956 2957 2955 0
-2983 214 0
-2984 213 0
-2985 210 0
-2986 198 0
-2987 150 0
-216 2987 2985 2984 2986 2983 0
-3081 130 0
-3082 133 0
-3083 214 0
-3084 206 0
-3085 193 0
-222 3083 3082 3081 3084 3085 0
-3171 130 0
-3172 161 0
-3173 193 0
-226 3171 3172 3173 0
-3195 225 0
-3196 162 0
-3197 194 0
-3197 163 0
-228 3197 3196 3195 0
-3207 133 0
-3208 161 0
-3209 193 0
-229 3207 3208 3209 0
-3219 134 0
-3220 162 0
-3220 197 0
-3221 194 0
-3221 165 0
-230 3220 3219 3221 0
-3263 161 0
-3264 162 0
-3264 199 0
-3265 198 0
-3266 165 0
-3266 196 0
-3267 136 0
-232 3267 3263 3265 3266 3264 0
-3273 225 0
-3274 161 0
-3275 193 0
-233 3273 3274 3275 0
-3285 138 0
-3286 162 0
-3287 194 0
3287 3286 3285 -234 0
-3309 130 0
-3310 234 0
228 -3311 0
-3312 161 0
-3313 193 0
3311 -236 3309 3310 3312 3313 0
-3314 130 0
-3315 233 0
-3316 227 0
-3317 162 0
-3318 194 0
3318 3317 3314 3316 3315 -236 0
-3319 234 0
-3320 233 0
-3321 226 0
-3322 163 0
-3323 170 0
3322 -236 3319 3321 3320 3323 0
-3351 130 0
-3352 133 0
-3353 230 0
-3354 161 0
-3355 193 0
-238 3353 3352 3351 3354 3355 0
-3356 130 0
-3357 134 0
-3358 229 0
-3359 162 0
-3359 205 0
-3360 194 0
-3360 173 0
-238 3359 3356 3358 3357 3360 0
-3381 237 0
-3382 133 0
-3383 231 0
-3384 161 0
-3385 193 0
-239 3381 3382 3383 3384 3385 0
-3386 237 0
-3387 135 0
-3388 229 0
-3389 205 0
-3390 173 0
-239 3389 3386 3388 3387 3390 0
-3507 149 0
-3508 165 0
-3509 197 0
-245 3509 3508 3507 0
-3519 130 0
-3520 133 0
-3521 230 0
-3522 161 0
-3523 193 0
-246 3521 3520 3519 3522 3523 0
-3741 134 0
-3741 249 0
-3742 138 0
-3742 245 0
-3743 146 0
-3743 237 0
-3744 162 0
221 -3744 0
194 -3745 0
189 -3745 0
3745 3744 -254 3741 3742 3743 0
-3746 249 0
-3747 141 0
-3747 242 0
-3748 149 0
-3748 234 0
-3749 165 0
-3749 218 0
-3750 197 0
-3750 186 0
3746 3750 -254 3747 3748 3749 0
-3751 138 0
-3751 245 0
-3752 141 0
-3752 242 0
153 -3753 0
-3753 230 0
169 -3754 0
-3754 214 0
201 -3755 0
182 -3755 0
3755 3754 -254 3752 3751 3753 0
146 -3756 0
-3756 237 0
-3757 149 0
-3757 234 0
-3758 153 0
-3758 230 0
-3759 177 0
-3759 206 0
-3760 209 0
-3760 174 0
3760 3759 -254 3758 3756 3757 0
-3761 162 0
221 -3761 0
-3762 165 0
-3762 218 0
169 -3763 0
-3763 214 0
-3764 177 0
-3764 206 0
-3765 225 0
-3765 158 0
3762 3761 -254 3764 3765 3763 0
-3766 194 0
-3766 189 0
-3767 197 0
-3768 182 0
-3769 174 0
-3770 158 0
3767 3768 -254 3770 3769 3766 0
-3808 255 0
-3809 253 0
-3810 134 0
-3811 138 0
-3812 239 0
-3813 162 0
-3813 223 0
-3814 194 0
-3814 191 0
3810 3809 3811 3812 3813 3814 -256 3808 0
-3831 246 0
-3833 232 0
-3835 184 0
-3836 240 0
-3837 146 0
-3837 239 0
-3838 238 0
149 -3839 0
236 -3839 0
-3840 232 0
-3841 177 0
-3841 208 0
-3842 209 0
176 -3842 0
3837 3838 3839 3840 3841 3842 -256 3836 0
-3843 161 0
-3844 162 0
-3845 222 0
-3846 165 0
-3847 216 0
-3848 208 0
-3849 160 0
3844 3845 3846 3847 3848 3849 -256 3843 0
-3850 193 0
-3851 194 0
-3852 190 0
-3853 197 0
-3854 184 0
-3855 176 0
-3856 160 0
3851 3852 3853 3854 3855 3856 -256 3850 0
-3917 258 0
-3918 259 0
-3919 273 0
-276 3917 3918 3919 0
-3977 259 0
-3978 265 0
-3979 273 0
-283 3977 3978 3979 0
-3989 281 0
-3990 275 0
-3991 267 0
3991 3989 -284 3990 0
-4042 258 0
260 -4043 0
285 -4043 0
-4044 283 0
266 -4045 0
279 -4045 0
-4046 274 0
271 -4046 0
4046 4045 4042 4044 4043 -288 0
-4139 260 0
297 -4139 0
-4140 266 0
-4140 291 0
-4141 290 0
-4141 267 0
4139 4140 -300 4141 0
-4241 305 0
-4242 291 0
-4243 290 0
-308 4242 4241 4243 0
-4304 308 0
-4305 307 0
-4306 263 0
-4307 292 0
-4308 276 0
-312 4306 4305 4304 4307 4308 0
-4331 266 0
-4332 274 0
-4333 281 0
-314 4331 4332 4333 0
-4343 267 0
-4343 305 0
-4344 275 0
-4344 297 0
-4345 291 0
-4345 281 0
-315 4345 4344 4343 0
-4370 265 0
-4371 307 0
-4372 267 0
-4373 281 0
-4374 276 0
-316 4373 4370 4371 4372 4374 0
-4462 317 0
-4463 263 0
-4464 267 0
-4465 302 0
-4466 291 0
-320 4463 4465 4462 4466 4464 0
-4559 260 0
-4559 329 0
266 -4560 0
-4560 323 0
-4561 322 0
-4561 267 0
4561 -332 4560 4559 0
-4661 260 0
-4662 323 0
-4663 322 0
-340 4663 4661 4662 0
-4751 266 0
-4752 274 0
-4753 281 0
-346 4753 4752 4751 0
-4763 267 0
-4763 337 0
-4764 275 0
-4765 281 0
-347 4765 4763 4764 0
-4775 258 0
-4776 259 0
-4777 265 0
-4778 273 0
-4779 284 0
-348 4779 4776 4777 4778 4775 0
-4983 296 0
-5033 267 0
-5034 291 0
-5034 329 0
-5035 323 0
-5035 297 0
-363 5033 5034 5035 0
-5121 303 0
-5201 275 0
-5202 291 0
-5202 337 0
-5203 323 0
-5203 305 0
5202 5201 -371 5203 0
-5210 323 0
-5211 291 0
-5212 275 0
5211 5212 -371 5210 0
-5417 260 0
-5417 377 0
266 -5418 0
371 -5418 0
-5419 274 0
-5419 363 0
-5420 290 0
347 -5420 0
-5421 322 0
-5421 315 0
5418 5417 -380 5419 5420 5421 0
-5422 377 0
-5423 370 0
-5424 275 0
-5424 362 0
-5425 291 0
346 -5425 0
-5426 323 0
314 -5426 0
5425 5426 -380 5424 5423 5422 0
-5427 371 0
-5428 267 0
-5429 356 0
-5430 297 0
-5431 308 0
5430 5428 -380 5429 5427 5431 0
-5432 274 0
-5432 363 0
-5433 275 0
-5433 362 0
-5434 281 0
-5434 356 0
-5435 305 0
332 -5435 0
-5436 337 0
-5436 300 0
5435 5432 -380 5436 5434 5433 0
-5437 290 0
-5437 347 0
-5438 291 0
-5438 346 0
-5439 340 0
-5440 332 0
-5441 284 0
5439 5441 -380 5438 5440 5437 0
-5442 322 0
-5442 315 0
-5443 323 0
-5443 314 0
-5444 329 0
-5444 308 0
-5445 300 0
-5446 284 0
5446 5443 -380 5442 5444 5445 0
-5578 304 0
-5582 348 0
-5585 288 0
-5586 320 0
-5587 322 0
-5588 323 0
-5589 316 0
-5590 312 0
-5591 304 0
353 -5592 0
288 -5592 0
5586 5587 5588 5589 5590 5591 5592 -384 0
-253 -260 0
-249 -264 0
-242 -271 0
-239 -274 0
-238 -275 0
-234 -279 0
-232 -281 0
-225 -288 0
-304 -209 0
-208 -305 0
-307 -206 0
-314 -199 0
-317 -196 0
-176 -337 0
-346 -167 0
-377 -136 0
-237 -275 -2 0
-303 -209 -2 0
-197 -315 -2 0
-323 -189 -2 0
-363 -149 -2 0
-141 -371 -2 0
-249 -8 0
-225 -8 -281 0
-377 -8 0
-12 -353 -149 0
-13 -305 -196 0
-13 -337 -164 0
-14 -291 -209 0
-15 -305 -194 0
-225 -19 -270 0
-21 -236 0
-329 -21 -164 0
-22 -363 0
-223 -34 0
-201 -34 -279 0
-35 -209 -270 0
-35 -201 -278 0
-35 -285 -194 0
-36 -221 0
-329 -36 -149 0
-36 -141 -337 0
-38 -209 -267 0
-153 -38 -323 0
-38 -347 0
-41 -209 -264 0
-41 -279 -194 0
-48 -209 0
-48 -337 0
-208 -49 0
-201 -264 -49 0
-271 -49 -194 0
-50 -141 -323 0
-51 -206 0
-53 -323 -138 0
-56 -201 0
-329 -56 0
-61 -196 0
-61 -322 -131 0
-62 -323 0
-66 -191 0
-66 -177 -271 0
-67 -169 -278 0
-67 -285 -162 0
-68 -189 0
-68 -297 -149 0
-141 -68 -305 0
-177 -267 -70 0
-169 -275 -70 0
-153 -291 -70 0
-315 -70 0
-73 -177 -264 0
-167 -73 -274 0
-73 -162 -279 0
-75 -182 0
-177 -80 0
-305 -80 0
-176 -81 0
-169 -81 -264 0
-163 -81 -270 0
-81 -162 -271 0
-304 -81 0
-82 -291 -141 0
-83 -174 0
-170 -87 0
-88 -169 0
-88 -297 0
-93 -164 0
-93 -290 -131 0
-292 -93 0
-94 -291 0
-160 -97 0
-150 -97 -267 0
-271 -97 -146 0
-97 -138 -279 0
-97 -281 -136 0
-97 -288 0
-98 -149 -267 0
-98 -141 -275 0
-104 -281 0
-107 -278 0
-108 -149 0
-110 -275 0
-274 -111 0
-115 -270 0
-116 -141 0
-117 -266 -131 0
-118 -267 0
-119 -138 0
-121 -264 0
-125 -260 0
-3 0
-5 0
-33 0
-65 0
2 0
127 0
-255 0
-245 -267 0
-291 -221 0
-165 -347 0
-135 -377 0
-245 -260 0
-263 -242 0
-230 -275 0
-291 -214 0
-296 -209 0
-308 -197 0
-323 -182 0
-340 -165 0
-356 -149 0
-134 -371 0
-240 0
-260 -237 0
-231 -266 0
-230 -267 0
-291 -206 0
-197 -300 0
-174 -323 0
-165 -332 0
-356 -141 0
-363 -134 0
-103 104 0
-104 103 0
-97 98 0
70 -69 0
-67 68 0
-37 38 0
-38 37 0
-35 36 0
-36 35 0
8 -7 0
-8 7 0
-130 0
-133 0
-161 0
-193 0
131 0
254 0
-109 -274 0
-302 -81 0
-362 -21 0
-377 -6 0
-120 0
-117 -260 0
-103 -274 0
-102 -275 0
-87 -290 0
-308 -69 0
-55 -322 0
-340 -37 0
-356 -21 0
-370 -7 0
-371 -6 0
-112 0
-109 -260 0
-103 -266 0
-79 -290 0
-300 -69 0
-322 -47 0
-37 -332 0
-362 -7 0
-363 -6 0
-230 232 0
-232 230 0
-227 225 0
199 -197 0
-199 197 0
196 -194 0
-165 167 0
-167 165 0
164 -162 0
136 -134 0
-258 0
-259 0
-265 0
-273 0
380 0
-138 -115 0
-107 -146 0
-91 -162 0
-59 -194 0
-218 -35 0
-25 -228 0
-234 -19 0
-11 -242 0
-138 -87 0
-79 -146 0
-158 -67 0
-31 -194 0
-206 -19 0
-11 -214 0
-218 -7 0
-132 -61 0
-138 -55 0
-47 -146 0
-158 -35 0
-31 -162 0
-174 -19 0
-11 -182 0
-186 -7 0
-4 -189 0
-284 288 0
284 -288 0
-281 285 0
-275 279 0
275 -279 0
278 -274 0
-278 274 0
-267 271 0
267 -271 0
270 -266 0
264 -260 0
-264 260 0
