p cnf 5592 1800
128 0
256 0
384 0
-421 3 0
-422 5 0
-423 7 0
-15 423 422 421 0
-469 3 0
-470 5 0
-471 17 0
-23 469 470 471 0
-505 3 0
-506 19 0
-507 17 0
-27 506 505 507 0
-529 5 0
-530 21 0
-531 17 0
-29 530 529 531 0
-553 7 0
-553 25 0
-554 11 0
-554 21 0
-555 19 0
-555 13 0
-31 553 555 554 0
-580 5 0
-581 27 0
-582 7 0
-583 20 0
-584 12 0
-32 582 581 584 583 580 0
-585 24 0
-586 23 0
-587 22 0
-588 20 0
-589 8 0
-32 587 585 588 589 586 0
-655 3 0
-656 35 0
-657 33 0
-43 656 655 657 0
-679 5 0
-680 37 0
-681 33 0
-45 680 679 681 0
-703 7 0
-703 41 0
-704 11 0
-704 37 0
-705 35 0
-705 13 0
-47 704 703 705 0
-725 3 0
-726 45 0
-727 7 0
-727 42 0
-728 38 0
-729 35 0
-729 14 0
-48 728 727 729 726 725 0
-757 3 0
-758 17 0
-759 33 0
-51 757 758 759 0
-781 5 0
-782 17 0
-783 33 0
-53 781 782 783 0
-805 7 0
-805 49 0
-806 19 0
-806 37 0
35 -807 0
-807 21 0
-55 805 806 807 0
-832 5 0
-833 51 0
-834 7 0
-835 21 0
-835 36 0
-836 20 0
834 -56 836 835 832 833 0
-847 49 0
-848 17 0
-849 33 0
-57 847 848 849 0
-871 49 0
-872 19 0
-872 41 0
-873 35 0
-873 25 0
-59 873 872 871 0
-883 59 0
-884 3 0
-885 52 0
-886 17 0
-887 33 0
-60 885 883 884 886 887 0
-909 27 0
-911 20 0
-913 13 0
-913 49 0
-914 21 0
-914 41 0
-915 37 0
-915 25 0
-61 915 914 913 0
-925 61 0
-926 5 0
-927 54 0
-928 17 0
-929 33 0
927 -62 925 926 928 929 0
-935 5 0
-936 57 0
-937 50 0
-938 21 0
-939 37 0
939 937 938 -62 936 935 0
-940 54 0
-941 53 0
-942 13 0
-943 38 0
-944 22 0
943 942 944 -62 940 941 0
-955 3 0
-956 5 0
-957 55 0
-958 17 0
-959 33 0
-63 957 956 955 958 959 0
-960 3 0
-961 57 0
-962 53 0
-963 19 0
-963 45 0
-964 35 0
-964 29 0
-63 964 961 963 960 962 0
-965 5 0
-966 7 0
-966 57 0
-967 51 0
-968 21 0
-969 37 0
-969 27 0
-63 966 968 969 965 967 0
-976 45 0
-1051 69 0
-1053 7 0
-1075 3 0
-1076 67 0
-1077 65 0
-75 1076 1075 1077 0
-1099 5 0
-1100 69 0
-1101 65 0
-77 1100 1099 1101 0
-1123 7 0
-1123 73 0
-1124 11 0
-1124 69 0
-1125 67 0
-1125 13 0
-79 1123 1125 1124 0
-1146 4 0
-1149 67 0
-1150 5 0
-1151 75 0
-1152 7 0
-1153 68 0
-1154 69 0
-80 1152 1154 1151 1153 1150 0
-1162 67 0
-1177 3 0
-1178 17 0
-1179 65 0
-83 1177 1178 1179 0
-1201 5 0
-1202 17 0
-1203 65 0
-85 1201 1202 1203 0
-1225 7 0
-1225 81 0
-1226 19 0
-1226 69 0
-1227 67 0
-1227 21 0
-87 1225 1226 1227 0
-1252 5 0
-1253 83 0
-1254 7 0
-1255 68 0
-1256 69 0
-88 1254 1255 1256 1252 1253 0
-1260 68 0
-1291 11 0
-1291 81 0
-1292 19 0
-1293 67 0
-91 1291 1292 1293 0
-1294 81 0
-1295 25 0
-1295 67 0
-1296 19 0
1294 -91 1296 1295 0
-1303 91 0
-1304 3 0
-1305 84 0
-1306 17 0
-1307 65 0
-92 1305 1303 1304 1306 1307 0
-1333 81 0
-1334 21 0
-1335 69 0
-1335 25 0
1335 1333 1334 -93 0
-1345 93 0
-1346 5 0
-1347 86 0
-1348 17 0
-1349 65 0
-94 1345 1347 1346 1348 1349 0
-1360 86 0
-1361 85 0
-1362 13 0
-1363 70 0
-1364 22 0
-94 1362 1363 1360 1364 1361 0
-1375 3 0
-1376 5 0
-1377 87 0
-1378 17 0
-1379 65 0
-95 1377 1376 1375 1378 1379 0
-1447 3 0
-1448 33 0
-1449 65 0
-99 1447 1448 1449 0
-1460 67 0
-1471 5 0
-1472 33 0
-1473 65 0
-101 1471 1472 1473 0
-1495 7 0
-1495 97 0
-1496 35 0
-1496 69 0
-1497 67 0
-1497 37 0
-103 1495 1497 1496 0
-1522 5 0
-1523 99 0
-1524 7 0
-1524 98 0
-1525 37 0
-1525 68 0
-1526 69 0
-104 1526 1524 1525 1522 1523 0
-1529 70 0
-1531 97 0
-1531 8 0
-1537 97 0
-1538 33 0
-1539 65 0
-105 1537 1538 1539 0
-1561 11 0
-1561 97 0
-1562 35 0
-1562 73 0
-1563 67 0
-1563 41 0
1562 1561 -107 1563 0
-1570 67 0
-1571 35 0
-1572 97 0
1571 1572 1570 -107 0
-1573 107 0
-1574 3 0
-1575 100 0
-1576 33 0
-1577 65 0
-108 1575 1573 1574 1576 1577 0
-1578 107 0
-1579 105 0
-1580 99 0
-1581 75 0
-1582 43 0
-108 1582 1578 1579 1581 1580 0
-1587 67 0
-1604 37 0
-1605 69 0
-1612 69 0
-1613 37 0
-1614 13 0
-109 1613 1612 1614 0
-1615 109 0
-1616 5 0
-1617 102 0
-1618 33 0
-1619 65 0
-110 1615 1617 1616 1618 1619 0
-1645 3 0
-1646 5 0
-1647 103 0
-1648 33 0
-1649 65 0
-111 1647 1646 1645 1648 1649 0
-1653 77 0
-1669 15 0
-1729 19 0
-1729 97 0
-1730 35 0
-1730 81 0
-1731 67 0
-1731 49 0
-115 1730 1729 1731 0
-1772 37 0
-1808 65 0
-1809 53 0
-1810 69 0
-1810 50 0
-1811 81 0
-1811 38 0
-1812 97 0
-1812 22 0
-118 1812 1811 1810 1808 1809 0
-1873 25 0
-1873 97 0
-1874 41 0
-1874 81 0
-1875 73 0
-1875 49 0
-121 1875 1874 1873 0
-1882 49 0
-1883 41 0
-1884 97 0
-1884 25 0
-121 1884 1883 1882 0
-1885 121 0
-1886 114 0
-1887 17 0
-1888 33 0
-1889 65 0
-122 1885 1886 1887 1888 1889 0
-1898 82 0
-1910 65 0
-1911 57 0
-1912 50 0
-1913 81 0
-1914 97 0
-122 1911 1913 1912 1914 1910 0
-1915 3 0
-1916 115 0
-1917 17 0
-1918 33 0
-1919 65 0
-123 1916 1915 1917 1918 1919 0
-1975 5 0
-1976 117 0
-1977 17 0
-1978 33 0
-1979 65 0
-125 1976 1975 1977 1978 1979 0
-1990 17 0
-1991 21 0
-1992 101 0
-1993 77 0
-1994 81 0
-125 1993 1994 1991 1990 1992 0
-2000 65 0
-2001 57 0
-2002 53 0
-2003 81 0
-2003 45 0
-2004 97 0
-2004 29 0
-125 2001 2004 2003 2000 2002 0
7 -2035 0
-2035 121 0
-2036 11 0
-2036 117 0
-2037 19 0
-2037 109 0
35 -2038 0
93 -2038 0
-2039 67 0
-2039 61 0
2038 2039 2035 2036 2037 -127 0
-2040 7 0
-2040 121 0
-2041 13 0
-2041 115 0
-2042 21 0
107 -2042 0
37 -2043 0
-2043 91 0
-2044 69 0
-2044 59 0
2043 2042 2044 2040 2041 -127 0
-2045 11 0
-2045 117 0
-2046 13 0
-2046 115 0
-2047 103 0
-2048 41 0
-2048 87 0
-2049 73 0
55 -2049 0
2049 2047 2048 2046 2045 -127 0
-2050 19 0
-2050 109 0
-2051 21 0
-2051 107 0
-2052 25 0
-2052 103 0
-2053 49 0
-2053 79 0
-2054 81 0
47 -2054 0
2053 2052 2054 2051 2050 -127 0
-2055 35 0
-2055 93 0
-2056 37 0
-2056 91 0
-2057 41 0
-2057 87 0
-2058 49 0
-2058 79 0
-2059 97 0
-2059 31 0
2055 2058 2056 2057 2059 -127 0
-2060 67 0
-2060 61 0
-2061 69 0
-2061 59 0
-2062 73 0
-2062 55 0
-2063 81 0
-2063 47 0
-2064 97 0
-2064 31 0
2060 2061 2063 2062 2064 -127 0
-2079 3 0
-2080 125 0
-2081 7 0
-2081 122 0
-2082 11 0
-2082 118 0
-2083 110 0
-2084 35 0
-2085 67 0
62 -2085 0
2080 2081 2082 2083 2084 2085 -128 2079 0
-2086 5 0
-2087 123 0
7 -2088 0
-2089 13 0
-2089 116 0
-2090 21 0
-2090 108 0
-2091 37 0
-2091 92 0
-2092 69 0
2087 2088 2089 2090 2091 2092 -128 2086 0
-2100 17 0
-2101 18 0
-2101 111 0
-2102 19 0
-2102 110 0
-2103 21 0
-2103 108 0
-2104 25 0
-2104 104 0
-2105 49 0
-2105 80 0
-2106 81 0
-2106 48 0
2102 2101 2103 2104 2105 2106 -128 2100 0
-2107 33 0
-2108 95 0
-2109 35 0
94 -2109 0
-2110 37 0
-2110 92 0
-2111 88 0
-2112 49 0
-2112 80 0
-2113 97 0
-2113 32 0
2108 2109 2110 2111 2112 2113 -128 2107 0
-2114 65 0
-2115 63 0
-2116 67 0
62 -2116 0
-2117 69 0
60 -2117 0
-2118 56 0
-2119 81 0
-2119 48 0
-2120 97 0
-2120 32 0
2116 2115 2117 2118 2119 2120 -128 2114 0
-2229 130 0
-2230 137 0
-2231 138 0
-154 2231 2230 2229 0
-2277 134 0
-2277 153 0
-2278 138 0
-2278 149 0
-2279 146 0
-2279 141 0
-158 2278 2279 2277 0
-2343 130 0
-2344 133 0
-2345 161 0
-166 2343 2344 2345 0
-2379 130 0
-2380 137 0
-2381 161 0
-170 2379 2380 2381 0
-2427 134 0
-2427 169 0
138 -2428 0
-2428 165 0
-2429 162 0
-2429 141 0
2428 -174 2427 2429 0
-2469 164 0
-2470 165 0
-2470 140 0
-2471 137 0
-2472 138 0
-2472 167 0
-2473 166 0
-2474 141 0
-2474 164 0
-2475 169 0
-2475 136 0
2472 -176 2475 2474 2471 2473 0
-2480 169 0
-2481 130 0
-2482 162 0
-2483 161 0
-178 2482 2481 2483 0
-2529 134 0
-2529 177 0
-2530 146 0
-2530 165 0
-2531 162 0
-2531 149 0
-182 2529 2531 2530 0
-2538 162 0
-2539 165 0
-2540 134 0
-182 2540 2538 2539 0
138 -2595 0
177 -2595 0
-2596 146 0
-2596 169 0
-2597 162 0
-2597 153 0
2595 2596 2597 -186 0
-2619 130 0
-2620 186 0
-2621 137 0
-2622 172 0
-2623 161 0
-188 2620 2622 2621 2619 2623 0
-2649 141 0
-2649 177 0
-2650 149 0
-2650 169 0
-2651 165 0
-2651 153 0
-189 2650 2649 2651 0
-2661 130 0
-2662 133 0
-2663 137 0
-2664 174 0
-2665 161 0
-190 2664 2662 2663 2661 2665 0
-2691 189 0
-2692 133 0
-2693 137 0
-2694 175 0
-2695 161 0
-191 2694 2691 2693 2692 2695 0
-2763 130 0
-2764 133 0
-2765 193 0
-198 2763 2764 2765 0
-2799 130 0
-2800 137 0
-2801 193 0
-202 2799 2800 2801 0
-2824 195 0
-2825 194 0
-2847 134 0
-2847 201 0
-2848 138 0
-2848 197 0
-2849 194 0
-2849 141 0
2848 2847 2849 -206 0
-2901 130 0
-2902 194 0
-2903 193 0
-210 2902 2901 2903 0
-2949 134 0
-2949 209 0
197 -2950 0
-2951 194 0
-2951 149 0
2950 -214 2949 2951 0
-2955 146 0
-2956 149 0
-2956 194 0
-2957 209 0
-2957 134 0
-214 2956 2955 2957 0
-3015 138 0
-3015 209 0
-3016 146 0
-3016 201 0
-3017 194 0
3017 -218 3015 3016 0
-3039 130 0
-3040 218 0
-3041 137 0
-3042 204 0
-3043 193 0
-220 3042 3040 3041 3039 3043 0
-3055 138 0
-3064 193 0
-3065 194 0
-3066 154 0
-3067 201 0
-3068 140 0
-220 3065 3067 3068 3066 3064 0
-3069 141 0
-3070 149 0
-3071 153 0
-221 3071 3070 3069 0
-3081 130 0
-3082 133 0
-3083 137 0
-3084 206 0
-3085 193 0
-222 3084 3082 3083 3081 3085 0
-3091 133 0
-3092 134 0
-3093 141 0
-3094 202 0
-3095 154 0
-222 3095 3092 3093 3094 3091 0
-3096 137 0
-3097 138 0
-3098 210 0
-3099 198 0
-3100 150 0
-222 3097 3100 3098 3099 3096 0
-3111 221 0
-3112 133 0
-3113 137 0
-3114 207 0
-3115 193 0
3114 -223 3111 3113 3112 3115 0
-3171 130 0
-3172 161 0
-3173 193 0
-226 3171 3172 3173 0
-3207 133 0
-3208 161 0
-3209 193 0
-229 3207 3208 3209 0
-3219 134 0
-3219 225 0
-3220 162 0
197 -3220 0
-3221 194 0
-3221 165 0
3219 -230 3221 3220 0
-3248 130 0
-3249 229 0
-3250 227 0
-3251 162 0
-3252 194 0
3250 -232 3252 3251 3248 3249 0
-3258 133 0
-3259 227 0
-3260 226 0
-3261 196 0
-3262 197 0
3262 -232 3261 3259 3258 3260 0
-3273 137 0
-3274 161 0
-3275 193 0
-233 3273 3274 3275 0
-3285 225 0
162 -3286 0
201 -3286 0
-3287 194 0
-3287 169 0
3286 3285 -234 3287 0
-3324 137 0
-3325 138 0
-3326 226 0
-3327 169 0
-3328 164 0
3327 3328 -236 3325 3324 3326 0
-3339 225 0
-3340 165 0
-3340 201 0
-3341 197 0
-3341 169 0
-237 3339 3341 3340 0
-3351 130 0
-3352 133 0
-3353 137 0
-3354 161 0
-3355 193 0
-238 3351 3352 3353 3354 3355 0
-3396 137 0
-3397 229 0
-3398 141 0
-3398 227 0
-3399 169 0
-3400 201 0
-3400 167 0
-239 3399 3400 3398 3396 3397 0
-3411 237 0
-3412 235 0
-3413 231 0
-3414 162 0
-3414 207 0
-3415 194 0
-240 3413 3414 3415 3412 3411 0
-3436 175 0
-3437 174 0
-3438 172 0
-3439 201 0
-3440 144 0
-240 3439 3438 3440 3436 3437 0
-3441 225 0
-3442 161 0
-3443 193 0
-241 3441 3442 3443 0
-3453 146 0
-3453 225 0
-3454 162 0
-3454 209 0
-3455 194 0
-3455 177 0
-242 3455 3454 3453 0
-3487 242 0
-3488 241 0
-3489 226 0
-3490 210 0
-3491 178 0
-244 3488 3490 3491 3487 3489 0
-3497 161 0
-3498 162 0
-3499 163 0
-3499 210 0
-3500 196 0
-3501 225 0
-244 3501 3499 3498 3500 3497 0
-3507 149 0
-3507 225 0
-3508 165 0
-3509 197 0
-3509 177 0
3509 3507 3508 -245 0
-3519 130 0
-3520 133 0
-3521 230 0
-3522 161 0
-3523 193 0
-246 3521 3520 3519 3522 3523 0
-3609 153 0
-3609 225 0
-3610 169 0
-3611 201 0
-3611 177 0
-249 3611 3610 3609 0
-3618 201 0
-3618 177 0
-3619 169 0
-3620 225 0
153 -3620 0
-249 3618 3619 3620 0
-3646 193 0
-3647 194 0
-3648 201 0
-3648 178 0
-3649 170 0
-3650 225 0
-250 3650 3648 3647 3649 3646 0
-3651 249 0
-3652 137 0
-3653 235 0
-3654 161 0
-3655 193 0
-251 3651 3653 3652 3654 3655 0
-3656 249 0
-3657 241 0
-3658 233 0
-3659 163 0
-3660 185 0
-251 3656 3659 3657 3660 3658 0
-3661 137 0
-3662 241 0
-3663 227 0
-3664 169 0
-3665 201 0
-3665 179 0
-251 3662 3664 3663 3665 3661 0
-3741 134 0
-3741 249 0
138 -3742 0
-3742 245 0
-3743 146 0
-3743 237 0
-3744 162 0
-3744 221 0
-3745 194 0
189 -3745 0
3742 3741 3744 3743 3745 -254 0
-3746 134 0
-3746 249 0
-3747 141 0
-3747 242 0
149 -3748 0
234 -3748 0
-3749 165 0
-3749 218 0
197 -3750 0
186 -3750 0
3750 3746 3748 3747 3749 -254 0
138 -3751 0
-3751 245 0
-3752 141 0
-3752 242 0
-3753 153 0
-3753 230 0
-3754 169 0
214 -3754 0
-3755 201 0
182 -3755 0
3755 3753 3752 3754 3751 -254 0
-3756 146 0
-3756 237 0
-3757 149 0
-3757 234 0
-3758 153 0
-3758 230 0
177 -3759 0
-3759 206 0
-3760 209 0
-3760 174 0
3756 3759 3760 3758 3757 -254 0
-3761 162 0
-3761 221 0
-3762 165 0
-3762 218 0
-3763 169 0
-3763 214 0
-3764 177 0
-3764 206 0
-3765 225 0
-3765 158 0
3765 3762 3764 3761 3763 -254 0
-3766 194 0
-3766 189 0
-3767 197 0
-3767 186 0
-3768 201 0
-3768 182 0
-3769 209 0
-3769 174 0
-3770 225 0
-3770 158 0
3767 3770 3766 3768 3769 -254 0
-3808 255 0
-3809 132 0
-3810 134 0
-3810 251 0
-3811 247 0
-3812 239 0
-3813 162 0
-3814 191 0
3810 3809 3811 3812 3813 3814 -256 3808 0
-3822 133 0
-3823 134 0
-3823 251 0
-3824 250 0
-3825 244 0
-3826 236 0
-3827 165 0
-3827 220 0
197 -3828 0
188 -3828 0
3824 3823 3825 3826 3827 3828 -256 3822 0
-3829 248 0
-3830 247 0
-3831 246 0
-3832 141 0
-3832 244 0
-3833 232 0
-3834 169 0
-3835 184 0
3831 3830 3832 3833 3834 3835 -256 3829 0
-3836 240 0
-3837 146 0
-3837 239 0
-3838 238 0
-3839 149 0
-3839 236 0
-3840 153 0
-3840 232 0
-3841 208 0
-3842 209 0
-3842 176 0
3837 3836 3839 3840 3841 3842 -256 3838 0
-3843 161 0
-3844 162 0
223 -3844 0
-3845 222 0
-3846 165 0
-3846 220 0
-3847 169 0
216 -3847 0
-3848 177 0
-3848 208 0
-3849 225 0
-3849 160 0
3844 3845 3846 3847 3848 3849 -256 3843 0
-3850 193 0
-3851 194 0
191 -3851 0
-3852 190 0
-3853 197 0
-3853 188 0
-3854 201 0
-3854 184 0
-3855 176 0
-3856 160 0
3852 3851 3853 3854 3855 3856 -256 3850 0
-3906 267 0
-3917 258 0
-3918 259 0
-3919 273 0
-276 3917 3918 3919 0
-3953 277 0
-3954 262 0
-3955 274 0
-280 3953 3955 3954 0
-3965 258 0
-3966 265 0
-3967 273 0
-282 3965 3966 3967 0
-3989 260 0
-3989 281 0
266 -3990 0
-3990 275 0
-3991 274 0
267 -3991 0
3989 3991 3990 -284 0
-4046 271 0
-4050 267 0
-4058 266 0
-4058 279 0
-4059 267 0
-4061 281 0
-4064 270 0
-4067 258 0
-4068 259 0
-4069 260 0
-292 4069 4068 4067 0
-4115 258 0
-4116 265 0
-4117 266 0
-298 4117 4116 4115 0
-4127 259 0
-4128 265 0
-4129 267 0
-299 4129 4128 4127 0
-4139 260 0
-4140 266 0
-4140 291 0
-4141 290 0
-4141 267 0
4140 4141 -300 4139 0
-4197 259 0
-4198 301 0
-4199 298 0
-4200 267 0
-4200 294 0
-4201 270 0
4198 4201 -304 4199 4200 4197 0
-4207 265 0
-4208 266 0
-4209 267 0
-4209 294 0
-4210 292 0
-4211 264 0
4208 4209 -304 4211 4210 4207 0
-4217 258 0
-4218 273 0
-4219 274 0
-306 4219 4218 4217 0
-4229 259 0
-4230 273 0
-4231 275 0
-307 4231 4230 4229 0
-4241 260 0
-4241 305 0
-4242 274 0
-4242 291 0
-4243 290 0
-4243 275 0
-308 4241 4243 4242 0
-4289 258 0
-4290 259 0
-4291 308 0
-4292 273 0
-4293 280 0
-312 4293 4291 4289 4292 4290 0
-4299 259 0
-4300 260 0
-4300 309 0
-4301 306 0
-4302 275 0
-4303 278 0
-312 4300 4302 4303 4301 4299 0
-4331 266 0
-4331 305 0
-4332 274 0
-4332 297 0
-4333 290 0
-4333 281 0
-314 4331 4333 4332 0
-4343 267 0
-4343 305 0
-4344 275 0
-4345 291 0
-4345 281 0
-315 4343 4344 4345 0
-4355 258 0
-4356 259 0
-4357 265 0
-4358 273 0
-4359 284 0
-316 4359 4356 4357 4358 4355 0
-4365 259 0
-4366 260 0
-4367 306 0
-4368 275 0
-4369 282 0
-316 4366 4368 4367 4365 4369 0
-4370 265 0
-4371 266 0
-4371 307 0
-4372 267 0
-4372 306 0
-4373 292 0
-4374 276 0
-316 4373 4371 4372 4370 4374 0
-4412 265 0
-4413 266 0
-4414 269 0
-4414 306 0
-4415 281 0
-4416 278 0
-318 4413 4416 4415 4414 4412 0
-4425 278 0
-4426 270 0
-4447 273 0
-4448 275 0
-4449 299 0
-4450 281 0
-4451 305 0
-4451 271 0
-319 4450 4451 4448 4449 4447 0
-4487 258 0
-4488 259 0
-4489 321 0
-324 4487 4488 4489 0
-4523 260 0
-4524 262 0
-4525 263 0
-328 4523 4524 4525 0
-4535 258 0
-4536 265 0
-4537 321 0
-330 4535 4536 4537 0
-4559 260 0
-4560 266 0
-4560 323 0
-4561 322 0
-4561 267 0
-332 4561 4560 4559 0
-4615 266 0
-4617 259 0
-4618 260 0
-4618 333 0
-4619 330 0
-4620 326 0
-4621 323 0
-4621 270 0
4620 -336 4621 4618 4617 4619 0
-4649 259 0
-4650 273 0
-4651 321 0
-339 4649 4650 4651 0
-4661 260 0
-4661 337 0
-4662 274 0
-4662 323 0
-4663 322 0
-4663 275 0
4661 4662 4663 -340 0
-4687 277 0
-4717 274 0
-4722 275 0
-4739 265 0
-4740 273 0
-4741 321 0
-345 4739 4740 4741 0
-4751 266 0
-4751 337 0
-4752 274 0
-4752 329 0
-4753 322 0
-4753 281 0
-346 4751 4752 4753 0
-4763 267 0
-4763 337 0
-4764 275 0
-4764 329 0
-4765 323 0
-4765 281 0
-347 4763 4765 4764 0
-4838 274 0
-4843 322 0
-4843 285 0
-4846 337 0
-4852 259 0
-4853 345 0
-4854 267 0
-4855 275 0
-4855 333 0
-4856 323 0
-351 4854 4855 4856 4852 4853 0
-4870 327 0
-4931 260 0
-4932 323 0
-4933 322 0
-4933 291 0
-356 4931 4933 4932 0
-4979 258 0
-4980 259 0
-4981 356 0
-4982 328 0
-4983 321 0
-360 4982 4981 4979 4980 4983 0
-4988 322 0
-4999 328 0
-5000 290 0
-5000 327 0
-5001 326 0
-5002 324 0
-5003 353 0
-5003 264 0
-360 5001 5003 4999 5000 5002 0
-5004 321 0
-5005 322 0
-5006 323 0
-5006 294 0
-5007 292 0
-5008 353 0
-5008 264 0
-360 5005 5006 5008 5007 5004 0
-5033 267 0
-5034 291 0
-5034 329 0
-5035 323 0
-5035 297 0
-363 5033 5034 5035 0
-5045 258 0
-5046 259 0
-5047 265 0
-5048 332 0
-5049 321 0
-364 5048 5046 5047 5045 5049 0
-5052 266 0
-5059 298 0
-5087 258 0
-5088 362 0
-5089 265 0
-5090 334 0
-5091 321 0
-366 5088 5090 5089 5087 5091 0
-5107 334 0
-5108 290 0
-5109 330 0
-5110 326 0
-5111 270 0
-366 5111 5107 5110 5108 5109 0
-5117 259 0
-5118 363 0
-5119 265 0
-5120 335 0
-5121 321 0
5120 -367 5118 5119 5117 5121 0
-5128 263 0
-5131 299 0
-5138 333 0
-5141 271 0
-5142 321 0
-5143 323 0
-5144 299 0
295 -5145 0
-5146 271 0
5145 -367 5144 5146 5143 5142 0
-5177 273 0
-5178 337 0
-5179 321 0
-369 5178 5177 5179 0
-5189 274 0
-5190 290 0
-5190 337 0
-5191 322 0
-370 5191 5190 5189 0
-5210 305 0
-5211 291 0
-5212 275 0
-371 5210 5212 5211 0
-5213 258 0
-5214 259 0
-5215 273 0
-5216 340 0
-5217 321 0
-372 5216 5214 5215 5213 5217 0
-5228 273 0
-5229 274 0
-5230 275 0
-5231 324 0
-5232 292 0
-372 5232 5230 5229 5231 5228 0
-5255 258 0
-5256 370 0
-5257 273 0
-5258 342 0
-5259 321 0
-374 5256 5258 5257 5255 5259 0
-5278 305 0
-5295 371 0
-5296 369 0
-5297 355 0
-5298 339 0
-5299 307 0
5297 -375 5296 5295 5299 5298 0
-5346 337 0
-5357 258 0
-5358 265 0
-5359 273 0
-5360 346 0
-5361 321 0
-378 5360 5358 5359 5357 5361 0
-5387 259 0
-5388 265 0
-5389 273 0
-5390 347 0
-5391 321 0
-379 5390 5388 5389 5387 5391 0
-5417 260 0
-5417 377 0
-5418 266 0
-5418 371 0
-5419 274 0
-5419 363 0
-5420 290 0
-5420 347 0
-5421 322 0
-5421 315 0
5418 5417 5420 5419 5421 -380 0
-5422 260 0
-5422 377 0
-5423 267 0
-5423 370 0
-5424 275 0
-5424 362 0
-5425 291 0
-5425 346 0
-5426 323 0
-5426 314 0
5423 5422 5424 5426 5425 -380 0
-5427 266 0
-5427 371 0
-5428 267 0
-5428 370 0
-5429 281 0
-5429 356 0
-5430 297 0
-5430 340 0
-5431 329 0
-5431 308 0
5427 5428 5429 5430 5431 -380 0
-5432 274 0
-5432 363 0
-5433 275 0
-5433 362 0
-5434 281 0
-5434 356 0
305 -5435 0
-5435 332 0
337 -5436 0
300 -5436 0
5433 5434 5436 5432 5435 -380 0
-5437 290 0
-5437 347 0
-5438 291 0
-5438 346 0
297 -5439 0
340 -5439 0
-5440 305 0
-5440 332 0
-5441 353 0
284 -5441 0
5439 5440 5437 5441 5438 -380 0
-5442 315 0
-5443 323 0
-5443 314 0
-5444 329 0
-5444 308 0
-5445 337 0
-5445 300 0
-5446 284 0
5446 5445 5444 5442 5443 -380 0
-5457 265 0
-5458 369 0
-5459 281 0
-5460 341 0
-5461 309 0
-381 5460 5461 5459 5458 5457 0
-5544 383 0
-5545 260 0
381 -5545 0
-5546 262 0
-5546 379 0
-5547 266 0
-5547 375 0
-5548 274 0
367 -5548 0
-5549 351 0
-5550 322 0
-5550 319 0
5545 5546 5547 5548 5549 5550 -384 5544 0
-5551 382 0
-5552 260 0
-5553 378 0
-5554 267 0
-5554 374 0
-5555 275 0
-5555 366 0
-5556 350 0
-5557 323 0
-5557 318 0
5553 5552 5554 5555 5556 5557 -384 5551 0
-5565 376 0
-5566 266 0
-5566 375 0
-5567 267 0
-5568 269 0
-5568 372 0
-5569 281 0
-5569 360 0
-5570 297 0
-5570 344 0
-5571 329 0
-5571 312 0
5566 5567 5568 5569 5570 5571 -384 5565 0
-5572 368 0
-5573 274 0
367 -5573 0
-5574 275 0
-5574 366 0
-5575 364 0
-5576 281 0
-5576 360 0
-5577 336 0
-5578 337 0
-5578 304 0
5573 5574 5575 5576 5577 5578 -384 5572 0
-5583 344 0
-5586 321 0
-5587 322 0
-5587 319 0
-5588 323 0
-5588 318 0
-5589 325 0
-5589 316 0
-5590 329 0
-5590 312 0
337 -5591 0
304 -5591 0
-5592 353 0
288 -5592 0
5588 5587 5589 5590 5591 5592 -384 5586 0
-249 -264 0
-247 -266 0
-242 -271 0
-239 -274 0
-235 -278 0
-279 -234 0
-281 -232 0
-225 -288 0
-292 -221 0
-295 -218 0
-299 -214 0
-209 -304 0
-305 -208 0
-312 -201 0
-314 -199 0
-316 -197 0
-195 -318 0
-319 -194 0
-327 -186 0
-184 -329 0
-336 -177 0
-176 -337 0
-169 -344 0
-346 -167 0
-351 -162 0
-160 -353 0
-355 -158 0
-153 -360 0
-146 -367 0
-370 -143 0
-375 -138 0
-136 -377 0
-245 -267 -2 0
-291 -221 -2 0
-4 -169 -341 0
-154 -7 -353 0
-249 -8 0
-225 -281 -8 0
-305 -8 -201 0
-329 -8 -177 0
-8 -169 -337 0
-153 -8 -353 0
-377 -8 0
-225 -278 -11 0
-294 -11 -209 0
-309 -11 -194 0
-326 -11 -177 0
-11 -162 -341 0
-374 -11 0
-12 -245 0
-227 -13 -274 0
-13 -305 -196 0
-13 -164 -337 0
-14 -371 0
-18 -225 -271 0
-18 -327 -169 0
-19 -234 -261 0
-225 -270 -19 0
-294 -19 -201 0
-326 -169 -19 0
-333 -19 -162 0
-366 -19 0
-237 -20 0
-329 -165 -20 0
-141 -353 -20 0
-21 -236 0
-227 -266 -21 0
-290 -21 -203 0
-297 -21 -196 0
-322 -171 -21 0
-329 -164 -21 0
-353 -140 -21 0
-364 -21 0
-225 -267 -22 0
-291 -22 -201 0
-323 -22 -169 0
-363 -22 0
-25 -232 0
-225 -25 -264 0
-290 -25 -199 0
-25 -322 -167 0
-327 -25 -162 0
-25 -136 -353 0
-25 -360 0
-32 -225 0
-32 -353 0
-222 -35 0
-35 -209 -270 0
-278 -35 -201 0
-285 -35 -194 0
-326 -153 -35 0
-333 -146 -35 0
-138 -35 -341 0
-350 -35 0
-221 -36 0
-269 -209 -36 0
-141 -36 -337 0
-220 -37 0
-203 -37 -274 0
-281 -37 -196 0
-346 -37 -131 0
-209 -38 -267 0
-201 -275 -38 0
-323 -153 -38 0
-347 -38 0
-216 -41 0
-41 -264 -209 0
-41 -199 -274 0
-41 -279 -194 0
-327 -41 -146 0
-41 -136 -337 0
-41 -344 0
-42 -323 -149 0
-48 -209 0
-48 -337 0
-49 -208 0
-49 -264 -201 0
-49 -271 -194 0
-143 -322 -49 0
-325 -49 -140 0
-327 -49 -138 0
-329 -136 -49 0
-336 -49 0
-207 -50 0
-50 -197 -267 0
-323 -141 -50 0
-335 -50 0
-54 -203 0
-56 -201 0
-329 -56 0
-59 -194 -261 0
-59 -326 0
-61 -196 0
-323 -62 0
-190 -67 0
-67 -186 -261 0
-67 -177 -270 0
-67 -169 -278 0
-67 -285 -162 0
-301 -146 -67 0
-309 -67 -138 0
-318 -67 0
-68 -189 0
-281 -165 -68 0
-69 -188 0
-185 -69 -260 0
-179 -69 -266 0
-178 -69 -267 0
-69 -171 -274 0
-69 -164 -281 0
-316 -69 0
-70 -267 -177 0
-70 -275 -169 0
-163 -70 -281 0
-315 -70 0
-184 -73 0
-264 -73 -177 0
-73 -167 -274 0
-73 -279 -162 0
-312 -73 0
-75 -182 0
-77 -308 0
-306 -79 0
-80 -177 0
-305 -80 0
-176 -81 0
-262 -81 -171 0
-264 -81 -169 0
-81 -266 -167 0
-81 -271 -162 0
-290 -143 -81 0
-292 -141 -81 0
-136 -81 -297 0
-299 -134 -81 0
-81 -304 0
-175 -82 0
-263 -82 -169 0
-82 -165 -267 0
-291 -141 -82 0
-84 -169 -261 0
-86 -171 0
-86 -297 -131 0
-88 -169 0
-297 -88 0
-294 -91 0
-92 -165 0
-164 -93 0
-94 -291 0
-160 -97 0
-153 -97 -264 0
-146 -97 -271 0
-97 -143 -274 0
-279 -97 -138 0
-136 -97 -281 0
-97 -288 0
-98 -267 -149 0
-141 -98 -275 0
-100 -285 0
-104 -153 0
-104 -281 0
-150 -107 0
-146 -107 -261 0
-278 -107 0
-108 -149 0
-277 -108 0
-110 -275 0
-111 -146 0
-111 -274 0
-114 -271 0
-115 -138 -261 0
-115 -270 0
-116 -141 0
-117 -140 0
-118 -267 0
-121 -136 0
-121 -264 0
-123 -134 0
-3 0
-5 0
-17 0
-33 0
-65 0
2 0
127 0
-255 0
-263 -249 0
-237 -275 0
-315 -197 0
-323 -189 0
-347 -165 0
-363 -149 0
-371 -141 0
-383 0
-248 0
-260 -245 0
-231 -274 0
-275 -230 0
-280 -225 0
-291 -214 0
-308 -197 0
-323 -182 0
-328 -177 0
-165 -340 0
-356 -149 0
-371 -134 0
-376 0
-117 118 0
-118 117 0
-115 116 0
-116 115 0
-103 104 0
-104 103 0
98 -97 0
-98 97 0
-87 88 0
-88 87 0
-81 82 0
-82 81 0
70 -69 0
-70 69 0
-67 68 0
-68 67 0
56 -55 0
-56 55 0
50 -49 0
-50 49 0
38 -37 0
37 -38 0
36 -35 0
-36 35 0
22 -21 0
-22 21 0
20 -19 0
-20 19 0
8 -7 0
-8 7 0
-130 0
-133 0
-137 0
-161 0
-193 0
131 0
254 0
-117 -266 0
-109 -274 0
-102 -281 0
-290 -93 0
-314 -69 0
-61 -322 0
-334 -49 0
-342 -41 0
-362 -21 0
-370 -13 0
-382 0
-109 -260 0
-262 -107 0
-103 -266 0
-102 -267 0
-290 -79 0
-69 -300 0
-322 -47 0
-328 -41 0
-332 -37 0
-334 -35 0
-13 -356 0
-362 -7 0
-368 0
-237 239 0
236 -234 0
-236 234 0
-230 232 0
230 -232 0
227 -225 0
-227 225 0
208 -206 0
-208 206 0
203 -201 0
199 -197 0
196 -194 0
-196 194 0
-174 176 0
-176 174 0
171 -169 0
167 -165 0
-167 165 0
164 -162 0
-164 162 0
-141 143 0
140 -138 0
-140 138 0
-134 136 0
-136 134 0
-258 0
-259 0
-265 0
-273 0
-321 0
261 0
380 0
-132 -121 0
-100 -153 0
-91 -162 0
-172 -81 0
-52 -201 0
-218 -35 0
-242 -11 0
-134 -91 0
-87 -138 0
-144 -81 0
-79 -146 0
-158 -67 0
-31 -194 0
-24 -201 0
-204 -21 0
-206 -19 0
-11 -214 0
-7 -218 0
-347 351 0
-351 347 0
-346 350 0
-350 346 0
344 -340 0
-344 340 0
341 -337 0
-341 337 0
-332 336 0
-336 332 0
333 -329 0
-333 329 0
-323 327 0
-327 323 0
-322 326 0
-326 322 0
288 -284 0
284 -288 0
285 -281 0
-285 281 0
-275 279 0
-279 275 0
-274 278 0
-278 274 0
271 -267 0
-271 267 0
270 -266 0
266 -270 0
264 -260 0
-264 260 0
