p cnf 5592 1210
128 0
256 0
384 0
-553 7 0
-554 11 0
-554 21 0
-555 19 0
-31 553 555 554 0
-565 31 0
-566 3 0
-567 5 0
-568 24 0
-569 17 0
-32 568 565 567 566 569 0
-619 3 0
-620 5 0
-621 33 0
-39 619 620 621 0
-757 3 0
-758 17 0
-759 33 0
-51 757 758 759 0
-769 4 0
-805 7 0
-805 49 0
-806 19 0
-806 37 0
-807 35 0
-807 21 0
-55 807 805 806 0
-832 5 0
-833 51 0
-834 50 0
-835 21 0
-835 36 0
-836 20 0
-56 835 834 833 836 832 0
-847 49 0
-848 17 0
-849 33 0
-57 847 848 849 0
-871 11 0
-871 49 0
-872 19 0
-873 35 0
-59 873 872 871 0
-883 59 0
-898 52 0
-899 51 0
-900 11 0
-901 36 0
-902 20 0
-60 900 901 898 899 902 0
-914 21 0
-955 3 0
-956 5 0
-957 55 0
-958 17 0
-959 33 0
-63 957 956 955 958 959 0
-965 5 0
-966 7 0
-967 51 0
-968 21 0
-969 27 0
-63 969 966 967 968 965 0
-975 17 0
-976 19 0
-977 21 0
-978 39 0
-979 49 0
-63 977 979 975 978 976 0
-1039 3 0
-1040 5 0
-1041 65 0
-71 1039 1040 1041 0
-1051 4 0
-1052 67 0
-1053 66 0
-1053 7 0
-72 1052 1051 1053 0
-1075 3 0
-1076 67 0
-1077 65 0
-75 1076 1075 1077 0
-1123 7 0
-1123 73 0
-1124 11 0
-1125 67 0
-1125 13 0
1123 1124 -79 1125 0
-1134 7 0
-1140 79 0
-1141 4 0
-1142 75 0
-1143 71 0
-1144 66 0
-80 1141 1144 1142 1140 1143 0
-1150 5 0
-1151 75 0
-1152 7 0
-1153 68 0
-1154 69 0
-80 1151 1154 1153 1152 1150 0
-1155 72 0
-1156 71 0
-1157 11 0
-1158 68 0
-1159 8 0
-80 1155 1157 1158 1159 1156 0
-1225 7 0
-1225 81 0
-1226 19 0
-1226 69 0
-1227 67 0
-1227 21 0
-87 1225 1227 1226 0
-1303 91 0
-1304 3 0
-1305 84 0
-1306 17 0
-1307 65 0
-92 1305 1303 1304 1306 1307 0
-1333 13 0
-1334 21 0
-1335 69 0
-93 1334 1335 1333 0
-1375 3 0
-1376 5 0
-1377 87 0
-1378 17 0
-1379 65 0
-95 1377 1376 1375 1378 1379 0
-1447 3 0
-1448 33 0
-1449 65 0
-99 1447 1448 1449 0
-1471 5 0
-1472 33 0
-1473 65 0
-101 1471 1472 1473 0
-1495 7 0
-1495 97 0
-1496 35 0
-1496 69 0
67 -1497 0
37 -1497 0
1497 -103 1496 1495 0
-1517 3 0
-1518 101 0
-1519 7 0
-1519 98 0
-1520 35 0
-1521 38 0
1521 1520 -104 1519 1517 1518 0
-1529 35 0
-1612 69 0
-1613 37 0
-1614 13 0
1613 1612 -109 1614 0
-1645 3 0
-1646 5 0
-1647 103 0
-1648 33 0
-1649 65 0
-111 1647 1646 1645 1648 1649 0
-1729 19 0
-1730 35 0
-1730 81 0
-1731 67 0
-1731 49 0
-115 1730 1731 1729 0
-1756 17 0
-1757 99 0
-1758 19 0
-1759 49 0
-1760 36 0
-116 1760 1759 1757 1758 1756 0
-1766 65 0
-1767 51 0
-1768 67 0
-1768 50 0
-1769 36 0
-1770 20 0
1769 -116 1768 1767 1770 1766 0
-1771 97 0
-1772 37 0
-1773 49 0
-117 1772 1773 1771 0
-1868 55 0
-1869 54 0
-1870 52 0
-1871 40 0
-1872 24 0
-120 1871 1870 1869 1868 1872 0
-1873 25 0
-1873 97 0
-1874 81 0
-1875 49 0
-121 1874 1873 1875 0
-1885 121 0
-1886 114 0
-1887 17 0
-1888 33 0
-1889 65 0
-122 1885 1886 1887 1888 1889 0
-1940 65 0
-1941 57 0
-1942 51 0
-1943 81 0
-1944 27 0
-123 1943 1941 1942 1944 1940 0
-2035 7 0
-2036 11 0
-2036 117 0
-2037 19 0
-2037 109 0
-2038 35 0
-2038 93 0
67 -2039 0
-2039 61 0
2035 2038 2036 2039 2037 -127 0
7 -2040 0
121 -2040 0
-2041 13 0
-2041 115 0
-2042 21 0
-2042 107 0
-2043 37 0
-2043 91 0
-2044 69 0
-2044 59 0
2040 2041 2044 2042 2043 -127 0
-2045 11 0
-2045 117 0
-2046 13 0
-2046 115 0
-2047 25 0
103 -2047 0
41 -2048 0
-2048 87 0
-2049 55 0
2048 2049 2047 2045 2046 -127 0
19 -2050 0
109 -2050 0
-2051 21 0
-2051 107 0
-2052 25 0
-2052 103 0
-2053 49 0
-2053 79 0
-2054 81 0
-2054 47 0
2050 2051 2052 2054 2053 -127 0
-2055 35 0
-2055 93 0
37 -2056 0
-2056 91 0
41 -2057 0
-2057 87 0
-2058 49 0
79 -2058 0
-2059 97 0
-2059 31 0
2057 2056 2059 2058 2055 -127 0
67 -2060 0
61 -2060 0
-2061 69 0
-2061 59 0
-2062 55 0
-2063 81 0
47 -2063 0
-2064 97 0
-2064 31 0
2060 2061 2063 2062 2064 -127 0
-2087 123 0
-2088 7 0
-2088 122 0
-2089 13 0
-2090 21 0
-2093 120 0
-2096 116 0
-2100 17 0
-2101 111 0
-2102 19 0
-2103 21 0
-2104 25 0
-2104 104 0
-2105 49 0
-2105 80 0
-2106 48 0
2102 2101 2103 2104 2105 2106 -128 2100 0
-2107 33 0
-2108 95 0
-2109 35 0
94 -2109 0
-2110 37 0
-2110 92 0
-2111 88 0
-2112 49 0
-2113 97 0
-2113 32 0
2108 2109 2110 2111 2112 2113 -128 2107 0
-2114 65 0
-2115 63 0
67 -2116 0
62 -2116 0
-2117 69 0
-2117 60 0
-2118 56 0
-2119 81 0
-2119 48 0
-2120 97 0
-2120 32 0
2115 2116 2117 2118 2119 2120 -128 2114 0
-2145 130 0
-2146 133 0
-2147 137 0
-142 2145 2146 2147 0
-2169 141 0
-2170 134 0
-2171 135 0
-144 2170 2171 2169 0
-2193 130 0
-2194 133 0
-2195 134 0
-150 2195 2194 2193 0
-2277 134 0
-2278 138 0
-2279 146 0
-2279 141 0
-158 2277 2279 2278 0
-2301 130 0
-2302 158 0
-2303 133 0
-2304 137 0
-2305 144 0
-160 2305 2302 2303 2304 2301 0
-2313 154 0
-2415 133 0
-2416 137 0
-2417 161 0
-173 2415 2416 2417 0
-2427 134 0
-2427 169 0
-2428 138 0
-2428 165 0
-2429 162 0
-2429 141 0
-174 2428 2427 2429 0
-2439 135 0
-2440 139 0
-2441 141 0
-175 2440 2441 2439 0
-2477 143 0
-2529 134 0
-2531 162 0
-2532 134 0
-2532 177 0
-2533 149 0
-2533 162 0
-2534 165 0
-2534 146 0
-182 2533 2532 2534 0
-2556 168 0
-2568 133 0
-2569 134 0
-2570 135 0
-2571 164 0
-2572 165 0
-184 2571 2569 2572 2570 2568 0
-2576 164 0
-2578 161 0
-2579 162 0
-2580 150 0
-2581 165 0
-2582 136 0
2580 -184 2582 2581 2579 2578 0
-2595 138 0
-2596 146 0
-2597 162 0
-186 2595 2597 2596 0
-2649 141 0
-2650 169 0
-2651 165 0
-189 2650 2651 2649 0
-2661 130 0
-2662 133 0
-2663 137 0
-2664 174 0
-2665 161 0
-190 2664 2662 2663 2661 2665 0
-2686 161 0
-2687 162 0
-2688 154 0
-2689 150 0
-2690 142 0
-190 2689 2687 2688 2686 2690 0
-2691 189 0
-2692 133 0
-2693 137 0
-2694 175 0
-2695 161 0
-191 2694 2691 2693 2692 2695 0
-2711 175 0
-2712 173 0
-2713 149 0
-2714 167 0
-2715 143 0
-191 2713 2711 2714 2715 2712 0
-2763 130 0
-2764 133 0
-2765 193 0
-198 2763 2764 2765 0
-2787 197 0
-2788 134 0
-2789 194 0
-200 2788 2789 2787 0
-2835 133 0
-2836 137 0
-2837 193 0
-205 2835 2836 2837 0
-2847 134 0
-2847 201 0
-2848 138 0
-2848 197 0
-2849 194 0
-2849 141 0
2848 2849 -206 2847 0
-2901 130 0
-2902 194 0
-2903 193 0
-210 2902 2901 2903 0
-2949 134 0
-2950 146 0
-2950 197 0
-2951 194 0
149 -2951 0
-214 2950 2949 2951 0
-2973 130 0
-2974 214 0
-2975 133 0
-2976 200 0
-2977 193 0
2974 -216 2976 2975 2973 2977 0
-2993 200 0
-3003 137 0
-3004 201 0
-3005 193 0
-217 3004 3003 3005 0
-3044 130 0
-3045 217 0
-3046 138 0
-3047 203 0
-3048 194 0
-220 3047 3046 3048 3045 3044 0
-3081 130 0
-3082 133 0
-3083 137 0
-3084 206 0
-3085 193 0
-222 3084 3082 3083 3081 3085 0
-3096 137 0
-3097 138 0
-3098 141 0
-3099 198 0
-3100 150 0
-222 3100 3098 3097 3099 3096 0
-3111 221 0
-3112 133 0
-3113 137 0
-3114 207 0
-3115 193 0
-223 3114 3111 3113 3112 3115 0
-3131 207 0
-3132 205 0
-3133 203 0
-3134 199 0
-3135 143 0
-223 3131 3135 3133 3134 3132 0
-3171 130 0
-3172 161 0
-3173 193 0
-226 3171 3172 3173 0
-3207 133 0
-3208 161 0
-3209 193 0
-229 3207 3208 3209 0
134 -3219 0
-3219 225 0
-3220 162 0
-3220 197 0
-3221 194 0
-3221 165 0
3220 3221 -230 3219 0
-3250 134 0
-3259 134 0
-3267 225 0
-3273 137 0
-3274 161 0
-3275 193 0
-233 3273 3274 3275 0
-3294 194 0
169 -3294 0
-3295 201 0
-3295 162 0
-3296 225 0
-3296 138 0
3295 -234 3294 3296 0
-3391 133 0
-3392 233 0
-3393 141 0
-3394 165 0
-3394 203 0
-3395 197 0
-239 3395 3393 3394 3391 3392 0
-3396 137 0
-3397 229 0
-3398 141 0
-3399 199 0
-3400 201 0
-239 3399 3398 3400 3396 3397 0
-3453 225 0
-3487 242 0
-3488 132 0
-3489 226 0
-3490 210 0
-3491 178 0
-244 3491 3487 3490 3488 3489 0
-3519 130 0
-3520 133 0
-3521 230 0
-3522 161 0
-3523 193 0
-246 3521 3520 3519 3522 3523 0
-3621 130 0
-3622 137 0
-3623 234 0
-3624 161 0
-3625 193 0
-250 3623 3622 3621 3624 3625 0
-3711 133 0
-3712 137 0
-3713 237 0
-3714 161 0
-3715 193 0
-253 3713 3712 3711 3714 3715 0
-3717 141 0
-3741 134 0
-3742 138 0
-3742 245 0
-3743 146 0
-3743 237 0
-3744 162 0
-3744 221 0
-3745 194 0
-3745 189 0
3744 3742 3745 3743 3741 -254 0
134 -3746 0
-3746 249 0
-3747 141 0
-3747 242 0
149 -3748 0
-3748 234 0
-3749 165 0
-3749 218 0
-3750 197 0
-3750 186 0
3746 3749 3748 3750 3747 -254 0
-3751 138 0
-3751 245 0
141 -3752 0
-3752 242 0
153 -3753 0
-3753 230 0
-3754 169 0
214 -3754 0
-3755 201 0
182 -3755 0
3755 3754 3752 3751 3753 -254 0
-3756 146 0
-3756 237 0
149 -3757 0
-3757 234 0
153 -3758 0
-3758 230 0
177 -3759 0
206 -3759 0
-3760 174 0
3759 3757 3758 3756 3760 -254 0
-3761 162 0
-3761 221 0
-3762 165 0
-3762 218 0
-3763 169 0
-3763 214 0
177 -3764 0
206 -3764 0
-3765 225 0
-3765 158 0
3764 3763 3761 3762 3765 -254 0
-3766 189 0
-3767 197 0
-3767 186 0
-3768 201 0
-3768 182 0
-3769 174 0
-3770 225 0
-3770 158 0
3768 3769 3766 3770 3767 -254 0
-3808 255 0
-3809 253 0
-3810 134 0
-3811 138 0
-3811 247 0
-3812 239 0
-3813 162 0
-3813 223 0
-3814 194 0
-3814 191 0
3809 3810 3811 3812 3813 3814 -256 3808 0
-3822 133 0
-3823 134 0
-3824 250 0
-3825 141 0
-3826 236 0
-3827 220 0
-3828 197 0
3824 3823 3825 3826 3827 3828 -256 3822 0
-3829 248 0
-3830 138 0
-3831 246 0
-3832 141 0
-3832 244 0
-3833 153 0
-3833 232 0
-3834 169 0
-3834 216 0
-3835 201 0
184 -3835 0
3830 3831 3832 3833 3834 3835 -256 3829 0
-3843 161 0
-3844 162 0
-3844 223 0
-3845 222 0
-3846 165 0
-3846 220 0
-3847 169 0
-3847 216 0
-3848 208 0
-3849 225 0
-3849 160 0
3844 3845 3846 3847 3848 3849 -256 3843 0
-3850 193 0
-3851 194 0
-3851 191 0
-3852 190 0
-3853 197 0
-3854 201 0
184 -3854 0
-3855 176 0
-3856 225 0
-3856 160 0
3852 3851 3853 3854 3855 3856 -256 3850 0
-3869 258 0
-3870 259 0
-3871 265 0
-268 3869 3870 3871 0
-3989 260 0
-3989 281 0
-3990 266 0
-3990 275 0
-3991 274 0
267 -3991 0
3991 3990 -284 3989 0
-4025 281 0
-4026 267 0
-4027 275 0
-287 4026 4025 4027 0
-4062 273 0
-4063 274 0
-4064 275 0
-4065 268 0
-4066 281 0
4063 4066 -288 4064 4065 4062 0
-4067 258 0
-4068 259 0
-4069 260 0
-292 4069 4068 4067 0
-4139 260 0
-4140 266 0
-4141 267 0
-300 4141 4139 4140 0
-4241 260 0
-4242 274 0
-4242 291 0
-4243 290 0
-4243 275 0
-308 4242 4243 4241 0
-4331 266 0
-4332 274 0
-4332 297 0
-4333 281 0
-314 4331 4333 4332 0
-4343 267 0
-4344 275 0
-4345 281 0
-315 4343 4344 4345 0
-4487 258 0
-4488 259 0
-4489 260 0
-324 4489 4488 4487 0
-4559 260 0
-4559 329 0
-4560 266 0
-4560 323 0
-4561 267 0
-332 4561 4559 4560 0
-4661 260 0
-4661 337 0
-4662 323 0
-4663 322 0
-4663 275 0
-340 4662 4661 4663 0
-4719 259 0
-4720 260 0
-4721 263 0
-4722 275 0
-4723 323 0
-344 4721 4722 4720 4723 4719 0
-4730 327 0
-4751 266 0
-4751 337 0
-4752 274 0
-4752 329 0
-4753 322 0
-4753 281 0
-346 4752 4753 4751 0
-4763 267 0
-4764 275 0
-4764 329 0
-4765 323 0
-4765 281 0
4763 -347 4764 4765 0
-4775 258 0
-4776 259 0
-4777 265 0
-4778 273 0
-4779 284 0
-348 4779 4776 4777 4778 4775 0
-4817 258 0
-4818 346 0
-4819 265 0
-4820 273 0
-4821 286 0
-350 4821 4818 4819 4820 4817 0
-4847 259 0
-4848 347 0
-4849 265 0
-4850 273 0
-4851 287 0
-351 4851 4848 4849 4850 4847 0
-4877 260 0
-4877 349 0
-4878 262 0
-4878 347 0
-4879 266 0
-4880 335 0
-4881 322 0
-4881 287 0
-352 4879 4877 4878 4881 4880 0
-4897 335 0
-4898 334 0
-4899 277 0
-4899 332 0
-4900 281 0
-4901 337 0
-4901 272 0
-352 4901 4899 4897 4900 4898 0
-5021 266 0
-5022 290 0
-5022 329 0
-5023 322 0
-5023 297 0
-362 5021 5022 5023 0
-5087 258 0
-5088 362 0
-5089 265 0
-5090 334 0
-5091 302 0
-366 5090 5088 5091 5087 5089 0
-5117 259 0
-5118 363 0
-5119 265 0
-5120 335 0
-5121 303 0
-367 5118 5121 5120 5117 5119 0
-5189 274 0
353 -5189 0
-5190 290 0
-5190 337 0
-5191 322 0
-5191 305 0
5189 5190 -370 5191 0
-5201 275 0
-5202 291 0
-5203 323 0
-5203 305 0
-371 5202 5201 5203 0
-5228 273 0
-5229 355 0
-5230 275 0
-5231 324 0
-5232 292 0
-372 5229 5231 5230 5232 5228 0
-5345 281 0
-5346 297 0
-5346 337 0
-5347 329 0
-5347 305 0
-377 5345 5347 5346 0
-5417 260 0
-5417 377 0
-5418 266 0
-5418 371 0
-5419 274 0
-5419 363 0
-5420 290 0
-5420 347 0
-5421 322 0
-5421 315 0
5418 5420 5421 5417 5419 -380 0
-5422 260 0
-5422 377 0
267 -5423 0
370 -5423 0
-5424 275 0
-5424 362 0
-5425 291 0
-5425 346 0
-5426 323 0
-5426 314 0
5423 5422 5425 5424 -380 5426 0
-5427 266 0
-5427 371 0
-5428 267 0
-5428 370 0
-5429 281 0
-5429 356 0
-5430 297 0
340 -5430 0
-5431 329 0
-5431 308 0
5428 5431 5429 5427 5430 -380 0
-5432 274 0
-5432 363 0
-5433 275 0
-5433 362 0
-5434 281 0
-5434 356 0
-5435 305 0
-5435 332 0
-5436 337 0
-5436 300 0
5432 5434 5435 5436 5433 -380 0
-5437 347 0
-5438 291 0
-5438 346 0
-5439 297 0
-5439 340 0
-5440 305 0
-5440 332 0
-5441 284 0
5441 5439 5440 5438 5437 -380 0
-5442 322 0
-5442 315 0
-5443 323 0
-5443 314 0
-5444 329 0
308 -5444 0
-5445 337 0
-5445 300 0
-5446 284 0
5446 5443 5444 5445 5442 -380 0
-5565 376 0
-5566 266 0
-5567 267 0
-5568 372 0
-5569 281 0
-5570 344 0
-5571 329 0
-5571 312 0
5566 5567 5568 5569 5570 5571 -384 5565 0
-5572 368 0
-5573 367 0
-5574 275 0
-5574 366 0
-5575 364 0
-5576 281 0
-5577 336 0
-5578 304 0
5574 5573 5575 5576 5577 5578 -384 5572 0
-5579 352 0
-5580 351 0
-5581 291 0
-5581 350 0
-5582 348 0
-5583 344 0
-5584 336 0
-5585 288 0
5580 5579 5581 5582 5583 5584 5585 -384 0
-249 -264 0
-247 -266 0
-246 -267 0
-242 -271 0
-239 -274 0
-277 -236 0
-279 -234 0
-281 -232 0
-286 -227 0
-225 -288 0
-223 -290 0
-297 -216 0
-305 -208 0
-312 -201 0
-199 -314 0
-191 -322 0
-329 -184 0
-337 -176 0
-344 -169 0
-167 -346 0
-351 -162 0
-160 -353 0
-355 -158 0
-143 -370 0
-372 -141 0
-377 -136 0
-245 -267 -2 0
-287 -225 -2 0
-221 -291 -2 0
-189 -323 -2 0
-175 -337 -2 0
-363 -149 -2 0
-371 -141 -2 0
-178 -329 -7 0
-249 -8 0
-329 -8 -177 0
-337 -169 -8 0
-377 -8 0
-244 -13 0
-13 -227 -274 0
-305 -13 -196 0
-337 -13 -164 0
-372 -13 0
-270 -225 -19 0
-237 -20 0
-197 -297 -20 0
-165 -329 -20 0
-21 -236 0
-266 -227 -21 0
-290 -21 -203 0
-297 -21 -196 0
-322 -21 -171 0
-329 -21 -164 0
-353 -140 -21 0
-364 -21 0
-22 -225 -267 0
-291 -22 -201 0
-323 -22 -169 0
-363 -22 0
-25 -232 0
-25 -225 -264 0
-199 -290 -25 0
-322 -25 -167 0
-27 -230 0
-32 -225 0
-32 -353 0
-35 -218 -261 0
-35 -278 -201 0
-35 -285 -194 0
-221 -36 0
-329 -36 -149 0
-337 -141 -36 0
-349 -36 0
-220 -37 0
-274 -203 -37 0
-337 -140 -37 0
-346 -37 -131 0
-275 -38 -201 0
-347 -38 0
-199 -41 -274 0
-337 -136 -41 0
-48 -337 0
-49 -208 0
-262 -49 -203 0
-264 -49 -201 0
-199 -266 -49 0
-49 -271 -194 0
-49 -322 -143 0
-327 -138 -49 0
-329 -136 -49 0
-334 -49 -131 0
-336 -49 0
-207 -50 0
-263 -50 -201 0
-197 -50 -267 0
-323 -50 -141 0
-135 -329 -50 0
-335 -50 0
-52 -201 -261 0
-54 -329 -131 0
-56 -201 0
-329 -56 0
-59 -194 -261 0
-61 -196 0
-323 -62 0
-63 -194 0
-66 -191 0
-169 -278 -67 0
-285 -162 -67 0
-189 -68 0
-69 -171 -274 0
-305 -140 -69 0
-70 -267 -177 0
-275 -70 -169 0
-139 -305 -70 0
-315 -70 0
-73 -184 0
-80 -305 0
-176 -81 0
-264 -81 -169 0
-266 -167 -81 0
-81 -162 -271 0
-143 -290 -81 0
-297 -136 -81 0
-304 -81 0
-175 -82 0
-165 -82 -267 0
-291 -141 -82 0
-303 -82 0
-88 -169 0
-297 -88 0
-93 -164 0
-291 -94 0
-153 -97 -264 0
-97 -146 -271 0
-274 -97 -143 0
-277 -97 -140 0
-97 -138 -279 0
-97 -281 -136 0
-97 -288 0
-98 -149 -267 0
-98 -141 -275 0
-287 -98 0
-154 -103 0
-104 -153 0
-104 -281 0
-150 -107 0
-146 -107 -261 0
-107 -278 0
-114 -271 0
-115 -138 -261 0
-270 -115 0
-116 -141 0
-117 -140 0
-118 -267 0
-136 -121 0
-132 -121 -261 0
-3 0
-5 0
-17 0
-33 0
-65 0
2 0
127 0
-255 0
-237 -275 0
-315 -197 0
-165 -347 0
-248 0
-260 -245 0
-275 -230 0
-291 -214 0
-200 -305 0
-308 -197 0
-323 -182 0
-168 -337 0
-340 -165 0
-356 -149 0
-135 -370 0
-371 -134 0
-376 0
-117 118 0
-115 116 0
-116 115 0
-103 104 0
-104 103 0
-97 98 0
-87 88 0
-88 87 0
82 -81 0
-69 70 0
68 -67 0
-68 67 0
-55 56 0
-56 55 0
50 -49 0
-50 49 0
38 -37 0
-38 37 0
36 -35 0
-36 35 0
22 -21 0
-22 21 0
20 -19 0
19 -20 0
8 -7 0
-130 0
-133 0
-137 0
-161 0
-193 0
131 0
254 0
-266 -117 0
-109 -274 0
-286 -97 0
-93 -290 0
-302 -81 0
-314 -69 0
-322 -61 0
-362 -21 0
-13 -370 0
-260 -109 0
-266 -103 0
-272 -97 0
-290 -79 0
-300 -69 0
-322 -47 0
-40 -329 0
-332 -37 0
-356 -13 0
-362 -7 0
-368 0
-237 239 0
-239 237 0
236 -234 0
232 -230 0
-232 230 0
227 -225 0
208 -206 0
-208 206 0
203 -201 0
201 -203 0
199 -197 0
196 -194 0
-174 176 0
-176 174 0
171 -169 0
167 -165 0
-167 165 0
164 -162 0
-164 162 0
-141 143 0
-143 141 0
140 -138 0
-140 138 0
-134 136 0
134 -136 0
-258 0
-259 0
-265 0
-273 0
261 0
380 0
-91 -162 0
-186 -67 0
-234 -19 0
-11 -242 0
-91 -134 0
-138 -87 0
-84 -141 0
-144 -81 0
-146 -79 0
-158 -67 0
-31 -194 0
-200 -25 0
-24 -201 0
-206 -19 0
-11 -214 0
-218 -7 0
-59 -134 0
-138 -55 0
-144 -49 0
-146 -47 0
-158 -35 0
-31 -162 0
-24 -169 0
-174 -19 0
-11 -182 0
-186 -7 0
-4 -189 0
288 -284 0
284 -288 0
-281 285 0
-275 279 0
278 -274 0
271 -267 0
-266 270 0
-260 264 0
