p cnf 5592 481
256 0
7 -553 0
-554 11 0
-554 21 0
19 -555 0
-555 13 0
553 -31 555 554 0
-1123 7 0
-1124 11 0
-1124 69 0
-1125 67 0
-1125 13 0
-79 1123 1125 1124 0
-1291 11 0
-1292 73 0
-1293 67 0
-1293 25 0
1292 1293 -91 1291 0
-2035 121 0
-2036 11 0
-2036 117 0
109 -2037 0
-2038 93 0
-2039 61 0
2037 2039 -127 2036 2038 2035 0
-2040 7 0
-2040 121 0
-2041 13 0
-2041 115 0
-2042 21 0
-2042 107 0
37 -2043 0
-2043 91 0
-2044 59 0
2040 2044 -127 2043 2041 2042 0
-2045 11 0
-2045 117 0
-2046 115 0
25 -2047 0
-2047 103 0
-2048 41 0
-2048 87 0
-2049 73 0
-2049 55 0
2047 2046 -127 2049 2048 2045 0
-2050 109 0
-2051 21 0
-2051 107 0
-2052 103 0
49 -2053 0
-2053 79 0
-2054 81 0
-2054 47 0
2050 2051 -127 2053 2054 2052 0
35 -2055 0
-2056 91 0
-2057 87 0
-2058 79 0
-2059 31 0
2055 2059 -127 2057 2058 2056 0
-2060 61 0
-2061 69 0
-2061 59 0
-2062 73 0
-2062 55 0
81 -2063 0
-2063 47 0
97 -2064 0
-2064 31 0
2060 2062 -127 2064 2063 2061 0
-2193 130 0
-2194 133 0
-2195 145 0
-150 2193 2194 2195 0
-2277 134 0
-2278 138 0
-2278 149 0
-2279 146 0
-2279 141 0
-158 2279 2278 2277 0
-2343 130 0
-2344 133 0
-2345 134 0
-166 2345 2344 2343 0
-2529 134 0
-2530 146 0
165 -2530 0
-2531 162 0
-2531 149 0
2530 2529 -182 2531 0
-2578 152 0
-2579 162 0
-2580 150 0
-2581 148 0
-2582 136 0
-184 2581 2578 2580 2579 2582 0
-2649 141 0
-2650 149 0
165 -2651 0
-2651 153 0
2649 2650 2651 -189 0
-2763 130 0
-2764 133 0
-2765 193 0
-198 2763 2764 2765 0
-2799 130 0
-2800 194 0
-2801 193 0
-202 2800 2799 2801 0
-2886 133 0
-2887 134 0
-2888 202 0
-2889 196 0
-2890 197 0
-208 2890 2886 2887 2889 2888 0
-2949 134 0
-2949 209 0
-2950 146 0
-2950 197 0
-2951 194 0
149 -2951 0
2951 -214 2950 2949 0
-2989 134 0
-3171 130 0
-3172 194 0
-3173 193 0
-226 3172 3171 3173 0
-3207 133 0
-3208 197 0
-3209 193 0
-229 3208 3207 3209 0
-3219 134 0
-3220 162 0
-3220 197 0
-3221 194 0
-3221 165 0
-230 3221 3220 3219 0
-3253 230 0
-3254 229 0
-3255 226 0
-3256 198 0
-3257 166 0
-232 3254 3253 3255 3256 3257 0
-3258 133 0
-3259 134 0
-3260 226 0
-3261 196 0
-3262 197 0
-232 3261 3258 3259 3260 3262 0
-3339 141 0
-3340 165 0
-3341 197 0
3339 -237 3340 3341 0
-3361 133 0
-3362 134 0
-3363 226 0
-3364 165 0
-3364 202 0
-3365 197 0
-238 3365 3361 3362 3363 3364 0
-3366 230 0
-3367 229 0
-3368 226 0
-3369 198 0
-3370 166 0
-238 3367 3366 3368 3369 3370 0
-3376 193 0
-3377 194 0
-3378 197 0
-3379 166 0
-3380 142 0
-238 3380 3376 3377 3378 3379 0
-3453 146 0
-3454 162 0
-3455 194 0
177 -3455 0
-242 3453 3455 3454 0
-3507 149 0
-3508 165 0
-3509 197 0
-245 3508 3507 3509 0
-3519 130 0
-3520 133 0
-3521 145 0
-3522 214 0
-3523 193 0
-246 3522 3520 3521 3519 3523 0
-3741 134 0
-3741 249 0
-3742 138 0
-3742 245 0
146 -3743 0
-3743 237 0
162 -3744 0
221 -3744 0
194 -3745 0
-3745 189 0
3743 3742 -254 3745 3744 3741 0
-3746 134 0
-3751 138 0
-3751 245 0
-3752 141 0
-3752 242 0
-3753 153 0
-3753 230 0
-3754 214 0
-3755 182 0
3752 3753 -254 3755 3754 3751 0
-3758 230 0
-3761 221 0
-3762 218 0
-3763 214 0
-3764 206 0
-3765 158 0
3764 3765 -254 3763 3761 3762 0
-3829 248 0
-3830 138 0
-3831 246 0
-3832 141 0
-3832 244 0
-3833 153 0
-3833 232 0
-3834 216 0
-3835 184 0
3831 3830 3832 3833 3834 3835 -256 3829 0
-3836 240 0
-3837 146 0
-3837 239 0
-3838 238 0
-3839 149 0
-3840 232 0
-3841 208 0
-3842 176 0
3837 3838 3839 3840 3841 3842 -256 3836 0
-3989 260 0
-3990 266 0
-3990 275 0
-3991 274 0
-3991 267 0
-284 3989 3991 3990 0
-4139 260 0
-4139 297 0
-4140 266 0
-4140 291 0
-4141 290 0
-4141 267 0
-300 4139 4141 4140 0
-4241 260 0
-4242 274 0
-4242 291 0
-4243 290 0
-4243 275 0
4241 -308 4243 4242 0
-4331 266 0
-4332 274 0
-4333 290 0
4331 4333 -314 4332 0
-4343 267 0
-4343 305 0
-4344 297 0
-4345 291 0
281 -4345 0
-315 4343 4345 4344 0
-4559 260 0
-4560 266 0
-4560 323 0
-4561 322 0
-4561 267 0
4559 -332 4560 4561 0
-4661 260 0
-4662 274 0
-4663 275 0
-340 4661 4662 4663 0
-5021 266 0
-5022 290 0
-5023 297 0
-362 5021 5022 5023 0
-5033 267 0
-5034 291 0
-5035 297 0
-363 5033 5035 5034 0
-5417 260 0
-5417 377 0
266 -5418 0
-5418 371 0
-5419 274 0
-5419 363 0
290 -5420 0
-5420 347 0
-5421 322 0
-5421 315 0
5418 5417 -380 5421 5419 5420 0
260 -5422 0
-5423 370 0
-5424 275 0
-5424 362 0
-5425 291 0
-5425 346 0
-5426 323 0
5424 5422 -380 5423 5426 5425 0
-5427 266 0
-5427 371 0
-5428 267 0
-5428 370 0
-5429 356 0
-5430 297 0
-5430 340 0
-5431 308 0
5429 5427 -380 5431 5430 5428 0
-5432 274 0
-5432 363 0
-5433 275 0
-5433 362 0
-5434 356 0
305 -5435 0
-5435 332 0
-5436 300 0
5432 5436 -380 5435 5433 5434 0
-5437 347 0
-5438 291 0
-5438 346 0
297 -5439 0
-5439 340 0
-5440 305 0
-5440 332 0
353 -5441 0
284 -5441 0
5439 5440 -380 5438 5441 5437 0
-5442 322 0
-5442 315 0
323 -5443 0
314 -5443 0
-5444 308 0
-5445 300 0
-5446 284 0
5443 5445 -380 5446 5442 5444 0
-249 -264 0
-246 -267 0
-239 -274 0
-232 -281 0
-218 -295 0
-216 -297 0
-208 -305 0
-314 -199 0
-362 -151 0
-377 -136 0
-245 -267 -2 0
-291 -221 -2 0
-347 -165 -2 0
-371 -141 -2 0
-153 -353 -8 0
-377 -8 0
-244 -13 0
-13 -305 -196 0
-21 -297 -196 0
-232 -25 0
-353 -25 -136 0
-226 -31 0
-36 -221 0
-209 -267 -38 0
-153 -38 -323 0
-347 -38 0
-41 -216 0
-49 -266 -199 0
-61 -196 0
-68 -189 0
-305 -68 -141 0
-70 -315 0
-184 -73 0
-73 -177 -264 0
-73 -146 -295 0
-73 -305 -136 0
-176 -81 0
-142 -81 -291 0
-81 -138 -295 0
-81 -136 -297 0
-166 -91 0
-91 -162 -261 0
-294 -91 0
-153 -97 -264 0
-151 -97 -266 0
-267 -149 -98 0
-141 -275 -98 0
-104 -153 0
-107 -146 -261 0
-148 -109 0
-138 -115 -261 0
-117 -266 -131 0
-121 -136 0
-121 -264 0
2 0
127 0
-275 -237 0
-315 -197 0
-189 -323 0
-363 -149 0
-248 0
-245 -260 0
-230 -275 0
-214 -291 0
-308 -197 0
-182 -323 0
-340 -165 0
-356 -149 0
-371 -134 0
-240 0
-237 -260 0
-267 -230 0
-206 -291 0
-300 -197 0
-332 -165 0
-356 -141 0
-363 -134 0
-103 104 0
98 -97 0
-69 70 0
-67 68 0
38 -37 0
-35 36 0
8 -7 0
-130 0
-133 0
-145 0
-193 0
131 0
254 0
-274 -109 0
-61 -322 0
-346 -37 0
-21 -362 0
-370 -13 0
-117 -260 0
-103 -274 0
-87 -290 0
-69 -308 0
-55 -322 0
-340 -37 0
-356 -21 0
-370 -7 0
-93 -260 0
-87 -266 0
-274 -79 0
-69 -284 0
-322 -31 0
-21 -332 0
-340 -13 0
-346 -7 0
-214 216 0
-216 214 0
199 -197 0
196 -194 0
-196 194 0
151 -149 0
-146 148 0
136 -134 0
-136 134 0
261 0
380 0
-59 -194 0
-242 -11 0
-115 -134 0
-103 -146 0
-152 -97 0
-87 -162 0
-67 -182 0
-55 -194 0
-19 -230 0
-242 -7 0
-107 -134 0
-138 -103 0
-79 -162 0
-47 -194 0
-230 -11 0
-59 -134 0
-55 -138 0
-47 -146 0
-31 -162 0
-182 -11 0
295 -291 0
-290 294 0
264 -260 0
