p cnf 5592 1218
128 0
256 0
384 0
-421 3 0
-422 5 0
-423 7 0
-15 423 422 421 0
-529 5 0
-530 21 0
-531 17 0
-29 530 529 531 0
-553 7 0
-553 25 0
-554 11 0
-554 21 0
-555 19 0
-555 13 0
-31 555 553 554 0
-575 3 0
-576 29 0
-577 26 0
-578 22 0
-579 19 0
-32 577 579 578 576 575 0
-619 3 0
-620 5 0
-621 33 0
-39 619 620 621 0
-703 7 0
-703 41 0
-704 11 0
37 -704 0
-705 35 0
-705 13 0
-47 705 703 704 0
-727 7 0
-757 3 0
-758 17 0
-759 33 0
-51 757 758 759 0
-781 5 0
-782 17 0
-783 33 0
-53 781 782 783 0
-805 7 0
49 -805 0
-806 19 0
-806 37 0
-807 21 0
806 807 805 -55 0
-827 3 0
-828 53 0
-829 7 0
50 -829 0
-830 19 0
-830 38 0
-831 35 0
-831 22 0
830 831 829 -56 827 828 0
-832 5 0
-833 51 0
-834 7 0
-834 50 0
-835 36 0
-836 37 0
-836 20 0
835 -56 834 836 832 833 0
-913 13 0
-914 21 0
-915 25 0
-61 915 914 913 0
-955 3 0
-956 5 0
-957 55 0
-958 17 0
-959 33 0
-63 957 956 955 958 959 0
-1039 3 0
-1040 5 0
-1041 65 0
-71 1039 1040 1041 0
-1075 3 0
-1076 67 0
-1077 65 0
-75 1076 1075 1077 0
-1099 5 0
-1100 69 0
-1101 65 0
-77 1100 1099 1101 0
-1123 73 0
-1124 69 0
-1125 67 0
-79 1123 1124 1125 0
-1135 79 0
-1136 3 0
-1137 5 0
-1138 72 0
-1139 65 0
-80 1138 1135 1137 1136 1139 0
-1140 79 0
-1141 77 0
-1142 75 0
-1143 71 0
-1144 15 0
-80 1142 1144 1140 1141 1143 0
-1177 3 0
-1178 17 0
-1179 65 0
-83 1177 1178 1179 0
-1225 7 0
-1225 81 0
-1226 19 0
-1226 69 0
-1227 67 0
-1227 21 0
1227 1226 1225 -87 0
-1251 67 0
-1257 17 0
-1258 71 0
-1259 70 0
-1260 21 0
-1260 68 0
-1261 8 0
-88 1261 1260 1259 1257 1258 0
-1333 13 0
-1334 21 0
-1335 25 0
1335 1334 -93 1333 0
-1471 5 0
-1472 33 0
-1473 65 0
-101 1471 1472 1473 0
-1495 7 0
-1496 69 0
-1497 67 0
1496 1497 1495 -103 0
-1520 70 0
-1521 67 0
-1525 68 0
-1532 65 0
-1533 39 0
-1534 67 0
-1534 38 0
-1535 69 0
36 -1535 0
97 -1536 0
-1536 8 0
1535 -104 1536 1534 1532 1533 0
-1561 11 0
-1562 35 0
-1563 67 0
1562 -107 1563 1561 0
-1603 13 0
-1603 97 0
-1604 37 0
-1605 69 0
-1605 41 0
1604 -109 1605 1603 0
-1645 3 0
-1646 5 0
-1647 103 0
-1648 33 0
-1649 65 0
-111 1647 1646 1645 1648 1649 0
-1650 3 0
-1651 7 0
-1652 101 0
-1653 77 0
-1654 67 0
-111 1651 1653 1654 1650 1652 0
-1729 19 0
-1761 33 0
-1762 83 0
-1763 35 0
-1764 68 0
-1765 20 0
-116 1763 1764 1765 1761 1762 0
-1771 21 0
-1772 37 0
-1773 69 0
1772 -117 1771 1773 0
-1813 3 0
-1814 5 0
-1815 17 0
-1816 33 0
-1817 65 0
-119 1813 1814 1815 1816 1817 0
-1975 5 0
-1976 117 0
-1977 17 0
-1978 33 0
-1979 65 0
-125 1976 1975 1977 1978 1979 0
-2035 7 0
-2035 121 0
-2036 11 0
-2036 117 0
19 -2037 0
-2037 109 0
35 -2038 0
-2038 93 0
-2039 67 0
-2039 61 0
2037 2038 2039 2035 -127 2036 0
7 -2040 0
-2040 121 0
-2041 13 0
-2041 115 0
-2042 21 0
-2042 107 0
-2043 91 0
-2044 69 0
-2044 59 0
2040 2042 2041 2044 2043 -127 0
-2045 11 0
-2045 117 0
-2046 13 0
-2046 115 0
-2047 25 0
-2047 103 0
41 -2048 0
-2048 87 0
-2049 55 0
2049 2045 2047 2046 2048 -127 0
19 -2050 0
-2050 109 0
21 -2051 0
-2051 107 0
25 -2052 0
-2052 103 0
49 -2053 0
-2053 79 0
-2054 81 0
-2054 47 0
2050 2052 2054 2051 2053 -127 0
35 -2055 0
-2055 93 0
37 -2056 0
-2056 91 0
41 -2057 0
87 -2057 0
-2058 79 0
-2059 97 0
-2059 31 0
2055 2056 2057 2059 2058 -127 0
-2060 67 0
-2060 61 0
-2061 69 0
-2061 59 0
73 -2062 0
55 -2062 0
-2063 81 0
-2063 47 0
-2064 31 0
2061 2060 2062 2064 2063 -127 0
-2079 3 0
-2080 125 0
-2081 7 0
-2082 11 0
-2082 118 0
-2083 19 0
-2083 110 0
-2084 35 0
-2085 67 0
2080 2081 2082 2083 2084 2085 -128 2079 0
-2093 120 0
-2094 119 0
-2095 118 0
-2096 13 0
-2096 116 0
-2097 104 0
-2098 88 0
73 -2099 0
-2099 56 0
2096 2095 2097 2098 2099 -128 2093 2094 0
-2100 17 0
-2101 111 0
-2102 110 0
-2103 21 0
-2104 104 0
49 -2105 0
-2105 80 0
48 -2106 0
2101 2102 2103 2104 2105 2106 -128 2100 0
-2114 65 0
-2115 63 0
-2116 67 0
62 -2116 0
-2117 69 0
-2118 56 0
48 -2119 0
-2120 97 0
-2120 32 0
2115 2116 2117 2118 2119 2120 -128 2114 0
-2145 130 0
-2146 133 0
-2147 134 0
-142 2147 2146 2145 0
-2193 130 0
-2194 133 0
-2195 145 0
-150 2193 2194 2195 0
-2277 134 0
-2277 153 0
-2278 138 0
-2278 149 0
-2279 146 0
-2279 141 0
-158 2279 2278 2277 0
-2343 130 0
-2344 133 0
-2345 161 0
-166 2343 2344 2345 0
-2427 134 0
-2427 169 0
-2428 138 0
-2429 162 0
-2429 141 0
-174 2429 2428 2427 0
-2461 174 0
-2462 132 0
-2463 135 0
-2464 166 0
-2465 142 0
-176 2462 2465 2461 2464 2463 0
-2529 134 0
-2530 165 0
-2531 162 0
-182 2530 2531 2529 0
-2573 145 0
-2574 146 0
-2574 167 0
-2575 166 0
-2576 149 0
-2576 164 0
-2577 177 0
-2577 136 0
2574 -184 2576 2575 2577 2573 0
-2578 161 0
-2579 162 0
-2580 150 0
-2581 165 0
-2582 177 0
-2582 136 0
2581 -184 2579 2580 2582 2578 0
-2595 138 0
-2595 177 0
146 -2596 0
-2596 169 0
162 -2597 0
153 -2597 0
-186 2597 2595 2596 0
-2763 130 0
-2764 133 0
-2765 193 0
-198 2763 2764 2765 0
-2847 134 0
-2848 138 0
-2849 194 0
-2849 141 0
2849 -206 2848 2847 0
-2881 206 0
-2882 132 0
-2883 135 0
-2884 198 0
-2885 142 0
-208 2882 2885 2883 2881 2884 0
-2981 199 0
-2982 194 0
-2998 193 0
-2999 194 0
-2999 151 0
-3000 150 0
-3001 148 0
-3002 209 0
-3002 136 0
3001 3002 2999 -216 2998 3000 0
-3072 141 0
-3072 209 0
-3073 153 0
-3073 197 0
-3074 149 0
-221 3072 3073 3074 0
-3081 130 0
-3082 133 0
-3083 214 0
-3084 145 0
-3085 193 0
-222 3083 3082 3081 3084 3085 0
-3130 151 0
-3207 133 0
-3208 161 0
-3209 193 0
-229 3207 3208 3209 0
-3219 134 0
-3219 225 0
-3220 162 0
-3220 197 0
-3221 194 0
-3221 165 0
-230 3221 3219 3220 0
-3248 130 0
-3249 229 0
227 -3250 0
-3251 162 0
-3251 199 0
-3252 194 0
3250 -232 3252 3249 3251 3248 0
-3287 194 0
-3294 194 0
-3294 169 0
-3295 162 0
-3296 138 0
-234 3295 3296 3294 0
-3339 141 0
-3339 225 0
-3340 165 0
-3340 201 0
-3341 197 0
-3341 169 0
-237 3340 3341 3339 0
-3351 130 0
-3352 133 0
-3353 230 0
-3354 161 0
-3355 193 0
-238 3353 3352 3351 3354 3355 0
-3381 237 0
-3382 133 0
-3383 231 0
-3384 161 0
-3385 193 0
-239 3383 3381 3382 3384 3385 0
-3386 237 0
-3453 146 0
-3454 162 0
-3455 194 0
-3455 177 0
-242 3453 3454 3455 0
-3519 130 0
-3520 133 0
-3521 145 0
-3522 161 0
-3523 193 0
-246 3519 3520 3521 3522 3523 0
-3609 153 0
-3609 225 0
-3610 169 0
-3610 209 0
-3611 177 0
-249 3611 3610 3609 0
-3711 133 0
-3712 245 0
-3713 145 0
-3714 161 0
-3715 193 0
-253 3712 3711 3713 3714 3715 0
-3741 134 0
-3741 249 0
-3742 138 0
-3742 245 0
-3743 146 0
-3743 237 0
-3744 162 0
-3744 221 0
194 -3745 0
189 -3745 0
3745 3743 3742 3741 3744 -254 0
-3746 134 0
-3746 249 0
-3747 141 0
-3747 242 0
-3748 149 0
-3748 234 0
-3749 165 0
-3749 218 0
197 -3750 0
186 -3750 0
3750 3747 3746 3748 3749 -254 0
-3751 138 0
-3751 245 0
-3752 141 0
-3752 242 0
-3753 230 0
-3754 169 0
-3754 214 0
201 -3755 0
-3755 182 0
3755 3753 3754 3751 3752 -254 0
-3756 146 0
-3756 237 0
-3757 149 0
-3757 234 0
-3758 153 0
-3758 230 0
177 -3759 0
-3759 206 0
-3760 209 0
-3760 174 0
3756 3759 3760 3758 3757 -254 0
-3761 162 0
-3761 221 0
-3762 165 0
-3762 218 0
-3763 169 0
-3763 214 0
-3764 177 0
-3764 206 0
-3765 225 0
-3765 158 0
3763 3765 3762 3764 -254 3761 0
-3766 194 0
-3766 189 0
-3767 186 0
-3768 201 0
-3768 182 0
-3769 209 0
-3769 174 0
-3770 225 0
-3770 158 0
3767 3766 3770 3768 3769 -254 0
-3808 255 0
-3809 253 0
-3810 134 0
-3811 247 0
-3812 146 0
-3812 239 0
-3813 162 0
-3814 194 0
-3814 191 0
3810 3809 3811 3812 3813 3814 -256 3808 0
-3823 134 0
-3828 188 0
-3829 248 0
-3830 138 0
-3830 247 0
-3831 246 0
-3832 141 0
-3832 244 0
-3833 153 0
-3833 232 0
-3834 169 0
-3834 216 0
-3835 184 0
3832 3830 3833 3834 3835 -256 3829 3831 0
-3836 145 0
-3837 146 0
-3837 239 0
-3838 238 0
-3839 149 0
-3839 236 0
-3840 153 0
-3840 232 0
-3841 177 0
-3841 208 0
-3842 209 0
-3842 176 0
3838 3837 3839 3840 3841 3842 -256 3836 0
-3843 161 0
-3844 162 0
-3845 222 0
-3846 220 0
-3847 216 0
-3848 177 0
-3849 160 0
3845 3844 3846 3847 3848 3849 -256 3843 0
-3850 193 0
-3851 194 0
-3852 190 0
-3853 197 0
-3854 184 0
-3855 176 0
-3856 160 0
3851 3852 3853 3854 3855 3856 -256 3850 0
-3905 260 0
-3906 267 0
-3907 266 0
-272 3907 3906 3905 0
-3989 260 0
-3989 281 0
-3990 266 0
-3990 275 0
-3991 274 0
-3991 267 0
-284 3989 3990 3991 0
-3998 267 0
-4067 258 0
-4068 259 0
-4069 260 0
-292 4069 4068 4067 0
-4139 260 0
-4139 297 0
-4140 266 0
-4140 291 0
-4141 290 0
-4141 267 0
-300 4140 4141 4139 0
-4148 290 0
-4148 267 0
-4149 291 0
-4150 297 0
-300 4149 4148 4150 0
-4207 265 0
-4208 266 0
-4209 267 0
-4210 292 0
-4211 264 0
-304 4208 4210 4209 4211 4207 0
-4241 260 0
-4242 291 0
-4243 290 0
-308 4241 4243 4242 0
-4331 266 0
-4332 274 0
-4332 297 0
-4333 290 0
-4333 281 0
-314 4331 4332 4333 0
-4343 267 0
-4344 275 0
-4344 297 0
-4345 291 0
-4345 281 0
-315 4343 4344 4345 0
-4487 258 0
-4488 259 0
-4489 321 0
-324 4487 4488 4489 0
-4547 259 0
-4548 265 0
-4549 321 0
-331 4547 4548 4549 0
-4559 260 0
-4559 329 0
-4560 266 0
-4560 323 0
-4561 322 0
-4561 267 0
-332 4561 4560 4559 0
-4612 258 0
-4613 333 0
-4614 331 0
-4615 327 0
-4616 271 0
-336 4616 4615 4613 4612 4614 0
-4627 265 0
-4628 266 0
-4628 327 0
-4629 267 0
-4629 326 0
-4630 324 0
-4631 329 0
-4631 264 0
-336 4629 4628 4631 4630 4627 0
-4636 329 0
-4637 258 0
-4638 322 0
-4639 321 0
-338 4638 4637 4639 0
-4649 259 0
-4650 323 0
-4651 321 0
-339 4650 4649 4651 0
-4661 260 0
-4661 337 0
-4662 274 0
-4662 323 0
-4663 322 0
-4663 275 0
-340 4662 4663 4661 0
-4729 328 0
-4730 327 0
-4731 326 0
-4732 324 0
-4733 264 0
-344 4729 4730 4733 4731 4732 0
-4739 265 0
-4740 329 0
-4741 321 0
-345 4740 4739 4741 0
-4751 266 0
-4751 337 0
-4752 274 0
-4752 329 0
-4753 322 0
-4753 281 0
-346 4751 4753 4752 0
-4763 267 0
-4764 275 0
-4764 329 0
-4765 323 0
-4765 281 0
-347 4763 4764 4765 0
-4822 258 0
-4823 345 0
-4824 341 0
-4825 333 0
-4826 322 0
-350 4824 4823 4825 4826 4822 0
-4919 259 0
-4920 323 0
-4921 321 0
-355 4920 4919 4921 0
-4934 260 0
-4935 291 0
-4935 322 0
-4936 323 0
-356 4934 4935 4936 0
-4984 258 0
-4985 260 0
-4986 355 0
-4987 327 0
-4988 322 0
-360 4988 4987 4985 4986 4984 0
-4994 356 0
-4995 355 0
-4996 263 0
-4997 324 0
-4998 292 0
-360 4994 4996 4995 4998 4997 0
-5009 265 0
-5010 329 0
-5011 321 0
-361 5010 5009 5011 0
-5021 266 0
353 -5021 0
-5022 290 0
-5022 329 0
-5023 322 0
-5023 297 0
5021 -362 5023 5022 0
-5033 267 0
-5034 291 0
-5034 329 0
-5035 323 0
-5035 297 0
-363 5033 5034 5035 0
-5036 267 0
-5045 258 0
-5046 259 0
-5047 265 0
-5048 332 0
-5049 321 0
-364 5048 5046 5047 5045 5049 0
-5087 258 0
-5088 362 0
-5089 265 0
-5090 334 0
-5091 321 0
5088 -366 5090 5089 5087 5091 0
-5127 363 0
-5128 361 0
-5129 355 0
-5167 335 0
-5168 334 0
-5169 332 0
-5170 328 0
-5171 272 0
-368 5171 5169 5167 5170 5168 0
-5189 274 0
-5190 290 0
-5191 322 0
5191 -370 5189 5190 0
-5201 275 0
-5202 291 0
-5202 337 0
-5203 323 0
-371 5201 5202 5203 0
-5213 258 0
-5214 259 0
-5215 356 0
-5216 340 0
-5217 321 0
-372 5216 5215 5213 5214 5217 0
-5218 258 0
-5219 260 0
-5220 355 0
-5221 339 0
-5222 307 0
-372 5222 5221 5219 5220 5218 0
-5275 342 0
-5276 341 0
-5277 338 0
-5278 326 0
-5279 278 0
5279 5278 5275 5277 -374 5276 0
-5300 359 0
-5301 275 0
-5302 355 0
-5303 327 0
-5304 295 0
5304 5302 5301 -375 5303 5300 0
-5345 281 0
-5345 353 0
-5346 297 0
-5346 337 0
-5347 329 0
-377 5345 5346 5347 0
-5387 259 0
-5388 265 0
-5389 363 0
-5390 347 0
-5391 321 0
-379 5389 5390 5387 5388 5391 0
-5417 260 0
-5417 377 0
266 -5418 0
-5418 371 0
-5419 274 0
-5419 363 0
-5420 290 0
-5420 347 0
-5421 322 0
-5421 315 0
5421 5419 5418 5420 5417 -380 0
-5422 260 0
-5422 377 0
-5423 267 0
-5423 370 0
-5424 275 0
362 -5424 0
-5425 291 0
-5425 346 0
-5426 323 0
-5426 314 0
5425 5426 5423 5424 5422 -380 0
266 -5427 0
-5427 371 0
-5428 267 0
-5428 370 0
-5429 281 0
-5429 356 0
-5430 297 0
-5430 340 0
-5431 329 0
-5431 308 0
5429 5431 5427 5428 5430 -380 0
-5432 274 0
-5432 363 0
-5433 275 0
-5433 362 0
-5434 281 0
-5434 356 0
305 -5435 0
-5435 332 0
-5436 337 0
-5436 300 0
5435 5432 5433 5436 5434 -380 0
-5437 347 0
-5438 291 0
-5438 346 0
-5439 340 0
-5440 332 0
-5441 353 0
-5441 284 0
5441 5439 5440 5438 5437 -380 0
322 -5442 0
-5442 315 0
-5443 323 0
-5443 314 0
-5444 329 0
-5444 308 0
-5445 337 0
-5445 300 0
-5446 353 0
284 -5446 0
5446 5444 5442 5443 5445 -380 0
-5447 377 0
-5448 265 0
-5449 365 0
-5450 349 0
-5451 321 0
-381 5447 5450 5449 5448 5451 0
-5544 383 0
-5545 260 0
-5545 381 0
-5546 262 0
-5546 379 0
-5547 375 0
-5548 274 0
-5549 290 0
-5549 351 0
-5550 322 0
5545 5546 5547 5548 5549 5550 -384 5544 0
-5551 382 0
-5552 260 0
-5553 263 0
-5554 374 0
-5555 366 0
-5556 291 0
-5556 350 0
-5557 323 0
5552 5553 5554 5555 5556 5557 -384 5551 0
-5565 376 0
375 -5566 0
-5567 267 0
374 -5567 0
-5568 372 0
-5569 360 0
-5570 344 0
-5571 329 0
-5571 312 0
5567 5566 5568 5569 5570 5571 -384 5565 0
-5572 368 0
-5573 274 0
-5574 366 0
-5575 364 0
-5576 360 0
-5577 336 0
-5578 304 0
5573 5572 5574 5575 5576 5577 5578 -384 0
-5580 290 0
-5581 291 0
-5588 323 0
-5590 329 0
353 -5592 0
288 -5592 0
-253 -260 0
-249 -264 0
-247 -266 0
-242 -271 0
-239 -274 0
-238 -275 0
-281 -232 0
-295 -218 0
-297 -216 0
-307 -206 0
-314 -199 0
-191 -322 0
-190 -323 0
-327 -186 0
-184 -329 0
-334 -179 0
-336 -177 0
-176 -337 0
-344 -169 0
-346 -167 0
-349 -164 0
-351 -162 0
-160 -353 0
-151 -362 0
-375 -138 0
-377 -136 0
-231 -281 -2 0
-221 -291 -2 0
-315 -197 -2 0
-323 -189 -2 0
-335 -177 -2 0
-359 -153 -2 0
-249 -8 0
-281 -225 -8 0
-297 -209 -8 0
-329 -177 -8 0
-337 -169 -8 0
-353 -153 -8 0
-377 -8 0
-326 -11 -177 0
-341 -11 -162 0
-11 -374 0
-244 -13 0
-227 -274 -13 0
-211 -290 -13 0
-305 -13 -196 0
-13 -322 -179 0
-13 -337 -164 0
-13 -148 -353 0
-238 -19 0
-225 -270 -19 0
-326 -169 -19 0
-333 -162 -19 0
-366 -19 0
-237 -20 0
-141 -353 -20 0
-365 -20 0
-236 -21 0
-227 -21 -266 0
-297 -21 -196 0
-21 -329 -164 0
-22 -225 -267 0
-22 -291 -201 0
-323 -22 -169 0
-22 -363 0
-232 -25 0
-225 -25 -264 0
-290 -199 -25 0
-167 -322 -25 0
-327 -25 -162 0
-25 -353 -136 0
-26 -231 0
-32 -225 0
-32 -353 0
-209 -270 -35 0
-333 -146 -35 0
-341 -138 -35 0
-221 -36 0
-281 -197 -36 0
-141 -337 -36 0
-220 -37 0
-211 -37 -266 0
-281 -37 -196 0
-329 -37 -148 0
-209 -267 -38 0
-323 -38 -153 0
-347 -38 0
-216 -41 0
-209 -264 -41 0
-274 -199 -41 0
-151 -322 -41 0
-327 -146 -41 0
-337 -41 -136 0
-209 -48 0
-49 -271 -194 0
-327 -49 -138 0
-336 -49 0
-50 -267 -197 0
-50 -323 -141 0
-201 -56 0
-329 -56 0
-59 -194 -261 0
-59 -326 0
-61 -196 0
-62 -323 0
-63 -322 0
-68 -189 0
-297 -68 -149 0
-188 -69 0
-266 -179 -69 0
-281 -69 -164 0
-297 -148 -69 0
-314 -69 -131 0
-177 -267 -70 0
-275 -70 -169 0
-291 -70 -153 0
-315 -70 0
-184 -73 0
-262 -179 -73 0
-73 -177 -264 0
-167 -274 -73 0
-151 -290 -73 0
-312 -73 0
-77 -275 -162 0
-176 -81 0
-81 -264 -169 0
-167 -81 -266 0
-271 -81 -162 0
-297 -81 -136 0
-263 -82 -169 0
-165 -267 -82 0
-141 -291 -82 0
-169 -88 0
-297 -88 0
-91 -162 -261 0
-93 -164 0
-160 -97 0
-97 -264 -153 0
-151 -266 -97 0
-271 -97 -146 0
-281 -97 -136 0
-97 -288 0
-263 -98 -153 0
-149 -267 -98 0
-141 -275 -98 0
-104 -153 0
-281 -104 0
-278 -107 0
-109 -148 0
-110 -275 0
-138 -115 -261 0
-115 -270 0
-141 -116 0
-117 -266 -131 0
-118 -267 0
-121 -136 0
-121 -264 0
-3 0
-5 0
-17 0
-33 0
-65 0
2 0
127 0
-255 0
-245 -267 0
-237 -275 0
-347 -165 0
-141 -371 0
-135 -377 0
-383 0
-248 0
-245 -260 0
-230 -275 0
-291 -214 0
-323 -182 0
-328 -177 0
-165 -340 0
-356 -149 0
-135 -370 0
-371 -134 0
-376 0
-117 118 0
-118 117 0
-115 116 0
-116 115 0
-103 104 0
-104 103 0
98 -97 0
88 -87 0
-88 87 0
82 -81 0
-69 70 0
69 -70 0
-67 68 0
-68 67 0
56 -55 0
-56 55 0
-50 49 0
38 -37 0
-38 37 0
36 -35 0
-36 35 0
-21 22 0
-22 21 0
20 -19 0
-20 19 0
8 -7 0
-8 7 0
-130 0
-133 0
-145 0
-161 0
-193 0
131 0
254 0
-274 -109 0
-290 -93 0
-61 -322 0
-346 -37 0
-21 -362 0
-370 -13 0
-382 0
-120 0
-117 -260 0
-274 -103 0
-290 -87 0
-308 -69 0
-322 -55 0
-340 -37 0
-342 -35 0
-356 -21 0
-370 -7 0
-245 247 0
-247 245 0
-242 244 0
-244 242 0
-230 232 0
-232 230 0
227 -225 0
-214 216 0
214 -216 0
-209 211 0
-211 209 0
199 -197 0
196 -194 0
-182 184 0
182 -184 0
179 -177 0
167 -165 0
-167 165 0
164 -162 0
-164 162 0
-149 151 0
-151 149 0
148 -146 0
146 -148 0
136 -134 0
-136 134 0
-258 0
-259 0
-265 0
-321 0
261 0
380 0
-107 -146 0
-67 -186 0
-218 -35 0
-234 -19 0
-242 -11 0
-132 -109 0
-107 -134 0
-138 -103 0
-79 -162 0
-72 -169 0
-67 -174 0
-47 -194 0
-206 -35 0
-11 -230 0
-234 -7 0
-91 -134 0
-138 -87 0
-79 -146 0
-67 -158 0
-31 -194 0
-206 -19 0
-11 -214 0
-218 -7 0
-332 336 0
-336 332 0
-329 333 0
-333 329 0
-323 327 0
-327 323 0
326 -322 0
-326 322 0
-267 271 0
-271 267 0
270 -266 0
264 -260 0
-264 260 0
