p cnf 5592 660
128 0
384 0
11 -397 0
-398 3 0
-399 4 0
397 -12 398 399 0
-469 3 0
-470 5 0
-471 17 0
-23 469 470 471 0
-575 3 0
-576 4 0
-577 26 0
-578 11 0
-579 19 0
-32 578 575 576 579 577 0
-655 3 0
-656 35 0
-657 33 0
-43 656 655 657 0
-703 7 0
11 -704 0
-705 13 0
704 705 -47 703 0
-730 5 0
-731 43 0
-732 7 0
-733 36 0
-734 12 0
734 -48 730 732 731 733 0
-805 7 0
49 -805 0
-806 19 0
-806 37 0
-807 35 0
-807 21 0
-55 805 806 807 0
-829 7 0
-840 21 0
-840 36 0
-903 17 0
-904 43 0
-905 19 0
-906 36 0
49 -907 0
12 -907 0
907 905 903 -60 906 904 0
-955 3 0
-956 5 0
-957 55 0
-958 17 0
-959 33 0
-63 957 956 955 958 959 0
-980 33 0
-981 35 0
-982 37 0
-983 23 0
-984 49 0
-63 982 980 981 983 984 0
-1075 3 0
-1076 67 0
-1077 65 0
-75 1076 1075 1077 0
-1145 3 0
-1146 4 0
-1147 7 0
-1148 11 0
-1149 67 0
-80 1148 1145 1146 1147 1149 0
-1150 5 0
-1151 75 0
-1152 7 0
-1153 68 0
-1154 12 0
-80 1154 1150 1151 1153 1152 0
-1201 5 0
-1202 17 0
-1203 65 0
-85 1201 1202 1203 0
-1247 3 0
-1248 85 0
-1249 7 0
-1250 19 0
-1251 67 0
-88 1251 1247 1248 1250 1249 0
-1495 7 0
-1495 97 0
-1496 35 0
-1497 67 0
-103 1497 1496 1495 0
-1561 97 0
-1562 35 0
-1563 67 0
-107 1563 1561 1562 0
-1583 3 0
-1584 4 0
-1585 98 0
-1586 35 0
-1587 67 0
-108 1587 1583 1584 1585 1586 0
-1595 35 0
-1645 3 0
-1646 5 0
-1647 103 0
-1648 33 0
-1649 65 0
-111 1647 1646 1645 1648 1649 0
-1729 19 0
-1729 97 0
-1730 35 0
-1731 67 0
-115 1731 1729 1730 0
-1813 3 0
-1814 5 0
-1815 17 0
-1816 33 0
-1817 65 0
-119 1813 1814 1815 1816 1817 0
-1915 3 0
-1916 115 0
-1917 17 0
-1918 33 0
-1919 65 0
-123 1916 1915 1917 1918 1919 0
-2035 7 0
121 -2035 0
11 -2036 0
117 -2036 0
-2037 19 0
-2037 109 0
-2038 35 0
93 -2038 0
-2039 67 0
2036 2035 -127 2039 2037 2038 0
-2040 7 0
-2040 121 0
-2041 13 0
-2041 115 0
-2042 21 0
-2042 107 0
37 -2043 0
91 -2043 0
-2044 69 0
-2044 59 0
2043 2040 -127 2044 2041 2042 0
-2050 109 0
-2051 107 0
-2052 103 0
-2053 79 0
-2054 47 0
2050 2053 -127 2054 2052 2051 0
-2060 61 0
-2061 59 0
-2062 55 0
-2063 47 0
-2064 31 0
2060 2061 -127 2063 2062 2064 0
-2079 3 0
-2080 4 0
-2081 7 0
-2082 11 0
118 -2082 0
-2083 19 0
-2083 110 0
-2084 35 0
-2084 94 0
-2085 67 0
2081 2080 2082 2083 2084 2085 -128 2079 0
-2086 5 0
-2087 123 0
-2088 7 0
-2089 116 0
-2090 108 0
37 -2091 0
-2091 92 0
69 -2092 0
-2092 60 0
2088 2087 2089 2090 2091 2092 -128 2086 0
-2093 120 0
-2094 119 0
-2095 11 0
-2095 118 0
-2096 13 0
-2096 116 0
-2097 104 0
-2098 88 0
-2099 73 0
-2099 56 0
2096 2095 2097 2098 2099 -128 2093 2094 0
-2100 17 0
-2101 111 0
-2102 19 0
-2102 110 0
-2103 21 0
-2103 108 0
-2104 104 0
49 -2105 0
-2105 80 0
48 -2106 0
2102 2101 2103 2104 2105 2106 -128 2100 0
-2114 65 0
-2115 63 0
-2116 67 0
-2117 69 0
-2117 60 0
-2118 56 0
48 -2119 0
-2120 32 0
2116 2115 2117 2118 2119 2120 -128 2114 0
-2277 134 0
-2277 153 0
-2278 138 0
-2278 149 0
-2279 146 0
-2279 141 0
-158 2279 2278 2277 0
-2427 134 0
-2427 169 0
-2428 138 0
165 -2428 0
-2429 162 0
-2429 141 0
2429 -174 2427 2428 0
-2529 177 0
-2538 149 0
-2539 165 0
-2540 134 0
2539 2540 -182 2538 0
-2595 138 0
-2595 177 0
146 -2596 0
-2596 169 0
-2597 162 0
-2597 153 0
-186 2596 2595 2597 0
-2847 134 0
-2847 201 0
-2848 138 0
-2848 197 0
-2849 194 0
-206 2847 2848 2849 0
-2949 134 0
-2949 209 0
146 -2950 0
-2950 197 0
-2951 194 0
-214 2949 2950 2951 0
-3015 138 0
-3016 146 0
-3017 194 0
3016 3015 -218 3017 0
-3171 130 0
-3172 161 0
-3173 193 0
-226 3171 3172 3173 0
-3219 225 0
-3220 197 0
-3221 194 0
-230 3219 3220 3221 0
-3258 133 0
-3259 134 0
-3260 226 0
-3261 196 0
-3262 197 0
164 -3262 0
-232 3259 3258 3260 3261 3262 0
-3285 138 0
-3286 162 0
-3286 201 0
-3287 194 0
-234 3286 3285 3287 0
-3453 146 0
-3453 225 0
-3454 162 0
-3454 209 0
-3455 194 0
-242 3454 3453 3455 0
-3510 149 0
-3510 225 0
-3511 197 0
-3512 209 0
-3512 165 0
-245 3512 3511 3510 0
-3609 225 0
-3610 209 0
-3611 177 0
-249 3611 3609 3610 0
-3741 249 0
-3742 245 0
-3743 237 0
-3744 221 0
-3745 194 0
3744 3743 -254 3742 3741 3745 0
-3746 134 0
-3746 249 0
-3747 242 0
-3748 149 0
-3748 234 0
165 -3749 0
-3749 218 0
-3750 197 0
186 -3750 0
3750 3748 -254 3749 3747 3746 0
-3751 138 0
-3751 245 0
-3752 141 0
-3752 242 0
-3753 230 0
-3754 214 0
201 -3755 0
182 -3755 0
3755 3754 -254 3751 3752 3753 0
146 -3756 0
-3756 237 0
-3757 149 0
-3757 234 0
-3758 230 0
-3759 177 0
-3759 206 0
-3760 209 0
-3760 174 0
3760 3759 -254 3756 3757 3758 0
-3761 221 0
-3762 165 0
-3762 218 0
-3763 214 0
-3764 206 0
-3765 225 0
-3765 158 0
3764 3762 -254 3761 3765 3763 0
-3766 194 0
-3767 197 0
-3767 186 0
182 -3768 0
-3769 209 0
-3769 174 0
-3770 225 0
-3770 158 0
3768 3769 -254 3766 3770 3767 0
-3989 260 0
-3990 266 0
-3991 267 0
-284 3991 3990 3989 0
-4139 260 0
-4139 297 0
-4140 266 0
-4141 267 0
-300 4141 4140 4139 0
-4343 267 0
-4344 275 0
-4345 281 0
4345 4343 4344 -315 0
-4397 258 0
-4398 314 0
-4399 310 0
-4400 302 0
-4401 286 0
-318 4401 4397 4399 4400 4398 0
-4559 260 0
-4559 329 0
-4560 266 0
-4560 323 0
-4561 322 0
-4561 267 0
-332 4561 4560 4559 0
-4649 259 0
-4650 323 0
-4651 321 0
-339 4650 4649 4651 0
-4661 337 0
-4662 323 0
-4663 275 0
-340 4662 4663 4661 0
-4730 327 0
-4751 266 0
-4751 337 0
-4752 329 0
-4753 322 0
-346 4753 4751 4752 0
-4763 267 0
-4763 337 0
-4764 275 0
-4764 329 0
-4765 323 0
-4765 281 0
-347 4763 4765 4764 0
-4919 259 0
-4920 323 0
-4921 321 0
-355 4920 4919 4921 0
-4931 260 0
353 -4931 0
-4932 323 0
-4933 291 0
-356 4932 4933 4931 0
-5000 327 0
-5021 266 0
353 -5021 0
-5022 329 0
-5023 322 0
-5023 297 0
-362 5023 5021 5022 0
-5033 267 0
-5034 329 0
-5035 323 0
-363 5033 5034 5035 0
-5207 291 0
-5207 337 0
-5208 323 0
353 -5209 0
-5209 275 0
-371 5209 5207 5208 0
-5220 355 0
-5221 339 0
-5417 260 0
-5417 377 0
-5418 266 0
-5418 371 0
-5419 363 0
-5420 290 0
-5420 347 0
322 -5421 0
315 -5421 0
5421 5419 -380 5420 5418 5417 0
-5422 260 0
-5422 377 0
-5423 267 0
-5423 370 0
-5424 275 0
-5424 362 0
-5425 291 0
-5425 346 0
-5426 314 0
5426 5422 -380 5424 5425 5423 0
-5427 266 0
-5427 371 0
-5428 267 0
-5428 370 0
281 -5429 0
356 -5429 0
-5430 297 0
-5430 340 0
-5431 329 0
-5431 308 0
5429 5427 -380 5431 5430 5428 0
-5432 363 0
-5433 275 0
-5433 362 0
-5434 356 0
305 -5435 0
-5435 332 0
-5436 337 0
-5436 300 0
5435 5434 -380 5433 5436 5432 0
-5437 347 0
-5438 346 0
-5439 340 0
-5440 332 0
353 -5441 0
-5441 284 0
5440 5441 -380 5437 5439 5438 0
-5442 315 0
-5443 314 0
-5444 308 0
-5445 337 0
-5445 300 0
-5446 284 0
5442 5446 -380 5444 5443 5445 0
-5586 321 0
-5587 322 0
-5588 323 0
-5588 318 0
-5589 316 0
-5590 312 0
-5591 337 0
-5591 304 0
353 -5592 0
288 -5592 0
5588 5587 5589 5590 5591 5592 -384 5586 0
-281 -232 0
-286 -227 0
-225 -288 0
-297 -216 0
-302 -211 0
-304 -209 0
-314 -199 0
-316 -197 0
-327 -186 0
-329 -184 0
-346 -167 0
-362 -151 0
-377 -136 0
-291 -221 -2 0
-315 -197 -2 0
-347 -165 -2 0
-363 -149 -2 0
-371 -141 -2 0
-249 -8 0
-281 -225 -8 0
-297 -209 -8 0
-8 -305 -201 0
-337 -169 -8 0
-153 -8 -353 0
-377 -8 0
-245 -12 0
-149 -12 -353 0
-237 -20 0
-297 -197 -20 0
-141 -353 -20 0
-266 -21 -227 0
-22 -225 -267 0
-22 -291 -201 0
-22 -363 0
-26 -291 -197 0
-32 -353 0
-221 -36 0
-337 -141 -36 0
-266 -211 -37 0
-267 -209 -38 0
-347 -38 0
-209 -48 0
-337 -48 0
-264 -49 -201 0
-266 -199 -49 0
-327 -138 -49 0
-56 -201 0
-329 -56 0
-197 -60 0
-61 -196 0
-316 -69 0
-267 -70 -177 0
-275 -169 -70 0
-70 -315 0
-73 -264 -177 0
-290 -73 -151 0
-312 -73 0
-80 -177 0
-169 -88 0
-92 -165 0
-93 -164 0
-290 -93 -131 0
-94 -291 0
-97 -288 0
-153 -104 0
-108 -149 0
-109 -148 0
-110 -275 0
-115 -138 -261 0
-116 -141 0
-267 -118 0
-136 -121 0
-264 -121 0
-3 0
-5 0
-17 0
-33 0
-65 0
2 0
127 0
-275 -237 0
-245 -260 0
-275 -230 0
-291 -214 0
-308 -197 0
-323 -182 0
-340 -165 0
-356 -149 0
-371 -134 0
118 -117 0
-118 117 0
-115 116 0
-116 115 0
-104 103 0
-98 97 0
87 -88 0
-69 70 0
-68 67 0
-55 56 0
-56 55 0
38 -37 0
36 -35 0
35 -36 0
-21 22 0
20 -19 0
8 -7 0
-8 7 0
-130 0
-133 0
-161 0
-193 0
131 0
254 0
-266 -117 0
-310 -73 0
-314 -69 0
-346 -37 0
-21 -362 0
-13 -370 0
-120 0
-260 -117 0
-308 -69 0
-322 -55 0
-340 -37 0
-21 -356 0
-370 -7 0
-230 232 0
227 -225 0
216 -214 0
211 -209 0
199 -197 0
-199 197 0
196 -194 0
-196 194 0
184 -182 0
167 -165 0
-162 164 0
151 -149 0
148 -146 0
-134 136 0
-258 0
-259 0
-321 0
261 0
380 0
-107 -146 0
-67 -186 0
-59 -194 0
-218 -35 0
-234 -19 0
-242 -11 0
-249 -4 0
-115 -134 0
-103 -146 0
-162 -87 0
-67 -182 0
-55 -194 0
-214 -35 0
-230 -19 0
-242 -7 0
-245 -4 0
-107 -134 0
-138 -103 0
-174 -67 0
-47 -194 0
-206 -35 0
-230 -11 0
-234 -7 0
-237 -4 0
-134 -91 0
-138 -87 0
-79 -146 0
-158 -67 0
-31 -194 0
-206 -19 0
-214 -11 0
-7 -218 0
-221 -4 0
-323 327 0
-327 323 0
-260 264 0
