p cnf 5592 134
128 0
-529 5 0
-530 9 0
-531 17 0
-29 529 530 531 0
-553 7 0
-554 11 0
-555 19 0
-31 554 553 555 0
-575 3 0
-576 29 0
-577 7 0
-578 11 0
-579 19 0
-32 578 575 576 577 579 0
-679 5 0
-680 9 0
-681 33 0
-45 679 680 681 0
-725 3 0
-726 45 0
-727 7 0
-728 11 0
-729 35 0
-48 728 725 726 727 729 0
-781 5 0
-782 17 0
-783 33 0
-53 781 782 783 0
-827 3 0
-828 53 0
-829 7 0
-830 19 0
-831 35 0
-56 830 827 828 829 831 0
-955 3 0
-956 5 0
-957 9 0
-958 17 0
-959 33 0
-63 955 956 957 958 959 0
-2035 7 0
-2036 11 0
-2037 19 0
-2038 35 0
-2039 67 0
2037 2038 -127 2035 2039 2036 0
-2060 61 0
-2061 59 0
-2062 55 0
-2063 47 0
-2064 31 0
2060 2061 -127 2062 2063 2064 0
-2114 65 0
-2115 63 0
67 -2116 0
-2117 60 0
-2118 56 0
-2119 48 0
-2120 32 0
2117 2116 2118 2119 2120 -128 2114 2115 0
-3746 249 0
-3747 242 0
-3748 234 0
-3749 218 0
-3750 186 0
3746 3747 -254 3748 3749 3750 0
-3751 245 0
-3752 242 0
-3753 230 0
-3754 214 0
-3755 182 0
3751 3752 -254 3753 3754 3755 0
-3756 237 0
-3757 234 0
-3758 230 0
-3759 206 0
-3760 174 0
3756 3757 -254 3758 3759 3760 0
-3761 221 0
-3762 218 0
-3763 214 0
-3764 206 0
-3765 158 0
3761 3762 -254 3763 3764 3765 0
-3766 194 0
197 -3767 0
-3767 186 0
-3768 182 0
-3769 174 0
-3770 158 0
3766 3768 -254 3767 3769 3770 0
-249 -8 0
-245 -12 0
-237 -20 0
-221 -36 0
-60 -197 0
-61 -196 0
-3 0
-5 0
-9 0
-17 0
-33 0
-65 0
127 0
36 -35 0
20 -19 0
12 -11 0
8 -7 0
254 0
196 -194 0
-186 -67 0
-59 -194 0
-218 -35 0
-234 -19 0
-242 -11 0
-182 -67 0
-55 -194 0
-214 -35 0
-230 -19 0
-242 -7 0
-174 -67 0
-47 -194 0
-206 -35 0
-230 -11 0
-234 -7 0
-158 -67 0
-206 -19 0
-214 -11 0
-218 -7 0
-158 -35 0
-174 -19 0
-182 -11 0
-7 -186 0
