p cnf 5592 1468
128 0
256 0
384 0
-553 7 0
-553 25 0
-554 11 0
-554 21 0
-555 19 0
-555 13 0
-31 555 553 554 0
-590 17 0
-591 18 0
-592 14 0
-593 21 0
-594 25 0
-32 594 593 591 592 590 0
-619 3 0
-620 5 0
-621 33 0
-39 619 620 621 0
-703 7 0
-703 41 0
-704 11 0
-704 37 0
-705 13 0
-47 703 704 705 0
-725 3 0
-726 4 0
-727 7 0
-728 11 0
-728 38 0
-729 35 0
-48 726 728 727 729 725 0
-757 3 0
-758 17 0
-759 33 0
-51 757 758 759 0
-806 19 0
-830 38 0
-836 37 0
-836 20 0
-837 17 0
-838 39 0
19 -839 0
38 -839 0
-840 21 0
-840 36 0
-841 49 0
-841 8 0
839 841 -56 840 837 838 0
-845 37 0
-847 49 0
-848 17 0
-849 33 0
-57 847 848 849 0
-871 11 0
-872 19 0
-872 41 0
-873 35 0
-873 25 0
-59 872 873 871 0
-894 57 0
-895 50 0
-903 17 0
-904 43 0
-905 19 0
-906 36 0
-907 49 0
-60 907 904 906 905 903 0
-913 13 0
-914 21 0
-914 41 0
-915 37 0
915 914 913 -61 0
-955 3 0
-956 5 0
-957 55 0
-958 17 0
-959 33 0
-63 957 956 955 958 959 0
-1039 3 0
-1040 5 0
-1041 65 0
-71 1039 1040 1041 0
-1075 3 0
-1076 67 0
-1077 65 0
-75 1076 1075 1077 0
-1123 7 0
-1123 73 0
-1124 11 0
-1124 69 0
-1125 67 0
-1125 13 0
-79 1125 1123 1124 0
-1135 79 0
-1136 3 0
-1137 5 0
-1138 72 0
-1139 65 0
1138 1135 -80 1137 1136 1139 0
-1150 5 0
-1151 6 0
-1152 7 0
-1153 68 0
-1154 12 0
1151 -80 1153 1154 1152 1150 0
7 -1225 0
-1225 81 0
-1226 19 0
-1226 69 0
-1227 67 0
-1227 21 0
-87 1227 1225 1226 0
-1259 19 0
-1260 21 0
-1265 20 0
-1266 81 0
-1291 11 0
-1291 81 0
-1292 19 0
-1292 73 0
-1293 67 0
-1293 25 0
-91 1293 1292 1291 0
-1303 91 0
-1304 3 0
-1305 84 0
-1306 17 0
-1307 65 0
-92 1303 1305 1304 1306 1307 0
-1322 20 0
-1323 17 0
-1324 75 0
-1325 19 0
-1326 68 0
-1327 12 0
-92 1327 1325 1326 1324 1323 0
-1333 13 0
-1333 81 0
-1334 21 0
-1334 73 0
-1335 69 0
-1335 25 0
-93 1334 1333 1335 0
-1345 93 0
-1346 5 0
-1347 86 0
-1348 17 0
-1349 65 0
-94 1347 1345 1346 1348 1349 0
-1375 3 0
-1376 5 0
-1377 87 0
-1378 17 0
-1379 65 0
-95 1377 1376 1375 1378 1379 0
-1395 17 0
-1396 19 0
-1397 21 0
-1397 75 0
-1398 71 0
-1399 81 0
-95 1397 1399 1396 1398 1395 0
-1447 3 0
-1448 33 0
-1449 65 0
-99 1447 1448 1449 0
-1496 69 0
-1498 7 0
-1498 97 0
37 -1499 0
-1499 67 0
-1500 69 0
-1500 35 0
1499 -103 1500 1498 0
-1522 5 0
-1523 99 0
-1524 7 0
-1525 37 0
-1526 69 0
1525 -104 1526 1524 1522 1523 0
-1531 8 0
-1532 65 0
-1533 39 0
-1534 67 0
38 -1534 0
-1535 69 0
-1535 36 0
-1536 97 0
-1536 8 0
1534 -104 1535 1536 1532 1533 0
-1537 97 0
-1538 33 0
-1539 65 0
-105 1537 1538 1539 0
-1561 11 0
-1561 97 0
-1562 35 0
73 -1562 0
-1563 67 0
41 -1563 0
1563 -107 1562 1561 0
-1578 107 0
-1579 105 0
-1580 99 0
-1581 75 0
-1582 66 0
-1582 43 0
-108 1581 1579 1578 1582 1580 0
-1583 3 0
-1584 105 0
-1585 98 0
-1586 35 0
-1587 67 0
1587 -108 1586 1585 1584 1583 0
-1603 13 0
-1604 37 0
-1605 41 0
-109 1604 1605 1603 0
-1645 3 0
-1646 5 0
-1647 103 0
-1648 33 0
-1649 65 0
-111 1647 1646 1645 1648 1649 0
-1655 5 0
-1656 7 0
-1657 99 0
-1658 37 0
-1659 43 0
-111 1658 1656 1659 1655 1657 0
-1729 19 0
-1730 35 0
-1731 67 0
-1731 49 0
-115 1731 1730 1729 0
-1758 19 0
-1766 65 0
-1767 51 0
-1768 67 0
-1769 81 0
-1770 97 0
-116 1768 1770 1769 1766 1767 0
-1771 21 0
-1772 37 0
-1773 69 0
-117 1773 1772 1771 0
-1813 3 0
-1814 5 0
-1815 17 0
-1816 33 0
-1817 65 0
-119 1813 1814 1815 1816 1817 0
-1873 25 0
-1873 97 0
-1874 41 0
-1874 81 0
73 -1875 0
-1875 49 0
1875 -121 1874 1873 0
-1898 82 0
-1900 17 0
-1901 105 0
-1902 98 0
-1903 49 0
-1903 74 0
-1904 81 0
-122 1903 1904 1902 1901 1900 0
-1915 3 0
-1916 115 0
-1917 17 0
-1918 33 0
-1919 65 0
-123 1916 1915 1917 1918 1919 0
-1930 17 0
-1931 19 0
-1932 99 0
-1933 75 0
-1934 43 0
-123 1933 1934 1931 1930 1932 0
-1975 5 0
-1976 117 0
-1977 17 0
-1978 33 0
-1979 65 0
-125 1976 1975 1977 1978 1979 0
-2035 7 0
-2035 121 0
-2036 11 0
-2036 117 0
-2037 19 0
-2037 109 0
-2038 35 0
93 -2038 0
-2039 67 0
-2039 61 0
2037 2036 2039 2038 -127 2035 0
-2040 7 0
-2040 121 0
-2041 13 0
-2041 115 0
-2042 21 0
-2042 107 0
-2043 37 0
-2043 91 0
-2044 69 0
-2044 59 0
2041 2042 2044 2040 2043 -127 0
-2045 117 0
-2046 13 0
-2046 115 0
-2047 25 0
-2047 103 0
41 -2048 0
-2048 87 0
-2049 73 0
-2049 55 0
2045 2049 2047 2048 -127 2046 0
-2050 19 0
-2050 109 0
-2051 21 0
-2051 107 0
25 -2052 0
-2052 103 0
-2053 49 0
79 -2053 0
-2054 81 0
-2054 47 0
2053 2051 2054 2052 2050 -127 0
-2055 93 0
-2056 37 0
-2056 91 0
-2057 41 0
-2057 87 0
-2058 49 0
-2058 79 0
-2059 97 0
-2059 31 0
2058 2059 2056 2055 2057 -127 0
-2060 67 0
-2060 61 0
-2061 69 0
-2061 59 0
-2062 73 0
-2062 55 0
-2063 81 0
-2063 47 0
-2064 97 0
-2064 31 0
2060 2061 2062 2064 2063 -127 0
-2079 3 0
-2080 125 0
-2081 122 0
-2082 118 0
-2083 19 0
-2084 35 0
-2085 67 0
2080 2081 2082 2083 2084 2085 -128 2079 0
-2086 5 0
-2087 123 0
-2088 7 0
-2088 122 0
-2089 116 0
-2090 21 0
-2090 108 0
-2091 92 0
-2092 69 0
-2092 60 0
2087 2088 2089 2090 2091 2092 -128 2086 0
-2093 120 0
-2094 119 0
-2095 11 0
-2095 118 0
-2096 13 0
-2096 116 0
25 -2097 0
-2097 104 0
-2098 88 0
-2099 73 0
-2099 56 0
2095 2096 2097 2098 2099 -128 2093 2094 0
-2100 17 0
-2101 18 0
-2101 111 0
-2102 19 0
-2103 21 0
108 -2103 0
-2104 104 0
-2105 49 0
-2105 80 0
-2106 81 0
-2106 48 0
2101 2102 2103 2104 2105 2106 -128 2100 0
-2107 33 0
-2108 95 0
-2109 35 0
94 -2109 0
-2110 37 0
-2110 92 0
-2111 88 0
-2112 49 0
80 -2112 0
-2113 32 0
2109 2108 2110 2111 2112 2113 -128 2107 0
-2114 65 0
-2115 63 0
-2116 67 0
-2117 69 0
-2118 56 0
-2119 48 0
-2120 32 0
2115 2116 2117 2118 2119 2120 -128 2114 0
-2265 133 0
-2266 149 0
-2267 145 0
-157 2266 2265 2267 0
-2277 134 0
-2277 153 0
-2278 138 0
-2278 149 0
-2279 146 0
-2279 141 0
-158 2277 2279 2278 0
-2306 130 0
-2307 132 0
-2307 157 0
-2308 134 0
-2308 155 0
-2309 138 0
-2309 151 0
-2310 146 0
-2310 143 0
-160 2307 2310 2308 2309 2306 0
-2343 130 0
-2344 133 0
-2345 161 0
-166 2343 2344 2345 0
-2427 134 0
-2427 169 0
-2428 138 0
-2428 165 0
-2429 162 0
-2429 141 0
-174 2427 2428 2429 0
-2459 167 0
-2529 134 0
-2529 177 0
-2530 146 0
-2530 165 0
-2531 162 0
-2531 149 0
2530 -182 2531 2529 0
-2561 146 0
-2561 167 0
-2571 149 0
-2573 145 0
-2574 146 0
-2574 167 0
-2575 166 0
-2576 149 0
-2576 164 0
-2577 136 0
2574 -184 2576 2577 2573 2575 0
-2579 162 0
-2649 141 0
-2650 149 0
-2651 153 0
-189 2651 2649 2650 0
-2661 130 0
-2662 133 0
-2663 182 0
-2664 145 0
-2665 161 0
-190 2663 2662 2661 2664 2665 0
-2691 189 0
-2692 133 0
-2693 183 0
-2694 145 0
-2695 161 0
-191 2693 2691 2692 2694 2695 0
-2763 130 0
-2764 133 0
-2765 193 0
-198 2763 2764 2765 0
-2799 130 0
-2800 194 0
-2801 193 0
-202 2800 2799 2801 0
-2847 134 0
-2847 201 0
-2848 138 0
-2848 197 0
-2849 194 0
-2849 141 0
-206 2848 2849 2847 0
-2949 134 0
-2949 209 0
-2950 146 0
-2950 197 0
-2951 194 0
-2951 149 0
-214 2950 2949 2951 0
-2989 134 0
-2996 196 0
-2997 136 0
-3002 209 0
-3002 136 0
-3015 138 0
-3015 209 0
146 -3016 0
-3016 201 0
194 -3017 0
153 -3017 0
3017 3016 3015 -218 0
-3069 141 0
-3069 209 0
-3070 149 0
-3070 201 0
-3071 197 0
-3071 153 0
-221 3071 3070 3069 0
-3081 130 0
-3082 133 0
-3083 214 0
-3084 145 0
-3085 193 0
-222 3083 3082 3081 3084 3085 0
-3101 145 0
-3102 146 0
-3103 202 0
-3104 198 0
-3105 142 0
-222 3102 3103 3105 3104 3101 0
-3111 221 0
-3112 133 0
-3113 215 0
-3114 145 0
-3115 193 0
-223 3111 3113 3112 3114 3115 0
-3207 133 0
-3208 161 0
-3209 193 0
-229 3207 3208 3209 0
-3248 130 0
-3249 229 0
-3250 134 0
-3250 227 0
-3251 162 0
-3251 199 0
-3252 194 0
-3252 167 0
3251 3252 -232 3250 3248 3249 0
-3263 161 0
-3264 162 0
-3265 198 0
-3266 165 0
-3266 196 0
-3267 136 0
3264 3266 -232 3267 3263 3265 0
-3285 225 0
-3286 162 0
-3287 194 0
-234 3286 3287 3285 0
-3339 225 0
-3340 165 0
-3340 201 0
-3341 197 0
-237 3339 3340 3341 0
-3441 145 0
-3442 161 0
-3443 193 0
-241 3441 3442 3443 0
-3453 225 0
-3454 162 0
-3454 209 0
-3455 194 0
-3455 177 0
-242 3455 3454 3453 0
-3559 133 0
-3560 241 0
-3561 149 0
-3562 165 0
-3563 197 0
-247 3563 3562 3561 3559 3560 0
-3741 134 0
-3741 249 0
-3742 138 0
-3742 245 0
-3743 146 0
-3743 237 0
-3744 162 0
-3744 221 0
-3745 194 0
-3745 189 0
3744 3741 3742 3743 3745 -254 0
-3746 134 0
-3746 249 0
-3747 141 0
-3747 242 0
-3748 149 0
-3748 234 0
-3749 165 0
-3749 218 0
-3750 197 0
-3750 186 0
3749 3750 3747 3748 3746 -254 0
-3751 138 0
-3751 245 0
-3752 141 0
-3752 242 0
-3753 153 0
-3753 230 0
-3754 169 0
-3754 214 0
-3755 201 0
-3755 182 0
3754 3753 3755 3752 3751 -254 0
-3756 146 0
-3756 237 0
-3757 149 0
-3757 234 0
-3758 153 0
230 -3758 0
-3759 177 0
-3759 206 0
-3760 209 0
-3760 174 0
3758 3759 3756 3757 3760 -254 0
-3761 162 0
-3761 221 0
165 -3762 0
218 -3762 0
-3763 169 0
-3763 214 0
-3764 177 0
-3764 206 0
-3765 225 0
-3765 158 0
3762 3761 3763 3765 3764 -254 0
-3766 194 0
-3766 189 0
-3767 186 0
-3768 201 0
182 -3768 0
-3769 209 0
-3769 174 0
-3770 225 0
-3770 158 0
3767 3770 3768 3769 3766 -254 0
-3843 161 0
-3844 162 0
-3844 223 0
-3845 222 0
-3846 165 0
-3847 216 0
-3848 208 0
-3849 160 0
3844 3845 3846 3847 3848 3849 -256 3843 0
-3850 193 0
-3851 194 0
-3851 191 0
-3852 190 0
-3853 197 0
-3853 188 0
-3854 184 0
-3855 209 0
-3855 176 0
-3856 225 0
-3856 160 0
3851 3852 3853 3854 3855 3856 -256 3850 0
-3905 260 0
-3906 262 0
-3906 267 0
-3907 266 0
-3907 263 0
-272 3907 3906 3905 0
-3917 258 0
-3918 259 0
-3919 260 0
-276 3919 3918 3917 0
-3965 258 0
-3966 265 0
-3967 266 0
-282 3967 3966 3965 0
-3989 260 0
-3989 281 0
-3990 266 0
-3990 275 0
-3991 274 0
-3991 267 0
3991 3990 3989 -284 0
-3998 274 0
-3998 267 0
-3999 275 0
-3999 266 0
-4000 281 0
-4000 260 0
3998 3999 4000 -284 0
-4037 258 0
-4038 259 0
-4039 284 0
-4040 265 0
-4041 272 0
4041 4039 -288 4037 4040 4038 0
-4043 260 0
-4044 262 0
-4047 259 0
-4048 260 0
-4049 263 0
-4049 282 0
-4050 267 0
-4050 278 0
-4051 275 0
-4051 270 0
4050 4049 4051 -288 4048 4047 0
-4057 265 0
-4058 266 0
279 -4058 0
-4059 267 0
-4060 276 0
-4061 281 0
4058 4059 4060 -288 4061 4057 0
-4115 258 0
-4116 265 0
-4117 289 0
-298 4115 4116 4117 0
260 -4139 0
-4139 297 0
-4140 266 0
-4140 291 0
290 -4141 0
267 -4141 0
4141 4139 -300 4140 0
-4163 297 0
-4164 266 0
-4165 290 0
-302 4164 4165 4163 0
-4229 259 0
-4230 291 0
-4231 289 0
-307 4230 4229 4231 0
-4241 260 0
-4242 274 0
-4242 291 0
-4243 290 0
-4243 275 0
-308 4241 4243 4242 0
-4289 258 0
-4290 259 0
-4291 308 0
-4292 296 0
-4293 289 0
-312 4291 4292 4289 4290 4293 0
-4294 258 0
-4295 260 0
-4296 262 0
-4296 307 0
-4297 295 0
-4298 290 0
-4298 279 0
-312 4295 4297 4298 4296 4294 0
-4319 265 0
-4320 297 0
-4321 289 0
-313 4320 4319 4321 0
-4331 266 0
-4331 305 0
-4332 274 0
-4332 297 0
-4333 290 0
-4333 281 0
-314 4331 4332 4333 0
-4343 267 0
-4344 297 0
-4345 291 0
-315 4343 4344 4345 0
-4355 258 0
-4356 259 0
-4357 265 0
-4358 300 0
-4359 289 0
-316 4358 4356 4357 4355 4359 0
-4365 259 0
-4366 313 0
-4367 306 0
-4368 298 0
-4369 291 0
-316 4367 4369 4366 4368 4365 0
-4397 258 0
-4398 314 0
-4399 265 0
-4400 302 0
-4401 289 0
-318 4398 4400 4399 4397 4401 0
-4427 259 0
-4428 315 0
-4429 265 0
-4430 303 0
-4431 289 0
-319 4428 4430 4429 4427 4431 0
-4487 258 0
-4488 259 0
-4489 321 0
-324 4487 4488 4489 0
-4559 260 0
-4559 329 0
-4560 266 0
-4560 323 0
-4561 322 0
267 -4561 0
-332 4560 4561 4559 0
-4649 259 0
-4650 323 0
-4651 321 0
-339 4650 4649 4651 0
-4661 260 0
-4661 337 0
-4662 274 0
-4662 323 0
-4663 322 0
-4663 275 0
-340 4661 4662 4663 0
-4709 258 0
-4710 259 0
-4711 340 0
-4712 328 0
-4713 321 0
-344 4712 4711 4709 4710 4713 0
-4714 258 0
-4715 260 0
-4716 339 0
-4717 327 0
-4718 322 0
-344 4715 4716 4718 4717 4714 0
-4751 266 0
-4752 274 0
-4752 329 0
-4753 322 0
-4753 281 0
-346 4751 4753 4752 0
-4763 267 0
-4764 329 0
-4765 323 0
-347 4763 4765 4764 0
-4817 258 0
-4818 346 0
-4819 265 0
-4820 334 0
-4821 321 0
-350 4820 4818 4819 4817 4821 0
-4847 259 0
-4848 347 0
-4849 265 0
-4850 335 0
-4851 321 0
-351 4850 4848 4849 4847 4851 0
-4919 259 0
-4920 289 0
-4921 321 0
-355 4919 4920 4921 0
-4931 260 0
-4931 353 0
-4932 290 0
-4932 323 0
-4933 322 0
-4933 291 0
-356 4931 4932 4933 0
-4955 353 0
-4956 325 0
-4957 322 0
-358 4956 4957 4955 0
-4984 258 0
-4985 260 0
-4986 355 0
-4987 327 0
-4988 322 0
-360 4987 4985 4988 4984 4986 0
-4999 289 0
-5000 327 0
-5001 291 0
-5002 324 0
-5003 264 0
-360 5000 5001 5003 5002 4999 0
266 -5021 0
353 -5021 0
-5022 290 0
-5022 329 0
-5023 322 0
-5023 297 0
5021 -362 5022 5023 0
-5026 329 0
-5033 267 0
353 -5033 0
-5034 329 0
-5035 323 0
-5035 297 0
-363 5033 5034 5035 0
-5045 258 0
-5046 259 0
-5047 265 0
-5048 289 0
-5049 321 0
-364 5045 5046 5047 5048 5049 0
-5075 353 0
-5076 329 0
-5077 325 0
-365 5075 5077 5076 0
-5113 301 0
-5152 365 0
-5153 362 0
-5154 358 0
-5155 291 0
-5156 302 0
-368 5156 5152 5155 5154 5153 0
-5162 359 0
-5163 358 0
-5164 356 0
-5165 297 0
-5166 329 0
-368 5165 5162 5164 5163 5166 0
-5167 335 0
-5168 334 0
-5169 332 0
-5170 328 0
-5171 353 0
-368 5171 5169 5167 5170 5168 0
-5201 275 0
-5201 353 0
-5202 291 0
-5203 323 0
-5203 305 0
-371 5201 5202 5203 0
-5213 258 0
-5214 259 0
-5215 356 0
-5216 289 0
-5217 321 0
-372 5215 5214 5213 5216 5217 0
-5219 260 0
-5226 291 0
-5255 258 0
-5256 370 0
-5257 358 0
-5258 289 0
-5259 321 0
-374 5256 5257 5255 5258 5259 0
-5270 358 0
-5274 294 0
-5345 281 0
353 -5345 0
-5346 297 0
-5346 337 0
-5347 329 0
-5347 305 0
-377 5346 5347 5345 0
-5357 258 0
-5358 265 0
-5359 362 0
-5360 289 0
-5361 321 0
-378 5359 5358 5357 5360 5361 0
-5378 290 0
-5379 297 0
-5417 260 0
-5417 377 0
266 -5418 0
371 -5418 0
-5419 274 0
-5419 363 0
-5420 290 0
-5420 347 0
-5421 322 0
-5421 315 0
5418 5419 5417 5420 5421 -380 0
-5422 260 0
-5422 377 0
-5423 267 0
370 -5423 0
-5424 275 0
-5424 362 0
-5425 291 0
-5425 346 0
-5426 323 0
-5426 314 0
5423 5422 5426 5425 5424 -380 0
-5427 266 0
-5427 371 0
-5428 267 0
-5428 370 0
-5429 281 0
-5429 356 0
-5430 297 0
-5430 340 0
-5431 329 0
308 -5431 0
5427 5428 5431 5429 5430 -380 0
-5432 274 0
-5432 363 0
275 -5433 0
-5433 362 0
-5434 281 0
-5434 356 0
-5435 332 0
-5436 337 0
-5436 300 0
5436 5432 5434 5433 5435 -380 0
-5437 290 0
-5437 347 0
-5438 291 0
-5438 346 0
-5439 297 0
-5439 340 0
-5440 305 0
-5440 332 0
353 -5441 0
284 -5441 0
5441 5440 5438 5437 5439 -380 0
-5442 322 0
-5442 315 0
-5443 323 0
-5443 314 0
-5444 329 0
-5444 308 0
-5445 337 0
-5445 300 0
353 -5446 0
-5446 284 0
5446 5445 5444 5442 5443 -380 0
-5447 377 0
-5448 265 0
-5449 365 0
-5450 289 0
-5451 321 0
-381 5447 5449 5448 5450 5451 0
-5466 301 0
-5472 321 0
-5473 313 0
-5474 329 0
-5475 301 0
-5476 285 0
-381 5476 5474 5475 5473 5472 0
-5544 383 0
-5545 260 0
-5546 262 0
-5547 375 0
-5548 274 0
-5549 290 0
-5549 351 0
-5550 322 0
5545 5546 5547 5548 5549 5550 -384 5544 0
-5551 382 0
-5552 260 0
-5552 381 0
-5553 263 0
-5553 378 0
-5554 267 0
374 -5554 0
-5555 275 0
-5555 366 0
-5556 350 0
-5557 323 0
-5557 318 0
5553 5552 5554 5555 5556 5557 -384 5551 0
-5565 376 0
-5566 266 0
-5566 375 0
-5567 267 0
374 -5567 0
269 -5568 0
-5568 372 0
-5569 281 0
-5569 360 0
-5570 297 0
-5570 344 0
-5571 329 0
-5571 312 0
5567 5566 5568 5569 5570 5571 -384 5565 0
-5572 368 0
-5573 274 0
-5574 366 0
-5575 364 0
-5576 281 0
-5577 305 0
-5577 336 0
-5578 304 0
5572 5573 5574 5576 5577 5578 5575 -384 0
-5579 289 0
-5580 351 0
-5581 291 0
-5581 350 0
-5582 348 0
-5583 344 0
-5584 336 0
288 -5585 0
5581 5580 5582 5583 5584 5585 -384 5579 0
-5586 321 0
-5587 322 0
-5587 319 0
-5588 323 0
-5588 318 0
-5589 316 0
-5590 329 0
-5590 312 0
-5591 337 0
-5591 304 0
353 -5592 0
288 -5592 0
5588 5587 5589 5590 5591 5592 -384 5586 0
-249 -264 0
-247 -266 0
-242 -271 0
-279 -234 0
-232 -281 0
-225 -288 0
-223 -290 0
-222 -291 0
-295 -218 0
-216 -297 0
-302 -211 0
-209 -304 0
-208 -305 0
-312 -201 0
-314 -199 0
-319 -194 0
-191 -322 0
-186 -327 0
-329 -184 0
-334 -179 0
-177 -336 0
-344 -169 0
-346 -167 0
-348 -165 0
-351 -162 0
-160 -353 0
-360 -153 0
-151 -362 0
-367 -146 0
-143 -370 0
-375 -138 0
-136 -377 0
-215 -297 -2 0
-303 -209 -2 0
-189 -323 -2 0
-335 -177 -2 0
-359 -153 -2 0
-363 -149 -2 0
-141 -371 -2 0
-4 -249 -261 0
-6 -377 -131 0
-378 -7 0
-249 -8 0
-225 -8 -281 0
-8 -209 -297 0
-305 -8 -201 0
-177 -329 -8 0
-337 -169 -8 0
-8 -153 -353 0
-377 -8 0
-242 -11 -261 0
-294 -11 -209 0
-11 -326 -177 0
-11 -146 -357 0
-11 -374 0
-12 -149 -353 0
-13 -244 0
-227 -274 -13 0
-13 -211 -290 0
-13 -305 -196 0
-179 -13 -322 0
-337 -164 -13 0
-13 -148 -353 0
-14 -371 0
-18 -169 -327 0
-225 -270 -19 0
-294 -201 -19 0
-301 -19 -194 0
-326 -169 -19 0
-333 -162 -19 0
-142 -19 -353 0
-138 -19 -357 0
-366 -19 0
-237 -20 0
-197 -297 -20 0
-329 -20 -165 0
-141 -20 -353 0
-365 -20 0
-227 -21 -266 0
-329 -164 -21 0
-225 -22 -267 0
-291 -22 -201 0
-169 -22 -323 0
-363 -22 0
-25 -232 0
-225 -25 -264 0
-199 -25 -290 0
-295 -25 -194 0
-322 -25 -167 0
-162 -327 -25 0
-136 -25 -353 0
-360 -25 0
-32 -225 0
-32 -353 0
-209 -35 -270 0
-278 -35 -201 0
-285 -35 -194 0
-326 -35 -153 0
-333 -35 -146 0
-350 -35 0
-221 -36 0
-197 -36 -281 0
-325 -36 -153 0
-329 -149 -36 0
-141 -337 -36 0
-211 -266 -37 0
-281 -37 -196 0
-329 -37 -148 0
-348 -37 0
-209 -267 -38 0
-275 -201 -38 0
-323 -38 -153 0
-347 -38 0
-216 -41 0
-151 -41 -322 0
-337 -136 -41 0
-43 -214 0
-48 -209 0
-208 -49 0
-49 -201 -264 0
-199 -266 -49 0
-49 -271 -194 0
-327 -138 -49 0
-336 -49 0
-197 -50 -267 0
-141 -323 -50 0
-335 -50 0
-201 -56 0
-329 -56 0
-326 -59 0
-61 -196 0
-66 -177 -271 0
-177 -270 -67 0
-278 -169 -67 0
-282 -67 -165 0
-67 -301 -146 0
-318 -67 0
-189 -68 0
-269 -177 -68 0
-281 -68 -165 0
-149 -68 -297 0
-141 -305 -68 0
-188 -69 0
-179 -69 -266 0
-164 -69 -281 0
-155 -69 -290 0
-69 -297 -148 0
-316 -69 0
-177 -70 -267 0
-70 -169 -275 0
-153 -291 -70 0
-315 -70 0
-184 -73 0
-262 -179 -73 0
-177 -73 -264 0
-274 -73 -167 0
-151 -73 -290 0
-295 -73 -146 0
-136 -73 -305 0
-312 -73 0
-74 -275 -165 0
-75 -182 0
-306 -79 0
-177 -80 0
-305 -80 0
-176 -81 0
-169 -81 -264 0
-266 -81 -167 0
-162 -81 -271 0
-295 -138 -81 0
-136 -81 -297 0
-81 -304 0
-267 -82 -165 0
-141 -291 -82 0
-303 -82 0
-84 -169 -261 0
-169 -88 0
-88 -297 0
-91 -294 0
-92 -165 0
-164 -93 0
-94 -291 0
-95 -162 0
-160 -97 0
-97 -264 -153 0
-97 -266 -151 0
-97 -279 -138 0
-97 -136 -281 0
-97 -288 0
-98 -149 -267 0
-98 -141 -275 0
-104 -153 0
-281 -104 0
-107 -146 -261 0
-278 -107 0
-108 -149 0
-109 -148 0
-111 -146 0
-115 -138 -261 0
-115 -270 0
-116 -141 0
-118 -267 0
-136 -121 0
-132 -121 -261 0
-262 -121 -131 0
-121 -264 0
-263 -122 0
-3 0
-5 0
-17 0
-33 0
-65 0
2 0
127 0
-245 -267 0
-237 -275 0
-221 -291 0
-315 -197 0
-183 -329 0
-347 -165 0
-383 0
-245 -260 0
-275 -230 0
-291 -214 0
-296 -209 0
-308 -197 0
-323 -182 0
-328 -177 0
-340 -165 0
-356 -149 0
-134 -371 0
-376 0
-117 118 0
-118 117 0
116 -115 0
-116 115 0
-103 104 0
103 -104 0
98 -97 0
-98 97 0
-87 88 0
-88 87 0
82 -81 0
-82 81 0
-69 70 0
68 -67 0
-68 67 0
-55 56 0
55 -56 0
50 -49 0
-50 49 0
-37 38 0
37 -38 0
36 -35 0
-36 35 0
22 -21 0
20 -19 0
-20 19 0
-7 8 0
7 -8 0
-130 0
-133 0
-145 0
-161 0
-193 0
131 0
254 0
-117 -266 0
-109 -274 0
-93 -290 0
-86 -297 0
-302 -81 0
-314 -69 0
-322 -61 0
-334 -49 0
-37 -346 0
-358 -25 0
-21 -362 0
-13 -370 0
-382 0
-120 0
-117 -260 0
-274 -103 0
-87 -290 0
-308 -69 0
-322 -55 0
-328 -49 0
-340 -37 0
-356 -21 0
-358 -19 0
-370 -7 0
-245 247 0
244 -242 0
-244 242 0
232 -230 0
227 -225 0
-227 225 0
-214 216 0
214 -216 0
-209 211 0
-197 199 0
-199 197 0
196 -194 0
-196 194 0
-182 184 0
-184 182 0
179 -177 0
167 -165 0
165 -167 0
-162 164 0
-164 162 0
-149 151 0
-151 149 0
148 -146 0
-134 136 0
-136 134 0
-258 0
-259 0
-265 0
-289 0
-321 0
261 0
380 0
-91 -162 0
-186 -67 0
-59 -194 0
-35 -218 0
-234 -19 0
-134 -107 0
-138 -103 0
-162 -79 0
-72 -169 0
-174 -67 0
-47 -194 0
-206 -35 0
-11 -230 0
-234 -7 0
-363 367 0
-362 366 0
-366 362 0
-356 360 0
357 -353 0
-332 336 0
-336 332 0
-329 333 0
327 -323 0
-327 323 0
326 -322 0
-300 304 0
300 -304 0
-297 301 0
-301 297 0
-291 295 0
-295 291 0
294 -290 0
271 -267 0
270 -266 0
-270 266 0
264 -260 0
