p cnf 5592 1179
128 0
256 0
384 0
-553 7 0
-554 11 0
-554 21 0
-555 19 0
-555 13 0
-31 555 554 553 0
-655 3 0
-656 35 0
-657 33 0
-43 656 655 657 0
-703 7 0
-703 41 0
-704 11 0
-704 37 0
-705 35 0
-705 13 0
-47 705 704 703 0
-730 5 0
-731 43 0
-732 7 0
-733 36 0
-734 12 0
-48 734 730 732 733 731 0
-805 7 0
-806 19 0
-806 37 0
-807 35 0
807 806 -55 805 0
-817 55 0
-818 3 0
-819 5 0
-820 40 0
-821 33 0
-56 820 818 819 817 821 0
-871 11 0
-872 19 0
-873 35 0
873 872 871 -59 0
-1075 3 0
-1076 67 0
-1077 65 0
-75 1076 1075 1077 0
-1123 7 0
-1123 73 0
-1124 11 0
-1124 69 0
-1125 67 0
13 -1125 0
-79 1125 1124 1123 0
-1150 5 0
-1151 75 0
-1152 7 0
-1153 68 0
-1154 12 0
-80 1154 1150 1152 1151 1153 0
-1177 3 0
-1178 67 0
-1179 65 0
-83 1178 1177 1179 0
-1225 7 0
-1226 69 0
-1227 67 0
-87 1225 1226 1227 0
-1252 5 0
-1253 83 0
-1254 7 0
-1255 68 0
-1256 69 0
-88 1254 1252 1256 1255 1253 0
-1291 11 0
-1292 19 0
-1292 73 0
-1293 67 0
-1293 25 0
-91 1291 1292 1293 0
-1447 3 0
-1448 33 0
-1449 65 0
-99 1447 1448 1449 0
-1495 97 0
-1496 35 0
-1496 69 0
-1497 67 0
-1497 37 0
-103 1497 1496 1495 0
-1537 97 0
-1538 33 0
-1539 65 0
-105 1537 1538 1539 0
-1561 11 0
-1561 97 0
-1562 35 0
-1562 73 0
-1563 67 0
41 -1563 0
-107 1563 1562 1561 0
-1583 3 0
-1584 105 0
-1585 98 0
-1586 35 0
-1587 67 0
-108 1586 1583 1585 1587 1584 0
-1603 13 0
-1604 73 0
-1605 41 0
-109 1603 1604 1605 0
-1645 3 0
-1646 5 0
-1647 103 0
-1648 33 0
-1649 65 0
-111 1647 1646 1645 1648 1649 0
-1680 4 0
-1681 7 0
-1682 102 0
-1683 35 0
-1684 67 0
-112 1680 1684 1683 1681 1682 0
-1705 97 0
-1706 33 0
-1707 65 0
-113 1705 1706 1707 0
-1729 97 0
-1730 35 0
-1731 67 0
-115 1730 1731 1729 0
-1746 115 0
-1747 113 0
-1748 99 0
-1749 83 0
-1750 51 0
-116 1750 1746 1748 1749 1747 0
-1771 97 0
-1772 37 0
-1773 69 0
-117 1772 1773 1771 0
-1813 3 0
-1814 5 0
-1815 103 0
-1816 33 0
-1817 65 0
-119 1815 1814 1813 1816 1817 0
-2035 7 0
-2035 121 0
-2036 11 0
-2036 117 0
-2037 19 0
-2037 109 0
-2038 35 0
-2038 93 0
-2039 67 0
-2039 61 0
2037 2038 -127 2039 2036 2035 0
-2040 7 0
-2040 121 0
13 -2041 0
-2041 115 0
21 -2042 0
-2042 107 0
37 -2043 0
-2043 91 0
-2044 69 0
-2044 59 0
2042 2043 -127 2044 2041 2040 0
-2045 11 0
-2045 117 0
13 -2046 0
-2046 115 0
25 -2047 0
-2047 103 0
41 -2048 0
-2048 87 0
-2049 73 0
-2049 55 0
2045 2046 -127 2049 2047 2048 0
-2050 19 0
-2050 109 0
-2051 21 0
-2051 107 0
-2052 103 0
-2053 79 0
-2054 81 0
47 -2054 0
2050 2051 -127 2053 2054 2052 0
-2055 35 0
-2055 93 0
-2056 37 0
-2056 91 0
-2057 41 0
-2057 87 0
49 -2058 0
-2058 79 0
-2059 97 0
-2059 31 0
2055 2056 -127 2057 2058 2059 0
67 -2060 0
61 -2060 0
-2061 69 0
-2061 59 0
-2062 73 0
-2062 55 0
-2063 81 0
-2063 47 0
-2064 97 0
-2064 31 0
2060 2061 -127 2062 2064 2063 0
-2084 35 0
-2093 120 0
-2094 119 0
-2095 11 0
116 -2096 0
-2097 104 0
-2098 41 0
-2098 88 0
-2099 73 0
-2099 56 0
2094 2095 2096 2097 2098 2099 -128 2093 0
-2100 112 0
-2101 111 0
-2102 110 0
-2103 108 0
-2104 104 0
-2105 80 0
-2106 48 0
2101 2100 2102 2103 2104 2105 2106 -128 0
-2114 65 0
-2115 63 0
-2116 67 0
-2117 69 0
-2118 56 0
-2119 48 0
-2120 32 0
2116 2115 2117 2118 2119 2120 -128 2114 0
-2193 130 0
-2194 133 0
-2195 145 0
-150 2193 2194 2195 0
-2277 134 0
-2278 138 0
-2278 149 0
-2279 146 0
-158 2277 2278 2279 0
-2481 130 0
-2482 145 0
-2483 146 0
-178 2483 2482 2481 0
-2529 134 0
-2530 146 0
-2531 162 0
-2531 149 0
2531 2529 -182 2530 0
-2553 130 0
-2554 182 0
-2555 133 0
-2556 145 0
-2557 152 0
-184 2554 2553 2555 2556 2557 0
-2561 146 0
-2562 162 0
-2568 133 0
-2569 134 0
-2570 178 0
-2571 164 0
-2572 148 0
-184 2571 2568 2569 2570 2572 0
-2574 146 0
-2799 130 0
-2800 194 0
-2801 193 0
-202 2800 2799 2801 0
-2847 134 0
-2847 201 0
-2848 138 0
-2848 197 0
-2849 194 0
-2849 141 0
-206 2849 2847 2848 0
-2886 133 0
-2887 134 0
-2888 202 0
-2889 196 0
-2890 197 0
-208 2888 2886 2890 2887 2889 0
-2901 130 0
-2902 145 0
-2903 193 0
-210 2901 2902 2903 0
-2937 133 0
-2938 145 0
-2939 193 0
-213 2937 2938 2939 0
-2949 209 0
-2950 146 0
-2950 197 0
149 -2951 0
-214 2951 2949 2950 0
-2978 130 0
-2979 213 0
-2980 134 0
-2980 211 0
-2981 146 0
-2981 199 0
-2982 151 0
-216 2981 2978 2979 2982 2980 0
-2989 211 0
-2998 193 0
-2999 194 0
-2999 151 0
-3000 150 0
-3001 197 0
-3001 148 0
-3002 209 0
-3002 136 0
-216 2999 2998 3000 3002 3001 0
-3015 209 0
-3016 146 0
-3017 194 0
-3017 153 0
-218 3016 3015 3017 0
141 -3069 0
-3069 209 0
-3070 201 0
-3071 153 0
3071 -221 3069 3070 0
-3081 130 0
-3082 133 0
-3083 214 0
-3084 145 0
-3085 193 0
-222 3083 3082 3081 3084 3085 0
-3166 159 0
-3167 195 0
-3168 197 0
-3169 152 0
-3170 144 0
-224 3167 3168 3170 3169 3166 0
-3171 130 0
-3172 194 0
-3173 193 0
-226 3172 3171 3173 0
-3219 134 0
-3219 225 0
-3220 162 0
-3220 197 0
-3221 194 0
-3221 165 0
-230 3221 3219 3220 0
-3222 134 0
-3223 165 0
-3223 194 0
-3224 197 0
-230 3222 3224 3223 0
-3243 130 0
-3244 230 0
-3245 133 0
-3246 200 0
-3247 193 0
-232 3244 3243 3245 3246 3247 0
-3257 166 0
-3258 133 0
-3259 134 0
-3260 226 0
-3261 196 0
-3262 197 0
-232 3260 3258 3262 3261 3259 0
-3285 225 0
-3286 162 0
-3287 194 0
-234 3286 3287 3285 0
-3361 133 0
-3362 134 0
-3363 226 0
-3364 202 0
-3365 197 0
-238 3364 3361 3365 3362 3363 0
-3453 146 0
-3453 225 0
-3454 162 0
-3454 209 0
-3455 194 0
-242 3455 3453 3454 0
-3507 149 0
-3507 225 0
-3508 165 0
-3508 209 0
-3509 197 0
-245 3509 3507 3508 0
-3519 130 0
-3520 133 0
-3521 145 0
-3522 214 0
-3523 193 0
-246 3522 3520 3521 3519 3523 0
-3529 133 0
-3530 241 0
-3531 226 0
-3532 210 0
-3533 178 0
-246 3533 3529 3531 3532 3530 0
-3609 225 0
-3610 209 0
-3611 201 0
-249 3611 3609 3610 0
134 -3741 0
-3741 249 0
-3742 138 0
-3742 245 0
146 -3743 0
237 -3743 0
162 -3744 0
221 -3744 0
-3745 194 0
-3745 189 0
3743 3744 -254 3741 3745 3742 0
-3746 134 0
-3746 249 0
-3747 141 0
-3747 242 0
149 -3748 0
-3748 234 0
-3749 165 0
-3749 218 0
-3750 197 0
-3750 186 0
3749 3747 -254 3746 3750 3748 0
-3751 138 0
-3751 245 0
-3752 141 0
-3752 242 0
-3753 153 0
-3753 230 0
169 -3754 0
-3754 214 0
-3755 182 0
3753 3754 -254 3751 3752 3755 0
-3756 146 0
-3756 237 0
-3757 234 0
-3758 153 0
-3758 230 0
-3759 177 0
-3759 206 0
-3760 209 0
-3760 174 0
3756 3758 -254 3760 3759 3757 0
-3761 162 0
-3761 221 0
-3762 218 0
-3763 214 0
-3764 177 0
-3764 206 0
-3765 225 0
-3765 158 0
3761 3763 -254 3765 3764 3762 0
194 -3766 0
189 -3766 0
-3767 197 0
186 -3767 0
-3768 201 0
182 -3768 0
-3769 209 0
174 -3769 0
-3770 225 0
-3770 158 0
3766 3767 -254 3770 3769 3768 0
-3829 248 0
-3830 138 0
-3830 247 0
-3831 246 0
-3832 141 0
-3832 244 0
-3833 153 0
-3834 216 0
-3835 184 0
3831 3830 3832 3833 3834 3835 -256 3829 0
-3836 240 0
-3837 146 0
-3838 238 0
-3839 236 0
-3840 232 0
-3841 208 0
-3842 176 0
3838 3837 3839 3840 3841 3842 -256 3836 0
-3843 224 0
-3844 162 0
-3845 222 0
-3847 216 0
-3850 193 0
-3851 194 0
-3852 195 0
-3853 197 0
-3854 184 0
-3855 176 0
-3856 225 0
3851 3852 3853 3854 3855 3856 -256 3850 0
-3869 258 0
-3870 259 0
-3871 260 0
-268 3871 3870 3869 0
-3881 258 0
-3882 266 0
262 -3883 0
3883 3882 3881 -270 0
-3917 258 0
-3918 259 0
-3919 273 0
-276 3917 3918 3919 0
-3965 258 0
-3966 274 0
-3967 273 0
-282 3966 3965 3967 0
-3989 260 0
-3989 281 0
-3990 266 0
-3990 275 0
-3991 274 0
-3991 267 0
3990 3991 -284 3989 0
-4037 258 0
-4038 259 0
284 -4039 0
-4040 280 0
-4041 273 0
4039 4040 4038 4037 -288 4041 0
-4042 258 0
-4043 260 0
-4044 262 0
283 -4044 0
-4045 266 0
-4046 274 0
271 -4046 0
4044 4045 4042 -288 4046 4043 0
-4047 259 0
-4048 260 0
-4048 285 0
-4049 263 0
-4049 282 0
-4050 278 0
-4051 275 0
270 -4051 0
4051 4050 4047 4048 -288 4049 0
-4062 273 0
-4063 274 0
-4063 271 0
-4064 275 0
-4064 270 0
-4065 277 0
-4065 268 0
-4066 264 0
4064 4063 4062 -288 4065 4066 0
-4115 258 0
-4116 290 0
-4117 289 0
-298 4116 4115 4117 0
297 -4139 0
-4140 266 0
-4140 291 0
-4141 290 0
-4141 267 0
4141 4139 -300 4140 0
-4187 258 0
-4188 259 0
-4189 300 0
296 -4190 0
-4191 289 0
4190 4189 4188 4187 -304 4191 0
-4197 259 0
-4198 260 0
-4199 263 0
-4200 294 0
-4201 291 0
4199 4200 4197 -304 4201 4198 0
-4217 258 0
-4218 273 0
-4219 289 0
-306 4217 4218 4219 0
-4229 259 0
-4230 273 0
-4231 289 0
-307 4229 4230 4231 0
-4241 260 0
-4242 274 0
-4242 291 0
-4243 290 0
-4243 275 0
4243 4242 -308 4241 0
-4265 262 0
-4266 274 0
-4267 290 0
-310 4267 4266 4265 0
-4294 258 0
-4295 260 0
-4295 309 0
-4296 307 0
-4297 274 0
-4297 295 0
-4298 290 0
-4298 279 0
4298 4297 4294 4296 -312 4295 0
-4299 259 0
-4300 260 0
-4301 306 0
-4302 294 0
-4303 291 0
4302 4300 4299 4301 -312 4303 0
-4319 305 0
-4320 273 0
-4321 289 0
-313 4319 4320 4321 0
-4343 267 0
-4343 305 0
297 -4344 0
-4345 291 0
4344 -315 4345 4343 0
-4360 258 0
-4361 260 0
-4361 313 0
-4362 307 0
-4363 274 0
-4364 290 0
-316 4364 4360 4362 4363 4361 0
-4402 258 0
-4403 313 0
-4404 266 0
-4404 309 0
-4405 301 0
-4406 290 0
-4406 285 0
-318 4405 4402 4403 4406 4404 0
-4462 317 0
-4463 263 0
-4464 310 0
-4465 275 0
-4465 302 0
-4466 291 0
-4466 286 0
-320 4465 4463 4464 4462 4466 0
-4487 258 0
-4488 259 0
-4489 260 0
-324 4489 4488 4487 0
-4511 259 0
-4512 323 0
-4513 263 0
-327 4513 4511 4512 0
-4523 260 0
-4524 262 0
-4525 263 0
-328 4523 4525 4524 0
-4559 260 0
-4560 266 0
-4560 323 0
-4561 322 0
-4561 267 0
-332 4559 4561 4560 0
-4612 258 0
-4613 260 0
-4614 331 0
-4615 327 0
-4616 271 0
-336 4614 4612 4615 4616 4613 0
-4627 328 0
-4628 266 0
-4629 267 0
-4630 324 0
-4631 264 0
-336 4629 4627 4630 4628 4631 0
-4637 258 0
-4638 273 0
-4639 274 0
-338 4639 4638 4637 0
-4649 259 0
-4650 273 0
-4651 275 0
-339 4651 4650 4649 0
-4661 260 0
-4662 274 0
-4663 322 0
-4663 275 0
-340 4661 4663 4662 0
-4724 340 0
-4725 262 0
-4725 339 0
-4726 263 0
-4726 338 0
-4727 324 0
-4728 276 0
-344 4725 4726 4724 4727 4728 0
-4729 273 0
-4730 274 0
-4731 275 0
-4732 324 0
-4733 264 0
-344 4731 4729 4733 4732 4730 0
-4734 280 0
-4735 279 0
-4736 278 0
-4737 276 0
-4738 264 0
-344 4738 4735 4734 4737 4736 0
-4763 267 0
-4764 275 0
-4765 281 0
4764 4763 4765 -347 0
-4790 340 0
-4791 266 0
-4791 339 0
-4792 338 0
-4793 324 0
-4794 276 0
-348 4791 4790 4792 4793 4794 0
-4842 286 0
-4843 322 0
-4844 282 0
-4845 278 0
-4846 270 0
-350 4846 4843 4842 4845 4844 0
-4907 258 0
-4908 289 0
-4909 290 0
-354 4909 4908 4907 0
-4931 260 0
-4932 290 0
-4932 323 0
-4933 291 0
-356 4931 4932 4933 0
-4989 259 0
-4990 260 0
-4991 263 0
-4991 354 0
-4992 291 0
-4993 323 0
-4993 294 0
-360 4991 4989 4992 4993 4990 0
-5006 294 0
-5033 267 0
-5034 291 0
-5035 297 0
-363 5033 5035 5034 0
-5065 289 0
-5066 331 0
-5067 291 0
-5068 324 0
-5069 268 0
-364 5066 5065 5067 5068 5069 0
-5137 289 0
-5138 291 0
-5139 331 0
-5140 327 0
-5141 271 0
-367 5141 5137 5139 5138 5140 0
-5177 273 0
-5178 289 0
-5179 305 0
-369 5179 5178 5177 0
-5218 258 0
-5219 260 0
-5220 274 0
-5221 290 0
-5222 307 0
-372 5221 5218 5220 5219 5222 0
-5223 259 0
-5224 260 0
-5225 275 0
-5225 354 0
-5226 291 0
-5226 338 0
-5227 306 0
-372 5225 5223 5224 5226 5227 0
-5255 258 0
-5256 370 0
-5257 273 0
-5258 289 0
-5259 310 0
-374 5256 5255 5257 5258 5259 0
-5265 370 0
-5266 369 0
-5267 354 0
-5268 338 0
-5269 306 0
-374 5267 5265 5266 5268 5269 0
-5283 294 0
-5284 278 0
-5385 298 0
-5386 282 0
-5417 260 0
-5417 377 0
-5418 266 0
-5418 371 0
-5419 274 0
-5419 363 0
290 -5420 0
347 -5420 0
-5421 322 0
-5421 315 0
5420 5417 -380 5421 5418 5419 0
-5422 260 0
-5422 377 0
-5423 267 0
-5423 370 0
-5424 275 0
-5424 362 0
-5425 291 0
-5425 346 0
-5426 323 0
5423 5426 -380 5425 5422 5424 0
-5427 266 0
-5427 371 0
267 -5428 0
370 -5428 0
-5429 281 0
-5429 356 0
-5430 297 0
-5430 340 0
-5431 308 0
5428 5430 -380 5431 5429 5427 0
-5432 274 0
-5432 363 0
-5433 362 0
-5434 356 0
-5435 305 0
-5435 332 0
337 -5436 0
-5436 300 0
5433 5432 -380 5436 5435 5434 0
-5437 290 0
-5437 347 0
-5438 291 0
-5438 346 0
-5439 297 0
-5439 340 0
-5440 305 0
-5440 332 0
353 -5441 0
-5441 284 0
5441 5440 -380 5438 5437 5439 0
-5442 315 0
-5443 314 0
-5444 308 0
337 -5445 0
-5445 300 0
353 -5446 0
284 -5446 0
5446 5445 -380 5444 5442 5443 0
-5472 317 0
-5473 313 0
-5474 309 0
-5475 301 0
-5476 285 0
-381 5472 5473 5476 5475 5474 0
-5551 382 0
-5552 260 0
-5552 381 0
-5553 263 0
-5554 374 0
-5555 275 0
-5555 366 0
-5556 291 0
-5556 350 0
-5557 323 0
-5557 318 0
5552 5553 5554 5555 5556 5557 -384 5551 0
-5565 376 0
-5566 266 0
-5566 375 0
-5567 267 0
-5567 374 0
-5568 372 0
-5569 281 0
360 -5569 0
-5570 297 0
-5570 344 0
-5571 312 0
5566 5567 5568 5569 5570 5571 -384 5565 0
-5572 368 0
-5573 367 0
-5574 275 0
-5574 366 0
-5575 364 0
-5576 360 0
-5577 336 0
-5578 304 0
5573 5574 5575 5576 5577 5578 -384 5572 0
-5579 352 0
-5580 290 0
-5580 351 0
-5581 291 0
-5581 350 0
-5582 348 0
-5583 344 0
-5584 305 0
-5584 336 0
353 -5585 0
-5585 288 0
5581 5580 5582 5583 5584 5585 -384 5579 0
-5586 320 0
-5587 322 0
-5587 319 0
-5588 323 0
-5588 318 0
-5589 316 0
-5590 312 0
-5591 304 0
353 -5592 0
-5592 288 0
5587 5586 5588 5589 5590 5591 5592 -384 0
-264 -249 0
-247 -266 0
-271 -242 0
-238 -275 0
-234 -279 0
-225 -288 0
-295 -218 0
-297 -216 0
-302 -211 0
-209 -304 0
-201 -312 0
-314 -199 0
-317 -196 0
-319 -194 0
-324 -189 0
-331 -182 0
-336 -177 0
-176 -337 0
-339 -174 0
-344 -169 0
-166 -347 0
-351 -162 0
-151 -362 0
-375 -138 0
-377 -136 0
-275 -237 -2 0
-165 -347 -2 0
-159 -353 -2 0
-363 -149 -2 0
-371 -141 -2 0
-8 -249 0
-225 -281 -8 0
-153 -8 -353 0
-377 -8 0
-225 -278 -11 0
-294 -209 -11 0
-309 -11 -194 0
-374 -11 0
-12 -245 0
-244 -13 0
-241 -13 -260 0
-13 -211 -290 0
-13 -305 -196 0
-339 -13 -162 0
-13 -148 -353 0
-225 -270 -19 0
-19 -294 -201 0
-301 -19 -194 0
-366 -19 0
-236 -21 0
-25 -136 -353 0
-226 -31 0
-354 -31 0
-32 -353 0
-35 -209 -270 0
-278 -35 -201 0
-35 -285 -194 0
-350 -35 0
-36 -221 0
-141 -36 -337 0
-266 -211 -37 0
-348 -37 0
-267 -209 -38 0
-38 -275 -201 0
-153 -323 -38 0
-38 -347 0
-216 -41 0
-274 -41 -199 0
-277 -41 -196 0
-195 -278 -41 0
-41 -279 -194 0
-41 -337 -136 0
-344 -41 0
-338 -47 0
-48 -209 0
-264 -49 -201 0
-266 -49 -199 0
-324 -141 -49 0
-336 -49 0
-51 -206 0
-56 -201 0
-196 -61 0
-322 -61 -131 0
-324 -61 0
-63 -194 0
-169 -278 -67 0
-285 -162 -67 0
-153 -294 -67 0
-318 -67 0
-189 -68 0
-149 -297 -68 0
-317 -68 0
-283 -69 -162 0
-153 -291 -70 0
-315 -70 0
-184 -73 0
-177 -264 -73 0
-279 -73 -162 0
-151 -290 -73 0
-305 -136 -73 0
-73 -312 0
-176 -81 0
-169 -81 -264 0
-271 -81 -162 0
-295 -138 -81 0
-297 -81 -136 0
-81 -304 0
-91 -162 -261 0
-91 -294 0
-164 -93 0
-97 -153 -264 0
-151 -97 -266 0
-97 -138 -279 0
-97 -281 -136 0
-97 -288 0
-98 -149 -267 0
-153 -104 0
-281 -104 0
-278 -107 0
-109 -148 0
-274 -109 -131 0
-110 -275 0
-115 -270 0
-116 -141 0
-121 -136 0
-121 -264 0
-3 0
-5 0
-33 0
-65 0
2 0
127 0
-267 -245 0
-291 -221 0
-315 -197 0
-323 -189 0
-248 0
-245 -260 0
-263 -242 0
-230 -275 0
-280 -225 0
-291 -214 0
-197 -308 0
-323 -182 0
-340 -165 0
-152 -353 0
-149 -356 0
-371 -134 0
-376 0
-240 0
-260 -237 0
-230 -267 0
-291 -206 0
-201 -296 0
-300 -197 0
-323 -174 0
-165 -332 0
-144 -353 0
-363 -134 0
-368 0
104 -103 0
-104 103 0
98 -97 0
-98 97 0
70 -69 0
68 -67 0
-68 67 0
-37 38 0
37 -38 0
-35 36 0
-36 35 0
-7 8 0
-130 0
-133 0
-145 0
-193 0
131 0
254 0
-121 -262 0
-266 -117 0
-93 -290 0
-314 -69 0
-346 -37 0
-362 -21 0
-370 -13 0
-382 0
-120 0
-260 -117 0
-262 -115 0
-274 -103 0
-102 -275 0
-87 -290 0
-69 -308 0
-310 -67 0
-322 -55 0
-340 -37 0
-356 -21 0
-370 -7 0
-93 -260 0
-91 -262 0
-87 -266 0
-274 -79 0
-280 -73 0
-69 -284 0
-286 -67 0
-31 -322 0
-332 -21 0
-340 -13 0
-346 -7 0
-352 0
216 -214 0
-216 214 0
211 -209 0
-211 209 0
199 -197 0
196 -194 0
-196 194 0
-149 151 0
-151 149 0
148 -146 0
-148 146 0
136 -134 0
-136 134 0
-258 0
-259 0
-273 0
-289 0
261 0
380 0
-138 -115 0
-107 -146 0
-186 -67 0
-59 -194 0
-218 -35 0
-234 -19 0
-242 -11 0
-134 -115 0
-103 -146 0
-152 -97 0
-87 -162 0
-182 -67 0
-55 -194 0
-200 -49 0
-40 -209 0
-35 -214 0
-230 -19 0
-242 -7 0
-4 -245 0
-59 -134 0
-138 -55 0
-47 -146 0
-152 -41 0
-158 -35 0
-31 -162 0
-19 -174 0
-11 -182 0
-7 -186 0
-308 312 0
308 -312 0
309 -305 0
-309 305 0
-291 295 0
-295 291 0
294 -290 0
-294 290 0
279 -275 0
-274 278 0
-278 274 0
-260 264 0
-264 260 0
