p cnf 5592 944
128 0
256 0
384 0
-421 3 0
-422 5 0
-423 7 0
-15 423 422 421 0
-553 7 0
-553 25 0
11 -554 0
21 -554 0
-555 19 0
-555 13 0
554 555 -31 553 0
-679 5 0
-680 37 0
-681 33 0
-45 680 679 681 0
-703 7 0
-704 11 0
-705 13 0
704 703 -47 705 0
-725 3 0
-726 45 0
-727 7 0
-728 38 0
-729 35 0
-48 727 725 726 729 728 0
-805 7 0
-806 19 0
-807 21 0
806 -55 805 807 0
-914 41 0
-915 25 0
-1039 3 0
-1040 5 0
-1041 65 0
-71 1039 1040 1041 0
-1051 69 0
-1052 6 0
-1052 67 0
-1053 7 0
-72 1051 1053 1052 0
-1075 3 0
-1076 67 0
-1077 65 0
-75 1076 1075 1077 0
-1099 5 0
-1100 69 0
-1101 65 0
-77 1100 1099 1101 0
-1123 7 0
-1124 11 0
-1124 69 0
-1125 67 0
-1125 13 0
-79 1124 1123 1125 0
-1135 79 0
-1136 3 0
-1137 5 0
-1138 72 0
-1139 65 0
-80 1138 1136 1137 1135 1139 0
-1140 79 0
-1141 77 0
-1142 6 0
-1143 71 0
-1144 15 0
-80 1141 1144 1142 1143 1140 0
-1177 3 0
-1178 67 0
-1179 65 0
-83 1178 1177 1179 0
-1189 81 0
-1190 18 0
-1190 67 0
-1191 66 0
-84 1191 1189 1190 0
-1225 7 0
19 -1226 0
-1226 69 0
-1227 67 0
-1227 21 0
1225 1226 -87 1227 0
-1237 87 0
-1238 3 0
-1239 5 0
-1240 72 0
-1241 65 0
-88 1240 1238 1239 1237 1241 0
-1303 91 0
-1304 3 0
-1305 84 0
-1306 76 0
-1307 65 0
1303 -92 1304 1306 1305 1307 0
-1385 5 0
-1386 7 0
-1387 83 0
-1388 75 0
-1389 69 0
-95 1389 1385 1387 1386 1388 0
-1471 5 0
-1472 33 0
-1473 65 0
-101 1471 1472 1473 0
-1517 3 0
-1518 101 0
-1519 7 0
-1520 35 0
-1521 67 0
-104 1519 1517 1518 1521 1520 0
-1640 65 0
-1641 45 0
-1642 69 0
-1643 38 0
-1644 14 0
-110 1644 1640 1642 1643 1641 0
-1645 3 0
-1646 5 0
-1647 103 0
-1648 33 0
-1649 65 0
-111 1647 1646 1645 1648 1649 0
-1650 3 0
-1651 7 0
-1652 101 0
-1653 35 0
-1654 67 0
-111 1651 1650 1652 1654 1653 0
-1818 3 0
-1819 7 0
-1820 101 0
-1821 35 0
-1822 67 0
-119 1819 1818 1820 1822 1821 0
-2035 7 0
-2035 121 0
-2036 11 0
-2036 117 0
19 -2037 0
-2037 109 0
-2038 35 0
-2038 93 0
-2039 67 0
-2039 61 0
2037 2038 -127 2039 2035 2036 0
-2040 7 0
-2040 121 0
-2041 115 0
-2042 107 0
-2043 37 0
69 -2044 0
2044 2043 -127 2042 2040 2041 0
-2045 11 0
-2045 117 0
-2046 13 0
-2046 115 0
-2047 25 0
-2047 103 0
-2048 41 0
-2048 87 0
-2049 73 0
-2049 55 0
2045 2048 -127 2049 2047 2046 0
-2050 109 0
-2051 107 0
-2052 25 0
-2052 103 0
-2053 79 0
-2054 47 0
2052 2051 -127 2054 2050 2053 0
-2055 93 0
91 -2056 0
-2057 87 0
-2058 79 0
-2059 97 0
31 -2059 0
2056 2055 -127 2059 2058 2057 0
-2060 67 0
-2060 61 0
69 -2061 0
59 -2061 0
-2062 73 0
-2062 55 0
47 -2063 0
-2064 97 0
31 -2064 0
2061 2060 -127 2063 2064 2062 0
-2093 120 0
-2094 119 0
-2095 118 0
-2096 13 0
-2097 104 0
-2098 88 0
-2099 56 0
2094 2095 2096 2097 2098 2099 -128 2093 0
-2100 112 0
-2101 111 0
110 -2102 0
-2103 21 0
-2103 108 0
-2104 104 0
-2105 80 0
-2106 48 0
2101 2102 2103 2104 2105 2106 -128 2100 0
-2107 33 0
-2108 34 0
-2108 95 0
-2109 35 0
-2109 94 0
-2110 37 0
-2110 92 0
-2111 88 0
-2112 80 0
-2113 32 0
2108 2109 2110 2111 2112 2113 -128 2107 0
-2120 32 0
-2193 130 0
-2194 133 0
-2195 134 0
-150 2195 2194 2193 0
-2205 149 0
-2206 133 0
-2207 135 0
-151 2207 2206 2205 0
-2277 134 0
-2278 138 0
-2278 149 0
-2279 146 0
141 -2279 0
2279 2277 -158 2278 0
-2517 133 0
-2518 165 0
-2519 161 0
-181 2518 2517 2519 0
-2529 134 0
-2529 177 0
-2530 146 0
-2530 165 0
-2531 162 0
-182 2529 2530 2531 0
-2558 130 0
-2559 132 0
-2559 181 0
-2560 134 0
-2560 179 0
-2561 146 0
-2561 167 0
-2562 162 0
-2562 151 0
-184 2562 2558 2559 2560 2561 0
-2578 161 0
-2579 162 0
-2579 151 0
-2580 150 0
-2581 165 0
-2581 148 0
-2582 177 0
-2582 136 0
-184 2579 2578 2581 2582 2580 0
-2901 130 0
-2902 194 0
-2903 193 0
-210 2902 2901 2903 0
-2937 133 0
-2938 197 0
-2939 193 0
-213 2938 2937 2939 0
-2958 194 0
-2958 149 0
-2959 197 0
-2959 146 0
-2960 134 0
2958 -214 2960 2959 0
-2978 130 0
-2979 132 0
-2979 213 0
-2980 134 0
211 -2980 0
-2981 146 0
-2981 199 0
-2982 151 0
2982 2980 2978 2979 2981 -216 0
-2989 134 0
-2990 210 0
-2991 196 0
-2998 193 0
-2999 194 0
-2999 151 0
-3000 150 0
-3001 197 0
-3001 148 0
-3002 209 0
-3002 136 0
3002 3001 2998 2999 -216 3000 0
-3207 133 0
-3208 161 0
-3209 193 0
-229 3207 3208 3209 0
-3219 134 0
-3220 162 0
-3221 194 0
-230 3220 3219 3221 0
-3285 138 0
-3286 162 0
-3287 194 0
-234 3285 3287 3286 0
-3309 130 0
-3310 234 0
-3311 228 0
-3312 161 0
-3313 193 0
-236 3310 3309 3311 3312 3313 0
-3441 225 0
-3442 161 0
-3443 193 0
-241 3441 3442 3443 0
-3453 146 0
-3453 225 0
-3454 162 0
-3455 194 0
-242 3455 3453 3454 0
-3477 130 0
-3478 242 0
-3479 228 0
-3480 161 0
-3481 193 0
-244 3479 3477 3478 3480 3481 0
-3507 149 0
-3508 165 0
-3509 197 0
-3509 177 0
3509 -245 3508 3507 0
-3519 130 0
-3520 133 0
-3521 230 0
-3522 161 0
-3523 193 0
-246 3521 3520 3519 3522 3523 0
-3554 245 0
-3555 135 0
-3556 229 0
-3557 213 0
-3558 181 0
3555 -247 3557 3556 3554 3558 0
-3559 133 0
-3560 135 0
-3560 241 0
-3561 149 0
-3561 227 0
-3562 165 0
-3562 211 0
-3563 197 0
179 -3563 0
3563 3561 3559 3562 -247 3560 0
-3609 225 0
-3621 130 0
-3622 242 0
-3623 234 0
-3624 161 0
-3625 193 0
-250 3623 3621 3622 3624 3625 0
-3741 134 0
-3741 249 0
-3742 138 0
-3742 245 0
-3743 146 0
-3743 237 0
-3744 162 0
-3745 194 0
-3745 189 0
3745 3744 -254 3741 3743 3742 0
-3746 134 0
-3746 249 0
141 -3747 0
-3747 242 0
-3748 149 0
-3748 234 0
-3749 165 0
-3749 218 0
-3750 197 0
-3750 186 0
3749 3746 -254 3750 3748 3747 0
138 -3751 0
-3751 245 0
-3752 242 0
-3753 230 0
169 -3754 0
-3754 214 0
-3755 201 0
-3755 182 0
3755 3751 -254 3754 3753 3752 0
-3756 146 0
-3756 237 0
-3757 234 0
-3758 230 0
-3759 177 0
-3759 206 0
209 -3760 0
-3760 174 0
3760 3756 -254 3759 3757 3758 0
-3761 162 0
-3761 221 0
218 -3762 0
-3763 214 0
-3764 206 0
225 -3765 0
158 -3765 0
3762 3764 -254 3765 3761 3763 0
-3766 189 0
-3767 186 0
-3768 201 0
-3768 182 0
-3769 174 0
225 -3770 0
-3770 158 0
3766 3767 -254 3770 3768 3769 0
-3822 133 0
-3823 134 0
135 -3824 0
-3824 250 0
-3825 244 0
-3826 236 0
-3827 165 0
-3828 197 0
-3828 188 0
3824 3823 3825 3826 3827 3828 -256 3822 0
-3829 248 0
-3830 138 0
247 -3830 0
-3831 246 0
-3832 141 0
-3832 244 0
-3833 232 0
169 -3834 0
-3834 216 0
-3835 201 0
-3835 184 0
3831 3830 3832 3833 3834 3835 -256 3829 0
-3869 258 0
-3870 259 0
-3871 260 0
-268 3871 3870 3869 0
-3881 258 0
-3882 266 0
262 -3883 0
3883 -270 3881 3882 0
-3917 258 0
-3918 259 0
-3919 260 0
-276 3919 3918 3917 0
-3989 260 0
-3990 266 0
-3991 267 0
-284 3991 3990 3989 0
-4067 258 0
-4068 259 0
-4069 289 0
-292 4067 4068 4069 0
-4115 258 0
-4116 290 0
-4117 289 0
-298 4116 4115 4117 0
-4139 260 0
-4140 266 0
-4140 291 0
-4141 290 0
-4141 267 0
-300 4139 4140 4141 0
-4197 259 0
-4198 260 0
-4199 263 0
-4199 298 0
-4200 294 0
-4201 291 0
-4201 270 0
-304 4198 4197 4201 4200 4199 0
-4212 289 0
-4213 290 0
-4213 271 0
-4214 291 0
270 -4214 0
-4215 268 0
-4216 264 0
-304 4216 4212 4214 4215 4213 0
-4217 258 0
-4218 290 0
-4219 289 0
-306 4218 4217 4219 0
-4241 260 0
-4242 274 0
-4242 291 0
-4243 290 0
-308 4243 4242 4241 0
-4299 259 0
-4300 260 0
-4301 306 0
-4302 294 0
-4303 291 0
-312 4300 4299 4303 4302 4301 0
-4314 289 0
-4315 290 0
279 -4315 0
-4316 291 0
-4316 278 0
-4317 276 0
-4318 264 0
4318 -312 4314 4315 4316 4317 0
-4331 266 0
274 -4332 0
-4333 290 0
-4333 281 0
4332 -314 4333 4331 0
-4343 267 0
-4344 275 0
-4345 291 0
4344 4343 -315 4345 0
-4487 258 0
-4488 259 0
-4489 321 0
-324 4487 4488 4489 0
-4535 258 0
-4536 322 0
-4537 321 0
-330 4536 4535 4537 0
-4559 260 0
-4560 266 0
-4560 323 0
-4561 322 0
-4561 267 0
4559 4560 -332 4561 0
-4617 259 0
-4618 260 0
-4619 330 0
-4620 326 0
-4621 270 0
-336 4618 4617 4620 4619 4621 0
-4632 321 0
-4633 322 0
-4633 271 0
-4634 323 0
270 -4634 0
-4635 268 0
-4636 264 0
-336 4636 4632 4633 4634 4635 0
-4649 259 0
-4650 323 0
-4651 321 0
-339 4650 4649 4651 0
-4661 260 0
-4662 323 0
-4663 322 0
-340 4662 4661 4663 0
-4724 340 0
-4725 339 0
-4726 263 0
-4726 338 0
-4727 324 0
-4728 276 0
-344 4725 4728 4726 4727 4724 0
-4734 321 0
-4735 322 0
279 -4735 0
-4736 323 0
-4736 278 0
-4737 276 0
-4738 264 0
-344 4738 4734 4735 4737 4736 0
-4751 266 0
274 -4752 0
-4753 322 0
4752 -346 4753 4751 0
-5004 321 0
-5005 322 0
-5006 294 0
-5007 292 0
-5008 264 0
-360 5006 5004 5005 5007 5008 0
-5045 258 0
-5046 259 0
-5047 356 0
-5048 289 0
-5049 321 0
-364 5047 5046 5045 5048 5049 0
-5087 258 0
-5088 362 0
-5089 358 0
-5090 289 0
-5091 321 0
-366 5089 5087 5088 5090 5091 0
-5117 259 0
-5118 363 0
-5119 359 0
-5120 289 0
-5121 321 0
-367 5119 5117 5118 5120 5121 0
-5189 274 0
-5189 353 0
-5190 290 0
-5191 322 0
-370 5189 5190 5191 0
-5213 258 0
-5214 259 0
-5215 356 0
-5216 289 0
-5217 321 0
-372 5215 5214 5213 5216 5217 0
260 -5417 0
377 -5417 0
-5418 266 0
-5418 371 0
-5419 274 0
-5419 363 0
-5420 290 0
-5420 347 0
-5421 322 0
-5421 315 0
5417 5419 -380 5421 5420 5418 0
-5422 260 0
-5422 377 0
-5423 267 0
-5423 370 0
-5424 275 0
-5424 362 0
-5425 291 0
-5425 346 0
323 -5426 0
-5426 314 0
5423 5422 -380 5425 5426 5424 0
-5427 266 0
-5427 371 0
-5428 267 0
-5428 370 0
-5429 281 0
-5429 356 0
-5430 297 0
-5430 340 0
-5431 329 0
-5431 308 0
5430 5427 -380 5431 5429 5428 0
-5432 363 0
-5433 275 0
-5433 362 0
-5434 281 0
-5434 356 0
-5435 332 0
-5436 300 0
5435 5432 -380 5436 5433 5434 0
-5437 290 0
-5437 347 0
-5438 346 0
-5439 340 0
332 -5440 0
353 -5441 0
-5441 284 0
5440 5438 -380 5441 5439 5437 0
-5442 322 0
-5442 315 0
-5443 323 0
-5443 314 0
-5444 308 0
-5445 337 0
-5445 300 0
353 -5446 0
5446 5443 -380 5442 5445 5444 0
-5544 383 0
-5545 260 0
-5546 262 0
-5547 266 0
-5547 375 0
-5548 367 0
-5549 290 0
-5550 322 0
5545 5546 5547 5548 5549 5550 -384 5544 0
-5565 376 0
-5566 266 0
-5566 375 0
-5567 374 0
-5568 372 0
-5569 360 0
297 -5570 0
-5570 344 0
329 -5571 0
312 -5571 0
5567 5566 5568 5569 5570 5571 -384 5565 0
-5572 368 0
-5573 274 0
-5573 367 0
-5574 366 0
-5575 364 0
-5576 281 0
-5576 360 0
305 -5577 0
336 -5577 0
337 -5578 0
-5578 304 0
5574 5573 5575 5576 5577 5578 -384 5572 0
-249 -264 0
-247 -266 0
-271 -242 0
-234 -279 0
-295 -218 0
-216 -297 0
-213 -300 0
-304 -209 0
-201 -312 0
-314 -199 0
-186 -327 0
-184 -329 0
-336 -177 0
-344 -169 0
-346 -167 0
-151 -362 0
-367 -146 0
-375 -138 0
-377 -136 0
-263 -249 -2 0
-267 -245 -2 0
-275 -237 -2 0
-189 -323 -2 0
-347 -165 -2 0
-149 -363 -2 0
-371 -141 -2 0
-6 -281 -227 0
-249 -8 0
-281 -225 -8 0
-377 -8 0
-246 -11 0
-278 -11 -225 0
-213 -290 -11 0
-209 -294 -11 0
-177 -11 -326 0
-338 -165 -11 0
-150 -11 -353 0
-11 -146 -357 0
-374 -11 0
-244 -13 0
-13 -274 -227 0
-211 -13 -290 0
-305 -13 -196 0
-179 -13 -322 0
-13 -337 -164 0
-148 -13 -353 0
-14 -209 -291 0
-18 -271 -225 0
-270 -19 -225 0
-294 -201 -19 0
-169 -19 -326 0
-19 -138 -357 0
-366 -19 0
-266 -227 -21 0
-329 -21 -164 0
-232 -25 0
-25 -262 -227 0
-25 -225 -264 0
-25 -290 -199 0
-25 -167 -322 0
-360 -25 0
-32 -225 0
-32 -353 0
-34 -201 -279 0
-221 -36 0
-148 -329 -37 0
-346 -37 -131 0
-347 -38 0
-41 -216 0
-41 -209 -264 0
-41 -327 -146 0
-48 -209 0
-48 -337 0
-56 -201 0
-56 -329 0
-326 -59 0
-61 -196 0
-61 -322 -131 0
-66 -271 -177 0
-189 -68 0
-149 -297 -68 0
-188 -69 0
-315 -70 0
-184 -73 0
-151 -290 -73 0
-150 -73 -291 0
-73 -312 0
-80 -177 0
-80 -305 0
-81 -304 0
-294 -91 0
-92 -165 0
-93 -164 0
-94 -291 0
-95 -162 0
-95 -290 0
-151 -266 -97 0
-150 -267 -97 0
-271 -146 -97 0
-279 -138 -97 0
-281 -97 -136 0
-267 -149 -98 0
-281 -135 -98 0
-108 -149 0
-148 -109 0
-275 -110 0
-270 -115 0
-118 -267 0
-121 -136 0
-121 -132 -261 0
-121 -262 -131 0
-121 -264 0
-3 0
-5 0
-33 0
-65 0
2 0
127 0
-221 -291 0
-197 -315 0
-383 0
-248 0
-245 -260 0
-242 -263 0
-214 -291 0
-308 -197 0
-182 -323 0
-340 -165 0
-370 -135 0
-371 -134 0
-376 0
-237 -260 0
-234 -263 0
-206 -291 0
-300 -197 0
-174 -323 0
-165 -332 0
-356 -141 0
-359 -138 0
-135 -362 0
-363 -134 0
-368 0
-103 104 0
-104 103 0
98 -97 0
70 -69 0
68 -67 0
38 -37 0
-38 37 0
36 -35 0
8 -7 0
-130 0
-133 0
-161 0
-193 0
131 0
254 0
-117 -266 0
-109 -274 0
-93 -290 0
-314 -69 0
-358 -25 0
-362 -21 0
-13 -370 0
-120 0
-117 -260 0
-290 -87 0
-72 -305 0
-308 -69 0
-55 -322 0
-340 -37 0
-356 -21 0
-370 -7 0
-112 0
-109 -260 0
-103 -266 0
-79 -290 0
-72 -297 0
-300 -69 0
-322 -47 0
-332 -37 0
-356 -13 0
-358 -11 0
-362 -7 0
-230 232 0
-232 230 0
227 -225 0
-227 225 0
199 -197 0
-199 197 0
196 -194 0
-196 194 0
167 -165 0
-167 165 0
164 -162 0
136 -134 0
-136 134 0
-258 0
-259 0
-289 0
-321 0
261 0
380 0
-115 -138 0
-107 -146 0
-91 -162 0
-76 -177 0
-186 -67 0
-59 -194 0
-218 -35 0
-228 -25 0
-234 -19 0
-242 -11 0
-132 -117 0
-115 -134 0
-103 -146 0
-87 -162 0
-72 -177 0
-182 -67 0
-55 -194 0
-214 -35 0
-228 -21 0
-230 -19 0
-242 -7 0
-132 -109 0
-107 -134 0
-103 -138 0
-79 -162 0
-72 -169 0
-174 -67 0
-47 -194 0
-206 -35 0
-228 -13 0
-230 -11 0
-234 -7 0
-356 360 0
-360 356 0
357 -353 0
327 -323 0
-322 326 0
-326 322 0
-291 295 0
-290 294 0
-294 290 0
264 -260 0
-264 260 0
