p cnf 5592 358
128 0
11 -397 0
-398 3 0
-399 4 0
397 -12 398 399 0
-421 3 0
-422 5 0
-423 7 0
-15 423 422 421 0
-575 3 0
-576 4 0
-577 7 0
11 -578 0
-579 19 0
578 -32 575 576 577 579 0
-580 5 0
-581 6 0
-582 7 0
-583 20 0
-584 12 0
-32 584 580 581 582 583 0
-730 5 0
-731 6 0
-732 7 0
13 -733 0
36 -733 0
37 -734 0
-734 12 0
733 734 730 731 732 -48 0
-740 33 0
-741 15 0
14 -742 0
-743 12 0
-744 8 0
742 743 740 741 -48 744 0
-757 3 0
-758 17 0
-759 33 0
-51 757 758 759 0
-781 5 0
-782 17 0
-783 33 0
-53 781 782 783 0
-827 3 0
-828 53 0
-829 7 0
-830 19 0
22 -831 0
-56 830 827 828 829 831 0
-832 5 0
-833 51 0
-834 7 0
21 -835 0
-835 36 0
-836 20 0
-56 836 832 833 834 835 0
-955 3 0
-956 5 0
-957 55 0
-958 17 0
-959 33 0
-63 957 956 955 958 959 0
-963 19 0
-1075 3 0
-1076 67 0
-1077 65 0
-75 1076 1075 1077 0
-1099 5 0
-1100 69 0
-1101 65 0
-77 1100 1099 1101 0
-1145 3 0
-1146 4 0
-1147 7 0
-1148 70 0
-1149 67 0
-80 1147 1145 1146 1148 1149 0
-1313 3 0
-1314 4 0
11 -1315 0
-1316 19 0
-1317 67 0
1315 1316 1313 1314 -92 1317 0
-1323 17 0
-1324 75 0
-1325 19 0
-1326 68 0
-1327 12 0
1325 -92 1323 1327 1326 1324 0
-1447 3 0
-1448 33 0
-1449 65 0
-99 1447 1448 1449 0
-1471 5 0
-1472 33 0
-1473 65 0
-101 1471 1472 1473 0
-1517 3 0
-1518 101 0
-1519 7 0
-1520 70 0
-1521 67 0
-104 1519 1517 1518 1520 1521 0
-1593 33 0
-1594 75 0
-1595 35 0
-1596 68 0
-1597 12 0
1597 -108 1593 1594 1596 1595 0
-1650 3 0
-1651 7 0
-1652 101 0
-1653 77 0
-1654 67 0
-111 1651 1650 1652 1653 1654 0
-1756 17 0
-1757 99 0
19 -1758 0
-1759 68 0
-1760 36 0
1758 -116 1756 1757 1759 1760 0
-2040 7 0
-2041 115 0
-2042 21 0
-2042 107 0
-2043 91 0
-2044 69 0
2041 2042 -127 2040 2043 2044 0
61 -2060 0
-2061 59 0
-2062 55 0
-2063 47 0
-2064 31 0
2060 2061 -127 2063 2062 2064 0
-2086 5 0
-2087 6 0
-2088 7 0
13 -2089 0
116 -2089 0
-2090 21 0
-2090 108 0
-2091 37 0
92 -2091 0
-2092 69 0
2088 2087 2089 2090 2091 2092 -128 2086 0
-2100 17 0
-2101 111 0
19 -2102 0
-2103 21 0
-2103 108 0
-2104 104 0
-2105 80 0
-2106 48 0
2101 2102 2103 2104 2105 2106 -128 2100 0
-2114 65 0
-2115 63 0
-2116 67 0
-2117 69 0
-2118 56 0
-2119 48 0
-2120 32 0
2115 2116 2117 2118 2119 2120 -128 2114 0
-2280 134 0
-2281 141 0
-2282 149 0
-2282 138 0
2280 2282 -158 2281 0
-2430 134 0
-2431 141 0
-2432 165 0
-2432 138 0
-174 2430 2431 2432 0
-2529 134 0
-2530 165 0
-2531 149 0
-182 2531 2529 2530 0
-3741 249 0
-3742 245 0
-3743 237 0
-3744 221 0
-3745 194 0
3744 3742 -254 3741 3743 3745 0
-3746 249 0
-3747 242 0
-3748 234 0
-3749 218 0
-3750 186 0
3749 3746 -254 3750 3748 3747 0
-3751 245 0
-3752 242 0
-3753 230 0
-3754 214 0
-3755 182 0
3754 3752 -254 3751 3755 3753 0
-3756 237 0
149 -3757 0
-3757 234 0
-3758 230 0
-3759 206 0
-3760 209 0
-3760 174 0
3758 3757 -254 3756 3760 3759 0
-3761 221 0
-3762 218 0
-3763 214 0
-3764 206 0
-3765 158 0
3764 3761 -254 3765 3762 3763 0
-3766 194 0
-3767 186 0
-3768 182 0
-3769 209 0
-3769 174 0
-3770 158 0
3766 3770 -254 3769 3768 3767 0
-4661 337 0
-4662 323 0
-4663 322 0
-340 4662 4661 4663 0
-5417 377 0
-5418 371 0
-5419 363 0
-5420 347 0
-5421 322 0
5420 5419 -380 5417 5418 5421 0
-5422 377 0
-5423 370 0
-5424 362 0
-5425 346 0
323 -5426 0
5426 5423 -380 5422 5425 5424 0
-5427 371 0
-5428 370 0
-5429 356 0
-5430 340 0
-5431 329 0
5430 5428 -380 5427 5429 5431 0
-5432 363 0
-5433 362 0
-5434 356 0
-5435 332 0
-5436 337 0
5435 5436 -380 5433 5432 5434 0
-5437 347 0
-5438 346 0
-5439 340 0
-5440 332 0
-5441 353 0
5440 5439 -380 5441 5438 5437 0
-5442 322 0
323 -5443 0
-5443 314 0
-5444 329 0
-5444 308 0
-5445 337 0
-5445 300 0
353 -5446 0
-5446 284 0
5446 5445 -380 5442 5443 5444 0
-327 -186 0
-249 -8 0
-377 -8 0
-245 -12 0
-165 -12 -337 0
-12 -149 -353 0
-371 -14 0
-237 -20 0
-141 -353 -20 0
-363 -22 0
-221 -36 0
-329 -36 -149 0
-141 -337 -36 0
-347 -38 0
-209 -48 0
-337 -48 0
-59 -326 0
-196 -61 0
-165 -92 0
-108 -149 0
-138 -115 -261 0
-141 -116 0
-3 0
-5 0
-17 0
-33 0
-65 0
127 0
-182 -323 0
-356 -149 0
115 -116 0
-70 69 0
-68 67 0
-55 56 0
38 -37 0
37 -38 0
-35 36 0
35 -36 0
22 -21 0
20 -19 0
-20 19 0
8 -7 0
-8 7 0
254 0
-69 -314 0
-322 -61 0
-346 -37 0
-362 -21 0
-370 -13 0
-377 -6 0
-308 -69 0
-55 -322 0
-340 -37 0
-356 -21 0
-370 -7 0
-371 -6 0
-300 -69 0
-47 -322 0
-332 -37 0
-362 -7 0
-363 -6 0
-284 -69 0
-31 -322 0
-332 -21 0
-340 -13 0
-346 -7 0
-347 -6 0
196 -194 0
261 0
380 0
-186 -67 0
-59 -194 0
-218 -35 0
-234 -19 0
-242 -11 0
-249 -4 0
-134 -115 0
-182 -67 0
-55 -194 0
-214 -35 0
-230 -19 0
-242 -7 0
-245 -4 0
-107 -134 0
-174 -67 0
-47 -194 0
-206 -35 0
-230 -11 0
-234 -7 0
-237 -4 0
-91 -134 0
-158 -67 0
-31 -194 0
-206 -19 0
-214 -11 0
-218 -7 0
-221 -4 0
327 -323 0
326 -322 0
