p cnf 5592 1428
128 0
256 0
384 0
-421 3 0
-422 5 0
-423 7 0
-15 423 422 421 0
-505 3 0
-506 19 0
-507 17 0
-27 506 505 507 0
-529 5 0
-530 21 0
-531 17 0
-29 530 529 531 0
-553 7 0
-553 25 0
-554 11 0
-554 21 0
-555 19 0
-555 13 0
-31 555 554 553 0
-575 3 0
-576 4 0
-576 29 0
-577 7 0
-577 26 0
-578 22 0
-579 19 0
-32 577 578 576 579 575 0
-679 5 0
-680 37 0
-681 33 0
-45 680 679 681 0
-703 7 0
-704 11 0
-704 37 0
-705 35 0
-705 13 0
703 -47 704 705 0
-715 47 0
-716 3 0
-717 5 0
-718 40 0
-719 33 0
-48 718 715 717 716 719 0
-757 3 0
-758 17 0
-759 33 0
-51 757 758 759 0
-781 5 0
-782 17 0
-783 33 0
-53 781 782 783 0
-805 7 0
-805 49 0
-806 19 0
-806 37 0
-807 35 0
-807 21 0
-55 805 807 806 0
-827 3 0
-828 53 0
-829 7 0
-829 50 0
-830 19 0
-830 38 0
-831 22 0
-56 829 831 830 827 828 0
-832 5 0
-833 51 0
-834 7 0
-834 50 0
-835 21 0
-835 36 0
-836 37 0
-836 20 0
-56 834 835 836 832 833 0
-840 21 0
11 -871 0
49 -871 0
-874 11 0
-875 25 0
-876 19 0
876 874 -59 875 0
-883 59 0
-884 3 0
-885 52 0
-886 17 0
-887 33 0
-60 885 883 884 886 887 0
-913 13 0
-913 49 0
-914 21 0
-915 37 0
-915 25 0
-61 914 915 913 0
-925 61 0
-926 5 0
-927 54 0
-928 17 0
-929 33 0
-62 927 925 926 928 929 0
-935 5 0
-936 6 0
-937 50 0
-938 21 0
-939 26 0
-62 936 938 937 939 935 0
-946 45 0
-947 21 0
-948 38 0
-955 3 0
-956 5 0
-957 55 0
-958 17 0
-959 33 0
-63 957 956 955 958 959 0
-976 19 0
-977 21 0
-1039 3 0
-1040 5 0
-1041 65 0
-71 1039 1040 1041 0
-1099 5 0
-1100 69 0
-1101 65 0
-77 1100 1099 1101 0
-1123 7 0
-1124 11 0
-1124 69 0
-1125 67 0
-1125 13 0
1123 -79 1125 1124 0
-1140 79 0
-1141 77 0
-1142 6 0
-1143 71 0
-1144 15 0
-80 1142 1141 1140 1144 1143 0
-1160 65 0
-1161 15 0
-1162 67 0
-1163 69 0
-1163 12 0
-1164 8 0
-80 1164 1162 1163 1161 1160 0
-1177 3 0
-1178 17 0
-1179 65 0
-83 1177 1178 1179 0
-1201 5 0
-1202 17 0
-1203 65 0
-85 1201 1202 1203 0
7 -1225 0
-1226 19 0
-1226 69 0
-1227 67 0
-1227 21 0
1225 1227 -87 1226 0
-1247 3 0
-1248 85 0
-1249 7 0
82 -1249 0
-1250 19 0
-1250 70 0
-1251 67 0
-1251 22 0
1249 1251 -88 1250 1247 1248 0
-1252 5 0
-1253 83 0
-1254 7 0
-1255 21 0
-1256 69 0
1254 -88 1256 1255 1252 1253 0
-1333 13 0
-1333 81 0
-1334 21 0
69 -1335 0
-1335 25 0
-93 1334 1335 1333 0
-1345 93 0
-1346 5 0
-1347 86 0
-1348 17 0
-1349 65 0
-94 1347 1345 1346 1348 1349 0
-1375 3 0
-1376 5 0
-1377 87 0
-1378 17 0
-1379 65 0
-95 1377 1376 1375 1378 1379 0
-1385 5 0
-1386 7 0
-1387 83 0
-1388 21 0
-1388 75 0
-1389 69 0
-1389 27 0
-95 1386 1388 1389 1385 1387 0
-1447 3 0
-1448 33 0
-1449 65 0
-99 1447 1448 1449 0
-1483 97 0
-1484 69 0
-1485 37 0
-102 1483 1484 1485 0
-1495 7 0
-1495 97 0
-1496 35 0
-1496 69 0
-1497 37 0
1497 1495 1496 -103 0
-1561 11 0
-1562 35 0
-1563 67 0
-107 1562 1561 1563 0
-1588 100 0
-1589 99 0
-1590 11 0
-1591 68 0
-1592 36 0
-108 1592 1590 1591 1588 1589 0
-1603 13 0
-1603 97 0
-1604 37 0
-1605 69 0
-109 1605 1604 1603 0
-1615 109 0
-1616 5 0
-1617 102 0
-1618 33 0
-1619 65 0
-110 1615 1617 1616 1618 1619 0
-1645 3 0
-1646 5 0
-1647 103 0
-1648 33 0
-1649 65 0
-111 1647 1646 1645 1648 1649 0
-1729 19 0
-1729 97 0
-1730 35 0
-1730 81 0
-1731 67 0
-1731 49 0
1730 -115 1729 1731 0
-1771 21 0
-1772 37 0
-1772 81 0
-1773 69 0
-1773 49 0
-117 1773 1772 1771 0
-1813 3 0
-1814 5 0
-1815 17 0
-1816 33 0
-1817 65 0
-119 1813 1814 1815 1816 1817 0
-1915 3 0
-1916 115 0
-1917 17 0
-1918 33 0
-1919 65 0
-123 1916 1915 1917 1918 1919 0
-1975 5 0
-1976 117 0
-1977 17 0
-1978 33 0
-1979 65 0
-125 1976 1975 1977 1978 1979 0
-2035 7 0
-2035 121 0
-2036 117 0
-2037 19 0
-2037 109 0
-2038 35 0
93 -2038 0
-2039 67 0
-2039 61 0
2038 2035 2039 2037 2036 -127 0
7 -2040 0
-2040 121 0
13 -2041 0
115 -2041 0
-2042 21 0
-2042 107 0
-2043 37 0
-2043 91 0
69 -2044 0
-2044 59 0
2043 2042 2044 2041 2040 -127 0
-2045 117 0
-2046 13 0
-2046 115 0
-2047 103 0
-2048 87 0
73 -2049 0
-2049 55 0
2048 2045 2049 2047 2046 -127 0
-2050 19 0
-2050 109 0
-2051 21 0
-2051 107 0
-2052 25 0
103 -2052 0
-2053 49 0
-2053 79 0
81 -2054 0
-2054 47 0
2051 2052 2054 2053 2050 -127 0
-2055 93 0
-2056 37 0
-2056 91 0
-2057 87 0
-2058 49 0
-2058 79 0
-2059 97 0
-2059 31 0
2057 2056 2059 2055 2058 -127 0
-2060 67 0
-2060 61 0
-2061 69 0
-2061 59 0
73 -2062 0
-2062 55 0
-2063 47 0
-2064 97 0
-2064 31 0
2060 2061 2064 2063 2062 -127 0
-2079 3 0
-2080 4 0
-2080 125 0
-2081 7 0
-2082 118 0
-2083 19 0
-2083 110 0
-2084 35 0
-2084 94 0
-2085 67 0
-2085 62 0
2080 2081 2082 2083 2084 2085 -128 2079 0
-2086 5 0
-2087 123 0
-2088 7 0
-2089 116 0
-2090 21 0
-2091 92 0
-2092 69 0
2087 2088 2089 2090 2091 2092 -128 2086 0
-2093 120 0
-2094 119 0
-2095 11 0
-2095 118 0
-2096 13 0
-2096 116 0
-2097 104 0
-2098 88 0
-2099 56 0
2095 2096 2097 2098 2099 -128 2093 2094 0
-2100 17 0
-2101 111 0
-2102 19 0
-2102 110 0
-2103 21 0
-2103 108 0
-2104 104 0
-2105 49 0
-2106 81 0
-2106 48 0
2101 2102 2103 2104 2105 2106 -128 2100 0
-2107 33 0
-2108 95 0
-2109 35 0
-2109 94 0
-2110 37 0
-2110 92 0
-2111 88 0
-2112 49 0
-2112 80 0
-2113 32 0
2108 2109 2110 2111 2112 2113 -128 2107 0
-2114 65 0
-2115 63 0
-2116 67 0
-2116 62 0
-2117 69 0
-2117 60 0
-2118 56 0
-2119 81 0
-2119 48 0
-2120 97 0
-2120 32 0
2115 2116 2117 2118 2119 2120 -128 2114 0
-2145 130 0
-2146 133 0
-2147 134 0
-142 2147 2146 2145 0
-2193 130 0
-2194 133 0
-2195 134 0
-150 2195 2194 2193 0
-2231 138 0
-2267 141 0
-2277 134 0
-2315 142 0
-2367 132 0
-2368 134 0
-2427 134 0
-2427 169 0
-2428 138 0
-2428 165 0
-2429 162 0
-2429 141 0
-174 2427 2428 2429 0
-2476 161 0
-2477 162 0
-2478 142 0
-2479 140 0
-2480 136 0
-176 2479 2477 2480 2478 2476 0
-2481 130 0
-2482 162 0
-2483 161 0
-178 2482 2481 2483 0
-2517 133 0
-2518 165 0
-2519 161 0
-181 2518 2517 2519 0
-2529 134 0
-2529 177 0
-2530 146 0
-2530 165 0
-2531 162 0
-2531 149 0
2530 2529 -182 2531 0
-2554 182 0
-2558 130 0
-2559 181 0
-2560 134 0
-2561 167 0
-2562 151 0
-184 2562 2560 2559 2561 2558 0
-2568 133 0
-2569 134 0
-2570 178 0
-2571 149 0
-2571 164 0
-2572 165 0
-2572 148 0
-184 2572 2571 2569 2570 2568 0
-2579 151 0
-2595 138 0
-2596 169 0
-2597 162 0
2597 -186 2596 2595 0
-2619 130 0
-2620 186 0
-2621 180 0
-2622 172 0
-2623 161 0
2621 -188 2620 2622 2619 2623 0
-2649 141 0
-2649 177 0
-2650 169 0
-2651 165 0
2651 -189 2649 2650 0
-2763 130 0
-2764 133 0
-2765 193 0
-198 2763 2764 2765 0
-2799 130 0
-2800 194 0
-2801 193 0
-202 2800 2799 2801 0
-2835 133 0
-2836 197 0
-2837 193 0
-205 2836 2835 2837 0
-2847 134 0
-2847 201 0
-2848 138 0
-2848 197 0
-2849 194 0
-2849 141 0
2847 -206 2848 2849 0
-2880 194 0
-2881 206 0
-2882 132 0
-2883 202 0
-2884 198 0
-2885 142 0
-208 2882 2883 2885 2881 2884 0
-2886 133 0
-2887 134 0
-2888 202 0
-2889 196 0
-2890 197 0
-2890 140 0
-208 2890 2887 2889 2888 2886 0
-2901 130 0
-2902 194 0
-2903 193 0
-210 2902 2901 2903 0
-2937 133 0
-2938 197 0
-2939 193 0
-213 2938 2937 2939 0
-2949 134 0
-2988 133 0
-2989 134 0
-2989 211 0
-2990 135 0
-2990 210 0
-2991 149 0
-2991 196 0
-2992 148 0
-216 2992 2989 2991 2990 2988 0
-2998 193 0
-2999 194 0
-2999 151 0
-3000 150 0
-3001 197 0
-3001 148 0
-3002 136 0
-216 3001 3000 2999 3002 2998 0
-3015 138 0
-3016 146 0
-3017 194 0
3016 -218 3015 3017 0
-3040 218 0
-3101 206 0
-3102 205 0
-3103 202 0
-3104 198 0
-3105 142 0
-222 3101 3102 3105 3103 3104 0
-3171 130 0
-3172 161 0
-3173 193 0
-226 3171 3172 3173 0
-3207 133 0
-3208 161 0
-3209 193 0
-229 3207 3208 3209 0
-3221 194 0
-3248 130 0
-3249 229 0
-3250 134 0
-3251 162 0
-3252 194 0
3250 3251 3252 -232 3248 3249 0
-3258 133 0
-3259 134 0
-3260 226 0
165 -3261 0
-3261 196 0
-3262 197 0
-3262 164 0
3259 3262 3261 -232 3258 3260 0
-3273 225 0
-3274 161 0
-3275 193 0
-233 3273 3274 3275 0
-3285 138 0
-3286 162 0
-3287 169 0
-234 3286 3285 3287 0
-3309 130 0
-3310 234 0
-3311 228 0
-3312 161 0
-3313 193 0
-236 3311 3310 3309 3312 3313 0
-3327 196 0
-3339 141 0
-3340 165 0
-3340 201 0
-3341 197 0
-3341 169 0
3340 -237 3339 3341 0
-3351 130 0
-3352 133 0
230 -3353 0
-3354 161 0
-3355 193 0
3353 -238 3352 3351 3354 3355 0
-3356 130 0
-3357 134 0
-3358 229 0
-3359 162 0
-3360 194 0
3357 3359 -238 3360 3356 3358 0
-3391 133 0
-3392 233 0
-3393 227 0
-3394 165 0
-3395 197 0
-239 3395 3393 3392 3394 3391 0
-3441 225 0
-3442 161 0
-3443 193 0
-241 3441 3442 3443 0
-3487 242 0
-3488 132 0
-3489 226 0
-3490 210 0
-3491 178 0
-244 3488 3490 3491 3487 3489 0
-3497 161 0
-3498 162 0
-3499 210 0
-3500 196 0
-3501 225 0
-3501 148 0
-244 3501 3499 3498 3500 3497 0
-3519 130 0
-3520 133 0
-3521 230 0
-3522 161 0
-3523 193 0
-246 3521 3520 3519 3522 3523 0
-3524 130 0
-3525 134 0
-3526 229 0
-3527 162 0
-3528 194 0
-246 3525 3528 3527 3524 3526 0
-3529 133 0
-3530 134 0
-3531 226 0
-3532 165 0
-3533 178 0
-246 3530 3532 3533 3529 3531 0
-3549 245 0
-3550 133 0
-3551 231 0
-3552 161 0
-3553 193 0
-247 3551 3549 3550 3552 3553 0
-3559 133 0
-3560 241 0
-3561 227 0
-3562 165 0
-3563 197 0
3562 -247 3561 3560 3563 3559 0
-3571 165 0
-3609 225 0
-3610 169 0
-3611 177 0
-249 3611 3610 3609 0
-3731 161 0
-3732 165 0
-3733 213 0
-3734 205 0
-3735 225 0
3732 3733 -253 3734 3735 3731 0
-3741 134 0
-3741 249 0
-3742 138 0
-3742 245 0
146 -3743 0
-3743 237 0
-3744 162 0
-3744 221 0
-3745 194 0
-3745 189 0
3743 3741 3745 3742 3744 -254 0
-3746 134 0
-3746 249 0
-3747 141 0
-3747 242 0
-3748 149 0
-3748 234 0
165 -3749 0
-3749 218 0
197 -3750 0
-3750 186 0
3749 3746 3747 3748 3750 -254 0
-3751 245 0
-3752 141 0
-3752 242 0
-3753 153 0
-3753 230 0
-3754 214 0
-3755 201 0
-3755 182 0
3754 3755 3751 3753 3752 -254 0
-3756 146 0
-3756 237 0
-3757 149 0
-3757 234 0
-3758 153 0
-3758 230 0
177 -3759 0
206 -3759 0
-3760 209 0
-3760 174 0
3756 3757 3758 3760 3759 -254 0
-3761 162 0
-3761 221 0
-3762 165 0
-3762 218 0
-3763 169 0
214 -3763 0
-3764 177 0
-3764 206 0
-3765 225 0
-3765 158 0
3761 3765 3763 3764 3762 -254 0
-3766 189 0
-3767 186 0
201 -3768 0
182 -3768 0
-3769 209 0
-3769 174 0
225 -3770 0
-3770 158 0
3768 3770 3766 3767 3769 -254 0
-3808 255 0
-3809 132 0
253 -3809 0
-3810 134 0
-3811 247 0
-3812 239 0
-3813 162 0
-3813 223 0
-3814 194 0
3810 3809 3811 3812 3813 3814 -256 3808 0
-3822 133 0
-3823 134 0
-3824 250 0
-3825 244 0
-3826 236 0
-3827 165 0
-3828 197 0
3824 3823 3825 3826 3827 3828 -256 3822 0
-3829 248 0
-3830 138 0
-3830 247 0
-3831 139 0
-3831 246 0
-3832 141 0
-3832 244 0
-3833 153 0
-3833 232 0
-3834 169 0
-3834 216 0
-3835 201 0
-3835 184 0
3831 3830 3832 3833 3834 3835 -256 3829 0
-3836 240 0
146 -3837 0
-3838 238 0
-3839 236 0
-3840 232 0
-3841 208 0
-3842 176 0
3838 3837 3839 3840 3841 3842 -256 3836 0
-3843 161 0
-3844 162 0
-3844 223 0
-3845 222 0
-3846 165 0
-3846 220 0
-3847 216 0
-3848 208 0
-3849 225 0
-3849 160 0
3845 3844 3846 3847 3848 3849 -256 3843 0
-3850 193 0
-3851 194 0
-3852 190 0
188 -3853 0
-3854 201 0
-3854 184 0
-3855 176 0
-3856 225 0
-3856 160 0
3851 3852 3853 3854 3855 3856 -256 3850 0
-3869 258 0
-3870 259 0
-3871 265 0
-268 3869 3870 3871 0
-3965 258 0
-3966 265 0
-3967 266 0
-282 3967 3966 3965 0
-3989 260 0
-3989 281 0
-3990 266 0
-3990 275 0
-3991 274 0
267 -3991 0
3991 -284 3990 3989 0
-4049 282 0
-4051 270 0
-4052 284 0
-4053 262 0
-4054 282 0
-4055 276 0
-4056 268 0
-288 4055 4054 4052 4053 4056 0
-4115 258 0
-4116 265 0
-4117 266 0
-298 4117 4116 4115 0
-4127 259 0
-4128 265 0
-4129 267 0
-299 4129 4128 4127 0
-4139 260 0
-4139 297 0
-4140 266 0
-4140 291 0
-4141 290 0
-4141 267 0
-300 4140 4141 4139 0
-4192 258 0
-4193 260 0
-4193 301 0
-4194 299 0
-4195 266 0
-4196 271 0
-304 4196 4195 4193 4194 4192 0
-4197 259 0
-4198 260 0
-4198 301 0
-4199 263 0
-4199 298 0
-4200 267 0
-4200 294 0
-4201 291 0
-304 4200 4201 4198 4199 4197 0
-4208 266 0
-4241 260 0
-4242 291 0
-4243 290 0
-4243 275 0
-308 4241 4243 4242 0
-4289 258 0
-4290 259 0
-4291 308 0
-4292 296 0
-4293 280 0
-312 4292 4291 4293 4290 4289 0
-4319 265 0
-4320 297 0
-4321 281 0
-313 4320 4321 4319 0
-4331 266 0
-4332 274 0
-4333 290 0
-4333 281 0
-314 4332 4331 4333 0
-4365 259 0
-4366 313 0
-4367 267 0
-4368 298 0
-4369 291 0
-316 4367 4368 4366 4369 4365 0
-4377 298 0
-4397 258 0
-4398 314 0
-4399 265 0
-4400 302 0
-4401 286 0
-318 4401 4400 4398 4397 4399 0
-4487 258 0
-4488 259 0
-4489 321 0
-324 4487 4488 4489 0
-4535 258 0
-4536 265 0
-4537 321 0
-330 4535 4536 4537 0
-4547 259 0
-4548 265 0
-4549 321 0
-331 4547 4548 4549 0
-4559 260 0
-4560 266 0
-4560 323 0
-4561 267 0
-332 4560 4561 4559 0
-4612 258 0
-4613 260 0
-4613 333 0
-4614 331 0
-4615 266 0
-4615 327 0
-4616 322 0
-336 4615 4616 4613 4612 4614 0
-4617 259 0
-4618 260 0
-4619 330 0
-4620 326 0
-4621 270 0
-336 4621 4620 4618 4617 4619 0
-4627 265 0
-4628 266 0
-4628 327 0
-4629 267 0
-4629 326 0
-4630 324 0
-4631 329 0
-4631 264 0
-336 4628 4629 4631 4630 4627 0
-4637 258 0
-4638 322 0
-4639 321 0
-338 4638 4637 4639 0
-4661 260 0
-4662 274 0
-4662 323 0
-4663 322 0
-4663 275 0
-340 4661 4663 4662 0
-4729 328 0
-4730 327 0
-4731 326 0
-4732 324 0
-4733 264 0
-344 4733 4730 4731 4729 4732 0
-4751 266 0
337 -4751 0
-4752 274 0
-4752 329 0
-4753 322 0
-4753 281 0
-346 4752 4751 4753 0
-4763 267 0
-4764 329 0
-4765 323 0
-347 4763 4765 4764 0
-4907 258 0
-4908 322 0
-4909 321 0
-354 4908 4907 4909 0
-4919 259 0
-4920 323 0
-4921 321 0
-355 4920 4919 4921 0
-4931 260 0
-4932 290 0
-4932 323 0
-4933 291 0
4931 -356 4933 4932 0
-4940 291 0
-4979 258 0
-4980 259 0
-4981 356 0
-4982 328 0
-4983 321 0
-360 4981 4982 4979 4980 4983 0
-4999 328 0
-5000 327 0
-5001 326 0
-5002 324 0
-5003 264 0
-360 5003 4999 5001 5000 5002 0
-5009 265 0
-5010 329 0
-5011 321 0
-361 5010 5009 5011 0
-5021 266 0
-5022 290 0
-5022 329 0
-5023 322 0
-362 5021 5023 5022 0
-5033 267 0
-5034 291 0
-5034 329 0
-5035 323 0
-5035 297 0
-363 5033 5035 5034 0
-5045 258 0
-5046 259 0
-5047 265 0
-5048 332 0
-5049 321 0
-364 5048 5046 5047 5045 5049 0
-5051 260 0
-5060 265 0
-5061 355 0
-5062 267 0
-5062 354 0
-5063 324 0
-5064 329 0
-5064 292 0
-364 5061 5062 5064 5063 5060 0
-5122 259 0
-5123 361 0
-5124 267 0
-5125 333 0
-5126 301 0
-367 5126 5124 5125 5123 5122 0
-5132 265 0
-5133 267 0
-5134 355 0
-5135 327 0
-5136 329 0
-367 5133 5135 5136 5134 5132 0
-5189 274 0
-5190 290 0
-5191 322 0
-370 5189 5191 5190 0
-5201 275 0
-5202 291 0
-5203 323 0
-371 5203 5202 5201 0
-5223 259 0
-5224 260 0
-5225 354 0
-5226 338 0
-5227 323 0
-372 5224 5225 5227 5226 5223 0
-5417 260 0
-5417 377 0
-5418 266 0
-5418 371 0
-5419 274 0
-5419 363 0
-5420 290 0
-5420 347 0
-5421 322 0
-5421 315 0
5417 5420 5418 5419 5421 -380 0
-5422 260 0
-5422 377 0
-5423 267 0
-5423 370 0
-5424 275 0
-5424 362 0
-5425 291 0
-5425 346 0
-5426 323 0
-5426 314 0
5422 5425 5424 5426 5423 -380 0
-5427 266 0
-5427 371 0
-5428 267 0
-5428 370 0
-5429 356 0
-5430 297 0
-5430 340 0
-5431 329 0
-5431 308 0
5431 5430 5429 5428 5427 -380 0
-5432 363 0
-5433 362 0
-5434 356 0
305 -5435 0
-5435 332 0
337 -5436 0
-5436 300 0
5432 5433 5436 5435 5434 -380 0
-5437 347 0
-5438 291 0
-5438 346 0
-5439 340 0
-5440 332 0
353 -5441 0
-5441 284 0
5437 5439 5438 5441 5440 -380 0
-5442 322 0
-5442 315 0
-5443 323 0
-5443 314 0
-5444 329 0
-5444 308 0
-5445 337 0
-5445 300 0
353 -5446 0
-5446 284 0
5445 5444 5446 5442 5443 -380 0
-5565 376 0
-5566 266 0
-5566 375 0
-5567 267 0
269 -5568 0
-5568 372 0
-5569 281 0
-5569 360 0
-5570 297 0
344 -5570 0
-5571 312 0
5567 5566 5568 5569 5570 5571 -384 5565 0
-5572 368 0
-5573 274 0
-5573 367 0
-5574 275 0
-5574 366 0
-5575 364 0
-5576 281 0
-5576 360 0
-5577 336 0
-5578 304 0
5574 5573 5575 5576 5577 5578 -384 5572 0
-5586 321 0
-5587 322 0
-5588 323 0
-5588 318 0
-5589 316 0
-5590 312 0
-5591 304 0
-5592 288 0
5587 5588 5589 5590 5591 5592 -384 5586 0
-249 -264 0
-247 -266 0
-246 -267 0
-242 -271 0
-239 -274 0
-276 -237 0
-281 -232 0
-286 -227 0
-288 -225 0
-223 -290 0
-297 -216 0
-304 -209 0
-208 -305 0
-312 -201 0
-314 -199 0
-316 -197 0
-190 -323 0
-327 -186 0
-184 -329 0
-180 -333 0
-336 -177 0
-176 -337 0
-346 -167 0
-160 -353 0
-355 -158 0
-362 -151 0
-367 -146 0
-375 -138 0
-377 -136 0
-315 -197 -2 0
-347 -165 -2 0
-250 -7 0
-249 -8 0
-281 -225 -8 0
-297 -209 -8 0
-305 -201 -8 0
-8 -329 -177 0
-169 -337 -8 0
-153 -353 -8 0
-377 -8 0
-11 -242 -261 0
-11 -177 -326 0
-12 -245 0
-244 -13 0
-211 -290 -13 0
-148 -353 -13 0
-19 -238 0
-270 -225 -19 0
-205 -290 -19 0
-294 -201 -19 0
-301 -19 -194 0
-169 -19 -326 0
-162 -333 -19 0
-366 -19 0
-237 -20 0
-165 -329 -20 0
-141 -353 -20 0
-236 -21 0
-227 -266 -21 0
-297 -21 -196 0
-164 -329 -21 0
-140 -353 -21 0
-364 -21 0
-225 -267 -22 0
-291 -201 -22 0
-323 -169 -22 0
-139 -353 -22 0
-363 -22 0
-25 -232 0
-264 -225 -25 0
-327 -162 -25 0
-353 -136 -25 0
-26 -291 -197 0
-32 -225 0
-32 -353 0
-222 -35 0
-209 -35 -270 0
-35 -333 -146 0
-221 -36 0
-337 -141 -36 0
-220 -37 0
-281 -37 -196 0
-148 -329 -37 0
-346 -37 -131 0
-209 -267 -38 0
-275 -201 -38 0
-347 -38 0
-48 -209 0
-48 -337 0
-264 -201 -49 0
-271 -49 -194 0
-138 -327 -49 0
-329 -136 -49 0
-336 -49 0
-141 -323 -50 0
-52 -333 0
-54 -329 -131 0
-202 -55 0
-56 -201 0
-56 -329 0
-59 -194 -261 0
-59 -326 0
-61 -196 0
-62 -323 0
-190 -67 0
-270 -67 -177 0
-298 -149 -67 0
-301 -67 -146 0
-189 -68 0
-269 -68 -177 0
-281 -165 -68 0
-297 -149 -68 0
-281 -164 -69 0
-316 -69 0
-267 -177 -70 0
-275 -169 -70 0
-315 -70 0
-73 -264 -177 0
-151 -73 -290 0
-312 -73 0
-75 -182 0
-77 -291 -146 0
-80 -177 0
-176 -81 0
-169 -264 -81 0
-266 -167 -81 0
-162 -271 -81 0
-297 -81 -136 0
-304 -81 0
-165 -267 -82 0
-291 -141 -82 0
-169 -88 0
-297 -88 0
-162 -91 -261 0
-294 -91 0
-92 -165 0
-93 -164 0
-290 -93 -131 0
-292 -93 0
-94 -291 0
-153 -264 -97 0
-97 -271 -146 0
-281 -97 -136 0
-288 -97 0
-149 -98 -267 0
-275 -141 -98 0
-102 -281 -131 0
-281 -104 0
-107 -146 -261 0
-108 -149 0
-148 -109 0
-110 -275 0
-142 -115 0
-138 -115 -261 0
-270 -115 0
-141 -116 0
-117 -266 -131 0
-118 -267 0
-121 -136 0
-121 -132 -261 0
-121 -262 -131 0
-264 -121 0
-125 -260 0
-3 0
-5 0
-17 0
-33 0
-65 0
2 0
127 0
-255 0
-245 -267 0
-275 -237 0
-221 -291 0
-189 -323 0
-371 -141 0
-135 -377 0
-248 0
-245 -260 0
-263 -242 0
-231 -274 0
-275 -230 0
-280 -225 0
-291 -214 0
-308 -197 0
-323 -182 0
-328 -177 0
-340 -165 0
-149 -356 0
-371 -134 0
-376 0
-117 118 0
-118 117 0
116 -115 0
-116 115 0
104 -103 0
-104 103 0
98 -97 0
88 -87 0
87 -88 0
-81 82 0
81 -82 0
70 -69 0
-70 69 0
68 -67 0
-68 67 0
-55 56 0
-56 55 0
50 -49 0
-50 49 0
38 -37 0
-38 37 0
36 -35 0
-36 35 0
22 -21 0
-22 21 0
20 -19 0
-20 19 0
8 -7 0
-8 7 0
-130 0
-133 0
-161 0
-193 0
131 0
254 0
-109 -274 0
-86 -297 0
-302 -81 0
-314 -69 0
-61 -322 0
-362 -21 0
-370 -13 0
-6 -377 0
-120 0
-117 -260 0
-115 -262 0
-274 -103 0
-290 -87 0
-296 -81 0
-308 -69 0
-55 -322 0
-328 -49 0
-340 -37 0
-356 -21 0
-370 -7 0
-109 -260 0
-266 -103 0
-102 -267 0
-79 -290 0
-300 -69 0
-47 -322 0
-40 -329 0
-332 -37 0
-356 -13 0
-362 -7 0
-368 0
232 -230 0
-232 230 0
227 -225 0
-227 225 0
199 -197 0
196 -194 0
-196 194 0
167 -165 0
-167 165 0
164 -162 0
-164 162 0
136 -134 0
-136 134 0
-258 0
-259 0
-265 0
-321 0
261 0
380 0
-172 -81 0
-186 -67 0
-35 -218 0
-234 -19 0
-4 -249 0
-109 -132 0
-107 -134 0
-138 -103 0
-100 -141 0
-79 -162 0
-174 -67 0
-47 -194 0
-35 -206 0
-228 -13 0
-11 -230 0
-234 -7 0
-4 -237 0
-240 0
-132 -93 0
-91 -134 0
-138 -87 0
-79 -146 0
-158 -67 0
-31 -194 0
-19 -206 0
-214 -11 0
-218 -7 0
-332 336 0
-336 332 0
333 -329 0
-333 329 0
-323 327 0
-327 323 0
326 -322 0
-326 322 0
271 -267 0
267 -271 0
-266 270 0
-270 266 0
-260 264 0
-264 260 0
