p cnf 5592 584
256 0
384 0
7 -553 0
25 -553 0
-554 11 0
-554 21 0
-555 19 0
-555 13 0
-31 555 553 554 0
-619 3 0
-620 5 0
-621 33 0
-39 619 620 621 0
-703 7 0
-703 41 0
-704 11 0
37 -704 0
-705 35 0
-705 13 0
-47 703 704 705 0
-743 12 0
-757 3 0
-758 17 0
-759 33 0
-51 757 758 759 0
-805 7 0
-805 49 0
-806 19 0
-806 37 0
-807 35 0
-807 21 0
805 806 -55 807 0
-871 11 0
-872 19 0
-873 25 0
-59 872 873 871 0
-898 9 0
-899 51 0
-900 11 0
-901 36 0
-902 41 0
-60 902 898 899 900 901 0
-1123 7 0
-1123 73 0
-1124 11 0
-1125 67 0
-1125 13 0
-79 1124 1125 1123 0
-1291 11 0
81 -1291 0
-1292 19 0
-1292 73 0
-1293 67 0
1291 -91 1293 1292 0
-1495 7 0
-1496 35 0
-1497 67 0
-103 1495 1496 1497 0
-1532 65 0
-1533 39 0
-1534 67 0
-1535 36 0
-1536 8 0
-104 1535 1532 1533 1534 1536 0
-1561 11 0
-1562 35 0
-1562 73 0
-1563 67 0
-1563 41 0
-107 1561 1563 1562 0
-2035 7 0
-2036 11 0
-2036 117 0
-2037 109 0
-2038 35 0
-2038 93 0
-2039 67 0
2035 2036 -127 2038 2037 2039 0
7 -2040 0
121 -2040 0
13 -2041 0
115 -2041 0
-2042 21 0
-2042 107 0
37 -2043 0
-2043 91 0
69 -2044 0
-2044 59 0
2040 2041 -127 2043 2044 2042 0
-2045 11 0
-2045 117 0
13 -2046 0
-2046 115 0
-2047 103 0
-2048 87 0
73 -2049 0
-2049 55 0
2045 2047 -127 2049 2046 2048 0
-2050 19 0
-2050 109 0
-2051 107 0
-2052 103 0
-2053 79 0
81 -2054 0
-2054 47 0
2050 2052 -127 2053 2054 2051 0
-2055 93 0
-2056 91 0
-2057 87 0
-2058 79 0
-2059 97 0
-2059 31 0
2058 2055 -127 2059 2057 2056 0
-2060 61 0
-2061 59 0
-2062 55 0
-2063 47 0
-2064 31 0
2060 2062 -127 2064 2061 2063 0
-2082 11 0
-2277 134 0
-2277 153 0
-2278 138 0
-2278 149 0
-2279 146 0
2279 2278 -158 2277 0
-2330 136 0
-2427 134 0
-2429 162 0
-2529 134 0
-2531 162 0
-2532 134 0
-2532 177 0
149 -2533 0
-2533 162 0
-2534 165 0
-2534 146 0
2534 2533 -182 2532 0
-2595 138 0
-2595 177 0
-2596 146 0
169 -2596 0
-2597 162 0
-2597 153 0
2596 2597 -186 2595 0
-2661 130 0
-2662 133 0
-2663 137 0
-2664 145 0
-2665 161 0
-190 2661 2662 2663 2664 2665 0
-2847 134 0
-2847 201 0
-2848 138 0
-2848 197 0
-2849 194 0
-206 2847 2848 2849 0
-2949 134 0
146 -2950 0
-2951 194 0
2950 -214 2949 2951 0
-3003 137 0
-3004 145 0
-3005 193 0
-217 3003 3004 3005 0
-3044 130 0
-3045 217 0
-3046 138 0
-3047 146 0
-3048 194 0
-220 3047 3044 3045 3046 3048 0
-3081 130 0
-3082 133 0
-3083 137 0
-3084 145 0
-3085 193 0
-222 3081 3082 3083 3084 3085 0
-3171 130 0
-3172 161 0
-3173 193 0
-226 3171 3172 3173 0
-3207 133 0
-3208 161 0
-3209 193 0
-229 3207 3208 3209 0
-3219 134 0
-3220 162 0
-3221 194 0
3219 3220 -230 3221 0
-3273 137 0
-3274 161 0
-3275 193 0
-233 3273 3274 3275 0
-3285 138 0
-3324 137 0
-3325 138 0
-3326 226 0
-3327 196 0
-3328 164 0
-236 3328 3324 3326 3327 3325 0
-3351 130 0
-3352 133 0
-3353 137 0
-3354 161 0
-3355 193 0
-238 3351 3352 3353 3354 3355 0
-3391 133 0
-3392 233 0
-3393 141 0
-3394 203 0
-3395 197 0
-239 3393 3391 3392 3394 3395 0
146 -3453 0
-3454 162 0
-3455 194 0
3453 -242 3454 3455 0
-3507 149 0
-3508 165 0
-3509 177 0
3507 3508 -245 3509 0
-3519 130 0
-3520 133 0
-3521 145 0
-3522 161 0
-3523 193 0
-246 3519 3520 3521 3522 3523 0
-3564 145 0
-3565 229 0
-3566 227 0
-3567 177 0
-3568 167 0
3566 3568 3564 3565 -247 3567 0
-3741 134 0
-3741 249 0
-3742 138 0
-3743 146 0
-3744 162 0
-3744 221 0
-3745 194 0
3743 3742 -254 3741 3744 3745 0
-3746 134 0
-3746 249 0
-3747 242 0
149 -3748 0
-3748 234 0
-3749 218 0
197 -3750 0
-3750 186 0
3747 3750 -254 3749 3746 3748 0
-3751 138 0
245 -3751 0
-3752 242 0
-3753 230 0
-3754 214 0
201 -3755 0
-3755 182 0
3755 3753 -254 3751 3752 3754 0
-3756 146 0
-3757 234 0
-3758 230 0
-3759 206 0
-3760 209 0
3756 3760 -254 3758 3757 3759 0
-3761 162 0
-3761 221 0
-3762 218 0
-3763 214 0
-3764 206 0
225 -3765 0
-3765 158 0
3764 3763 -254 3761 3762 3765 0
-3829 137 0
-3830 138 0
-3830 247 0
-3831 246 0
-3832 244 0
-3833 232 0
-3834 216 0
-3835 184 0
3830 3832 3833 3834 3835 -256 3829 3831 0
-3836 145 0
-3837 146 0
239 -3837 0
-3838 238 0
-3839 236 0
-3840 232 0
177 -3841 0
-3841 208 0
-3842 209 0
-3842 176 0
3839 3837 3840 3841 3842 -256 3836 3838 0
-3843 161 0
-3844 162 0
-3844 223 0
-3845 222 0
-3846 220 0
-3847 216 0
177 -3848 0
-3848 208 0
160 -3849 0
3846 3844 3847 3848 3849 -256 3843 3845 0
-3850 193 0
-3851 194 0
-3852 190 0
-3853 197 0
-3854 184 0
-3855 176 0
-3856 160 0
3853 3851 3854 3855 3856 -256 3850 3852 0
-3989 260 0
-3990 266 0
-3990 275 0
-3991 274 0
-3991 267 0
-284 3991 3989 3990 0
-4139 260 0
-4140 266 0
-4141 267 0
-300 4141 4139 4140 0
-4331 266 0
-4332 274 0
-4333 290 0
-314 4332 4331 4333 0
-4559 329 0
-4560 266 0
-4561 267 0
-332 4559 4560 4561 0
-4661 337 0
-4662 274 0
-4663 275 0
-340 4663 4661 4662 0
-4763 267 0
-4763 337 0
-4764 329 0
-4765 323 0
-347 4764 4765 4763 0
-4931 260 0
-4931 353 0
-4932 290 0
322 -4933 0
291 -4933 0
4933 4932 4931 -356 0
-5033 267 0
-5033 353 0
-5034 329 0
-5035 323 0
-363 5035 5033 5034 0
-5202 337 0
-5417 260 0
-5417 377 0
-5418 266 0
-5419 274 0
-5419 363 0
-5420 290 0
-5420 347 0
-5421 315 0
5420 5419 -380 5418 5421 5417 0
-5422 377 0
-5423 267 0
-5424 362 0
-5425 291 0
-5426 314 0
5425 5424 -380 5426 5423 5422 0
-5427 371 0
-5428 370 0
-5429 281 0
356 -5429 0
-5430 340 0
-5431 329 0
5430 5429 -380 5428 5427 5431 0
-5432 274 0
-5432 363 0
-5433 362 0
-5434 356 0
-5435 332 0
-5436 337 0
-5436 300 0
5433 5434 -380 5435 5436 5432 0
-5442 322 0
-5442 315 0
-5443 314 0
-5444 329 0
337 -5445 0
-5445 300 0
-5446 353 0
-5446 284 0
5445 5443 -380 5446 5444 5442 0
-5551 382 0
-5552 260 0
-5553 263 0
-5554 374 0
-5555 275 0
-5556 350 0
-5557 323 0
5552 5553 5554 5555 5556 5557 -384 5551 0
-264 -249 0
-266 -247 0
-290 -223 0
-314 -199 0
-327 -186 0
-329 -184 0
-176 -337 0
-353 -160 0
-362 -151 0
-315 -197 -2 0
-347 -165 -2 0
-363 -149 -2 0
-249 -8 0
-281 -225 -8 0
-377 -8 0
-374 -11 0
-12 -245 0
-244 -13 0
-274 -227 -13 0
-290 -211 -13 0
-13 -337 -164 0
-353 -148 -13 0
-275 -225 -14 0
-291 -209 -14 0
-371 -14 0
-19 -326 -169 0
-21 -236 0
-21 -353 -140 0
-25 -232 0
-32 -353 0
-350 -35 0
-221 -36 0
-281 -197 -36 0
-141 -337 -36 0
-220 -37 0
-274 -37 -203 0
-37 -140 -337 0
-347 -38 0
-41 -216 0
-274 -41 -199 0
-41 -136 -337 0
-209 -48 0
-48 -337 0
-49 -208 0
-201 -56 0
-329 -56 0
-59 -326 0
-60 -197 0
-61 -196 0
-266 -69 -179 0
-267 -70 -177 0
-315 -70 0
-73 -184 0
-264 -73 -177 0
-274 -167 -73 0
-290 -151 -73 0
-291 -149 -74 0
-80 -177 0
-176 -81 0
-267 -165 -82 0
-165 -92 0
-93 -164 0
-290 -93 -131 0
-97 -160 0
-151 -97 -266 0
-267 -149 -98 0
-153 -104 0
-107 -146 -261 0
-108 -149 0
-109 -148 0
-274 -109 -131 0
-275 -110 0
-117 -140 0
-117 -266 -131 0
-121 -136 0
-264 -121 0
-3 0
-5 0
-9 0
-17 0
-33 0
-65 0
2 0
127 0
-263 -249 0
-267 -245 0
-275 -237 0
-291 -221 0
110 -109 0
-107 108 0
104 -103 0
-104 103 0
98 -97 0
92 -91 0
82 -81 0
-79 80 0
74 -73 0
70 -69 0
-59 60 0
56 -55 0
-47 48 0
38 -37 0
36 -35 0
-36 35 0
-31 32 0
14 -13 0
12 -11 0
-12 11 0
8 -7 0
-8 7 0
-130 0
-133 0
-137 0
-145 0
-161 0
-193 0
131 0
254 0
-314 -69 0
-362 -21 0
-370 -13 0
-382 0
247 -245 0
-247 245 0
-242 244 0
-239 237 0
-234 236 0
-236 234 0
232 -230 0
-232 230 0
227 -225 0
223 -221 0
-218 220 0
-220 218 0
216 -214 0
-216 214 0
211 -209 0
-208 206 0
203 -201 0
-203 201 0
199 -197 0
196 -194 0
-196 194 0
184 -182 0
182 -184 0
179 -177 0
-162 164 0
162 -164 0
-158 160 0
158 -160 0
151 -149 0
148 -146 0
140 -138 0
136 -134 0
-136 134 0
261 0
380 0
-138 -115 0
-91 -162 0
-59 -194 0
-218 -35 0
-19 -234 0
-242 -11 0
-115 -134 0
-103 -146 0
-87 -162 0
-67 -182 0
-55 -194 0
-214 -35 0
-19 -230 0
-242 -7 0
-107 -134 0
-103 -138 0
-79 -162 0
-47 -194 0
-206 -35 0
-230 -11 0
-234 -7 0
-134 -91 0
-87 -138 0
-79 -146 0
-67 -158 0
-31 -194 0
-206 -19 0
-214 -11 0
-218 -7 0
-323 327 0
326 -322 0
-260 264 0
