p cnf 5592 376
256 0
-1771 21 0
-1771 97 0
81 -1772 0
-1773 69 0
-1773 49 0
1772 -117 1773 1771 0
-2040 121 0
-2041 115 0
-2042 107 0
-2043 91 0
-2044 59 0
2040 2043 -127 2042 2041 2044 0
11 -2045 0
-2045 117 0
-2046 13 0
-2046 115 0
-2047 103 0
-2048 87 0
73 -2049 0
-2049 55 0
2048 2045 -127 2049 2047 2046 0
19 -2050 0
-2050 109 0
21 -2051 0
-2051 107 0
-2052 103 0
-2053 49 0
-2053 79 0
-2054 81 0
-2054 47 0
2051 2053 -127 2050 2052 2054 0
93 -2055 0
37 -2056 0
-2056 91 0
-2057 87 0
-2058 79 0
-2059 31 0
2055 2058 -127 2056 2057 2059 0
67 -2060 0
61 -2060 0
-2061 69 0
-2061 59 0
-2062 73 0
-2062 55 0
-2063 47 0
97 -2064 0
31 -2064 0
2060 2061 -127 2062 2063 2064 0
-2145 130 0
-2146 133 0
-2147 134 0
-142 2147 2146 2145 0
-2193 130 0
-2194 133 0
-2195 134 0
-150 2195 2194 2193 0
-2217 132 0
-2218 134 0
135 -2219 0
2219 -152 2218 2217 0
-2326 144 0
-2327 146 0
-2328 142 0
-2329 140 0
-2330 136 0
2327 -160 2326 2328 2329 2330 0
-2343 130 0
-2344 133 0
-2345 161 0
-166 2343 2344 2345 0
-2367 132 0
-2367 165 0
-2368 134 0
-2369 162 0
-168 2368 2369 2367 0
-2379 130 0
-2380 162 0
-2381 161 0
-170 2380 2379 2381 0
-2451 130 0
-2452 174 0
-2453 133 0
-2454 168 0
-2455 161 0
-176 2454 2451 2453 2452 2455 0
-2466 133 0
-2467 134 0
-2468 170 0
-2469 164 0
-2470 165 0
-2470 140 0
-176 2467 2466 2469 2470 2468 0
-2481 130 0
-2482 162 0
-2483 161 0
-178 2482 2481 2483 0
-2529 134 0
-2530 165 0
-2531 162 0
-182 2529 2531 2530 0
-2568 133 0
-2569 134 0
-2570 178 0
-2571 164 0
-2572 148 0
-184 2569 2568 2571 2572 2570 0
-2573 168 0
-2574 146 0
-2575 166 0
-2576 164 0
-2577 136 0
-184 2574 2573 2575 2576 2577 0
-2639 172 0
-2640 146 0
-2641 170 0
-2642 164 0
-2643 140 0
-188 2640 2643 2641 2642 2639 0
-2671 133 0
-2672 134 0
-2673 178 0
-2674 170 0
-2675 165 0
-190 2672 2671 2674 2675 2673 0
-2681 174 0
-2682 173 0
-2683 170 0
-2684 166 0
-2685 142 0
-190 2682 2681 2683 2684 2685 0
-2896 144 0
-2897 194 0
-2898 142 0
-2899 140 0
-2900 136 0
-208 2898 2897 2896 2899 2900 0
-2998 152 0
-2999 194 0
-3000 150 0
-3001 148 0
-3002 136 0
-216 3001 2998 3000 2999 3002 0
-3207 133 0
-3208 161 0
-3209 165 0
-229 3209 3208 3207 0
-3219 134 0
-3220 162 0
-3221 194 0
-3221 165 0
-230 3219 3220 3221 0
-3248 130 0
-3249 132 0
-3250 134 0
-3251 162 0
-3252 194 0
-232 3250 3248 3251 3249 3252 0
-3356 130 0
-3357 134 0
-3358 229 0
-3359 162 0
-3360 194 0
-238 3358 3356 3357 3359 3360 0
-3502 180 0
-3503 194 0
-3504 178 0
-3505 164 0
-3506 148 0
3502 -244 3503 3504 3505 3506 0
-3524 130 0
-3525 134 0
-3526 229 0
-3527 162 0
-3528 194 0
-246 3526 3524 3525 3527 3528 0
134 -3741 0
-3742 138 0
245 -3742 0
146 -3743 0
-3744 162 0
-3744 221 0
-3745 194 0
3743 3744 -254 3741 3742 3745 0
-3751 138 0
-3751 245 0
-3752 242 0
-3753 230 0
-3754 214 0
-3755 182 0
3753 3752 -254 3755 3754 3751 0
146 -3756 0
-3756 237 0
-3757 234 0
-3758 230 0
-3759 206 0
-3760 174 0
3758 3759 -254 3756 3760 3757 0
194 -3766 0
189 -3766 0
-3767 186 0
-3768 182 0
-3769 174 0
-3770 158 0
3770 3766 -254 3767 3769 3768 0
-3829 248 0
-3830 138 0
-3830 247 0
-3831 246 0
141 -3832 0
244 -3832 0
-3833 232 0
-3834 216 0
-3835 184 0
3831 3830 3832 3833 3834 3835 -256 3829 0
-3836 240 0
-3837 146 0
-3838 238 0
-3839 236 0
-3840 232 0
-3841 208 0
-3842 176 0
3838 3837 3839 3840 3841 3842 -256 3836 0
-3850 192 0
-3851 194 0
-3852 190 0
-3853 197 0
188 -3853 0
-3854 184 0
-3855 176 0
-3856 160 0
3851 3852 3853 3854 3855 3856 -256 3850 0
-3989 260 0
-3990 266 0
-3991 267 0
-284 3991 3989 3990 0
-4559 260 0
-4560 266 0
-4561 267 0
-332 4560 4559 4561 0
-5417 260 0
-5418 266 0
-5418 371 0
-5419 274 0
-5420 290 0
-5420 347 0
-5421 322 0
315 -5421 0
5420 5419 -380 5421 5417 5418 0
-5422 260 0
-5423 267 0
-5423 370 0
-5424 275 0
-5425 346 0
-5426 323 0
314 -5426 0
5423 5425 -380 5422 5426 5424 0
-5432 274 0
-5433 362 0
-5434 356 0
-5435 332 0
300 -5436 0
5436 5434 -380 5432 5433 5435 0
-5437 347 0
-5438 346 0
-5439 340 0
-5440 332 0
-5441 284 0
5439 5441 -380 5437 5440 5438 0
-247 -266 0
-190 -323 0
-167 -346 0
-229 -274 -11 0
-13 -244 0
-229 -266 -19 0
-173 -19 -322 0
-236 -21 0
-49 -208 0
-68 -189 0
-69 -188 0
-70 -315 0
-176 -81 0
-93 -164 0
-160 -97 0
-107 -146 -261 0
-148 -109 0
-274 -109 -131 0
-140 -117 0
-266 -117 -131 0
-121 -136 0
127 0
-267 -245 0
-275 -237 0
-197 -315 0
-165 -347 0
-371 -141 0
-248 0
-182 -323 0
-340 -165 0
-370 -135 0
-240 0
-332 -165 0
-221 -260 0
-267 -214 0
-158 -323 0
-346 -135 0
-69 70 0
68 -67 0
-130 0
-133 0
-161 0
131 0
254 0
-290 -93 0
-69 -314 0
-322 -61 0
-346 -37 0
-362 -21 0
-13 -370 0
-117 -260 0
-87 -290 0
-322 -55 0
-356 -21 0
-109 -260 0
-47 -322 0
-266 -55 0
-47 -274 0
-290 -31 0
-21 -300 0
-165 167 0
164 -162 0
-164 162 0
136 -134 0
-136 134 0
261 0
380 0
-115 -138 0
-91 -162 0
-81 -172 0
-180 -73 0
-186 -67 0
-59 -194 0
-234 -19 0
-242 -11 0
-132 -117 0
-115 -134 0
-103 -146 0
-152 -97 0
-87 -162 0
-168 -81 0
-182 -67 0
-55 -194 0
-132 -109 0
-107 -134 0
-103 -138 0
-144 -97 0
-79 -162 0
-174 -67 0
-47 -194 0
-91 -134 0
-87 -138 0
-81 -144 0
-79 -146 0
-152 -73 0
-158 -67 0
-31 -194 0
-206 -19 0
-214 -11 0
-59 -134 0
-138 -55 0
-144 -49 0
-47 -146 0
-162 -31 0
-172 -21 0
-174 -19 0
-192 0
