p cnf 5592 791
128 0
256 0
384 0
-421 3 0
-422 5 0
-423 7 0
-15 423 422 421 0
-433 4 0
-434 6 0
-435 7 0
-16 435 433 434 0
-445 19 0
-446 3 0
-447 4 0
-20 445 446 447 0
-469 3 0
-470 5 0
-471 7 0
-23 471 470 469 0
-481 4 0
-482 6 0
-483 7 0
-24 483 481 482 0
-553 7 0
-554 11 0
-554 21 0
-555 19 0
-555 13 0
-31 554 553 555 0
-565 31 0
-566 3 0
-567 5 0
-568 24 0
-569 16 0
-32 565 566 567 568 569 0
-619 3 0
-620 5 0
-621 7 0
-39 621 620 619 0
-631 4 0
-632 6 0
-633 7 0
-40 633 631 632 0
-715 47 0
-716 3 0
-717 5 0
-718 40 0
-719 16 0
-48 715 716 717 718 719 0
-805 7 0
-806 19 0
-806 37 0
-807 35 0
-807 21 0
807 -55 805 806 0
-817 55 0
-818 3 0
-819 5 0
-820 40 0
-821 24 0
-56 817 818 819 820 821 0
-898 52 0
-899 51 0
-900 11 0
-901 36 0
-902 20 0
899 -60 898 900 901 902 0
-1015 67 0
-1016 3 0
-1017 4 0
-68 1015 1016 1017 0
-1039 3 0
-1040 5 0
-1041 7 0
-71 1041 1040 1039 0
-1051 4 0
-1052 6 0
-1053 7 0
-72 1053 1051 1052 0
-1123 7 0
-1124 11 0
-1125 67 0
1125 -79 1123 1124 0
-1145 3 0
-1146 4 0
-1147 7 0
-1148 70 0
-1149 67 0
-80 1148 1145 1146 1147 1149 0
-1150 5 0
-1151 6 0
-1152 7 0
-1153 68 0
-1154 69 0
-80 1153 1150 1151 1152 1154 0
-1177 3 0
-1178 67 0
-1179 19 0
-83 1178 1177 1179 0
-1252 5 0
-1253 6 0
-1254 7 0
-1255 68 0
-1256 69 0
-88 1255 1252 1253 1254 1256 0
-1385 5 0
-1386 7 0
-1387 83 0
-1388 21 0
-1389 69 0
-95 1387 1385 1386 1388 1389 0
-1400 31 0
-1401 67 0
-1401 29 0
-1402 69 0
-1403 23 0
-1404 15 0
-95 1401 1400 1402 1403 1404 0
-1521 67 0
-1522 5 0
-1523 6 0
-1524 7 0
-1525 68 0
-1526 69 0
-104 1525 1522 1523 1524 1526 0
-1527 72 0
-1528 71 0
-1529 70 0
-1530 68 0
-1531 8 0
-104 1529 1528 1527 1530 1531 0
-1670 47 0
-1671 67 0
-1671 45 0
-1672 69 0
-1672 43 0
-1673 39 0
-1674 15 0
-111 1671 1670 1672 1673 1674 0
-1838 55 0
-1839 53 0
-1840 69 0
-1841 39 0
-1842 23 0
-119 1839 1840 1838 1841 1842 0
-2035 7 0
11 -2036 0
-2037 19 0
-2037 109 0
-2038 35 0
-2038 93 0
-2039 67 0
-2039 61 0
2036 2035 -127 2037 2039 2038 0
-2040 7 0
-2041 115 0
-2042 107 0
-2043 91 0
-2044 59 0
2040 2042 -127 2043 2044 2041 0
11 -2045 0
-2045 117 0
13 -2046 0
103 -2047 0
-2048 87 0
-2049 55 0
2047 2048 -127 2049 2046 2045 0
-2050 109 0
21 -2051 0
-2051 107 0
-2052 103 0
-2053 79 0
-2054 47 0
2054 2052 -127 2051 2053 2050 0
-2055 35 0
-2056 37 0
-2057 87 0
49 -2058 0
-2059 31 0
2058 2056 -127 2055 2057 2059 0
67 -2060 0
-2060 61 0
-2061 69 0
-2061 59 0
-2062 55 0
81 -2063 0
-2063 47 0
-2064 97 0
-2064 31 0
2062 2063 -127 2061 2060 2064 0
-2086 5 0
-2087 6 0
-2088 7 0
13 -2089 0
-2090 21 0
-2091 37 0
-2092 69 0
2088 2087 2089 2090 2091 2092 -128 2086 0
-2093 120 0
-2094 119 0
-2095 11 0
-2096 13 0
-2097 104 0
-2098 88 0
-2099 56 0
2094 2095 2096 2097 2098 2099 -128 2093 0
-2100 112 0
-2101 111 0
-2102 19 0
-2103 21 0
-2104 104 0
-2105 80 0
-2106 48 0
2101 2102 2103 2104 2105 2106 -128 2100 0
-2107 96 0
-2108 95 0
-2109 35 0
-2110 37 0
-2111 88 0
-2112 80 0
-2113 32 0
2109 2108 2110 2111 2112 2113 -128 2107 0
-2114 64 0
63 -2115 0
-2116 67 0
60 -2117 0
-2118 56 0
-2119 48 0
-2120 32 0
2116 2115 2117 2118 2119 2120 -128 2114 0
-2145 130 0
-2146 133 0
-2147 134 0
-142 2147 2146 2145 0
-2277 134 0
-2278 149 0
-2279 146 0
-158 2278 2277 2279 0
-2316 133 0
-2317 134 0
-2318 135 0
-2319 148 0
-2320 149 0
-160 2318 2316 2317 2320 2319 0
-2343 130 0
-2344 133 0
-2345 134 0
-166 2345 2344 2343 0
-2461 174 0
-2462 173 0
-2463 135 0
-2464 166 0
-2465 142 0
-176 2463 2462 2461 2464 2465 0
-2529 134 0
-2530 146 0
-2531 149 0
-182 2531 2529 2530 0
-2568 133 0
-2569 134 0
-2570 135 0
-2571 149 0
-2572 148 0
-184 2570 2568 2569 2571 2572 0
-2681 174 0
-2682 173 0
-2683 149 0
-2684 166 0
-2685 142 0
-190 2681 2683 2682 2684 2685 0
-2847 134 0
-2848 138 0
-2848 197 0
-2849 194 0
-206 2847 2848 2849 0
-2949 134 0
-2950 146 0
-2951 194 0
-2951 149 0
-214 2951 2949 2950 0
-3219 134 0
-3220 162 0
197 -3220 0
-3221 194 0
3220 -230 3219 3221 0
-3741 249 0
-3742 245 0
-3743 237 0
-3744 221 0
-3745 189 0
3744 3742 -254 3741 3743 3745 0
134 -3746 0
-3746 249 0
-3747 141 0
-3747 242 0
-3748 149 0
-3748 234 0
165 -3749 0
-3749 218 0
197 -3750 0
-3750 186 0
3750 3749 -254 3746 3747 3748 0
-3751 138 0
-3751 245 0
-3752 242 0
-3753 230 0
-3754 214 0
-3755 182 0
3753 3755 -254 3752 3751 3754 0
-3756 146 0
-3756 237 0
-3757 149 0
-3757 234 0
-3758 230 0
-3759 206 0
-3760 174 0
3759 3758 -254 3760 3757 3756 0
-3761 162 0
-3761 221 0
-3762 165 0
-3762 218 0
-3763 214 0
-3764 206 0
-3765 158 0
3764 3763 -254 3762 3761 3765 0
-3766 194 0
-3766 189 0
-3767 197 0
-3767 186 0
-3768 182 0
-3769 174 0
-3770 225 0
-3770 158 0
3769 3770 -254 3766 3767 3768 0
-3850 192 0
-3851 194 0
-3852 190 0
-3853 197 0
-3854 184 0
-3855 176 0
-3856 160 0
3851 3852 3853 3854 3855 3856 -256 3850 0
-3869 258 0
-3870 259 0
-3871 260 0
-268 3871 3870 3869 0
-3905 260 0
-3906 262 0
-3907 263 0
-272 3907 3906 3905 0
-3917 258 0
-3918 259 0
-3919 260 0
-276 3919 3918 3917 0
-3953 260 0
-3954 262 0
-3955 263 0
-280 3955 3954 3953 0
-3989 260 0
-3990 266 0
-3991 267 0
-284 3991 3989 3990 0
-4042 258 0
-4043 260 0
-4044 262 0
-4045 266 0
-4045 279 0
-4046 274 0
271 -4046 0
4045 4044 4042 4046 4043 -288 0
-4052 284 0
-4053 262 0
-4054 263 0
-4055 276 0
-4056 268 0
4054 4052 4053 -288 4055 4056 0
-4067 258 0
-4068 259 0
-4069 260 0
-292 4069 4068 4067 0
-4103 260 0
-4104 262 0
-4105 263 0
-296 4105 4104 4103 0
-4192 258 0
-4193 260 0
-4194 262 0
-4195 266 0
-4195 295 0
-4196 290 0
-4196 271 0
-304 4196 4192 4194 4193 4195 0
-4202 300 0
-4203 262 0
-4204 263 0
-4205 292 0
-4206 268 0
-304 4204 4203 4202 4205 4206 0
-4241 260 0
-4242 274 0
-4243 275 0
-308 4241 4242 4243 0
-4294 258 0
-4295 260 0
-4296 262 0
-4297 274 0
-4297 295 0
-4298 290 0
-4298 279 0
-312 4296 4294 4297 4295 4298 0
-4304 308 0
-4305 262 0
-4306 263 0
-4307 292 0
-4308 276 0
-312 4306 4305 4304 4307 4308 0
-4309 296 0
-4310 274 0
-4311 275 0
-4312 292 0
-4313 264 0
-312 4309 4311 4310 4312 4313 0
-4487 258 0
-4488 259 0
-4489 260 0
-324 4489 4488 4487 0
-4511 259 0
-4512 323 0
-4513 263 0
-327 4512 4511 4513 0
-4523 260 0
-4524 262 0
-4525 263 0
-328 4525 4524 4523 0
-4559 260 0
-4560 266 0
-4560 323 0
-4561 322 0
-332 4561 4559 4560 0
-4607 258 0
-4608 259 0
-4609 332 0
-4610 328 0
-4611 272 0
-336 4610 4608 4607 4611 4609 0
-4612 258 0
-4613 260 0
-4614 262 0
-4615 327 0
-4616 322 0
-336 4616 4612 4614 4613 4615 0
-4661 260 0
-4662 274 0
-4662 323 0
-4663 322 0
-340 4661 4662 4663 0
-4709 258 0
-4710 259 0
-4711 340 0
-4712 328 0
-4713 280 0
-344 4711 4710 4709 4713 4712 0
-4714 258 0
-4715 260 0
-4716 262 0
-4717 327 0
-4718 322 0
-344 4717 4714 4716 4715 4718 0
-4775 258 0
-4776 259 0
-4777 340 0
-4778 332 0
-4779 284 0
-348 4777 4776 4775 4779 4778 0
-4780 258 0
-4781 260 0
-4782 266 0
-4782 339 0
-4783 274 0
-4783 331 0
-4784 322 0
-348 4781 4780 4783 4782 4784 0
-4800 284 0
-4801 322 0
-4802 323 0
-4802 282 0
-4803 276 0
-4804 268 0
-348 4802 4800 4801 4803 4804 0
-4931 260 0
-4932 323 0
-4933 322 0
-356 4932 4931 4933 0
-4979 258 0
-4980 259 0
-4981 356 0
-4982 328 0
-4983 296 0
-360 4983 4980 4979 4981 4982 0
-4984 258 0
-4985 260 0
-4986 262 0
-4987 327 0
-4988 322 0
-4988 295 0
-360 4987 4984 4986 4985 4988 0
-5045 258 0
-5046 259 0
-5047 356 0
-5048 332 0
-5049 300 0
-364 5049 5046 5045 5048 5047 0
-5050 258 0
-5051 260 0
-5052 266 0
-5052 355 0
-5053 290 0
-5053 331 0
-5054 322 0
5053 -364 5050 5051 5052 5054 0
-5070 300 0
-5071 322 0
-5072 298 0
-5073 292 0
-5074 268 0
-364 5070 5072 5071 5073 5074 0
-5233 340 0
-5234 290 0
339 -5234 0
-5235 338 0
-5236 324 0
-5237 276 0
5234 -372 5233 5235 5236 5237 0
-5238 308 0
-5239 322 0
-5239 307 0
-5240 323 0
-5240 306 0
-5241 292 0
-5242 276 0
-372 5240 5238 5239 5241 5242 0
-5417 260 0
-5417 377 0
-5418 371 0
-5419 363 0
-5420 347 0
-5421 315 0
5420 5419 -380 5417 5418 5421 0
260 -5422 0
-5423 370 0
-5424 275 0
-5425 346 0
-5426 314 0
5424 5425 -380 5422 5426 5423 0
-5427 371 0
-5428 267 0
-5428 370 0
-5429 356 0
-5430 340 0
-5431 308 0
5430 5431 -380 5428 5427 5429 0
-5432 274 0
-5432 363 0
275 -5433 0
-5433 362 0
-5434 356 0
-5435 332 0
-5436 300 0
5436 5433 -380 5432 5435 5434 0
-5437 347 0
-5438 291 0
-5438 346 0
-5439 340 0
-5440 332 0
-5441 284 0
5440 5438 -380 5437 5441 5439 0
-5442 322 0
-5442 315 0
-5443 323 0
-5443 314 0
-5444 308 0
-5445 300 0
-5446 284 0
5446 5445 -380 5443 5442 5444 0
-5565 376 0
-5566 375 0
-5567 374 0
-5568 372 0
-5569 360 0
-5570 344 0
-5571 312 0
5566 5567 5568 5569 5570 5571 -384 5565 0
-5572 368 0
-5573 274 0
367 -5573 0
-5574 275 0
366 -5574 0
-5575 364 0
-5576 360 0
-5577 336 0
-5578 304 0
5573 5574 5575 5576 5577 5578 -384 5572 0
-5579 352 0
290 -5580 0
-5580 351 0
-5581 291 0
-5581 350 0
-5582 348 0
-5583 344 0
-5584 336 0
-5585 288 0
5581 5580 5582 5583 5584 5585 -384 5579 0
-249 -264 0
-242 -271 0
-279 -234 0
-225 -288 0
-295 -218 0
-327 -186 0
-351 -162 0
-367 -146 0
-375 -138 0
-291 -221 -2 0
-315 -197 -2 0
-347 -165 -2 0
-149 -363 -2 0
-141 -371 -2 0
-249 -8 0
-306 -197 -11 0
-338 -165 -11 0
-374 -11 0
-339 -13 -162 0
-355 -146 -13 0
-298 -19 -197 0
-173 -19 -322 0
-366 -19 0
-331 -162 -21 0
-29 -291 -194 0
-282 -35 -197 0
-350 -35 0
-36 -221 0
-331 -146 -37 0
-339 -37 -138 0
-43 -322 -149 0
-45 -275 -194 0
-338 -47 0
-327 -49 -138 0
-51 -322 -141 0
-53 -267 -194 0
-194 -59 -261 0
-63 -322 0
-68 -189 0
-307 -69 -138 0
-70 -315 0
-304 -81 0
-290 -93 -131 0
-97 -288 0
-148 -109 0
-109 -274 -131 0
-117 -266 -131 0
-3 0
-5 0
2 0
127 0
-267 -245 0
-237 -275 0
-323 -189 0
-245 -260 0
-263 -242 0
-275 -230 0
-308 -197 0
-323 -182 0
-340 -165 0
-356 -149 0
-135 -370 0
-376 0
-234 -263 0
-300 -197 0
-174 -323 0
-332 -165 0
-356 -141 0
-368 0
-263 -218 0
-206 -275 0
-284 -197 0
-323 -158 0
-332 -149 0
-340 -141 0
-135 -346 0
-352 0
-192 0
-186 -263 0
-174 -275 0
-284 -165 0
-291 -158 0
-300 -149 0
-308 -141 0
8 -7 0
-8 7 0
-130 0
-133 0
131 0
254 0
-69 -314 0
-322 -61 0
-346 -37 0
-362 -21 0
-370 -13 0
-377 -6 0
-120 0
-115 -262 0
-274 -103 0
-69 -308 0
-322 -55 0
-37 -340 0
-356 -21 0
-371 -6 0
-112 0
-109 -260 0
-107 -262 0
-103 -266 0
-300 -69 0
-322 -47 0
-37 -332 0
-356 -13 0
-363 -6 0
-96 0
-93 -260 0
-91 -262 0
-87 -266 0
-79 -274 0
-69 -284 0
-31 -322 0
-332 -21 0
-340 -13 0
-347 -6 0
-64 0
-61 -260 0
-59 -262 0
-55 -266 0
-47 -274 0
-37 -284 0
-31 -290 0
-300 -21 0
-308 -13 0
-315 -6 0
-258 0
-259 0
261 0
380 0
-146 -107 0
-186 -67 0
-35 -218 0
-19 -234 0
-242 -11 0
-249 -4 0
-115 -134 0
-146 -103 0
-162 -87 0
-182 -67 0
-55 -194 0
-35 -214 0
-19 -230 0
-242 -7 0
-245 -4 0
-107 -134 0
-138 -103 0
-174 -67 0
-194 -47 0
-230 -11 0
-234 -7 0
-237 -4 0
-91 -134 0
-138 -87 0
-158 -67 0
-31 -194 0
-206 -19 0
-214 -11 0
-218 -7 0
-221 -4 0
-59 -134 0
-55 -138 0
-52 -141 0
-146 -47 0
-158 -35 0
-31 -162 0
-19 -174 0
-182 -11 0
-186 -7 0
-189 -4 0
264 -260 0
-264 260 0
