p cnf 5592 356
128 0
256 0
11 -397 0
-398 3 0
-399 4 0
397 -12 398 399 0
-421 3 0
-422 5 0
-423 7 0
-15 423 422 421 0
-469 3 0
-470 5 0
-471 7 0
-23 471 470 469 0
-570 31 0
-571 4 0
-572 6 0
-573 23 0
-574 15 0
-32 570 571 572 573 574 0
-631 4 0
-632 35 0
-633 7 0
-40 632 631 633 0
-703 7 0
-704 37 0
-705 35 0
-47 704 703 705 0
-817 55 0
-818 3 0
-819 5 0
-820 40 0
-821 33 0
-56 817 818 819 820 821 0
-1039 3 0
-1040 5 0
-1041 65 0
-71 1039 1040 1041 0
-1160 65 0
-1161 15 0
-1162 67 0
-1163 12 0
-1164 8 0
-80 1163 1160 1161 1162 1164 0
-1177 3 0
-1178 67 0
-1179 65 0
-83 1178 1177 1179 0
-1201 5 0
-1202 69 0
-1203 65 0
-85 1202 1201 1203 0
-1242 87 0
-1243 4 0
-1244 6 0
-1245 71 0
-1246 23 0
-88 1242 1243 1244 1245 1246 0
-1390 87 0
-1391 85 0
-1392 83 0
-1393 71 0
-1394 23 0
-95 1390 1392 1391 1393 1394 0
21 -1771 0
-1772 37 0
-1773 69 0
1771 1773 1772 -117 0
-1803 33 0
-1804 85 0
-1805 37 0
-1806 70 0
-1807 22 0
1807 -118 1803 1805 1806 1804 0
-2035 7 0
-2036 11 0
19 -2037 0
-2037 109 0
-2038 35 0
-2039 67 0
2036 2037 -127 2035 2038 2039 0
-2040 7 0
-2041 115 0
-2042 107 0
-2043 91 0
-2044 59 0
2042 2044 -127 2040 2041 2043 0
11 -2045 0
117 -2045 0
-2046 115 0
-2047 103 0
-2048 87 0
-2049 55 0
2045 2047 -127 2048 2046 2049 0
-2050 109 0
-2051 107 0
-2052 103 0
-2053 79 0
-2054 47 0
2050 2052 -127 2051 2053 2054 0
-2055 35 0
-2056 37 0
-2057 87 0
79 -2058 0
97 -2059 0
-2059 31 0
2058 2059 -127 2055 2057 2056 0
-2063 47 0
-2093 120 0
-2094 119 0
118 -2095 0
-2096 13 0
-2097 104 0
-2098 88 0
-2099 56 0
2094 2095 2096 2097 2098 2099 -128 2093 0
-2107 33 0
-2108 95 0
-2109 35 0
-2110 37 0
-2111 88 0
80 -2112 0
-2113 32 0
2108 2109 2110 2111 2112 2113 -128 2107 0
-2145 130 0
-2146 133 0
-2147 134 0
-142 2147 2146 2145 0
-2193 130 0
-2194 133 0
-2195 145 0
-150 2193 2194 2195 0
-2229 130 0
-2230 146 0
-2231 145 0
-154 2230 2229 2231 0
-2277 134 0
-2278 138 0
-2279 146 0
2278 -158 2277 2279 0
-2316 133 0
-2317 134 0
-2318 154 0
-2319 148 0
-2320 140 0
-160 2319 2316 2317 2320 2318 0
-2763 130 0
-2764 133 0
-2765 134 0
-198 2765 2764 2763 0
-2896 144 0
-2897 194 0
-2898 142 0
-2899 140 0
-2900 136 0
-208 2897 2896 2898 2899 2900 0
-2901 130 0
-2902 145 0
-2903 146 0
-210 2903 2902 2901 0
-2983 214 0
-2984 132 0
-2985 210 0
-2986 198 0
-2987 150 0
-216 2985 2983 2984 2986 2987 0
-3064 156 0
-3065 194 0
-3066 154 0
-3067 148 0
-3068 140 0
-220 3064 3066 3065 3067 3068 0
-3741 249 0
-3742 245 0
-3743 237 0
-3744 221 0
-3745 189 0
3743 3742 -254 3741 3745 3744 0
-3746 249 0
-3747 242 0
-3748 234 0
-3749 218 0
-3750 186 0
3748 3750 -254 3746 3747 3749 0
138 -3751 0
-3751 245 0
-3752 242 0
-3753 230 0
-3754 214 0
-3755 182 0
3753 3754 -254 3751 3752 3755 0
-3756 146 0
-3757 234 0
-3758 230 0
-3759 206 0
-3760 174 0
3758 3760 -254 3757 3756 3759 0
-3761 221 0
165 -3762 0
-3762 218 0
-3763 214 0
-3764 206 0
225 -3765 0
-3765 158 0
3764 3762 -254 3761 3765 3763 0
-3766 189 0
-3767 186 0
-3768 182 0
-3769 174 0
-3770 158 0
3768 3767 -254 3766 3769 3770 0
-3843 224 0
-3844 162 0
-3845 222 0
-3846 220 0
-3847 216 0
-3848 208 0
-3849 160 0
3844 3845 3846 3847 3848 3849 -256 3843 0
-3989 260 0
-3990 266 0
-3991 267 0
-284 3990 3989 3991 0
-4139 260 0
-4140 266 0
-4141 267 0
-300 4140 4139 4141 0
-4559 260 0
-4560 266 0
-4561 267 0
-332 4560 4559 4561 0
-5417 260 0
-5418 266 0
-5419 274 0
-5420 347 0
-5421 315 0
5421 5419 -380 5417 5418 5420 0
-5432 274 0
-5432 363 0
-5433 362 0
-5434 356 0
-5435 332 0
-5436 300 0
5434 5433 -380 5432 5435 5436 0
290 -5437 0
-5437 347 0
-5438 291 0
-5438 346 0
297 -5439 0
-5439 340 0
-5440 332 0
-5441 284 0
5439 5437 -380 5438 5440 5441 0
-5442 315 0
-5443 314 0
-5444 308 0
-5445 300 0
-5446 284 0
5442 5446 -380 5443 5445 5444 0
-222 -291 0
-291 -221 -2 0
-249 -8 0
-245 -12 0
-22 -363 0
-32 -225 0
-221 -36 0
-347 -38 0
-189 -68 0
-315 -70 0
-85 -291 -138 0
-88 -297 0
-95 -290 0
-109 -148 0
-140 -117 0
-266 -117 -131 0
-119 -138 0
-3 0
-5 0
-33 0
-65 0
2 0
127 0
-267 -245 0
-347 -165 0
-260 -245 0
-206 -291 0
-104 103 0
70 -69 0
-70 69 0
68 -67 0
-37 38 0
37 -38 0
36 -35 0
8 -7 0
-8 7 0
-130 0
-133 0
-145 0
131 0
254 0
-314 -69 0
-346 -37 0
-362 -21 0
-120 0
-308 -69 0
-340 -37 0
-356 -21 0
-274 -79 0
-13 -340 0
-6 -347 0
-31 -290 0
148 -146 0
-148 146 0
-136 134 0
380 0
-115 -138 0
-107 -146 0
-156 -97 0
-186 -67 0
-218 -35 0
-234 -19 0
-242 -11 0
-249 -4 0
-132 -117 0
-115 -134 0
-182 -67 0
-214 -35 0
-19 -230 0
-242 -7 0
-245 -4 0
-107 -134 0
-103 -138 0
-144 -97 0
-174 -67 0
-206 -35 0
-230 -11 0
-234 -7 0
-237 -4 0
-91 -134 0
-87 -138 0
-146 -79 0
-158 -67 0
-194 -31 0
-206 -19 0
-214 -11 0
-218 -7 0
-221 -4 0
-224 0
-59 -134 0
-55 -138 0
-158 -35 0
-162 -31 0
-174 -19 0
-182 -11 0
-186 -7 0
-189 -4 0
