p cnf 5592 447
128 0
256 0
384 0
-421 3 0
-422 5 0
-423 9 0
-15 421 422 423 0
-619 3 0
-620 5 0
-621 33 0
-39 619 620 621 0
-740 33 0
-741 15 0
-742 35 0
-743 37 0
-744 41 0
744 743 740 741 742 -48 0
-837 17 0
-838 39 0
-839 19 0
-839 38 0
21 -840 0
-840 36 0
-841 49 0
-841 8 0
841 -56 837 838 840 839 0
-955 3 0
-956 5 0
-957 9 0
-958 17 0
-959 33 0
-63 955 956 957 958 959 0
-1099 5 0
-1100 9 0
-1101 65 0
-77 1099 1100 1101 0
-1145 3 0
-1146 77 0
-1147 7 0
-1148 70 0
-1149 67 0
1147 1148 1145 1146 -80 1149 0
-1201 5 0
-1202 17 0
-1203 65 0
-85 1201 1202 1203 0
-1225 7 0
-1226 19 0
-1227 67 0
-1227 21 0
1225 -87 1227 1226 0
-1333 13 0
-1334 21 0
-1335 25 0
-93 1333 1335 1334 0
-1495 7 0
-1496 35 0
-1496 69 0
-1497 67 0
-103 1495 1497 1496 0
-1645 3 0
-1646 5 0
-1647 9 0
-1648 33 0
-1649 65 0
-111 1645 1646 1647 1648 1649 0
-1729 19 0
-1730 35 0
-1731 67 0
-115 1731 1729 1730 0
21 -1771 0
-1772 37 0
-1773 69 0
1771 1773 1772 -117 0
-1803 33 0
-1804 85 0
-1805 37 0
-1806 70 0
-1807 22 0
1807 1806 1803 1804 1805 -118 0
-2035 7 0
-2036 117 0
-2037 19 0
-2037 109 0
-2038 35 0
-2038 93 0
-2039 67 0
2035 2036 -127 2038 2037 2039 0
-2045 117 0
-2046 13 0
-2046 115 0
-2047 25 0
-2047 103 0
-2048 41 0
-2048 87 0
-2049 55 0
2047 2048 -127 2049 2045 2046 0
-2060 61 0
-2061 59 0
-2062 55 0
-2063 47 0
-2064 31 0
2060 2062 -127 2061 2064 2063 0
-2100 17 0
-2101 111 0
-2102 19 0
-2102 110 0
-2103 21 0
108 -2103 0
-2104 25 0
80 -2105 0
-2106 48 0
2103 2102 2104 2105 2106 -128 2100 2101 0
-2114 65 0
-2115 63 0
67 -2116 0
-2117 60 0
-2118 56 0
-2119 48 0
-2120 32 0
2117 2116 2118 2119 2120 -128 2114 2115 0
-2277 134 0
-2278 138 0
-2278 149 0
-2279 141 0
2279 2278 -158 2277 0
-2427 134 0
-2427 169 0
-2428 138 0
-2429 162 0
-2429 141 0
-174 2429 2428 2427 0
-2433 138 0
-2434 141 0
-2435 134 0
2434 -174 2435 2433 0
141 -3339 0
225 -3339 0
-3340 165 0
-3341 169 0
-237 3341 3339 3340 0
-3342 225 0
-3343 169 0
-3344 165 0
-237 3342 3343 3344 0
-3519 130 0
-3520 133 0
-3521 230 0
-3522 161 0
-3523 193 0
-246 3521 3520 3519 3522 3523 0
-3741 249 0
138 -3742 0
-3743 237 0
-3744 221 0
-3745 194 0
3742 3743 -254 3744 3741 3745 0
-3746 249 0
-3747 242 0
-3748 234 0
-3749 218 0
197 -3750 0
-3750 186 0
3748 3746 -254 3750 3747 3749 0
-3756 237 0
-3757 234 0
-3758 230 0
-3759 206 0
-3760 209 0
-3760 174 0
3758 3756 -254 3759 3760 3757 0
-3761 221 0
-3762 218 0
169 -3763 0
-3763 214 0
177 -3764 0
-3764 206 0
-3765 225 0
-3765 158 0
3763 3761 -254 3765 3764 3762 0
-3766 194 0
-3767 186 0
-3768 182 0
-3769 174 0
-3770 225 0
-3770 158 0
3766 3768 -254 3767 3770 3769 0
-3829 248 0
-3830 247 0
-3831 246 0
-3832 141 0
-3833 232 0
-3834 169 0
-3835 201 0
3830 3831 3832 3833 3834 3835 -256 3829 0
-3989 260 0
-3989 281 0
-3990 266 0
275 -3990 0
-3991 274 0
-3991 267 0
3991 3989 -284 3990 0
-4139 260 0
-4140 266 0
-4141 267 0
-300 4141 4139 4140 0
-4559 260 0
-4559 329 0
-4560 266 0
-4560 323 0
-4561 322 0
-4561 267 0
-332 4561 4560 4559 0
-4595 329 0
-4596 267 0
-4597 269 0
-335 4596 4595 4597 0
-4632 321 0
-4633 322 0
-4634 270 0
-4635 268 0
-4636 329 0
-336 4635 4632 4633 4634 4636 0
-4751 266 0
-4751 337 0
274 -4752 0
-4752 329 0
-4753 322 0
4752 -346 4751 4753 0
267 -4763 0
337 -4763 0
275 -4764 0
-4764 329 0
-4765 323 0
-347 4763 4765 4764 0
-4842 321 0
-4843 322 0
-4844 325 0
-4845 329 0
-4846 270 0
-350 4846 4842 4845 4843 4844 0
-4847 259 0
-4848 347 0
-4849 343 0
-4850 335 0
-4851 321 0
-351 4848 4847 4850 4849 4851 0
-4887 347 0
-4888 346 0
-4889 340 0
-4890 332 0
-4891 325 0
-352 4891 4887 4889 4890 4888 0
-5201 353 0
-5202 337 0
-5203 323 0
-371 5201 5202 5203 0
-5417 377 0
-5418 266 0
-5418 371 0
-5419 363 0
-5420 290 0
-5420 347 0
-5421 322 0
-5421 315 0
5419 5420 -380 5418 5417 5421 0
-5422 377 0
-5423 370 0
-5424 362 0
291 -5425 0
346 -5425 0
-5426 314 0
5425 5426 -380 5422 5423 5424 0
-5427 266 0
-5428 267 0
-5429 356 0
-5430 340 0
-5431 329 0
5430 5431 -380 5427 5428 5429 0
-5432 363 0
-5433 362 0
-5434 356 0
-5435 332 0
-5436 337 0
-5436 300 0
5432 5434 -380 5436 5433 5435 0
-5437 347 0
-5438 346 0
-5439 340 0
-5440 332 0
-5441 353 0
-5441 284 0
5438 5439 -380 5440 5441 5437 0
-5442 315 0
-5443 314 0
-5444 329 0
308 -5444 0
-5445 337 0
-5445 300 0
353 -5446 0
-5446 284 0
5445 5446 -380 5444 5443 5442 0
-5579 352 0
-5580 351 0
-5581 350 0
-5582 348 0
-5583 344 0
-5584 336 0
-5585 288 0
5579 5580 5581 5582 5583 5584 5585 -384 0
-247 -266 0
-288 -225 0
-314 -199 0
-327 -186 0
-344 -169 0
-167 -346 0
-377 -136 0
-237 -275 -2 0
-221 -291 -2 0
-315 -197 -2 0
-343 -169 -2 0
-249 -8 0
-337 -8 -169 0
-377 -8 0
-13 -274 -227 0
-270 -19 -225 0
-237 -20 0
-269 -20 -225 0
-325 -20 -169 0
-20 -353 -141 0
-227 -21 -266 0
-225 -22 -267 0
-363 -22 0
-25 -264 -225 0
-26 -291 -197 0
-32 -225 0
-353 -32 0
-221 -36 0
-141 -337 -36 0
-268 -37 -209 0
-348 -37 0
-267 -38 -209 0
-347 -38 0
-41 -274 -199 0
-48 -337 0
-49 -266 -199 0
-201 -56 0
-329 -56 0
-60 -197 0
-61 -196 0
-315 -70 0
-80 -177 0
-88 -169 0
-104 -281 0
-149 -108 0
-110 -275 0
-115 -138 -261 0
-116 -141 0
-266 -117 -131 0
-267 -118 0
-3 0
-5 0
-9 0
-17 0
-33 0
-65 0
2 0
127 0
118 -117 0
-115 116 0
-116 115 0
-109 110 0
-110 109 0
-103 104 0
-87 88 0
70 -69 0
-70 69 0
56 -55 0
-56 55 0
-48 47 0
-37 38 0
-38 37 0
36 -35 0
-36 35 0
-25 26 0
22 -21 0
21 -22 0
20 -19 0
8 -7 0
-8 7 0
-130 0
-133 0
-161 0
-193 0
131 0
254 0
-290 -93 0
-314 -69 0
-37 -346 0
-362 -21 0
-260 -117 0
-103 -274 0
-69 -308 0
-322 -55 0
-340 -37 0
-356 -21 0
-370 -7 0
-260 -109 0
-103 -266 0
-300 -69 0
-322 -47 0
-332 -37 0
-13 -356 0
-362 -7 0
-232 230 0
227 -225 0
199 -197 0
196 -194 0
-165 167 0
136 -134 0
-259 0
-321 0
261 0
380 0
-186 -67 0
-59 -194 0
-218 -35 0
-234 -19 0
-134 -115 0
-162 -87 0
-182 -67 0
-55 -194 0
-214 -35 0
-230 -19 0
-242 -7 0
-248 0
-174 -67 0
-47 -194 0
-206 -35 0
-234 -7 0
-87 -138 0
-158 -67 0
-31 -194 0
-19 -206 0
-218 -7 0
-323 327 0
264 -260 0
