p cnf 5592 127
128 0
-1729 19 0
-1730 35 0
-1731 67 0
1729 -115 1730 1731 0
-2040 7 0
115 -2041 0
-2042 21 0
-2043 37 0
-2044 69 0
2041 2042 -127 2040 2043 2044 0
-2086 5 0
-2087 6 0
-2088 7 0
116 -2089 0
-2090 21 0
-2091 37 0
-2092 69 0
2088 2087 2089 2090 2091 2092 -128 2086 0
-2283 138 0
-2284 141 0
-2285 134 0
-158 2283 2284 2285 0
-2433 138 0
-2434 141 0
-2435 134 0
-174 2433 2434 2435 0
237 -3756 0
-3757 234 0
-3758 230 0
-3759 206 0
-3760 174 0
3758 3756 -254 3757 3759 3760 0
-3761 221 0
-3762 218 0
-3763 214 0
-3764 206 0
-3765 158 0
3761 3763 -254 3762 3764 3765 0
-3766 189 0
-3767 186 0
-3768 182 0
-3769 174 0
-3770 158 0
3766 3768 -254 3767 3769 3770 0
-5417 377 0
-5418 371 0
-5419 363 0
-5420 347 0
-5421 315 0
5418 5417 -380 5419 5420 5421 0
-5422 377 0
-5423 370 0
-5424 362 0
-5425 346 0
-5426 314 0
5423 5425 -380 5422 5424 5426 0
-5432 363 0
-5433 362 0
-5434 356 0
-5435 332 0
-5436 300 0
5434 5433 -380 5432 5435 5436 0
-5437 347 0
-5438 346 0
-5439 340 0
-5440 332 0
-5441 284 0
5439 5438 -380 5437 5440 5441 0
-5442 315 0
-5443 314 0
-5444 308 0
-5445 300 0
-5446 284 0
5444 5443 -380 5442 5445 5446 0
-377 -8 0
-237 -20 0
-363 -22 0
-221 -36 0
-347 -38 0
-189 -68 0
-315 -70 0
-138 -115 -261 0
-141 -116 0
-5 0
127 0
70 -69 0
68 -67 0
38 -37 0
36 -35 0
22 -21 0
20 -19 0
8 -7 0
254 0
-314 -69 0
-346 -37 0
-362 -21 0
-377 -6 0
-308 -69 0
-340 -37 0
-356 -21 0
-370 -7 0
-371 -6 0
-300 -69 0
-332 -37 0
-362 -7 0
-363 -6 0
-284 -69 0
-332 -21 0
-346 -7 0
-347 -6 0
-284 -37 0
-300 -21 0
-314 -7 0
-315 -6 0
261 0
380 0
-186 -67 0
-218 -35 0
-234 -19 0
-134 -115 0
-182 -67 0
-214 -35 0
-230 -19 0
-174 -67 0
-206 -35 0
-206 -19 0
