p cnf 5592 1198
128 0
256 0
384 0
-553 7 0
-553 25 0
-554 11 0
-554 21 0
-555 19 0
-555 13 0
-31 553 554 555 0
-565 31 0
-566 3 0
-567 5 0
-568 24 0
-569 17 0
-32 568 565 567 566 569 0
-703 7 0
-703 41 0
-704 11 0
-704 37 0
-705 13 0
-47 705 703 704 0
-757 3 0
-758 17 0
-759 33 0
-51 757 758 759 0
-829 50 0
-832 5 0
-833 51 0
-834 7 0
-835 21 0
-835 36 0
-836 20 0
835 834 -56 836 832 833 0
-898 52 0
-900 11 0
-913 13 0
-913 49 0
-914 21 0
-914 41 0
-915 37 0
915 -61 914 913 0
-955 3 0
-956 5 0
-957 55 0
-958 17 0
-959 33 0
-63 957 956 955 958 959 0
-1075 3 0
-1076 67 0
-1077 65 0
-75 1076 1075 1077 0
-1126 7 0
-1126 73 0
-1127 13 0
-1127 67 0
-1128 69 0
-1128 11 0
1128 1127 -79 1126 0
-1145 3 0
-1146 4 0
-1147 7 0
-1148 11 0
-1149 67 0
-80 1148 1149 1147 1146 1145 0
-1225 7 0
-1226 69 0
-1227 67 0
-87 1227 1226 1225 0
-1333 13 0
-1334 21 0
-1334 73 0
-1335 69 0
-93 1334 1335 1333 0
-1447 3 0
-1448 33 0
-1449 65 0
-99 1447 1448 1449 0
-1495 7 0
-1496 69 0
-1497 37 0
-103 1497 1495 1496 0
-1537 97 0
-1538 33 0
-1539 65 0
-105 1537 1538 1539 0
-1578 107 0
-1579 105 0
-1580 99 0
-1581 75 0
-1582 43 0
1582 1578 -108 1579 1581 1580 0
-1603 13 0
-1604 37 0
-1604 73 0
-1605 69 0
-1605 41 0
-109 1604 1605 1603 0
-1615 109 0
-1616 5 0
-1617 102 0
-1618 33 0
-1619 65 0
-110 1615 1617 1616 1618 1619 0
-1645 3 0
-1646 5 0
-1647 103 0
-1648 33 0
-1649 65 0
-111 1647 1646 1645 1648 1649 0
-1771 21 0
-1772 37 0
-1773 69 0
-1773 49 0
-117 1771 1773 1772 0
-1812 22 0
-1813 3 0
-1814 5 0
-1815 17 0
-1816 33 0
-1817 65 0
-119 1813 1814 1815 1816 1817 0
-1882 73 0
-1882 49 0
-1883 81 0
-1883 41 0
-1884 97 0
-121 1882 1883 1884 0
-1900 17 0
-1901 105 0
-1902 98 0
-1903 49 0
-1904 81 0
-122 1902 1903 1904 1901 1900 0
-1975 5 0
-1976 117 0
-1977 17 0
-1978 33 0
-1979 65 0
-125 1976 1975 1977 1978 1979 0
-2035 7 0
-2035 121 0
-2036 11 0
-2036 117 0
-2037 19 0
-2037 109 0
-2038 35 0
-2038 93 0
-2039 67 0
-2039 61 0
2035 2037 2038 2039 2036 -127 0
-2040 7 0
-2040 121 0
13 -2041 0
-2041 115 0
21 -2042 0
-2042 107 0
-2043 37 0
-2043 91 0
-2044 69 0
-2044 59 0
2043 2042 2044 2041 -127 2040 0
-2045 11 0
-2045 117 0
-2046 115 0
-2047 25 0
-2047 103 0
-2048 41 0
-2048 87 0
55 -2049 0
2049 2046 2048 2047 2045 -127 0
-2050 19 0
-2050 109 0
-2051 21 0
-2051 107 0
-2052 25 0
-2052 103 0
-2053 49 0
-2053 79 0
-2054 81 0
-2054 47 0
2053 2051 2054 2052 2050 -127 0
-2055 93 0
-2056 37 0
-2056 91 0
-2057 87 0
79 -2058 0
-2059 97 0
-2059 31 0
2058 2055 2056 2057 2059 -127 0
-2060 67 0
-2060 61 0
-2061 69 0
-2061 59 0
-2062 55 0
-2063 81 0
-2063 47 0
-2064 97 0
-2064 31 0
2062 2063 2060 2061 -127 2064 0
-2079 3 0
-2080 125 0
-2081 7 0
-2081 122 0
-2082 118 0
-2083 110 0
35 -2084 0
-2085 67 0
2080 2081 2082 2083 2084 2085 -128 2079 0
-2093 120 0
-2094 119 0
-2095 118 0
-2096 116 0
-2097 104 0
-2098 41 0
-2098 88 0
73 -2099 0
56 -2099 0
2096 2095 2097 2098 2099 -128 2093 2094 0
-2100 17 0
-2101 111 0
-2102 19 0
-2102 110 0
21 -2103 0
108 -2103 0
-2104 104 0
-2105 49 0
-2105 80 0
-2106 81 0
48 -2106 0
2101 2102 2103 2104 2105 2106 -128 2100 0
-2114 65 0
-2115 63 0
-2116 67 0
62 -2116 0
-2117 69 0
-2118 56 0
-2119 81 0
-2119 48 0
-2120 32 0
2115 2116 2117 2118 2119 2120 -128 2114 0
-2145 130 0
-2146 133 0
-2147 134 0
-142 2147 2146 2145 0
-2181 130 0
-2182 146 0
-2183 132 0
-148 2183 2181 2182 0
-2193 130 0
-2194 133 0
-2195 134 0
-150 2195 2194 2193 0
-2277 134 0
-2278 138 0
-2279 146 0
-2279 141 0
-158 2277 2278 2279 0
-2343 130 0
-2344 133 0
-2345 161 0
-166 2343 2344 2345 0
-2379 130 0
-2380 162 0
-2381 161 0
-170 2380 2379 2381 0
-2427 134 0
-2427 169 0
-2428 138 0
-2428 165 0
-2429 162 0
-2429 141 0
2427 -174 2428 2429 0
-2457 132 0
-2458 134 0
-2460 162 0
-2466 133 0
-2467 134 0
-2468 170 0
-2469 164 0
-2470 165 0
-2470 140 0
-176 2470 2467 2469 2466 2468 0
-2481 130 0
-2482 162 0
-2483 161 0
-178 2482 2481 2483 0
-2517 133 0
-2518 165 0
-2519 161 0
-181 2518 2517 2519 0
-2529 134 0
-2530 146 0
-2531 162 0
-2531 149 0
-182 2529 2530 2531 0
-2559 132 0
-2560 134 0
-2562 162 0
-2563 182 0
-2564 181 0
-2565 178 0
-2566 166 0
-2567 150 0
2563 -184 2567 2565 2566 2564 0
-2568 133 0
-2569 134 0
179 -2569 0
-2570 178 0
-2571 164 0
-2572 165 0
-184 2569 2571 2572 2568 2570 0
-2578 161 0
-2579 162 0
-2579 151 0
-2580 150 0
-2581 165 0
-2581 148 0
-2582 136 0
2581 -184 2580 2582 2578 2579 0
-2630 132 0
-2631 178 0
-2632 170 0
-2672 134 0
-2673 178 0
-2674 170 0
-2676 182 0
-2677 181 0
-2678 178 0
-2679 166 0
-2680 150 0
-190 2676 2678 2680 2679 2677 0
-2686 161 0
-2687 162 0
-2688 165 0
-2689 150 0
-2690 142 0
-190 2690 2688 2686 2689 2687 0
-2691 189 0
-2692 133 0
-2693 183 0
-2694 175 0
-2695 161 0
2693 2691 2694 -191 2692 2695 0
-2763 130 0
-2764 133 0
-2765 193 0
-198 2763 2764 2765 0
-2797 134 0
-2847 134 0
-2847 201 0
-2848 138 0
-2848 197 0
194 -2849 0
141 -2849 0
2849 2848 -206 2847 0
-2856 194 0
-2857 138 0
-2858 201 0
2857 2858 2856 -206 0
-2901 130 0
-2902 194 0
-2903 193 0
-210 2902 2901 2903 0
-2937 133 0
-2938 197 0
-2939 193 0
-213 2938 2937 2939 0
-2949 134 0
-2949 209 0
-2950 146 0
-2950 197 0
-2951 194 0
-214 2951 2950 2949 0
-2978 130 0
-2979 132 0
-2980 134 0
-2981 146 0
-2982 194 0
-2982 151 0
-216 2980 2978 2981 2982 2979 0
-2983 214 0
-2984 132 0
-2985 210 0
-2986 198 0
-2987 150 0
2983 -216 2987 2985 2986 2984 0
-2988 133 0
-2989 134 0
-2990 210 0
-2991 149 0
-2991 196 0
-2992 197 0
-2992 148 0
-216 2989 2991 2990 2988 2992 0
-3015 138 0
-3015 209 0
-3016 146 0
-3016 201 0
-3017 194 0
-218 3017 3015 3016 0
-3171 130 0
-3172 161 0
-3173 193 0
-226 3171 3172 3173 0
-3195 225 0
-3196 162 0
-3197 194 0
-228 3197 3195 3196 0
-3207 133 0
-3208 161 0
-3209 193 0
-229 3207 3208 3209 0
-3219 134 0
-3220 162 0
-3221 194 0
-230 3220 3221 3219 0
-3231 225 0
-3251 162 0
-3258 133 0
-3259 134 0
-3259 227 0
-3260 226 0
-3261 165 0
-3261 196 0
-3262 197 0
-3262 164 0
-232 3262 3258 3260 3261 3259 0
-3266 196 0
-3267 136 0
-3273 225 0
-3274 161 0
-3275 193 0
-233 3273 3274 3275 0
-3285 138 0
-3285 225 0
-3286 162 0
-3286 201 0
-3287 194 0
-3287 169 0
-234 3287 3286 3285 0
-3314 130 0
-3315 233 0
-3316 227 0
-3317 162 0
-3318 194 0
-236 3318 3315 3316 3314 3317 0
-3319 234 0
-3320 233 0
-3321 226 0
-3322 202 0
-3323 170 0
-236 3320 3319 3322 3323 3321 0
-3371 161 0
-3372 162 0
-3373 165 0
-3374 198 0
-3375 225 0
-238 3375 3371 3373 3374 3372 0
-3391 133 0
-3392 135 0
-3393 227 0
-3394 165 0
-3395 197 0
-239 3392 3395 3394 3391 3393 0
-3410 225 0
-3421 235 0
-3422 234 0
-3423 228 0
-3424 165 0
-3425 172 0
-240 3423 3424 3422 3421 3425 0
-3441 225 0
-3442 161 0
-3443 193 0
-241 3441 3442 3443 0
-3453 225 0
-3454 162 0
-3454 209 0
-3455 194 0
3455 -242 3454 3453 0
-3484 146 0
-3485 162 0
-3486 194 0
-3487 242 0
-3488 132 0
-3488 241 0
-3489 226 0
-3490 210 0
-3491 178 0
-244 3490 3491 3488 3487 3489 0
-3519 130 0
-3520 133 0
-3521 230 0
-3522 161 0
-3523 193 0
-246 3521 3520 3519 3522 3523 0
-3524 130 0
-3525 134 0
-3526 229 0
-3527 162 0
-3527 213 0
-3528 194 0
-3528 181 0
-246 3527 3524 3526 3525 3528 0
-3529 133 0
-3530 134 0
-3530 241 0
-3531 226 0
-3532 165 0
-3532 210 0
-3533 197 0
-3533 178 0
-246 3532 3529 3531 3530 3533 0
-3539 161 0
-3540 162 0
-3541 210 0
-3542 198 0
-3543 150 0
-246 3540 3539 3543 3542 3541 0
-3549 245 0
-3550 133 0
-3551 231 0
-3552 161 0
-3553 193 0
-247 3551 3549 3550 3552 3553 0
-3554 245 0
-3555 241 0
-3556 229 0
-3557 213 0
-3558 181 0
-247 3557 3554 3558 3555 3556 0
-3559 133 0
-3560 241 0
-3561 227 0
-3562 165 0
-3563 197 0
-247 3563 3560 3562 3559 3561 0
134 -3741 0
-3741 249 0
-3742 138 0
-3742 245 0
-3743 146 0
-3743 237 0
-3744 162 0
-3744 221 0
-3745 194 0
-3745 189 0
3745 3744 3741 3743 -254 3742 0
-3746 134 0
-3746 249 0
141 -3747 0
242 -3747 0
149 -3748 0
-3748 234 0
-3749 165 0
-3749 218 0
-3750 197 0
-3750 186 0
3747 3746 -254 3748 3750 3749 0
-3751 138 0
-3751 245 0
-3752 141 0
242 -3752 0
-3753 230 0
-3754 169 0
-3754 214 0
-3755 201 0
182 -3755 0
3754 3752 3755 3751 -254 3753 0
237 -3756 0
-3757 234 0
153 -3758 0
-3758 230 0
177 -3759 0
206 -3759 0
-3760 209 0
174 -3760 0
3756 3757 3758 3759 3760 -254 0
-3761 162 0
-3761 221 0
-3762 165 0
-3762 218 0
-3763 169 0
-3763 214 0
177 -3764 0
-3764 206 0
-3765 225 0
-3765 158 0
3761 3762 3764 3763 -254 3765 0
-3766 194 0
189 -3766 0
-3767 197 0
-3767 186 0
-3768 201 0
182 -3768 0
-3769 209 0
-3769 174 0
-3770 225 0
-3770 158 0
3766 3768 -254 3769 3767 3770 0
-3808 255 0
-3809 132 0
253 -3809 0
-3810 134 0
-3811 138 0
-3811 247 0
-3812 146 0
-3812 239 0
-3813 162 0
-3814 194 0
191 -3814 0
3809 3810 3811 3812 3813 3814 -256 3808 0
-3829 248 0
-3830 138 0
-3830 247 0
-3831 246 0
-3832 141 0
-3832 244 0
-3833 232 0
-3834 169 0
-3834 216 0
-3835 201 0
-3835 184 0
3830 3831 3832 3833 3834 3835 -256 3829 0
-3836 240 0
-3837 239 0
-3838 238 0
-3839 236 0
-3840 232 0
-3841 208 0
-3842 176 0
3837 3836 3838 3839 3840 3841 3842 -256 0
-3843 161 0
-3844 162 0
-3845 163 0
-3846 165 0
-3847 216 0
-3848 208 0
-3849 160 0
3845 3844 3846 3847 3848 3849 -256 3843 0
-3850 193 0
-3851 194 0
-3851 191 0
-3852 195 0
-3852 190 0
-3853 197 0
-3854 184 0
-3855 176 0
-3856 225 0
-3856 160 0
3852 3851 3853 3854 3855 3856 -256 3850 0
-3869 258 0
-3870 259 0
-3871 265 0
-268 3869 3870 3871 0
-3977 259 0
-3978 265 0
-3979 273 0
-283 3977 3978 3979 0
-3989 260 0
-3989 281 0
266 -3990 0
-3990 275 0
-3991 274 0
-3991 267 0
-284 3991 3990 3989 0
-4042 258 0
-4043 260 0
-4043 285 0
-4044 283 0
-4045 266 0
-4045 279 0
-4046 274 0
-4046 271 0
4045 -288 4046 4044 4043 4042 0
-4048 260 0
-4050 267 0
-4050 278 0
-4062 273 0
-4063 274 0
-4063 271 0
-4064 275 0
-4065 268 0
-4066 281 0
-4066 264 0
-288 4063 4064 4062 4065 4066 0
-4139 260 0
-4139 297 0
-4140 266 0
-4140 291 0
-4141 290 0
-4141 267 0
-300 4140 4141 4139 0
-4192 258 0
-4193 301 0
-4194 299 0
-4195 295 0
-4196 290 0
-304 4193 4196 4194 4195 4192 0
-4241 260 0
-4241 305 0
-4242 274 0
-4242 291 0
-4243 290 0
-4243 275 0
-308 4241 4243 4242 0
-4295 260 0
-4296 262 0
-4298 290 0
-4331 266 0
-4331 305 0
-4332 274 0
-4332 297 0
-4333 290 0
-4333 281 0
-314 4332 4331 4333 0
-4345 281 0
-4355 258 0
-4356 259 0
-4357 265 0
-4358 273 0
-4359 284 0
-316 4359 4356 4357 4358 4355 0
-4457 317 0
-4458 262 0
-4458 315 0
-4459 266 0
-4459 311 0
-4460 274 0
-4460 303 0
-4461 290 0
-320 4458 4460 4459 4461 4457 0
-4464 310 0
-4465 302 0
-4472 311 0
-4473 310 0
-4474 308 0
-4475 281 0
-4476 297 0
-320 4476 4473 4474 4475 4472 0
-4559 260 0
-4559 329 0
-4560 266 0
-4560 323 0
-4561 322 0
-332 4560 4559 4561 0
-4562 260 0
-4562 329 0
-4563 267 0
-4563 322 0
-4564 266 0
-332 4564 4562 4563 0
-4661 260 0
-4662 274 0
-4662 323 0
-4663 322 0
-4663 275 0
-340 4661 4662 4663 0
-4685 262 0
-4713 280 0
-4715 260 0
-4716 262 0
-4751 266 0
-4751 337 0
-4752 274 0
-4752 329 0
-4753 322 0
-4753 281 0
-346 4751 4753 4752 0
-4763 267 0
-4763 337 0
-4764 275 0
-4764 329 0
-4765 323 0
-4765 281 0
-347 4765 4764 4763 0
-4775 258 0
-4776 259 0
-4777 265 0
-4778 273 0
-4779 284 0
-348 4779 4776 4777 4778 4775 0
-4902 287 0
-4903 286 0
-4904 284 0
-4905 280 0
-4906 272 0
-352 4904 4905 4902 4906 4903 0
-4931 260 0
-4932 290 0
-4933 322 0
-4933 291 0
-356 4931 4933 4932 0
-5021 266 0
-5022 290 0
-5022 329 0
-5023 322 0
5021 -362 5023 5022 0
-5033 267 0
-5034 329 0
-5035 323 0
-363 5033 5034 5035 0
274 -5189 0
-5190 290 0
-5191 322 0
-5191 305 0
5189 -370 5191 5190 0
-5224 260 0
-5354 329 0
-5355 297 0
-5356 281 0
-377 5355 5356 5354 0
-5417 260 0
-5417 377 0
266 -5418 0
-5418 371 0
274 -5419 0
-5419 363 0
-5420 290 0
-5420 347 0
-5421 322 0
315 -5421 0
5417 5420 5418 5421 5419 -380 0
-5422 260 0
-5422 377 0
-5423 267 0
-5423 370 0
-5424 275 0
-5424 362 0
291 -5425 0
-5425 346 0
-5426 323 0
314 -5426 0
5425 5426 -380 5424 5423 5422 0
266 -5427 0
-5427 371 0
-5428 267 0
-5428 370 0
-5429 281 0
-5429 356 0
297 -5430 0
340 -5430 0
-5431 329 0
-5431 308 0
5430 5428 5427 5431 5429 -380 0
-5432 274 0
-5432 363 0
-5433 275 0
-5433 362 0
-5434 281 0
-5434 356 0
-5435 305 0
-5435 332 0
337 -5436 0
300 -5436 0
5436 5435 5433 5432 5434 -380 0
-5437 290 0
-5437 347 0
-5438 291 0
-5438 346 0
-5439 297 0
-5439 340 0
-5440 305 0
-5440 332 0
284 -5441 0
5441 5438 5440 5437 5439 -380 0
-5442 322 0
-5442 315 0
-5443 323 0
-5443 314 0
-5444 329 0
-5444 308 0
-5445 337 0
-5445 300 0
-5446 284 0
5446 5445 5443 5442 5444 -380 0
-5545 260 0
-5546 262 0
-5569 281 0
-5579 352 0
-5580 290 0
-5581 350 0
-5582 348 0
-5583 297 0
-5584 305 0
-5584 336 0
-5585 288 0
5580 5579 5581 5582 5583 5584 5585 -384 0
-5586 320 0
-5587 322 0
-5588 318 0
-5589 316 0
-5590 329 0
-5590 312 0
-5591 304 0
353 -5592 0
288 -5592 0
5587 5586 5588 5589 5590 5591 5592 -384 0
-264 -249 0
-247 -266 0
-246 -267 0
-271 -242 0
-239 -274 0
-235 -278 0
-234 -279 0
-232 -281 0
-225 -288 0
-295 -218 0
-216 -297 0
-213 -300 0
-304 -209 0
-208 -305 0
-312 -201 0
-199 -314 0
-191 -322 0
-329 -184 0
-181 -332 0
-336 -177 0
-176 -337 0
-346 -167 0
-151 -362 0
-377 -136 0
-245 -267 -2 0
-275 -237 -2 0
-231 -281 -2 0
-303 -209 -2 0
-311 -201 -2 0
-323 -189 -2 0
-183 -329 -2 0
-149 -363 -2 0
-371 -141 -2 0
-249 -8 0
-225 -281 -8 0
-297 -209 -8 0
-305 -201 -8 0
-329 -177 -8 0
-169 -337 -8 0
-377 -8 0
-246 -11 0
-11 -225 -278 0
-181 -322 -11 0
-244 -13 0
-241 -13 -260 0
-13 -227 -274 0
-13 -305 -196 0
-179 -13 -322 0
-13 -164 -337 0
-13 -370 -131 0
-234 -19 -261 0
-225 -270 -19 0
-237 -20 0
-141 -353 -20 0
-227 -21 -266 0
-297 -21 -196 0
-329 -21 -164 0
-362 -21 -131 0
-225 -267 -22 0
-291 -201 -22 0
-195 -297 -22 0
-323 -169 -22 0
-163 -329 -22 0
-363 -22 0
-25 -232 0
-225 -25 -264 0
-199 -25 -290 0
-25 -167 -322 0
-209 -270 -35 0
-278 -201 -35 0
-285 -194 -35 0
-350 -35 0
-221 -36 0
-197 -281 -36 0
-337 -141 -36 0
-38 -201 -275 0
-38 -347 0
-216 -41 0
-264 -41 -209 0
-199 -41 -274 0
-41 -194 -279 0
-41 -136 -337 0
-43 -214 0
-210 -47 0
-48 -209 0
-48 -337 0
-208 -49 0
-264 -201 -49 0
-199 -49 -266 0
-271 -49 -194 0
-329 -136 -49 0
-197 -267 -50 0
-50 -323 -141 0
-52 -201 -261 0
-202 -55 0
-201 -56 0
-329 -56 0
-59 -194 -261 0
-61 -196 0
-322 -61 -131 0
-62 -323 0
-190 -67 0
-186 -67 -261 0
-169 -67 -278 0
-67 -285 -162 0
-301 -146 -67 0
-318 -67 0
-68 -189 0
-165 -68 -281 0
-297 -68 -149 0
-305 -68 -141 0
-317 -68 0
-178 -69 -267 0
-69 -281 -164 0
-299 -69 -146 0
-316 -69 0
-70 -315 0
-184 -73 0
-264 -177 -73 0
-162 -73 -279 0
-305 -136 -73 0
-178 -79 0
-80 -177 0
-80 -305 0
-176 -81 0
-169 -264 -81 0
-167 -81 -266 0
-271 -162 -81 0
-136 -297 -81 0
-175 -82 0
-165 -267 -82 0
-291 -82 -141 0
-169 -88 0
-88 -297 0
-93 -164 0
-93 -290 -131 0
-160 -97 0
-153 -97 -264 0
-97 -146 -271 0
-97 -138 -279 0
-97 -136 -281 0
-97 -288 0
-98 -149 -267 0
-98 -141 -275 0
-287 -98 0
-104 -281 0
-150 -107 0
-107 -278 0
-149 -108 0
-148 -109 0
-109 -274 -131 0
-110 -275 0
-111 -274 0
-115 -270 0
-116 -141 0
-140 -117 0
-118 -267 0
-121 -136 0
-132 -121 -261 0
-262 -121 -131 0
-121 -264 0
-3 0
-5 0
-17 0
-33 0
-65 0
2 0
127 0
-255 0
-221 -291 0
-197 -315 0
-347 -165 0
-135 -377 0
-248 0
-245 -260 0
-231 -274 0
-230 -275 0
-214 -291 0
-308 -197 0
-182 -323 0
-165 -340 0
-149 -356 0
-371 -134 0
-117 118 0
-118 117 0
-115 116 0
-116 115 0
-103 104 0
-104 103 0
-97 98 0
-98 97 0
-87 88 0
-88 87 0
82 -81 0
-69 70 0
-67 68 0
-68 67 0
-55 56 0
55 -56 0
50 -49 0
-50 49 0
-37 38 0
36 -35 0
-36 35 0
22 -21 0
-22 21 0
-19 20 0
19 -20 0
8 -7 0
-130 0
-133 0
-161 0
-193 0
131 0
254 0
-117 -266 0
-286 -97 0
-314 -69 0
-346 -37 0
-120 0
-117 -260 0
-103 -274 0
-280 -97 0
-87 -290 0
-308 -69 0
-310 -67 0
-322 -55 0
-37 -340 0
-356 -21 0
-370 -7 0
-260 -109 0
-262 -107 0
-103 -266 0
-102 -267 0
-272 -97 0
-79 -290 0
-69 -300 0
-302 -67 0
-47 -322 0
-37 -332 0
-13 -356 0
-362 -7 0
-230 232 0
-232 230 0
-225 227 0
-227 225 0
-197 199 0
196 -194 0
-196 194 0
-165 167 0
164 -162 0
-164 162 0
136 -134 0
-136 134 0
-258 0
-259 0
-265 0
-273 0
261 0
380 0
-138 -115 0
-146 -107 0
-91 -162 0
-172 -81 0
-218 -35 0
-11 -242 0
-4 -249 0
-132 -93 0
-91 -134 0
-138 -87 0
-146 -79 0
-158 -67 0
-31 -194 0
-24 -201 0
-206 -19 0
-214 -11 0
-218 -7 0
-132 -61 0
-59 -134 0
-138 -55 0
-47 -146 0
-158 -35 0
-31 -162 0
-174 -19 0
-11 -182 0
-186 -7 0
288 -284 0
284 -288 0
-281 285 0
-285 281 0
279 -275 0
278 -274 0
-278 274 0
-267 271 0
267 -271 0
270 -266 0
266 -270 0
-260 264 0
-264 260 0
