p cnf 5592 140
-469 3 0
-470 5 0
-471 17 0
-23 469 470 471 0
-529 5 0
-530 9 0
-531 17 0
-29 529 530 531 0
-575 3 0
-576 29 0
-577 7 0
-578 22 0
-579 19 0
-32 578 575 576 577 579 0
-703 7 0
-704 11 0
-705 35 0
-47 704 703 705 0
-757 3 0
-758 17 0
-759 33 0
-51 757 758 759 0
-832 5 0
-833 51 0
-834 7 0
36 -835 0
-836 20 0
835 836 832 833 834 -56 0
-842 33 0
-843 23 0
35 -844 0
-845 20 0
-846 8 0
844 845 842 843 -56 846 0
67 -2060 0
-2061 69 0
-2061 59 0
55 -2062 0
47 -2063 0
-2064 31 0
2060 2061 -127 2063 2062 2064 0
-3751 245 0
-3752 242 0
-3753 230 0
-3754 214 0
-3755 182 0
3753 3751 -254 3752 3754 3755 0
-3756 237 0
-3757 234 0
-3758 230 0
-3759 206 0
-3760 174 0
3756 3758 -254 3757 3759 3760 0
-3761 221 0
-3762 218 0
-3763 214 0
-3764 206 0
-3765 158 0
3761 3763 -254 3762 3764 3765 0
194 -3766 0
189 -3766 0
-3767 186 0
-3768 182 0
-3769 174 0
-3770 158 0
3766 3768 -254 3767 3769 3770 0
-5422 377 0
-5423 370 0
-5424 362 0
-5425 346 0
-5426 314 0
5422 5423 -380 5424 5425 5426 0
363 -5432 0
-5433 362 0
-5434 356 0
-5435 332 0
-5436 300 0
5432 5434 -380 5433 5435 5436 0
-5442 315 0
-5443 314 0
-5444 308 0
-5445 300 0
-5446 284 0
5444 5442 -380 5443 5445 5446 0
-377 -8 0
-245 -12 0
-237 -20 0
-22 -363 0
-221 -36 0
-68 -189 0
-315 -70 0
-3 0
-5 0
-9 0
-17 0
-33 0
127 0
70 -69 0
-67 68 0
56 -55 0
36 -35 0
-31 32 0
21 -22 0
-19 20 0
19 -20 0
12 -11 0
8 -7 0
-8 7 0
254 0
-314 -69 0
-362 -21 0
-308 -69 0
-356 -21 0
-370 -7 0
-300 -69 0
-362 -7 0
-284 -69 0
-332 -21 0
-346 -7 0
-300 -21 0
-314 -7 0
380 0
-186 -67 0
-59 -194 0
-218 -35 0
-234 -19 0
-242 -11 0
-182 -67 0
-55 -194 0
-214 -35 0
-230 -19 0
-174 -67 0
-206 -35 0
-230 -11 0
-158 -67 0
-206 -19 0
-214 -11 0
-158 -35 0
-174 -19 0
-182 -11 0
