p cnf 5592 600
128 0
256 0
384 0
-421 3 0
-422 5 0
-423 7 0
-15 423 422 421 0
-433 4 0
-434 6 0
-435 7 0
-16 435 433 434 0
-725 3 0
-726 4 0
-727 7 0
-728 11 0
38 -728 0
-729 14 0
-48 729 725 726 727 728 0
-740 16 0
-741 15 0
-742 14 0
-743 12 0
-744 8 0
-48 743 741 740 742 744 0
-1075 3 0
-1076 67 0
-1077 65 0
-75 1076 1075 1077 0
-1099 5 0
-1100 69 0
-1101 65 0
-77 1100 1099 1101 0
-1123 7 0
-1124 69 0
-1125 67 0
-79 1125 1123 1124 0
-1145 3 0
-1146 4 0
-1147 7 0
-1148 70 0
-1149 67 0
-80 1149 1145 1146 1147 1148 0
-1447 3 0
-1448 67 0
-1449 65 0
-99 1448 1447 1449 0
-1471 5 0
-1472 69 0
-1473 65 0
-101 1472 1471 1473 0
-1495 7 0
-1496 69 0
-1497 67 0
-103 1497 1495 1496 0
-1517 3 0
-1518 4 0
-1519 7 0
-1520 70 0
-1521 67 0
-104 1521 1517 1518 1519 1520 0
-1561 97 0
-1562 73 0
-1563 67 0
-107 1562 1561 1563 0
-1578 107 0
-1579 4 0
-1580 99 0
-1581 75 0
43 -1582 0
1582 -108 1579 1580 1578 1581 0
-1588 100 0
-1589 99 0
98 -1590 0
-1591 68 0
-1592 36 0
-108 1590 1592 1589 1591 1588 0
-1620 109 0
-1621 6 0
-1622 101 0
-1623 77 0
45 -1624 0
1624 -110 1621 1622 1623 1620 0
-1650 3 0
-1651 7 0
-1652 101 0
-1653 77 0
-1654 67 0
-111 1654 1650 1651 1653 1652 0
-1729 97 0
-1730 81 0
-1731 67 0
-115 1729 1731 1730 0
-2035 7 0
11 -2036 0
117 -2036 0
-2037 19 0
-2037 109 0
35 -2038 0
-2038 93 0
-2039 67 0
2036 2037 -127 2035 2039 2038 0
-2040 7 0
-2041 115 0
-2042 107 0
-2043 91 0
-2044 69 0
2041 2042 -127 2040 2044 2043 0
-2045 117 0
-2046 115 0
-2047 103 0
-2048 87 0
-2049 73 0
2045 2046 -127 2049 2048 2047 0
-2050 19 0
-2050 109 0
21 -2051 0
-2051 107 0
-2052 103 0
-2053 79 0
-2054 81 0
2052 2050 -127 2054 2053 2051 0
61 -2060 0
-2061 59 0
-2062 55 0
-2063 47 0
-2064 31 0
2060 2061 -127 2064 2063 2062 0
-2100 112 0
-2101 111 0
-2102 19 0
110 -2102 0
21 -2103 0
-2103 108 0
-2104 104 0
-2105 80 0
-2106 48 0
2101 2102 2103 2104 2105 2106 -128 2100 0
-2277 134 0
-2278 149 0
-2279 146 0
141 -2279 0
-158 2279 2278 2277 0
-2799 130 0
-2800 194 0
-2801 193 0
-202 2800 2799 2801 0
-2835 133 0
-2836 197 0
-2837 193 0
-205 2836 2835 2837 0
-2847 134 0
-2848 197 0
-2849 194 0
-206 2847 2848 2849 0
-2876 130 0
-2877 205 0
-2878 134 0
-2879 199 0
-2880 194 0
-208 2878 2876 2877 2879 2880 0
-2949 134 0
-2950 197 0
-2951 194 0
-214 2949 2950 2951 0
-3015 209 0
-3016 201 0
-3017 194 0
3016 -218 3015 3017 0
-3171 130 0
-3172 194 0
-3173 193 0
-226 3172 3171 3173 0
-3207 133 0
-3208 197 0
-3209 193 0
-229 3208 3207 3209 0
-3219 134 0
-3219 225 0
-3220 197 0
-3221 194 0
-230 3219 3220 3221 0
-3248 130 0
-3249 229 0
-3250 134 0
-3251 199 0
-3252 194 0
-232 3250 3248 3249 3251 3252 0
-3319 234 0
-3320 132 0
-3321 226 0
-3322 202 0
-3323 195 0
-236 3323 3320 3321 3322 3319 0
-3351 130 0
-3352 133 0
-3353 230 0
-3354 206 0
-3355 193 0
-238 3354 3352 3351 3353 3355 0
-3356 130 0
-3357 134 0
-3358 229 0
-3359 205 0
-3360 194 0
-238 3357 3356 3358 3359 3360 0
-3741 249 0
-3742 245 0
-3743 237 0
-3744 221 0
-3745 194 0
3744 3741 -254 3742 3743 3745 0
-3746 134 0
-3746 249 0
-3747 242 0
149 -3748 0
-3748 234 0
-3749 218 0
197 -3750 0
3750 3747 -254 3746 3748 3749 0
-3751 245 0
-3752 242 0
-3753 230 0
-3754 214 0
-3755 201 0
3755 3753 -254 3752 3754 3751 0
146 -3756 0
-3756 237 0
-3757 234 0
-3758 230 0
-3759 206 0
-3760 209 0
3759 3760 -254 3756 3758 3757 0
162 -3761 0
-3761 221 0
-3762 218 0
-3763 214 0
-3764 206 0
-3765 225 0
-3765 158 0
3762 3761 -254 3765 3764 3763 0
-3766 194 0
-3767 197 0
201 -3768 0
-3768 182 0
-3769 209 0
-3769 174 0
-3770 225 0
-3770 158 0
3767 3766 -254 3768 3770 3769 0
-3836 240 0
146 -3837 0
-3837 239 0
-3838 238 0
-3839 149 0
-3839 236 0
-3840 232 0
-3841 208 0
-3842 176 0
3838 3837 3839 3840 3841 3842 -256 3836 0
-3869 258 0
-3870 259 0
-3871 260 0
-268 3871 3870 3869 0
-3917 258 0
-3918 259 0
-3919 260 0
-276 3919 3918 3917 0
-4057 280 0
279 -4058 0
-4059 278 0
-4060 276 0
-4061 264 0
4058 4059 -288 4060 4057 4061 0
272 -4062 0
-4063 274 0
-4063 271 0
-4064 270 0
-4065 268 0
-4066 264 0
4062 -288 4063 4064 4065 4066 0
-4067 258 0
-4068 259 0
-4069 260 0
-292 4069 4068 4067 0
-4139 260 0
-4140 291 0
-4141 290 0
-300 4140 4139 4141 0
-4207 296 0
-4208 266 0
295 -4208 0
-4209 294 0
-4210 292 0
-4211 264 0
-304 4209 4208 4207 4210 4211 0
-4241 260 0
-4242 291 0
-4243 290 0
-308 4242 4241 4243 0
-4299 259 0
-4300 260 0
-4301 263 0
-4302 294 0
-4303 278 0
4301 -312 4299 4302 4300 4303 0
-4535 258 0
-4536 322 0
-4537 321 0
-330 4536 4535 4537 0
-4547 259 0
-4548 323 0
-4549 321 0
-331 4548 4547 4549 0
-4559 260 0
-4560 323 0
-4561 322 0
-332 4559 4560 4561 0
-4612 258 0
-4613 260 0
-4614 331 0
-4615 327 0
-4616 322 0
-336 4613 4612 4614 4615 4616 0
-4617 259 0
-4618 260 0
-4619 330 0
-4620 326 0
-4621 323 0
-336 4618 4617 4619 4620 4621 0
-4637 258 0
-4638 322 0
-4639 321 0
-338 4638 4637 4639 0
-4649 259 0
-4650 323 0
-4651 321 0
-339 4650 4649 4651 0
-4714 258 0
-4715 260 0
-4716 339 0
-4717 327 0
-4718 322 0
-344 4716 4714 4715 4717 4718 0
-4780 258 0
-4781 260 0
-4782 339 0
-4783 274 0
-4783 331 0
-4784 322 0
-348 4782 4780 4781 4783 4784 0
-4837 334 0
-4838 274 0
-4839 330 0
-4840 326 0
-4841 270 0
-350 4841 4838 4839 4840 4837 0
-4867 335 0
-4868 275 0
-4869 331 0
-4870 327 0
-4871 271 0
-351 4871 4867 4868 4870 4869 0
-4907 258 0
-4908 322 0
-4909 321 0
-354 4908 4907 4909 0
-4919 259 0
-4920 323 0
-4921 321 0
-355 4920 4919 4921 0
-4931 260 0
-4932 323 0
-4933 322 0
-356 4931 4932 4933 0
-4984 258 0
-4985 260 0
-4986 355 0
-4987 327 0
-4988 322 0
-360 4986 4984 4985 4987 4988 0
-5050 258 0
-5051 260 0
-5052 355 0
-5053 331 0
-5054 322 0
-364 5051 5050 5053 5052 5054 0
-5055 259 0
-5056 260 0
-5057 354 0
-5058 330 0
-5059 323 0
-364 5056 5055 5057 5058 5059 0
-5097 362 0
-5098 262 0
-5099 354 0
-5100 330 0
-5101 325 0
5101 -366 5097 5099 5100 5098 0
-5218 258 0
-5219 260 0
-5220 355 0
-5221 339 0
-5222 322 0
-372 5221 5218 5219 5220 5222 0
-5275 342 0
-5276 290 0
-5277 338 0
-5278 326 0
-5279 278 0
-374 5279 5275 5277 5278 5276 0
-5417 260 0
-5417 377 0
-5418 371 0
-5419 363 0
-5420 347 0
-5421 322 0
5420 5418 -380 5417 5419 5421 0
-5432 274 0
-5432 363 0
-5433 275 0
-5433 362 0
-5434 356 0
-5435 332 0
-5436 337 0
-5436 300 0
5435 5433 -380 5432 5436 5434 0
-5442 322 0
323 -5443 0
-5443 314 0
-5444 308 0
-5445 300 0
-5446 284 0
5443 5444 -380 5442 5445 5446 0
-5565 376 0
-5566 266 0
-5567 374 0
-5568 372 0
-5569 360 0
-5570 344 0
-5571 312 0
5567 5566 5568 5569 5570 5571 -384 5565 0
-5572 368 0
-5573 274 0
-5574 275 0
-5574 366 0
-5575 364 0
-5576 360 0
-5577 336 0
-5578 337 0
-5578 304 0
5573 5574 5575 5576 5577 5578 -384 5572 0
-5579 352 0
-5580 290 0
351 -5580 0
-5581 350 0
-5582 348 0
-5583 344 0
-5584 336 0
-5585 288 0
5581 5580 5582 5583 5584 5585 -384 5579 0
-242 -271 0
-239 -274 0
-234 -279 0
-225 -288 0
-209 -304 0
-312 -201 0
-314 -199 0
-331 -182 0
-337 -176 0
-249 -8 0
-294 -209 -11 0
-374 -11 0
-12 -245 0
-14 -275 -225 0
-270 -225 -19 0
-294 -19 -201 0
-366 -19 0
-236 -21 0
-270 -209 -35 0
-278 -35 -201 0
-350 -35 0
-36 -337 -141 0
-38 -275 -201 0
-262 -43 -209 0
-325 -43 -146 0
-195 -45 -274 0
-132 -337 -45 0
-48 -209 0
-337 -48 0
-59 -326 0
-196 -61 0
-73 -279 -162 0
-73 -295 -146 0
-176 -81 0
-271 -81 -162 0
-81 -304 0
-290 -93 -131 0
-97 -271 -146 0
-97 -288 0
-98 -275 -141 0
-99 -158 0
-278 -107 0
-108 -149 0
-275 -110 0
-270 -115 0
-266 -117 -131 0
-3 0
-5 0
-65 0
127 0
-275 -237 0
-291 -221 0
-149 -363 0
-308 -197 0
-182 -323 0
-376 0
-240 0
-296 -201 0
-300 -197 0
-174 -323 0
-368 0
-263 -218 0
-209 -272 0
-280 -201 0
-284 -197 0
-158 -323 0
-335 -146 0
-352 0
-70 69 0
-68 67 0
8 -7 0
-8 7 0
-130 0
-133 0
-193 0
131 0
254 0
-274 -109 0
-69 -314 0
-322 -61 0
-362 -21 0
-377 -6 0
-117 -260 0
-103 -274 0
-308 -69 0
-55 -322 0
-342 -35 0
-356 -21 0
-371 -6 0
-112 0
-109 -260 0
-300 -69 0
-47 -322 0
-363 -6 0
-93 -260 0
-87 -266 0
-79 -274 0
-69 -284 0
-31 -322 0
-332 -21 0
-334 -19 0
-347 -6 0
199 -197 0
-199 197 0
196 -194 0
-258 0
-259 0
-321 0
380 0
-107 -146 0
-91 -162 0
-59 -194 0
-218 -35 0
-234 -19 0
-242 -11 0
-249 -4 0
-134 -115 0
-103 -146 0
-182 -67 0
-55 -194 0
-214 -35 0
-242 -7 0
-245 -4 0
-134 -107 0
-100 -141 0
-174 -67 0
-47 -194 0
-206 -35 0
-234 -7 0
-237 -4 0
-91 -134 0
-158 -67 0
-31 -194 0
-206 -19 0
-218 -7 0
-221 -4 0
-327 323 0
326 -322 0
-326 322 0
-264 260 0
