p cnf 5592 899
128 0
256 0
384 0
-421 3 0
-422 5 0
-423 7 0
-15 423 422 421 0
-553 7 0
-553 25 0
-554 11 0
-554 21 0
-555 19 0
-555 13 0
554 553 -31 555 0
-703 7 0
-704 37 0
-705 35 0
-47 704 705 703 0
-757 3 0
-758 17 0
-759 33 0
-51 757 758 759 0
-781 5 0
-782 17 0
-783 33 0
-53 781 782 783 0
-805 7 0
-805 49 0
-806 19 0
-806 37 0
-807 35 0
-807 21 0
-55 805 806 807 0
-832 5 0
-833 51 0
-834 7 0
-835 36 0
-836 37 0
-836 20 0
-56 835 832 833 836 834 0
-871 11 0
-871 49 0
-872 19 0
-873 35 0
-873 25 0
-59 871 872 873 0
-960 3 0
-961 7 0
-962 53 0
-963 19 0
-964 29 0
-63 963 960 962 961 964 0
-1039 3 0
-1040 5 0
-1041 65 0
-71 1039 1040 1041 0
-1075 3 0
-1076 67 0
-1077 65 0
-75 1076 1075 1077 0
-1099 5 0
-1100 69 0
-1101 65 0
-77 1100 1099 1101 0
-1135 79 0
-1136 3 0
-1137 5 0
-1138 72 0
-1139 65 0
-80 1138 1136 1137 1135 1139 0
-1140 79 0
-1141 4 0
-1142 75 0
-1143 71 0
-1144 15 0
-80 1142 1141 1140 1143 1144 0
-1177 3 0
-1178 17 0
-1179 65 0
-83 1177 1178 1179 0
-1201 5 0
-1202 17 0
-1203 65 0
-85 1201 1202 1203 0
-1225 7 0
19 -1226 0
-1227 67 0
1226 1227 -87 1225 0
-1267 81 0
-1268 17 0
-1269 65 0
-89 1267 1268 1269 0
-1308 91 0
-1309 4 0
-1310 83 0
-1311 75 0
-1312 66 0
1312 -92 1309 1310 1308 1311 0
-1333 81 0
-1334 73 0
-1335 25 0
1333 -93 1334 1335 0
-1350 93 0
-1351 89 0
-1352 85 0
-1353 77 0
-1354 66 0
-94 1354 1350 1352 1353 1351 0
-1375 3 0
-1376 5 0
-1377 87 0
-1378 17 0
-1379 65 0
-95 1377 1376 1375 1378 1379 0
-1573 107 0
-1574 3 0
-1575 100 0
-1576 33 0
-1577 65 0
-108 1575 1574 1573 1576 1577 0
-1603 97 0
-1604 37 0
-1605 69 0
-109 1605 1603 1604 0
-1609 37 0
-1609 73 0
-1610 69 0
-1611 13 0
-109 1610 1611 1609 0
-1729 19 0
-1730 35 0
-1731 67 0
-1731 49 0
-115 1731 1730 1729 0
-1873 25 0
-1874 41 0
-1874 81 0
-1875 49 0
-121 1875 1873 1874 0
-2035 7 0
-2035 121 0
-2036 117 0
-2037 19 0
-2037 109 0
-2038 93 0
-2039 67 0
2037 2035 -127 2038 2039 2036 0
-2040 7 0
-2040 121 0
-2041 13 0
-2041 115 0
-2042 21 0
-2042 107 0
-2043 37 0
-2043 91 0
69 -2044 0
-2044 59 0
2042 2040 -127 2044 2043 2041 0
-2045 117 0
13 -2046 0
-2046 115 0
-2047 25 0
-2047 103 0
-2048 87 0
-2049 73 0
-2049 55 0
2045 2047 -127 2048 2049 2046 0
-2050 19 0
-2050 109 0
-2051 21 0
-2051 107 0
-2052 25 0
-2052 103 0
-2053 49 0
-2053 79 0
81 -2054 0
-2054 47 0
2052 2053 -127 2054 2050 2051 0
-2055 35 0
-2055 93 0
-2056 37 0
-2056 91 0
-2057 87 0
-2058 49 0
-2058 79 0
97 -2059 0
-2059 31 0
2055 2058 -127 2059 2056 2057 0
-2060 61 0
-2061 59 0
-2062 55 0
-2063 47 0
-2064 31 0
2060 2062 -127 2064 2063 2061 0
-2079 3 0
-2080 4 0
-2081 7 0
-2082 118 0
-2083 19 0
-2084 94 0
-2085 67 0
2081 2080 2082 2083 2084 2085 -128 2079 0
-2100 17 0
-2101 111 0
-2102 19 0
108 -2103 0
-2104 104 0
-2105 80 0
-2106 48 0
2102 2101 2103 2104 2105 2106 -128 2100 0
-2107 33 0
-2108 95 0
-2109 35 0
-2109 94 0
-2110 92 0
-2111 88 0
-2112 49 0
80 -2112 0
-2113 32 0
2109 2108 2110 2111 2112 2113 -128 2107 0
-2114 65 0
-2115 66 0
-2115 63 0
-2116 67 0
-2117 60 0
-2118 73 0
-2118 56 0
-2119 81 0
-2120 32 0
2116 2115 2117 2118 2119 2120 -128 2114 0
-2145 130 0
-2146 133 0
-2147 137 0
-142 2145 2146 2147 0
-2193 130 0
-2194 133 0
-2195 134 0
-150 2195 2194 2193 0
-2229 130 0
-2230 137 0
-2231 138 0
-154 2231 2230 2229 0
-2277 134 0
-2278 138 0
-2279 141 0
-158 2279 2278 2277 0
-2379 130 0
-2380 137 0
-2381 161 0
-170 2379 2380 2381 0
-2415 133 0
-2416 137 0
-2417 161 0
-173 2415 2416 2417 0
-2427 134 0
-2427 169 0
-2428 138 0
-2428 165 0
-2429 162 0
-2429 141 0
-174 2427 2429 2428 0
-2456 130 0
-2457 173 0
-2458 134 0
-2458 171 0
-2459 138 0
-2459 167 0
-2460 162 0
-2460 143 0
-176 2458 2456 2457 2460 2459 0
-2466 133 0
-2467 171 0
-2468 170 0
-2469 141 0
-2469 164 0
-2470 140 0
-176 2467 2466 2468 2469 2470 0
-2476 161 0
-2477 143 0
-2478 142 0
-2479 165 0
-2480 136 0
-176 2480 2476 2478 2477 2479 0
-2595 138 0
-2596 169 0
-2597 162 0
-186 2596 2597 2595 0
-2763 130 0
-2764 133 0
-2765 193 0
-198 2763 2764 2765 0
-2799 130 0
-2800 137 0
-2801 193 0
-202 2799 2800 2801 0
134 -2847 0
-2848 138 0
197 -2848 0
-2849 194 0
2847 -206 2848 2849 0
-2901 130 0
-2902 194 0
-2903 193 0
-210 2902 2901 2903 0
-2937 133 0
-2938 197 0
-2939 193 0
-213 2938 2937 2939 0
-2949 134 0
-2950 146 0
-2951 194 0
2950 -214 2949 2951 0
-2973 130 0
-2974 214 0
-2975 133 0
-2976 200 0
-2977 193 0
2976 -216 2973 2975 2974 2977 0
-2978 130 0
-2979 213 0
-2980 134 0
-2981 146 0
-2982 194 0
2979 2981 2978 2980 -216 2982 0
-2983 214 0
-2984 132 0
-2985 210 0
-2986 198 0
-2987 150 0
2984 -216 2983 2985 2986 2987 0
-2988 133 0
-2989 134 0
-2990 210 0
-2991 196 0
-2992 197 0
148 -2992 0
2992 -216 2988 2990 2991 2989 0
-2993 200 0
-2994 146 0
-2995 198 0
-2996 196 0
-2997 136 0
2994 2993 2997 2995 2996 -216 0
-3039 130 0
-3040 218 0
-3041 137 0
-3042 204 0
-3043 193 0
3042 -220 3039 3041 3040 3043 0
-3049 218 0
-3050 132 0
-3051 210 0
-3052 202 0
-3053 154 0
3050 3053 3049 3051 3052 -220 0
-3059 204 0
-3060 146 0
-3061 202 0
-3062 196 0
-3063 140 0
3060 3059 3063 3061 3062 -220 0
-3081 130 0
-3082 133 0
-3083 137 0
-3084 206 0
-3085 193 0
-222 3084 3082 3083 3081 3085 0
-3171 130 0
-3172 161 0
-3173 193 0
-226 3171 3172 3173 0
-3195 225 0
-3196 162 0
-3197 194 0
-228 3196 3195 3197 0
-3258 133 0
-3259 134 0
-3260 226 0
-3261 196 0
-3262 197 0
-3262 164 0
-232 3259 3258 3260 3261 3262 0
-3329 161 0
-3330 162 0
-3331 202 0
-3332 196 0
-3333 225 0
-3333 140 0
-236 3330 3329 3331 3332 3333 0
-3339 141 0
-3340 165 0
-3341 169 0
-237 3340 3339 3341 0
-3453 146 0
-3453 225 0
-3454 162 0
-3455 194 0
-242 3454 3453 3455 0
-3477 130 0
-3478 242 0
-3479 228 0
-3480 161 0
-3481 193 0
-244 3479 3477 3478 3480 3481 0
-3507 149 0
-3508 165 0
-3509 197 0
3509 3508 3507 -245 0
-3519 130 0
-3520 133 0
-3521 230 0
-3522 161 0
-3523 193 0
-246 3521 3520 3519 3522 3523 0
-3529 133 0
-3530 134 0
-3531 226 0
-3532 210 0
-3533 197 0
-246 3533 3529 3531 3532 3530 0
-3569 161 0
-3570 213 0
-3571 165 0
-3572 199 0
-3573 151 0
-247 3572 3569 3573 3571 3570 0
-3621 130 0
-3622 137 0
-3623 234 0
-3624 161 0
-3625 193 0
-250 3623 3622 3621 3624 3625 0
-3711 133 0
-3712 137 0
-3713 237 0
-3714 161 0
-3715 193 0
-253 3713 3712 3711 3714 3715 0
-3741 134 0
-3741 249 0
-3742 138 0
-3742 245 0
-3743 146 0
-3743 237 0
162 -3744 0
-3744 221 0
-3745 194 0
3744 3741 -254 3742 3743 3745 0
-3746 134 0
-3747 141 0
-3747 242 0
-3748 234 0
-3749 165 0
-3749 218 0
-3750 197 0
-3750 186 0
3750 3749 -254 3746 3748 3747 0
146 -3756 0
-3756 237 0
-3757 149 0
-3757 234 0
-3758 230 0
-3759 206 0
-3760 174 0
3758 3759 -254 3756 3760 3757 0
-3761 162 0
-3761 221 0
165 -3762 0
218 -3762 0
-3763 169 0
-3763 214 0
-3764 206 0
-3765 225 0
158 -3765 0
3764 3763 -254 3762 3761 3765 0
-3766 194 0
-3767 186 0
182 -3768 0
-3769 174 0
-3770 225 0
158 -3770 0
3768 3767 -254 3766 3770 3769 0
-3808 255 0
-3809 132 0
-3809 253 0
-3810 134 0
-3811 247 0
-3812 146 0
-3812 239 0
-3813 162 0
-3814 194 0
3809 3810 3811 3812 3813 3814 -256 3808 0
-3822 133 0
-3823 134 0
-3824 135 0
-3824 250 0
-3825 141 0
-3825 244 0
-3826 149 0
-3826 236 0
-3827 165 0
-3827 220 0
197 -3828 0
3824 3823 3825 3826 3827 3828 -256 3822 0
-3829 248 0
-3830 138 0
-3830 247 0
-3831 246 0
141 -3832 0
-3832 244 0
-3833 232 0
-3834 169 0
-3834 216 0
-3835 184 0
3830 3831 3832 3833 3834 3835 -256 3829 0
-3840 232 0
-3843 161 0
-3844 162 0
-3844 223 0
-3845 222 0
-3846 165 0
220 -3846 0
-3847 169 0
216 -3847 0
-3848 208 0
-3849 225 0
-3849 160 0
3844 3845 3846 3847 3848 3849 -256 3843 0
-3989 260 0
-3990 266 0
-3990 275 0
-3991 274 0
-3991 267 0
-284 3989 3990 3991 0
-4139 260 0
-4140 266 0
-4141 290 0
-300 4140 4139 4141 0
-4343 267 0
-4344 275 0
-4345 291 0
281 -4345 0
4344 -315 4345 4343 0
-4559 329 0
-4560 266 0
-4561 267 0
-332 4561 4559 4560 0
-4661 260 0
337 -4661 0
-4662 274 0
-4663 275 0
-340 4661 4663 4662 0
-4751 266 0
-4751 337 0
-4752 274 0
-4752 329 0
-4753 322 0
-346 4751 4752 4753 0
-4763 337 0
-4764 275 0
-4765 323 0
-347 4765 4763 4764 0
-4931 353 0
-4932 290 0
-4995 355 0
-4998 292 0
-5009 353 0
-5010 329 0
-5011 321 0
-361 5009 5010 5011 0
-5051 361 0
-5052 355 0
-5053 290 0
-5064 292 0
-5189 274 0
-5189 353 0
-5190 290 0
-5190 337 0
-5191 322 0
-370 5190 5189 5191 0
-5345 353 0
-5346 337 0
-5347 329 0
-377 5345 5346 5347 0
-5417 260 0
-5417 377 0
266 -5418 0
-5418 371 0
-5419 274 0
363 -5419 0
-5420 290 0
-5420 347 0
322 -5421 0
-5421 315 0
5418 5417 -380 5420 5421 5419 0
-5422 260 0
-5422 377 0
-5423 267 0
370 -5423 0
-5424 275 0
362 -5424 0
-5425 291 0
-5425 346 0
-5426 323 0
-5426 314 0
5423 5422 -380 5425 5424 5426 0
-5427 266 0
-5427 371 0
-5428 267 0
-5428 370 0
281 -5429 0
356 -5429 0
-5430 340 0
-5431 329 0
-5431 308 0
5429 5428 -380 5430 5431 5427 0
-5432 363 0
362 -5433 0
-5434 356 0
-5435 332 0
-5436 337 0
-5436 300 0
5433 5434 -380 5435 5436 5432 0
-5437 290 0
-5437 347 0
-5438 346 0
-5439 297 0
-5439 340 0
-5440 332 0
-5441 353 0
-5441 284 0
5441 5440 -380 5439 5437 5438 0
-5442 322 0
-5442 315 0
-5443 314 0
-5444 329 0
-5444 308 0
-5445 337 0
-5445 300 0
353 -5446 0
-5446 284 0
5446 5445 -380 5443 5442 5444 0
-5467 349 0
-5468 293 0
-5469 341 0
-5470 333 0
-5471 353 0
-381 5467 5468 5469 5470 5471 0
-5544 383 0
-5545 260 0
-5545 381 0
-5546 262 0
-5547 375 0
-5548 274 0
-5548 367 0
-5549 290 0
-5549 351 0
-5550 322 0
-5550 319 0
5545 5546 5547 5548 5549 5550 -384 5544 0
-5586 321 0
-5587 322 0
-5588 323 0
-5589 325 0
-5589 316 0
-5590 329 0
-5591 304 0
353 -5592 0
-5592 288 0
5587 5588 5589 5590 5591 5592 -384 5586 0
-247 -266 0
-274 -239 0
-225 -288 0
-223 -290 0
-213 -300 0
-314 -199 0
-316 -197 0
-327 -186 0
-329 -184 0
-337 -176 0
-346 -167 0
-351 -162 0
-160 -353 0
-355 -158 0
-151 -362 0
-367 -146 0
-143 -370 0
-375 -138 0
-377 -136 0
-315 -197 -2 0
-347 -165 -2 0
-149 -363 -2 0
-371 -141 -2 0
-8 -225 -281 0
-8 -337 -169 0
-8 -377 0
-13 -244 0
-326 -169 -19 0
-237 -20 0
-329 -20 -165 0
-141 -353 -20 0
-236 -21 0
-329 -21 -164 0
-21 -353 -140 0
-22 -323 -169 0
-232 -25 0
-262 -25 -227 0
-25 -264 -225 0
-290 -25 -199 0
-322 -25 -167 0
-325 -25 -164 0
-25 -327 -162 0
-25 -353 -136 0
-29 -356 0
-32 -225 0
-32 -353 0
-333 -146 -35 0
-341 -138 -35 0
-221 -36 0
-281 -197 -36 0
-337 -141 -36 0
-349 -36 0
-37 -220 0
-337 -140 -37 0
-347 -38 0
-41 -216 0
-48 -337 0
-49 -208 0
-266 -49 -199 0
-322 -143 -49 0
-329 -49 -136 0
-267 -50 -197 0
-329 -56 0
-326 -59 0
-60 -197 0
-61 -196 0
-66 -281 -167 0
-66 -319 0
-274 -69 -171 0
-69 -281 -164 0
-316 -69 0
-275 -70 -169 0
-315 -70 0
-184 -73 0
-73 -274 -167 0
-81 -176 0
-264 -81 -169 0
-293 -81 -140 0
-304 -81 0
-169 -88 0
-92 -165 0
-93 -164 0
-292 -93 0
-94 -291 0
-95 -162 0
-160 -97 0
-274 -143 -97 0
-288 -97 0
-141 -275 -98 0
-135 -281 -98 0
-104 -281 0
-109 -148 0
-109 -274 -131 0
-111 -146 0
-117 -140 0
-266 -117 -131 0
-267 -118 0
-121 -136 0
-121 -262 -131 0
-121 -264 0
-3 0
-5 0
-17 0
-33 0
-65 0
2 0
127 0
-255 0
-267 -245 0
-275 -237 0
-221 -291 0
-383 0
-248 0
-260 -245 0
-291 -214 0
-308 -197 0
-323 -182 0
-340 -165 0
-356 -149 0
-371 -134 0
118 -117 0
-118 117 0
-103 104 0
-104 103 0
98 -97 0
88 -87 0
-88 87 0
70 -69 0
56 -55 0
50 -49 0
38 -37 0
36 -35 0
-36 35 0
22 -21 0
20 -19 0
-7 8 0
-130 0
-133 0
-137 0
-161 0
-193 0
131 0
254 0
-290 -93 0
-314 -69 0
-346 -37 0
-21 -362 0
-109 -260 0
-262 -107 0
-290 -79 0
-72 -297 0
-300 -69 0
-322 -47 0
-332 -37 0
-13 -356 0
-7 -362 0
239 -237 0
-239 237 0
-234 236 0
-236 234 0
-230 232 0
-232 230 0
227 -225 0
208 -206 0
-208 206 0
199 -197 0
-199 197 0
196 -194 0
-196 194 0
176 -174 0
167 -165 0
-167 165 0
164 -162 0
-164 162 0
-141 143 0
140 -138 0
-140 138 0
136 -134 0
-136 134 0
-321 0
380 0
-115 -138 0
-107 -146 0
-91 -162 0
-67 -186 0
-59 -194 0
-204 -49 0
-218 -35 0
-228 -25 0
-234 -19 0
-11 -242 0
-249 -4 0
-115 -134 0
-103 -146 0
-87 -162 0
-67 -182 0
-55 -194 0
-200 -49 0
-214 -35 0
-228 -21 0
-230 -19 0
-242 -7 0
-245 -4 0
-107 -134 0
-103 -138 0
-100 -141 0
-79 -162 0
-72 -169 0
-67 -174 0
-47 -194 0
-206 -35 0
-11 -230 0
-234 -7 0
-237 -4 0
-132 -93 0
-91 -134 0
-138 -87 0
-79 -146 0
-67 -158 0
-31 -194 0
-200 -25 0
-204 -21 0
-19 -206 0
-7 -218 0
-221 -4 0
-323 327 0
-327 323 0
-322 326 0
-260 264 0
