p cnf 5592 521
128 0
-619 3 0
-620 5 0
-621 33 0
-39 619 620 621 0
-631 4 0
-632 6 0
-633 7 0
-40 633 631 632 0
-715 47 0
-716 3 0
-717 5 0
-718 40 0
-719 33 0
-48 718 716 717 715 719 0
-730 5 0
-731 6 0
-732 7 0
-733 36 0
-734 12 0
734 -48 730 731 732 733 0
-837 17 0
-838 39 0
-839 19 0
-840 21 0
-840 36 0
8 -841 0
841 -56 837 838 840 839 0
-955 3 0
-956 5 0
-957 55 0
-958 17 0
-959 33 0
-63 957 956 955 958 959 0
-1039 3 0
-1040 5 0
-1041 65 0
-71 1039 1040 1041 0
-1051 4 0
-1052 6 0
-1053 7 0
-72 1053 1051 1052 0
-1099 5 0
-1100 69 0
-1101 65 0
-77 1100 1099 1101 0
-1123 7 0
-1124 69 0
-1125 67 0
13 -1125 0
1123 1124 1125 -79 0
-1135 79 0
-1136 3 0
-1137 5 0
-1138 72 0
-1139 65 0
-80 1138 1136 1137 1135 1139 0
-1155 72 0
-1156 71 0
-1157 70 0
-1158 68 0
-1159 8 0
-80 1157 1156 1158 1159 1155 0
-1177 3 0
-1178 17 0
-1179 65 0
-83 1177 1178 1179 0
-1201 5 0
-1202 17 0
-1203 65 0
-85 1201 1202 1203 0
-1252 5 0
-1253 83 0
-1254 7 0
-1255 21 0
-1255 68 0
-1256 69 0
-88 1254 1252 1253 1255 1256 0
-1375 3 0
-1376 5 0
-1377 87 0
-1378 17 0
-1379 65 0
-95 1377 1376 1375 1378 1379 0
-1459 4 0
-1460 67 0
-1461 35 0
-100 1459 1460 1461 0
-1471 5 0
-1472 33 0
-1473 65 0
-101 1471 1472 1473 0
-1517 3 0
-1518 101 0
-1519 7 0
-1520 70 0
-1521 67 0
-1521 38 0
-104 1520 1517 1518 1521 1519 0
-1524 7 0
-1561 11 0
-1562 35 0
-1563 67 0
-107 1561 1562 1563 0
-1573 107 0
-1574 3 0
-1575 100 0
-1576 33 0
-1577 65 0
-108 1575 1574 1573 1576 1577 0
-1595 35 0
13 -1603 0
-1604 37 0
-1605 69 0
1603 -109 1604 1605 0
-1635 33 0
-1636 77 0
-1637 37 0
-1638 70 0
-1639 14 0
-110 1639 1635 1636 1638 1637 0
-1645 3 0
-1646 5 0
-1647 103 0
-1648 33 0
-1649 65 0
-111 1647 1646 1645 1648 1649 0
-1729 19 0
-1730 35 0
-1731 67 0
-115 1730 1731 1729 0
-1771 21 0
-1772 37 0
-1773 69 0
-117 1771 1772 1773 0
-1803 33 0
-1804 85 0
-1805 37 0
-1806 70 0
-1807 22 0
-118 1805 1803 1804 1806 1807 0
-1813 3 0
-1814 5 0
-1815 17 0
-1816 33 0
-1817 65 0
-119 1813 1814 1815 1816 1817 0
-2035 7 0
-2036 117 0
-2037 109 0
-2038 35 0
-2039 67 0
2036 2037 -127 2039 2035 2038 0
-2040 7 0
-2040 121 0
-2041 115 0
-2042 21 0
-2042 107 0
-2043 37 0
-2044 69 0
2040 2041 -127 2043 2042 2044 0
-2047 103 0
-2050 19 0
-2050 109 0
-2051 21 0
-2051 107 0
-2052 103 0
-2053 79 0
-2054 47 0
2050 2054 -127 2053 2051 2052 0
35 -2055 0
-2056 37 0
-2056 91 0
-2057 87 0
-2058 79 0
-2059 31 0
2055 2056 -127 2059 2058 2057 0
-2060 61 0
-2061 69 0
-2061 59 0
-2062 55 0
-2063 47 0
-2064 31 0
2060 2061 -127 2064 2062 2063 0
-2079 3 0
-2080 4 0
-2081 7 0
-2082 118 0
-2083 19 0
-2084 35 0
-2085 67 0
2080 2081 2082 2083 2084 2085 -128 2079 0
-2093 120 0
-2094 119 0
-2095 11 0
118 -2095 0
13 -2096 0
-2096 116 0
-2097 104 0
-2098 88 0
-2099 56 0
2096 2095 2097 2098 2099 -128 2093 2094 0
-2100 17 0
-2101 111 0
-2102 19 0
-2102 110 0
-2103 21 0
108 -2103 0
-2104 104 0
-2105 80 0
-2106 48 0
2101 2102 2103 2104 2105 2106 -128 2100 0
-2107 33 0
-2108 95 0
-2109 35 0
-2110 37 0
-2111 88 0
-2112 80 0
-2113 32 0
2108 2109 2110 2111 2112 2113 -128 2107 0
-2114 65 0
-2115 63 0
-2116 67 0
-2116 62 0
-2117 69 0
-2118 56 0
48 -2119 0
-2120 32 0
2115 2116 2117 2118 2119 2120 -128 2114 0
-2277 134 0
-2278 138 0
-2278 149 0
-2279 146 0
-2279 141 0
2279 2277 -158 2278 0
-2427 134 0
-2428 138 0
-2428 165 0
-2429 162 0
-174 2427 2428 2429 0
-2529 134 0
-2530 146 0
-2530 165 0
-2531 162 0
-182 2529 2530 2531 0
-2847 134 0
-2847 201 0
-2848 138 0
-2848 197 0
-2849 194 0
-2849 141 0
-206 2847 2849 2848 0
-3741 134 0
-3741 249 0
-3742 138 0
-3742 245 0
146 -3743 0
-3743 237 0
162 -3744 0
194 -3745 0
189 -3745 0
3745 3743 -254 3741 3744 3742 0
-3746 134 0
-3746 249 0
-3747 141 0
-3747 242 0
-3748 234 0
-3749 165 0
-3750 197 0
-3750 186 0
3747 3749 -254 3746 3750 3748 0
-3756 146 0
-3757 149 0
-3757 234 0
-3758 230 0
-3759 206 0
-3760 174 0
3756 3758 -254 3759 3757 3760 0
-3761 162 0
-3761 221 0
-3762 218 0
-3763 214 0
-3764 206 0
-3765 158 0
3765 3763 -254 3762 3761 3764 0
-3766 194 0
-3766 189 0
-3767 197 0
-3767 186 0
-3768 201 0
-3768 182 0
-3769 209 0
-3769 174 0
225 -3770 0
-3770 158 0
3770 3769 -254 3767 3766 3768 0
-3989 260 0
-3990 266 0
-3990 275 0
-3991 274 0
-3991 267 0
-284 3989 3990 3991 0
-4148 290 0
-4148 267 0
-4149 266 0
-4150 297 0
-4150 260 0
-300 4149 4150 4148 0
-4241 260 0
-4242 274 0
-4243 275 0
-308 4241 4243 4242 0
-4295 309 0
-4331 266 0
-4332 297 0
-4333 290 0
4331 -314 4332 4333 0
-4559 260 0
-4560 266 0
-4560 323 0
-4561 322 0
-4561 267 0
-332 4559 4560 4561 0
-4661 260 0
-4662 323 0
-4663 322 0
-340 4661 4663 4662 0
-4713 280 0
-4931 260 0
-4931 353 0
-4932 323 0
-4933 322 0
-356 4931 4933 4932 0
-5264 309 0
-5417 260 0
-5417 377 0
266 -5418 0
-5418 371 0
-5419 274 0
-5419 363 0
290 -5420 0
347 -5420 0
-5421 322 0
315 -5421 0
5420 5419 -380 5417 5418 5421 0
-5422 260 0
-5422 377 0
-5423 267 0
-5423 370 0
-5424 362 0
-5425 346 0
-5426 323 0
-5426 314 0
5425 5424 -380 5426 5422 5423 0
-5427 371 0
-5428 370 0
-5429 356 0
-5430 340 0
-5431 308 0
5429 5431 -380 5427 5428 5430 0
-5432 274 0
-5432 363 0
-5433 275 0
-5433 362 0
-5434 356 0
-5435 332 0
-5436 300 0
5434 5433 -380 5436 5432 5435 0
-5437 347 0
-5438 346 0
-5439 340 0
-5440 332 0
353 -5441 0
-5441 284 0
5440 5438 -380 5441 5437 5439 0
-5442 315 0
-5443 314 0
-5444 308 0
-5445 300 0
-5446 284 0
5445 5443 -380 5444 5442 5446 0
-5585 288 0
-225 -288 0
-199 -314 0
-377 -136 0
-141 -371 -2 0
-249 -8 0
-377 -8 0
-12 -245 0
-14 -371 0
-20 -237 0
-22 -363 0
-32 -225 0
-32 -353 0
-221 -36 0
-38 -347 0
-209 -48 0
-201 -56 0
-61 -196 0
-62 -323 0
-309 -138 -67 0
-68 -189 0
-70 -315 0
-297 -88 0
-109 -274 -131 0
-110 -275 0
-115 -138 -261 0
-141 -116 0
-117 -266 -131 0
-267 -118 0
-121 -136 0
-3 0
-5 0
-17 0
-33 0
-65 0
2 0
127 0
-267 -245 0
-275 -237 0
-323 -189 0
-165 -347 0
-149 -363 0
-260 -245 0
-280 -225 0
-182 -323 0
-340 -165 0
-371 -134 0
-118 117 0
116 -115 0
-116 115 0
-103 104 0
-104 103 0
-87 88 0
-88 87 0
-69 70 0
-70 69 0
-67 68 0
-68 67 0
56 -55 0
-56 55 0
-37 38 0
36 -35 0
-36 35 0
-21 22 0
-19 20 0
-7 8 0
7 -8 0
131 0
254 0
-314 -69 0
-61 -322 0
-346 -37 0
-362 -21 0
-370 -13 0
-377 -6 0
-120 0
-260 -117 0
-103 -274 0
-87 -290 0
-308 -69 0
-55 -322 0
-340 -37 0
-356 -21 0
-370 -7 0
-371 -6 0
-260 -109 0
-103 -266 0
-79 -290 0
-300 -69 0
-47 -322 0
-332 -37 0
-356 -13 0
-362 -7 0
-363 -6 0
-87 -266 0
-274 -79 0
-284 -69 0
-322 -31 0
-21 -332 0
-340 -13 0
-346 -7 0
-347 -6 0
-197 199 0
196 -194 0
136 -134 0
261 0
380 0
-107 -146 0
-91 -162 0
-186 -67 0
-59 -194 0
-218 -35 0
-234 -19 0
-249 -4 0
-115 -134 0
-103 -146 0
-87 -162 0
-182 -67 0
-55 -194 0
-214 -35 0
-230 -19 0
-242 -7 0
-245 -4 0
-107 -134 0
-138 -103 0
-79 -162 0
-174 -67 0
-47 -194 0
-206 -35 0
-11 -230 0
-234 -7 0
-237 -4 0
-138 -55 0
-47 -146 0
-158 -35 0
-31 -162 0
-174 -19 0
-182 -11 0
-186 -7 0
-189 -4 0
