p cnf 5592 1373
128 0
256 0
384 0
-421 3 0
-422 5 0
-423 7 0
-15 423 422 421 0
-469 3 0
-470 5 0
-471 17 0
-23 469 470 471 0
-529 5 0
-530 21 0
-531 17 0
-29 530 529 531 0
-553 7 0
-553 25 0
-554 11 0
-554 21 0
-555 19 0
-555 13 0
-31 553 555 554 0
-570 31 0
-571 4 0
-572 27 0
-573 23 0
-574 15 0
570 -32 572 571 574 573 0
-575 3 0
-576 29 0
-577 7 0
-577 26 0
-578 22 0
-579 19 0
-32 577 579 576 578 575 0
-589 8 0
-619 3 0
-620 5 0
-621 33 0
-39 619 620 621 0
-655 3 0
-656 35 0
-657 33 0
-43 656 655 657 0
-679 5 0
-680 37 0
-681 33 0
-45 680 679 681 0
-703 7 0
-704 11 0
-704 37 0
-705 35 0
-47 703 705 704 0
-715 47 0
-716 3 0
-717 5 0
-718 40 0
-719 33 0
-48 718 715 717 716 719 0
-721 45 0
-722 43 0
-724 15 0
-781 5 0
-782 17 0
-783 33 0
-53 781 782 783 0
-805 7 0
-805 49 0
-806 19 0
-806 37 0
-807 35 0
-807 21 0
805 -55 806 807 0
-827 3 0
-828 53 0
-829 7 0
50 -829 0
-830 19 0
-831 35 0
829 -56 830 831 827 828 0
-834 7 0
-845 20 0
-846 8 0
-871 11 0
-871 49 0
-872 19 0
-873 35 0
872 -59 871 873 0
-883 59 0
-884 3 0
-885 52 0
-886 17 0
-887 33 0
-60 885 883 884 886 887 0
-903 17 0
-904 43 0
-905 19 0
-906 36 0
-907 12 0
907 905 -60 906 904 903 0
-925 61 0
-926 5 0
-927 54 0
-928 17 0
-929 33 0
-62 927 925 926 928 929 0
-955 3 0
-956 5 0
-957 55 0
-958 17 0
-959 33 0
-63 957 956 955 958 959 0
-968 43 0
-975 17 0
-976 19 0
-977 43 0
-978 39 0
-979 15 0
-63 979 976 977 978 975 0
-980 33 0
-981 35 0
-982 37 0
-983 23 0
-984 15 0
-63 984 982 981 983 980 0
-1075 3 0
-1076 67 0
-1077 65 0
-75 1076 1075 1077 0
-1099 5 0
-1100 69 0
-1101 65 0
-77 1100 1099 1101 0
-1123 7 0
-1124 69 0
-1125 67 0
-1125 13 0
1123 1125 1124 -79 0
-1135 79 0
-1136 3 0
-1137 5 0
-1138 72 0
-1139 65 0
-80 1138 1135 1137 1136 1139 0
-1145 3 0
-1146 77 0
-1147 74 0
-1148 70 0
-1149 67 0
-80 1149 1146 1147 1148 1145 0
-1150 5 0
-1151 75 0
-1152 7 0
-1153 68 0
-1154 69 0
-80 1152 1153 1154 1151 1150 0
-1160 65 0
-1161 15 0
-1162 67 0
-1163 69 0
-1164 8 0
-80 1161 1162 1164 1163 1160 0
-1177 3 0
-1178 17 0
-1179 65 0
-83 1177 1178 1179 0
-1201 5 0
-1202 17 0
-1203 65 0
-85 1201 1202 1203 0
-1225 7 0
-1225 81 0
-1226 19 0
-1226 69 0
-1227 67 0
-1227 21 0
-87 1227 1225 1226 0
-1251 67 0
-1262 65 0
-1263 23 0
-1264 67 0
-1265 69 0
-1266 8 0
-88 1266 1264 1265 1262 1263 0
-1267 81 0
-1268 17 0
-1269 65 0
-89 1267 1268 1269 0
-1291 11 0
-1291 81 0
19 -1292 0
-1293 67 0
-1293 25 0
1292 1291 1293 -91 0
-1356 89 0
-1357 82 0
-1359 69 0
-1360 86 0
-1361 85 0
-1362 82 0
-1363 70 0
-1364 22 0
-94 1364 1362 1363 1360 1361 0
-1365 17 0
-1366 77 0
-1367 21 0
-1367 74 0
-1368 70 0
-1369 81 0
-1369 14 0
-94 1367 1369 1368 1366 1365 0
-1375 3 0
-1376 5 0
-1377 87 0
-1378 17 0
-1379 65 0
-95 1377 1376 1375 1378 1379 0
-1471 5 0
-1472 33 0
-1473 65 0
-101 1471 1472 1473 0
-1495 7 0
-1495 97 0
-1496 35 0
-1496 69 0
-1497 67 0
-1497 37 0
-103 1495 1496 1497 0
-1519 7 0
-1521 67 0
-1524 7 0
-1531 8 0
-1536 8 0
-1561 11 0
-1562 35 0
-1563 67 0
-1563 41 0
1562 1563 -107 1561 0
-1594 75 0
-1596 68 0
-1615 109 0
-1616 5 0
-1617 102 0
-1618 33 0
-1619 65 0
-110 1617 1615 1616 1618 1619 0
-1645 3 0
-1646 5 0
-1647 103 0
-1648 33 0
-1649 65 0
-111 1647 1646 1645 1648 1649 0
-1650 3 0
-1651 7 0
-1652 101 0
-1653 35 0
-1654 45 0
-111 1651 1654 1653 1650 1652 0
-1667 75 0
-1729 97 0
-1730 35 0
-1761 33 0
-1762 83 0
-1763 35 0
-1763 82 0
-1764 49 0
-1764 68 0
-1765 97 0
-1765 20 0
1765 -116 1763 1764 1761 1762 0
-1771 21 0
-1772 37 0
-1773 69 0
-117 1771 1773 1772 0
-1873 97 0
-1874 81 0
-1875 49 0
1875 -121 1874 1873 0
-1915 3 0
-1916 115 0
-1917 17 0
-1918 33 0
-1919 65 0
-123 1916 1915 1917 1918 1919 0
-2035 7 0
-2035 121 0
-2036 11 0
-2036 117 0
-2037 19 0
-2037 109 0
-2038 35 0
-2038 93 0
-2039 67 0
-2039 61 0
2035 2038 2036 2039 2037 -127 0
7 -2040 0
-2040 121 0
13 -2041 0
115 -2041 0
21 -2042 0
107 -2042 0
-2043 37 0
-2043 91 0
-2044 69 0
-2044 59 0
2042 2043 2044 2040 2041 -127 0
-2045 11 0
117 -2045 0
-2046 115 0
-2047 103 0
41 -2048 0
-2048 87 0
-2049 55 0
2046 2047 2045 2049 2048 -127 0
-2050 19 0
-2050 109 0
21 -2051 0
-2051 107 0
25 -2052 0
-2052 103 0
-2053 49 0
-2053 79 0
-2054 81 0
-2054 47 0
2053 2051 2054 2050 2052 -127 0
-2055 35 0
-2055 93 0
-2056 37 0
-2056 91 0
41 -2057 0
-2057 87 0
-2058 49 0
-2058 79 0
-2059 97 0
-2059 31 0
2058 2055 2056 2059 2057 -127 0
67 -2060 0
-2060 61 0
-2061 69 0
-2061 59 0
73 -2062 0
-2062 55 0
-2063 81 0
-2063 47 0
-2064 97 0
-2064 31 0
2062 2064 2061 2063 2060 -127 0
-2079 3 0
-2080 125 0
-2081 7 0
-2082 11 0
-2083 19 0
-2084 35 0
-2085 67 0
-2085 62 0
2081 2080 2082 2083 2084 2085 -128 2079 0
-2086 5 0
-2087 123 0
-2088 7 0
-2089 116 0
-2090 21 0
-2090 108 0
-2091 37 0
-2091 92 0
-2092 69 0
60 -2092 0
2088 2087 2089 2090 2091 2092 -128 2086 0
-2100 17 0
-2101 111 0
-2102 19 0
-2102 110 0
-2103 21 0
-2103 108 0
-2104 104 0
-2105 49 0
-2105 80 0
-2106 81 0
-2106 48 0
2102 2101 2103 2104 2105 2106 -128 2100 0
-2107 33 0
-2108 95 0
-2109 35 0
-2109 94 0
-2110 92 0
-2111 88 0
-2112 49 0
-2112 80 0
-2113 97 0
-2113 32 0
2108 2109 2110 2111 2112 2113 -128 2107 0
-2114 65 0
66 -2115 0
-2115 63 0
67 -2116 0
62 -2116 0
-2117 69 0
60 -2117 0
73 -2118 0
-2118 56 0
-2119 81 0
-2119 48 0
-2120 97 0
-2120 32 0
2115 2116 2117 2118 2119 2120 -128 2114 0
-2145 130 0
-2146 133 0
-2147 137 0
-142 2145 2146 2147 0
-2229 130 0
-2230 137 0
-2231 138 0
-154 2231 2230 2229 0
-2253 132 0
-2254 138 0
-2255 139 0
2255 -156 2254 2253 0
-2277 134 0
-2277 153 0
-2278 138 0
-2278 149 0
-2279 146 0
-2279 141 0
-158 2278 2277 2279 0
-2306 130 0
-2307 132 0
-2308 155 0
-2309 138 0
-2310 146 0
-160 2308 2307 2309 2310 2306 0
-2343 130 0
-2344 133 0
-2345 134 0
-166 2345 2344 2343 0
-2379 130 0
-2380 137 0
-2381 138 0
-170 2381 2380 2379 0
-2415 133 0
-2416 137 0
-2417 141 0
-173 2417 2416 2415 0
-2427 134 0
-2427 169 0
-2428 138 0
-2428 165 0
-2429 162 0
-2429 141 0
-174 2429 2427 2428 0
-2451 130 0
-2452 174 0
-2453 133 0
-2454 137 0
-2455 144 0
2455 -176 2452 2453 2454 2451 0
-2461 174 0
-2462 132 0
-2462 173 0
-2463 170 0
-2464 166 0
-2465 142 0
-176 2463 2464 2461 2462 2465 0
-2466 133 0
-2467 134 0
-2468 170 0
-2469 141 0
-2470 165 0
-176 2470 2469 2468 2466 2467 0
-2476 144 0
-2477 162 0
-2478 142 0
-2479 165 0
-2480 136 0
-176 2477 2480 2479 2476 2478 0
-2481 130 0
-2482 162 0
-2483 146 0
-178 2482 2483 2481 0
-2529 134 0
-2530 146 0
-2530 165 0
149 -2531 0
2531 -182 2529 2530 0
-2595 138 0
-2596 146 0
-2597 162 0
-2597 153 0
-186 2595 2597 2596 0
-2619 130 0
-2620 186 0
-2621 137 0
-2622 172 0
156 -2623 0
2623 -188 2622 2620 2619 2621 0
-2644 156 0
-2645 162 0
-2645 155 0
-2646 154 0
-2647 148 0
-2648 140 0
2647 -188 2645 2646 2644 2648 0
-2676 137 0
-2677 138 0
-2678 141 0
-2678 178 0
-2679 166 0
-2680 150 0
2680 2677 2678 2679 -190 2676 0
-2681 174 0
-2682 146 0
-2682 173 0
-2683 170 0
-2684 166 0
-2685 142 0
-190 2681 2682 2684 2683 2685 0
-2763 130 0
-2764 133 0
-2765 193 0
-198 2763 2764 2765 0
-2788 134 0
-2789 194 0
-2835 133 0
-2836 137 0
-2837 193 0
-205 2835 2836 2837 0
-2847 134 0
-2847 201 0
-2848 138 0
-2848 197 0
-2849 194 0
-2849 141 0
-206 2848 2847 2849 0
-2887 134 0
-2890 197 0
-2891 137 0
-2892 199 0
-2893 198 0
-2894 141 0
-2894 196 0
-2895 136 0
-208 2892 2895 2894 2891 2893 0
-2901 130 0
-2902 194 0
-2903 193 0
-210 2902 2901 2903 0
-2949 134 0
-2949 209 0
-2950 146 0
-2950 197 0
-2951 194 0
-2951 149 0
-214 2951 2950 2949 0
-2980 134 0
-2981 146 0
-2982 194 0
-3015 138 0
-3015 209 0
-3016 146 0
-3016 201 0
-3017 194 0
-3017 153 0
-218 3017 3016 3015 0
-3069 209 0
-3070 201 0
-3071 153 0
3069 3070 -221 3071 0
-3141 221 0
-3142 219 0
-3143 138 0
-3144 146 0
-3145 159 0
-224 3142 3144 3141 3145 3143 0
-3161 146 0
-3171 130 0
-3172 194 0
-3173 193 0
-226 3172 3171 3173 0
-3207 133 0
-3208 197 0
-3209 193 0
-229 3208 3207 3209 0
-3219 134 0
-3219 225 0
-3220 162 0
-3220 197 0
-3221 194 0
-3221 165 0
-230 3221 3220 3219 0
-3253 230 0
-3254 229 0
-3255 135 0
-3256 198 0
-3257 166 0
-232 3255 3257 3253 3254 3256 0
-3258 133 0
-3259 134 0
-3260 226 0
-3261 165 0
-3262 197 0
-232 3262 3261 3259 3260 3258 0
-3288 138 0
-3288 225 0
-3289 194 0
-3290 201 0
-3290 162 0
-234 3289 3290 3288 0
-3339 141 0
-3339 225 0
-3340 165 0
-3340 201 0
-3341 197 0
-237 3340 3339 3341 0
-3351 130 0
-3352 133 0
-3353 137 0
-3354 206 0
-3355 193 0
-238 3354 3352 3353 3351 3355 0
-3386 237 0
-3387 135 0
-3388 229 0
-3389 205 0
-3390 173 0
-239 3387 3388 3386 3390 3389 0
-3453 146 0
-3453 225 0
-3454 162 0
-3454 209 0
-3455 194 0
-242 3454 3453 3455 0
-3462 194 0
-3463 162 0
-3464 146 0
-242 3462 3463 3464 0
-3487 242 0
-3488 132 0
-3489 226 0
-3490 210 0
-3491 195 0
-244 3491 3487 3489 3490 3488 0
-3618 201 0
-3619 209 0
-3620 225 0
3618 3619 3620 -249 0
-3741 134 0
-3741 249 0
-3742 138 0
-3742 245 0
-3743 146 0
-3743 237 0
-3744 162 0
221 -3744 0
-3745 194 0
-3745 189 0
3745 3744 3741 3743 3742 -254 0
-3746 134 0
-3746 249 0
-3747 141 0
242 -3747 0
-3748 149 0
-3748 234 0
165 -3749 0
218 -3749 0
-3750 197 0
-3750 186 0
3749 3747 3748 3750 3746 -254 0
-3751 138 0
245 -3751 0
-3752 242 0
-3753 153 0
-3753 230 0
-3754 169 0
-3754 214 0
201 -3755 0
-3755 182 0
3752 3753 3751 3755 3754 -254 0
-3756 146 0
-3756 237 0
-3757 149 0
-3757 234 0
-3758 153 0
-3758 230 0
177 -3759 0
-3759 206 0
-3760 209 0
-3760 174 0
3758 3759 3760 3756 3757 -254 0
-3761 162 0
-3761 221 0
-3762 165 0
-3762 218 0
169 -3763 0
-3763 214 0
-3764 206 0
-3765 225 0
-3765 158 0
3763 3764 3761 3762 -254 3765 0
-3766 194 0
-3766 189 0
-3767 186 0
201 -3768 0
-3768 182 0
-3769 209 0
-3769 174 0
-3770 225 0
-3770 158 0
3770 3768 3769 3767 3766 -254 0
-3822 133 0
-3823 134 0
-3824 135 0
-3825 244 0
-3826 236 0
-3827 165 0
-3828 188 0
3823 3824 3825 3826 3827 3828 -256 3822 0
-3829 248 0
-3830 138 0
-3831 246 0
-3832 141 0
-3833 153 0
-3834 216 0
-3835 184 0
3831 3830 3832 3833 3834 3835 -256 3829 0
-3836 240 0
-3837 146 0
-3837 239 0
-3838 238 0
-3839 149 0
-3839 236 0
-3840 153 0
-3840 232 0
-3841 208 0
-3842 176 0
3837 3838 3839 3840 3841 3842 -256 3836 0
-3843 224 0
-3844 162 0
-3845 222 0
-3846 165 0
-3847 216 0
-3848 208 0
-3849 160 0
3844 3843 3845 3846 3847 3848 3849 -256 0
-3850 193 0
-3851 194 0
191 -3851 0
-3852 190 0
-3853 197 0
-3853 188 0
-3854 201 0
-3854 184 0
-3855 176 0
-3856 160 0
3851 3852 3853 3854 3855 3856 -256 3850 0
-3869 258 0
-3870 259 0
-3871 265 0
-268 3869 3870 3871 0
-3917 258 0
-3918 259 0
-3919 260 0
-276 3919 3918 3917 0
-3929 258 0
-3930 274 0
-3931 262 0
-278 3930 3931 3929 0
-3965 258 0
-3966 265 0
-3967 266 0
-282 3967 3966 3965 0
-3989 260 0
-3989 281 0
-3990 266 0
-3990 275 0
-3991 274 0
-3991 267 0
3991 3990 3989 -284 0
-4037 258 0
-4038 259 0
-4039 284 0
-4040 265 0
272 -4041 0
4041 4039 -288 4037 4040 4038 0
-4047 259 0
-4048 285 0
-4049 282 0
-4050 267 0
-4051 270 0
4048 4049 -288 4050 4051 4047 0
-4057 265 0
-4058 266 0
-4058 279 0
-4059 278 0
-4060 276 0
-4061 264 0
4058 4061 -288 4059 4060 4057 0
-4067 258 0
-4068 259 0
-4069 289 0
-292 4067 4068 4069 0
-4103 260 0
-4104 262 0
-4105 290 0
-296 4103 4105 4104 0
-4127 259 0
-4128 265 0
-4129 289 0
-299 4127 4128 4129 0
-4192 258 0
260 -4193 0
-4193 301 0
-4194 299 0
266 -4195 0
295 -4195 0
-4196 290 0
-4196 271 0
4195 4193 -304 4196 4192 4194 0
-4212 289 0
-4213 290 0
-4213 271 0
-4214 291 0
-4214 270 0
-4215 268 0
-4216 297 0
4214 4216 -304 4213 4215 4212 0
-4217 258 0
-4218 290 0
-4219 289 0
-306 4218 4217 4219 0
-4229 259 0
-4230 291 0
-4231 289 0
-307 4230 4229 4231 0
260 -4241 0
305 -4241 0
-4242 274 0
-4242 291 0
-4243 290 0
-4243 275 0
4241 -308 4243 4242 0
-4289 258 0
-4290 259 0
-4291 308 0
-4292 296 0
-4293 289 0
-312 4292 4291 4289 4290 4293 0
-4294 258 0
-4295 260 0
-4296 262 0
-4297 295 0
-4298 290 0
-312 4295 4296 4297 4298 4294 0
-4304 308 0
-4305 307 0
-4308 276 0
-4331 266 0
-4332 274 0
-4332 297 0
-4333 290 0
-4333 281 0
-314 4331 4333 4332 0
-4343 267 0
-4343 305 0
-4344 275 0
-4344 297 0
-4345 291 0
-4345 281 0
-315 4343 4344 4345 0
-4370 265 0
-4371 266 0
-4371 307 0
-4372 267 0
-4372 306 0
-4373 292 0
-4374 297 0
-316 4371 4374 4372 4373 4370 0
-4432 259 0
-4433 263 0
-4434 267 0
-4435 301 0
-4436 285 0
-319 4433 4435 4436 4434 4432 0
-4472 266 0
-4472 311 0
-4473 267 0
-4473 310 0
-4474 308 0
-4475 296 0
-4476 297 0
-320 4474 4472 4475 4473 4476 0
-4477 303 0
-4478 302 0
-4479 300 0
-4480 296 0
-4481 272 0
-320 4480 4481 4479 4478 4477 0
-4511 259 0
-4512 323 0
-4513 263 0
-327 4513 4512 4511 0
-4547 259 0
-4548 265 0
-4549 267 0
-331 4549 4548 4547 0
-4559 260 0
-4559 329 0
-4560 266 0
-4561 267 0
-332 4560 4559 4561 0
-4612 258 0
-4613 260 0
-4613 333 0
-4614 331 0
-4615 266 0
-4615 327 0
-4616 322 0
-4616 271 0
-336 4615 4613 4616 4614 4612 0
-4623 331 0
-4624 330 0
-4661 260 0
-4661 337 0
-4662 274 0
-4662 323 0
-4663 322 0
-4663 275 0
4661 -340 4662 4663 0
-4717 274 0
-4751 266 0
-4752 274 0
-4753 322 0
-4753 281 0
4752 -346 4751 4753 0
-5033 267 0
-5034 329 0
-5035 297 0
5033 -363 5034 5035 0
-5045 258 0
-5046 259 0
-5047 265 0
-5048 289 0
-5049 300 0
-364 5049 5046 5047 5048 5045 0
-5056 260 0
-5060 265 0
-5061 266 0
-5062 267 0
-5063 297 0
-5064 292 0
-364 5061 5063 5062 5060 5064 0
-5065 289 0
-5066 331 0
-5067 291 0
-5068 297 0
-5069 268 0
-364 5066 5067 5068 5065 5069 0
-5133 267 0
-5137 289 0
-5138 291 0
-5138 333 0
-5139 331 0
-5140 297 0
-5141 353 0
-5141 271 0
-367 5139 5138 5140 5141 5137 0
-5189 274 0
-5190 290 0
-5191 322 0
5189 -370 5190 5191 0
-5417 260 0
-5417 377 0
-5418 266 0
-5418 371 0
-5419 274 0
-5419 363 0
-5420 290 0
-5420 347 0
-5421 322 0
-5421 315 0
5418 5417 5419 5420 5421 -380 0
-5422 260 0
-5422 377 0
267 -5423 0
-5423 370 0
-5424 275 0
-5424 362 0
-5425 291 0
-5425 346 0
-5426 323 0
-5426 314 0
5422 5425 5423 5426 5424 -380 0
-5427 266 0
-5427 371 0
-5428 267 0
-5428 370 0
-5429 281 0
-5429 356 0
-5430 297 0
-5430 340 0
-5431 329 0
308 -5431 0
5427 5428 5429 5430 5431 -380 0
-5432 274 0
-5432 363 0
-5433 275 0
-5433 362 0
-5434 356 0
-5435 305 0
-5435 332 0
337 -5436 0
300 -5436 0
5436 5434 5432 5433 5435 -380 0
-5437 290 0
-5437 347 0
-5438 291 0
-5438 346 0
-5439 297 0
-5439 340 0
-5440 305 0
-5440 332 0
353 -5441 0
-5441 284 0
5441 5439 5440 5438 5437 -380 0
-5442 322 0
-5442 315 0
-5443 323 0
-5443 314 0
329 -5444 0
308 -5444 0
-5445 337 0
-5445 300 0
-5446 353 0
-5446 284 0
5444 5446 5442 5445 5443 -380 0
-5556 291 0
-5566 266 0
-5568 372 0
-5572 368 0
-5573 274 0
-5573 367 0
-5574 275 0
-5574 366 0
-5575 277 0
-5575 364 0
-5576 281 0
-5576 360 0
-5577 305 0
-5577 336 0
-5578 304 0
5573 5574 5575 5576 5577 5578 -384 5572 0
-5586 320 0
-5587 319 0
-5588 323 0
-5588 318 0
-5589 316 0
-5590 312 0
-5591 304 0
353 -5592 0
288 -5592 0
5587 5586 5588 5589 5590 5591 5592 -384 0
-249 -264 0
-246 -267 0
-271 -242 0
-239 -274 0
-238 -275 0
-225 -288 0
-218 -295 0
-216 -297 0
-208 -305 0
-307 -206 0
-199 -314 0
-316 -197 0
-319 -194 0
-191 -322 0
-184 -329 0
-336 -177 0
-176 -337 0
-160 -353 0
-360 -153 0
-150 -363 0
-367 -146 0
-143 -370 0
-372 -141 0
-136 -377 0
-245 -267 -2 0
-315 -197 -2 0
-363 -149 -2 0
-371 -141 -2 0
-249 -8 0
-225 -8 -281 0
-209 -8 -297 0
-8 -305 -201 0
-153 -8 -353 0
-377 -8 0
-209 -294 -11 0
-150 -11 -353 0
-12 -149 -353 0
-305 -13 -196 0
-370 -13 -131 0
-14 -225 -275 0
-15 -242 0
-15 -305 -194 0
-225 -270 -19 0
-294 -19 -201 0
-301 -19 -194 0
-166 -19 -329 0
-333 -162 -19 0
-366 -19 0
-237 -20 0
-165 -329 -20 0
-141 -20 -353 0
-236 -21 0
-290 -203 -21 0
-297 -196 -21 0
-140 -353 -21 0
-225 -267 -22 0
-291 -201 -22 0
-323 -169 -22 0
-139 -353 -22 0
-363 -22 0
-25 -136 -353 0
-360 -25 0
-26 -323 -165 0
-27 -322 -165 0
-225 -32 0
-32 -353 0
-222 -35 0
-209 -270 -35 0
-150 -35 -329 0
-36 -221 0
-36 -329 -149 0
-37 -274 -203 0
-155 -322 -37 0
-219 -38 0
-275 -38 -201 0
-347 -38 0
-209 -41 -264 0
-199 -41 -274 0
-43 -214 0
-209 -48 0
-48 -337 0
-208 -49 0
-49 -264 -201 0
-199 -49 -266 0
-49 -271 -194 0
-322 -143 -49 0
-49 -136 -329 0
-197 -50 -267 0
-323 -50 -141 0
-52 -201 -261 0
-54 -203 0
-330 -55 0
-56 -201 0
-56 -329 0
-61 -196 0
-322 -61 -131 0
-195 -62 0
-323 -62 0
-63 -194 0
-279 -66 -169 0
-190 -67 0
-186 -67 -261 0
-285 -162 -67 0
-153 -294 -67 0
-301 -146 -67 0
-318 -67 0
-189 -68 0
-281 -165 -68 0
-297 -149 -68 0
-141 -305 -68 0
-140 -305 -69 0
-153 -291 -70 0
-315 -70 0
-73 -184 0
-279 -73 -162 0
-73 -136 -305 0
-312 -73 0
-74 -275 -165 0
-80 -305 0
-176 -81 0
-81 -264 -169 0
-166 -267 -81 0
-162 -81 -271 0
-143 -290 -81 0
-81 -136 -297 0
-81 -304 0
-82 -165 -267 0
-141 -291 -82 0
-135 -82 -297 0
-303 -82 0
-170 -87 0
-88 -169 0
-88 -297 0
-166 -91 0
-162 -91 -261 0
-294 -91 0
-92 -165 0
-94 -291 0
-160 -97 0
-271 -97 -146 0
-97 -143 -274 0
-276 -97 -141 0
-277 -97 -140 0
-97 -136 -281 0
-97 -288 0
-98 -267 -149 0
-275 -98 -141 0
-104 -153 0
-104 -281 0
-278 -107 0
-108 -149 0
-148 -109 0
-109 -274 -131 0
-111 -274 0
-270 -115 0
-141 -116 0
-140 -117 0
-118 -267 0
-136 -121 0
-121 -264 0
-125 -260 0
-3 0
-5 0
-17 0
-33 0
-65 0
2 0
127 0
-275 -237 0
-221 -291 0
-189 -323 0
-347 -165 0
-159 -353 0
-135 -377 0
-248 0
-245 -260 0
-263 -242 0
-275 -230 0
-291 -214 0
-296 -209 0
-197 -308 0
-311 -194 0
-323 -182 0
-165 -340 0
-356 -149 0
-371 -134 0
-117 118 0
116 -115 0
-116 115 0
-103 104 0
-104 103 0
98 -97 0
-87 88 0
-88 87 0
-81 82 0
-82 81 0
70 -69 0
-70 69 0
68 -67 0
-68 67 0
-55 56 0
55 -56 0
50 -49 0
38 -37 0
-38 37 0
-35 36 0
35 -36 0
22 -21 0
21 -22 0
20 -19 0
-20 19 0
-7 8 0
-8 7 0
-130 0
-133 0
-137 0
-193 0
131 0
254 0
-117 -266 0
-93 -290 0
-302 -81 0
-310 -73 0
-314 -69 0
-346 -37 0
-362 -21 0
-109 -260 0
-107 -262 0
-103 -266 0
-102 -267 0
-290 -79 0
-296 -73 0
-69 -300 0
-322 -47 0
-332 -37 0
-356 -13 0
-362 -7 0
-368 0
-93 -260 0
-91 -262 0
-87 -266 0
-86 -267 0
-81 -272 0
-274 -79 0
-72 -281 0
-284 -69 0
-322 -31 0
-332 -21 0
-340 -13 0
-346 -7 0
-206 208 0
-208 206 0
203 -201 0
-197 199 0
-199 197 0
196 -194 0
-196 194 0
143 -141 0
-138 140 0
-140 138 0
-134 136 0
-136 134 0
-258 0
-259 0
-265 0
-289 0
261 0
380 0
-138 -115 0
-146 -107 0
-172 -81 0
-59 -194 0
-218 -35 0
-234 -19 0
-11 -242 0
-132 -109 0
-134 -107 0
-103 -138 0
-144 -97 0
-79 -162 0
-174 -67 0
-47 -194 0
-40 -201 0
-206 -35 0
-230 -11 0
-234 -7 0
-240 0
-132 -61 0
-134 -59 0
-138 -55 0
-52 -141 0
-144 -49 0
-47 -146 0
-40 -153 0
-37 -156 0
-158 -35 0
-31 -162 0
-172 -21 0
-174 -19 0
-11 -182 0
-186 -7 0
-4 -189 0
304 -300 0
300 -304 0
-297 301 0
-301 297 0
-291 295 0
-295 291 0
-290 294 0
271 -267 0
-271 267 0
270 -266 0
-270 266 0
264 -260 0
-264 260 0
