p cnf 5592 552
128 0
256 0
-421 3 0
-422 5 0
-423 7 0
-15 423 422 421 0
-469 3 0
-470 5 0
-471 7 0
-23 471 470 469 0
-559 11 0
21 -559 0
-560 13 0
-560 19 0
-561 7 0
560 -31 559 561 0
-575 3 0
-576 4 0
-577 7 0
-578 22 0
-579 14 0
-32 579 575 578 576 577 0
-619 3 0
-620 5 0
-621 7 0
-39 621 620 619 0
-720 47 0
-721 4 0
-722 6 0
-722 43 0
-723 39 0
-724 15 0
-48 721 720 722 723 724 0
-822 55 0
-823 4 0
-824 6 0
-825 39 0
-826 23 0
-56 823 822 825 824 826 0
-1039 3 0
-1040 5 0
-1041 65 0
-71 1039 1040 1041 0
-1099 5 0
-1100 69 0
-1101 65 0
-77 1100 1099 1101 0
-1145 3 0
-1146 77 0
-1147 7 0
-1148 70 0
-1149 67 0
-80 1149 1145 1146 1148 1147 0
-1177 3 0
-1178 67 0
-1179 65 0
-83 1178 1177 1179 0
-1201 5 0
-1202 69 0
-1203 65 0
-85 1202 1201 1203 0
-1225 7 0
-1226 69 0
-1227 67 0
-87 1227 1226 1225 0
-1244 6 0
-1247 3 0
-1248 85 0
-1249 7 0
-1250 70 0
-1251 67 0
-1251 22 0
-88 1251 1247 1248 1250 1249 0
-1252 5 0
-1253 6 0
-1254 7 0
-1255 68 0
-1256 69 0
-88 1253 1252 1255 1254 1256 0
-1471 5 0
-1472 69 0
-1473 65 0
-101 1472 1471 1473 0
-1517 3 0
-1518 101 0
-1519 7 0
-1519 98 0
-1520 70 0
-1521 67 0
-104 1521 1517 1518 1520 1519 0
-1588 100 0
-1589 99 0
-1590 11 0
-1591 68 0
-1592 36 0
-108 1592 1589 1588 1591 1590 0
-1650 3 0
-1651 7 0
-1652 101 0
-1653 77 0
-1654 67 0
-111 1654 1650 1652 1653 1651 0
-1756 100 0
-1757 99 0
-1758 19 0
-1759 68 0
-1760 36 0
1760 -116 1757 1758 1759 1756 0
-1833 87 0
-1834 85 0
-1835 83 0
-1836 71 0
-1837 23 0
-119 1835 1834 1837 1836 1833 0
-2035 7 0
-2036 117 0
-2037 19 0
-2037 109 0
-2038 93 0
-2039 61 0
2038 2035 -127 2039 2036 2037 0
-2045 11 0
-2045 117 0
13 -2046 0
-2046 115 0
-2047 103 0
-2048 87 0
-2049 73 0
-2049 55 0
2048 2045 -127 2049 2046 2047 0
-2050 19 0
-2050 109 0
-2051 107 0
-2052 103 0
-2053 79 0
-2054 47 0
2053 2051 -127 2054 2050 2052 0
-2055 35 0
-2055 93 0
-2056 91 0
-2057 87 0
-2058 79 0
-2059 31 0
2058 2059 -127 2055 2057 2056 0
-2060 67 0
-2060 61 0
-2061 69 0
-2062 73 0
-2062 55 0
-2063 47 0
97 -2064 0
-2064 31 0
2060 2063 -127 2061 2064 2062 0
-2093 120 0
-2094 119 0
-2095 11 0
-2095 118 0
13 -2096 0
-2096 116 0
-2097 104 0
-2098 88 0
-2099 73 0
-2099 56 0
2095 2094 2096 2097 2098 2099 -128 2093 0
-2100 112 0
-2101 111 0
-2102 19 0
-2103 108 0
-2104 104 0
-2105 80 0
-2106 48 0
2101 2102 2103 2104 2105 2106 -128 2100 0
-2114 65 0
-2115 63 0
-2116 67 0
-2117 69 0
-2118 56 0
-2119 48 0
-2120 32 0
2116 2115 2117 2118 2119 2120 -128 2114 0
-2277 134 0
-2278 138 0
-2278 149 0
-2279 146 0
141 -2279 0
2278 -158 2277 2279 0
-2343 130 0
-2344 133 0
-2345 134 0
-166 2345 2344 2343 0
-2427 134 0
-2428 138 0
-2429 141 0
-174 2428 2427 2429 0
-2529 134 0
-2530 146 0
-2531 149 0
2531 2529 -182 2530 0
-2763 130 0
-2764 133 0
-2765 193 0
-198 2763 2764 2765 0
-2835 133 0
-2836 197 0
-2837 193 0
-205 2836 2835 2837 0
-2847 134 0
-2848 197 0
-2849 194 0
-2849 141 0
-206 2847 2848 2849 0
-2876 130 0
-2877 205 0
-2878 134 0
-2879 199 0
-2880 143 0
-208 2880 2876 2877 2879 2878 0
-2937 133 0
-2938 197 0
-2939 193 0
-213 2938 2937 2939 0
-2949 134 0
-2950 197 0
-2951 194 0
-2951 149 0
-214 2949 2950 2951 0
-2978 130 0
-2979 213 0
-2980 134 0
-2981 199 0
-2982 194 0
-216 2980 2978 2979 2981 2982 0
-3069 141 0
-3069 209 0
-3070 149 0
-3070 201 0
-3071 197 0
-221 3069 3070 3071 0
-3080 141 0
-3171 130 0
-3172 194 0
-3173 193 0
-226 3172 3171 3173 0
-3207 133 0
-3208 197 0
-3209 193 0
-229 3208 3207 3209 0
-3219 134 0
-3220 197 0
-3221 194 0
-230 3219 3220 3221 0
-3253 230 0
-3254 229 0
-3255 226 0
-3256 198 0
-3257 166 0
-232 3253 3254 3255 3256 3257 0
141 -3339 0
-3340 165 0
-3340 201 0
-3341 197 0
3339 -237 3340 3341 0
-3366 230 0
-3367 229 0
-3368 226 0
-3369 198 0
-3370 166 0
-238 3366 3367 3368 3369 3370 0
-3507 149 0
-3508 165 0
-3509 197 0
-245 3508 3507 3509 0
-3524 130 0
-3525 134 0
-3526 229 0
-3527 213 0
-3528 194 0
-246 3525 3524 3526 3527 3528 0
-3741 134 0
138 -3742 0
-3742 245 0
-3743 146 0
-3743 237 0
-3744 162 0
-3744 221 0
-3745 194 0
-3745 189 0
3744 3745 -254 3741 3742 3743 0
-3746 134 0
-3747 141 0
-3747 242 0
-3748 149 0
-3748 234 0
165 -3749 0
218 -3749 0
-3750 197 0
3749 3746 -254 3747 3748 3750 0
-3751 138 0
-3752 141 0
-3753 230 0
-3754 214 0
-3755 201 0
-3755 182 0
3751 3754 -254 3752 3755 3753 0
-3756 237 0
-3757 149 0
-3757 234 0
-3758 230 0
-3759 206 0
-3760 174 0
3759 3756 -254 3757 3760 3758 0
-3761 162 0
-3761 221 0
-3762 218 0
-3763 214 0
-3764 206 0
225 -3765 0
-3765 158 0
3765 3762 -254 3763 3761 3764 0
-3766 194 0
-3767 197 0
-3768 182 0
-3769 174 0
158 -3770 0
3770 3769 -254 3767 3766 3768 0
-3829 248 0
-3830 138 0
-3831 246 0
-3832 244 0
-3833 232 0
-3834 216 0
-3835 184 0
3831 3830 3832 3833 3834 3835 -256 3829 0
-3836 240 0
-3837 146 0
-3838 238 0
-3839 149 0
-3840 232 0
-3841 208 0
-3842 209 0
3837 3838 3839 3840 3841 3842 -256 3836 0
-3989 260 0
-3990 266 0
-3990 275 0
-3991 274 0
-3991 267 0
3991 3990 -284 3989 0
-4139 260 0
-4140 266 0
-4140 291 0
290 -4141 0
267 -4141 0
4141 -300 4140 4139 0
-4241 260 0
274 -4242 0
-4243 275 0
4242 -308 4243 4241 0
-4559 260 0
-4560 266 0
-4561 322 0
-4561 267 0
-332 4559 4560 4561 0
-5033 353 0
-5034 291 0
-5035 323 0
5033 -363 5034 5035 0
260 -5417 0
-5417 377 0
-5418 266 0
-5418 371 0
274 -5419 0
-5419 363 0
290 -5420 0
-5420 347 0
322 -5421 0
-5421 315 0
5418 5419 -380 5417 5420 5421 0
-5422 377 0
-5423 370 0
-5424 362 0
-5425 346 0
-5426 323 0
5422 5425 -380 5426 5424 5423 0
-5427 371 0
-5428 370 0
-5429 356 0
-5430 340 0
329 -5431 0
-5431 308 0
5427 5428 -380 5431 5430 5429 0
-5432 363 0
275 -5433 0
-5433 362 0
-5434 356 0
-5435 332 0
-5436 300 0
5432 5433 -380 5436 5435 5434 0
-5437 347 0
291 -5438 0
-5439 340 0
-5440 332 0
353 -5441 0
-5441 284 0
5437 5438 -380 5441 5439 5440 0
-5442 315 0
314 -5443 0
-5444 308 0
-5445 300 0
-5446 284 0
5443 5444 -380 5445 5442 5446 0
-295 -218 0
-314 -199 0
-377 -136 0
-267 -245 -2 0
-237 -275 -2 0
-221 -291 -2 0
-315 -197 -2 0
-347 -165 -2 0
-371 -141 -2 0
-377 -8 0
-244 -13 0
-209 -14 -291 0
-201 -19 -294 0
-22 -267 -225 0
-22 -363 0
-226 -31 0
-32 -353 0
-36 -221 0
-43 -214 0
-209 -48 0
-56 -201 0
-56 -329 0
-61 -196 0
-63 -194 0
-189 -68 0
-315 -70 0
-73 -184 0
-73 -146 -295 0
-83 -141 -290 0
-91 -162 -261 0
-91 -294 0
-143 -97 -274 0
-98 -267 -149 0
-99 -149 -266 0
-99 -141 -274 0
-108 -149 0
-111 -274 0
-116 -141 0
-118 -267 0
-119 -266 0
-3 0
-5 0
-65 0
2 0
127 0
-323 -189 0
-149 -363 0
-248 0
-245 -260 0
-214 -291 0
-308 -197 0
-323 -182 0
-340 -165 0
-356 -149 0
-371 -134 0
-240 0
-237 -260 0
-206 -291 0
-300 -197 0
-323 -174 0
-332 -165 0
-356 -141 0
-363 -134 0
-221 -260 0
-214 -267 0
-284 -197 0
-323 -158 0
-332 -149 0
-340 -141 0
-347 -134 0
70 -69 0
-70 69 0
68 -67 0
-68 67 0
8 -7 0
-130 0
-133 0
-193 0
254 0
-117 -266 0
-109 -274 0
-93 -290 0
-69 -314 0
-61 -322 0
-362 -21 0
-370 -13 0
-120 0
-117 -260 0
-103 -274 0
-87 -290 0
-308 -69 0
-55 -322 0
-370 -7 0
-6 -371 0
-112 0
-109 -260 0
-103 -266 0
-79 -290 0
-300 -69 0
-47 -322 0
-362 -7 0
-6 -363 0
-93 -260 0
-87 -266 0
-79 -274 0
-69 -284 0
-31 -322 0
-346 -7 0
-6 -347 0
199 -197 0
-199 197 0
196 -194 0
136 -134 0
261 0
380 0
-115 -138 0
-146 -107 0
-35 -218 0
-19 -234 0
-242 -11 0
-103 -146 0
-100 -149 0
-87 -162 0
-67 -182 0
-55 -194 0
-19 -230 0
-242 -7 0
-103 -138 0
-100 -141 0
-79 -162 0
-174 -67 0
-47 -194 0
-11 -230 0
-234 -7 0
-55 -138 0
-146 -47 0
-162 -31 0
-174 -19 0
-11 -182 0
-4 -189 0
-291 295 0
294 -290 0
