p cnf 5592 744
256 0
384 0
-553 7 0
-554 11 0
-555 19 0
-31 553 555 554 0
-715 47 0
-716 3 0
-717 5 0
-718 40 0
-719 33 0
-48 718 716 717 715 719 0
-805 7 0
-806 19 0
-806 37 0
-807 35 0
21 -807 0
-55 807 805 806 0
-830 19 0
-830 38 0
-1039 3 0
-1040 5 0
-1041 65 0
-71 1039 1040 1041 0
-1123 7 0
-1124 11 0
-1125 67 0
1125 -79 1123 1124 0
-1201 5 0
-1202 17 0
-1203 65 0
-85 1201 1202 1203 0
-1225 7 0
-1226 19 0
21 -1227 0
1227 -87 1226 1225 0
-1247 3 0
-1248 85 0
-1249 7 0
82 -1249 0
-1250 19 0
-1250 70 0
-1251 67 0
1251 1249 1247 1248 1250 -88 0
-1257 17 0
-1258 71 0
-1259 19 0
-1259 70 0
-1260 68 0
-1261 8 0
1260 1261 1257 1258 1259 -88 0
-1266 8 0
-1291 11 0
-1292 19 0
67 -1293 0
1293 1292 1291 -91 0
-1471 5 0
-1472 33 0
-1473 65 0
-101 1471 1472 1473 0
-1495 7 0
-1495 97 0
35 -1496 0
69 -1496 0
-1497 67 0
-1497 37 0
1496 1497 1495 -103 0
-1517 3 0
-1518 101 0
-1519 7 0
-1519 98 0
70 -1520 0
-1521 67 0
1520 1521 1517 1518 1519 -104 0
-1729 19 0
35 -1730 0
-1731 67 0
1730 -115 1729 1731 0
-2035 7 0
-2035 121 0
-2036 11 0
-2037 19 0
-2037 109 0
35 -2038 0
-2038 93 0
67 -2039 0
-2039 61 0
2038 2036 -127 2039 2037 2035 0
-2040 121 0
-2041 13 0
-2041 115 0
-2042 107 0
-2043 91 0
-2044 59 0
2043 2042 -127 2041 2040 2044 0
-2045 11 0
117 -2045 0
-2046 115 0
-2047 103 0
-2048 87 0
-2049 55 0
2048 2046 -127 2045 2047 2049 0
19 -2050 0
-2050 109 0
-2051 107 0
25 -2052 0
-2052 103 0
-2053 79 0
-2054 47 0
2050 2052 -127 2051 2054 2053 0
35 -2055 0
-2055 93 0
37 -2056 0
-2056 91 0
-2057 41 0
-2057 87 0
-2058 79 0
-2059 97 0
-2059 31 0
2055 2057 -127 2058 2056 2059 0
-2060 61 0
-2061 59 0
-2062 73 0
-2062 55 0
-2063 47 0
-2064 97 0
-2064 31 0
2061 2060 -127 2062 2064 2063 0
-2119 48 0
-2145 130 0
-2146 133 0
-2147 134 0
-142 2147 2146 2145 0
-2193 130 0
-2194 133 0
-2195 145 0
-150 2193 2194 2195 0
-2229 130 0
-2230 146 0
-2231 145 0
-154 2230 2229 2231 0
-2277 134 0
-2278 138 0
-2279 146 0
-158 2279 2278 2277 0
-2316 133 0
-2317 134 0
-2318 154 0
-2319 148 0
-2320 140 0
-160 2319 2316 2318 2320 2317 0
-2321 152 0
-2322 138 0
-2323 150 0
-2324 141 0
-2324 148 0
-2325 136 0
-160 2324 2325 2323 2322 2321 0
-2379 130 0
-2380 162 0
-2381 161 0
-170 2380 2379 2381 0
-2427 134 0
-2427 169 0
-2428 138 0
-2429 162 0
-2429 141 0
-174 2429 2428 2427 0
-2468 170 0
-2469 164 0
-2481 130 0
-2482 145 0
-2483 161 0
-178 2481 2482 2483 0
-2517 133 0
-2518 145 0
-2519 161 0
-181 2517 2518 2519 0
-2529 134 0
177 -2529 0
-2530 146 0
165 -2530 0
-2531 162 0
2530 -182 2529 2531 0
-2558 130 0
-2559 181 0
-2560 134 0
167 -2561 0
-2562 162 0
2561 -184 2558 2559 2560 2562 0
-2596 146 0
-2597 162 0
-2634 180 0
-2635 138 0
-2636 178 0
-2637 164 0
-2638 148 0
-188 2634 2637 2636 2635 2638 0
-2763 130 0
-2764 133 0
-2765 193 0
-198 2763 2764 2765 0
-2799 130 0
-2800 194 0
-2801 193 0
-202 2800 2799 2801 0
-2847 134 0
-2847 201 0
-2848 138 0
-2849 194 0
-2849 141 0
-206 2849 2847 2848 0
-2871 130 0
-2872 206 0
-2873 133 0
-2874 200 0
-2875 193 0
-208 2874 2871 2873 2872 2875 0
-2881 206 0
-2882 132 0
-2882 205 0
-2883 202 0
-2884 198 0
-2885 142 0
-208 2883 2882 2881 2884 2885 0
-2886 133 0
-2887 134 0
-2888 202 0
-2889 196 0
-2890 140 0
-208 2890 2886 2887 2888 2889 0
-2891 200 0
-2892 138 0
-2893 198 0
-2894 141 0
-2895 201 0
-208 2891 2892 2893 2895 2894 0
-2937 133 0
-2938 145 0
-2939 193 0
-213 2937 2938 2939 0
-2952 134 0
209 -2952 0
-2953 149 0
-2953 194 0
197 -2954 0
-2954 146 0
2954 -214 2953 2952 0
-2978 130 0
-2979 213 0
-2980 134 0
211 -2980 0
-2981 146 0
199 -2981 0
-2982 194 0
151 -2982 0
2981 -216 2978 2979 2980 2982 0
-3015 138 0
-3016 146 0
-3016 201 0
-3017 194 0
-3017 153 0
-218 3016 3015 3017 0
-3039 130 0
-3040 218 0
-3041 212 0
-3042 145 0
-3043 193 0
-220 3041 3039 3040 3042 3043 0
-3059 145 0
-3060 146 0
-3061 202 0
-3062 196 0
-3063 140 0
-220 3063 3059 3060 3061 3062 0
-3081 130 0
-3082 133 0
-3083 214 0
-3084 145 0
-3085 193 0
-222 3083 3082 3081 3084 3085 0
-3106 193 0
-3107 194 0
-3108 197 0
-3109 150 0
-3110 142 0
-222 3108 3106 3107 3109 3110 0
-3121 133 0
-3122 135 0
-3123 141 0
-3124 203 0
-3125 197 0
3124 3122 3121 3125 3123 -223 0
-3171 130 0
-3172 161 0
-3173 193 0
-226 3171 3172 3173 0
-3207 133 0
-3208 161 0
-3209 193 0
-229 3207 3208 3209 0
-3219 134 0
-3220 162 0
-3220 197 0
-3221 194 0
3221 3220 -230 3219 0
-3248 130 0
-3249 229 0
227 -3250 0
-3251 162 0
-3252 194 0
3250 3251 3248 3249 -232 3252 0
-3285 138 0
-3286 162 0
-3286 201 0
-3287 194 0
-3287 169 0
-234 3287 3285 3286 0
-3319 234 0
-3320 132 0
-3321 226 0
-3322 202 0
-3323 170 0
-236 3320 3319 3321 3322 3323 0
-3330 162 0
-3359 162 0
-3454 162 0
-3519 130 0
-3520 133 0
-3521 145 0
-3522 161 0
-3523 193 0
-246 3519 3520 3521 3522 3523 0
-3636 145 0
-3637 146 0
-3638 226 0
-3639 202 0
-3640 170 0
-250 3637 3636 3638 3639 3640 0
-3741 134 0
249 -3741 0
-3742 138 0
-3742 245 0
146 -3743 0
-3744 162 0
-3744 221 0
-3745 194 0
-3745 189 0
3743 3745 -254 3741 3742 3744 0
-3746 134 0
-3746 249 0
-3747 141 0
-3747 242 0
-3748 234 0
-3749 218 0
-3750 197 0
-3750 186 0
3749 3750 -254 3747 3746 3748 0
-3751 138 0
141 -3752 0
-3752 242 0
-3753 230 0
-3754 214 0
-3755 201 0
-3755 182 0
3752 3755 -254 3751 3754 3753 0
-3756 146 0
-3756 237 0
149 -3757 0
-3757 234 0
153 -3758 0
230 -3758 0
-3759 177 0
-3759 206 0
-3760 209 0
-3760 174 0
3758 3756 -254 3760 3759 3757 0
-3761 162 0
-3762 218 0
-3763 169 0
-3763 214 0
-3764 206 0
-3765 158 0
3765 3761 -254 3763 3764 3762 0
-3766 189 0
-3767 186 0
201 -3768 0
-3768 182 0
-3769 174 0
-3770 158 0
3770 3767 -254 3768 3769 3766 0
-3822 133 0
-3823 134 0
-3824 250 0
-3825 141 0
-3826 236 0
-3827 220 0
-3828 188 0
3824 3823 3825 3826 3827 3828 -256 3822 0
-3829 248 0
-3830 138 0
-3831 246 0
-3832 141 0
-3832 244 0
-3833 153 0
-3833 232 0
-3834 216 0
-3835 201 0
-3835 184 0
3830 3832 3833 3834 3835 -256 3829 3831 0
-3837 146 0
-3843 161 0
-3844 162 0
223 -3844 0
-3845 222 0
-3846 220 0
-3847 216 0
-3848 208 0
-3849 160 0
3845 3844 3846 3847 3848 3849 -256 3843 0
-3989 260 0
-3989 281 0
-3990 266 0
-3990 275 0
-3991 274 0
-3991 267 0
-284 3991 3990 3989 0
-4139 297 0
291 -4140 0
-4141 290 0
-4141 267 0
4140 -300 4141 4139 0
-4331 266 0
-4332 274 0
-4332 297 0
-4333 290 0
-4333 281 0
-314 4331 4332 4333 0
-4343 267 0
-4344 275 0
-4344 297 0
-4345 291 0
-4345 281 0
-315 4343 4344 4345 0
-4559 260 0
-4559 329 0
266 -4560 0
323 -4560 0
-4561 322 0
-4561 267 0
4560 -332 4561 4559 0
-4751 266 0
-4752 274 0
-4752 329 0
-4753 322 0
-4753 281 0
-346 4751 4752 4753 0
-4766 267 0
-4767 281 0
-4767 323 0
-4768 329 0
-4768 275 0
-347 4766 4767 4768 0
-4931 260 0
-4932 290 0
-4933 322 0
-4933 291 0
-356 4931 4932 4933 0
-5021 266 0
-5022 290 0
-5022 329 0
-5023 322 0
-5023 297 0
-362 5021 5022 5023 0
-5033 267 0
-5034 291 0
-5034 329 0
-5035 323 0
-5035 297 0
-363 5033 5035 5034 0
-5201 275 0
-5202 291 0
-5203 323 0
5202 5203 5201 -371 0
-5345 281 0
-5346 297 0
-5347 329 0
-377 5346 5345 5347 0
-5417 377 0
-5418 371 0
-5419 274 0
-5419 363 0
-5420 290 0
-5420 347 0
-5421 322 0
-5421 315 0
5420 5419 -380 5418 5417 5421 0
-5422 377 0
370 -5423 0
-5424 275 0
-5424 362 0
-5425 291 0
-5425 346 0
-5426 323 0
-5426 314 0
5423 5425 -380 5422 5424 5426 0
-5427 371 0
-5428 267 0
-5428 370 0
-5429 281 0
-5429 356 0
-5430 297 0
-5430 340 0
-5431 329 0
-5431 308 0
5428 5431 -380 5427 5429 5430 0
-5432 363 0
-5433 362 0
-5434 356 0
-5435 332 0
300 -5436 0
5436 5435 -380 5434 5433 5432 0
-5437 347 0
-5438 346 0
-5439 340 0
332 -5440 0
-5441 284 0
5440 5441 -380 5437 5439 5438 0
-5442 322 0
-5442 315 0
-5443 323 0
-5443 314 0
-5444 329 0
-5444 308 0
-5445 300 0
353 -5446 0
-5446 284 0
5445 5443 -380 5446 5442 5444 0
-5565 376 0
-5566 266 0
-5567 267 0
-5568 269 0
-5569 281 0
-5570 297 0
-5571 312 0
5566 5567 5568 5569 5570 5571 -384 5565 0
-247 -266 0
-242 -271 0
-281 -232 0
-297 -216 0
-205 -308 0
-312 -201 0
-314 -199 0
-329 -184 0
-346 -167 0
-151 -362 0
-377 -136 0
-315 -197 -2 0
-347 -165 -2 0
-149 -363 -2 0
-371 -141 -2 0
-249 -8 0
-177 -329 -8 0
-377 -8 0
-244 -13 0
-274 -227 -13 0
-290 -13 -211 0
-322 -179 -13 0
-237 -20 0
-353 -141 -20 0
-236 -21 0
-21 -297 -196 0
-291 -22 -201 0
-363 -22 0
-25 -232 0
-322 -167 -25 0
-209 -35 -270 0
-221 -36 0
-269 -209 -36 0
-220 -37 0
-203 -274 -37 0
-281 -37 -196 0
-329 -37 -148 0
-267 -209 -38 0
-275 -201 -38 0
-323 -38 -153 0
-347 -38 0
-41 -216 0
-264 -41 -209 0
-199 -41 -274 0
-202 -55 0
-56 -201 0
-56 -329 0
-61 -196 0
-322 -61 -131 0
-177 -67 -270 0
-189 -68 0
-188 -69 0
-297 -69 -148 0
-275 -70 -169 0
-70 -291 -153 0
-315 -70 0
-73 -184 0
-151 -290 -73 0
-82 -291 -141 0
-170 -87 0
-169 -88 0
-297 -88 0
-162 -91 -261 0
-93 -164 0
-93 -290 -131 0
-160 -97 0
-271 -97 -146 0
-281 -97 -136 0
-275 -98 -141 0
-104 -153 0
-281 -104 0
-109 -148 0
-142 -115 0
-115 -138 -261 0
-115 -270 0
-116 -141 0
-140 -117 0
-121 -136 0
-264 -121 0
-3 0
-5 0
-17 0
-33 0
-65 0
2 0
127 0
-267 -245 0
-275 -237 0
-221 -291 0
-189 -323 0
-248 0
-260 -245 0
-275 -230 0
-214 -291 0
-308 -197 0
-182 -323 0
-340 -165 0
-356 -149 0
-135 -370 0
-371 -134 0
-376 0
-115 116 0
-103 104 0
-98 97 0
88 -87 0
70 -69 0
-70 69 0
68 -67 0
-68 67 0
-55 56 0
38 -37 0
-38 37 0
36 -35 0
22 -21 0
20 -19 0
8 -7 0
-8 7 0
-130 0
-133 0
-145 0
-161 0
-193 0
131 0
254 0
-314 -69 0
-346 -37 0
-362 -21 0
-13 -370 0
-274 -103 0
-290 -87 0
-308 -69 0
-322 -55 0
-340 -37 0
-356 -21 0
-7 -370 0
-245 247 0
232 -230 0
-232 230 0
216 -214 0
-216 214 0
-211 209 0
-197 199 0
196 -194 0
-196 194 0
184 -182 0
-184 182 0
179 -177 0
164 -162 0
-164 162 0
148 -146 0
-148 146 0
136 -134 0
-136 134 0
261 0
380 0
-132 -121 0
-107 -146 0
-180 -73 0
-186 -67 0
-59 -194 0
-212 -41 0
-218 -35 0
-234 -19 0
-242 -11 0
-132 -109 0
-107 -134 0
-103 -138 0
-162 -79 0
-174 -67 0
-47 -194 0
-41 -200 0
-40 -201 0
-206 -35 0
-11 -230 0
-234 -7 0
-91 -134 0
-87 -138 0
-79 -146 0
-152 -73 0
-158 -67 0
-31 -194 0
-206 -19 0
-212 -13 0
-214 -11 0
-218 -7 0
-132 -61 0
-59 -134 0
-55 -138 0
-47 -146 0
-152 -41 0
-158 -35 0
-31 -162 0
-174 -19 0
-182 -11 0
-186 -7 0
-267 271 0
270 -266 0
-260 264 0
