p cnf 5592 897
128 0
256 0
384 0
-469 3 0
-470 5 0
-471 17 0
-23 469 470 471 0
-529 5 0
-530 9 0
-531 17 0
-29 529 530 531 0
-553 7 0
-554 11 0
-555 19 0
-31 555 554 553 0
-655 3 0
-656 9 0
-657 33 0
-43 655 656 657 0
-679 5 0
-680 9 0
-681 33 0
-45 679 680 681 0
-703 7 0
-704 37 0
-705 13 0
704 705 703 -47 0
-725 3 0
-726 45 0
-727 7 0
-728 11 0
-729 35 0
-729 14 0
728 727 725 726 729 -48 0
-730 5 0
-731 43 0
-732 7 0
-733 13 0
-733 36 0
-734 37 0
-734 12 0
733 734 730 731 732 -48 0
-757 3 0
-758 17 0
-759 33 0
-51 757 758 759 0
-805 7 0
-806 37 0
-807 35 0
805 -55 806 807 0
-830 19 0
-832 5 0
-833 51 0
-834 7 0
-834 50 0
-835 21 0
-835 36 0
-836 37 0
835 -56 832 833 836 834 0
-842 33 0
-843 23 0
-844 35 0
-844 22 0
-845 37 0
-845 20 0
-846 49 0
8 -846 0
846 -56 842 843 845 844 0
-871 11 0
-872 19 0
35 -873 0
872 871 873 -59 0
-903 17 0
-904 43 0
-905 19 0
-906 36 0
-907 12 0
907 -60 903 904 906 905 0
-950 33 0
-951 29 0
-952 26 0
-953 22 0
49 -954 0
954 953 950 951 -62 952 0
-955 3 0
-956 5 0
-957 9 0
-958 17 0
-959 33 0
-63 955 956 957 958 959 0
-1123 7 0
-1124 11 0
-1124 69 0
-1125 67 0
-1125 13 0
1125 1123 -79 1124 0
-1147 74 0
-1148 11 0
-1157 11 0
-1158 68 0
-1177 3 0
-1178 17 0
-1179 65 0
-83 1177 1178 1179 0
-1201 5 0
-1202 17 0
-1203 65 0
-85 1201 1202 1203 0
-1225 7 0
-1226 19 0
-1226 69 0
-1227 67 0
-87 1225 1226 1227 0
-1291 11 0
-1292 19 0
-1293 67 0
-91 1291 1293 1292 0
-1333 13 0
-1334 73 0
-1335 25 0
1334 -93 1335 1333 0
-1447 3 0
-1448 33 0
-1449 65 0
-99 1447 1448 1449 0
-1522 5 0
-1523 99 0
-1524 7 0
-1525 37 0
-1526 69 0
1525 -104 1522 1523 1524 1526 0
-1561 97 0
-1562 35 0
-1562 73 0
-1563 41 0
-107 1562 1561 1563 0
-1601 73 0
-1603 13 0
-1604 37 0
-1605 69 0
1604 -109 1603 1605 0
-1638 70 0
-1645 3 0
-1646 5 0
-1647 9 0
-1648 33 0
-1649 65 0
-111 1645 1646 1647 1648 1649 0
-1729 97 0
-1730 35 0
-1730 81 0
-1731 67 0
-1731 49 0
-115 1731 1729 1730 0
-1761 33 0
-1762 83 0
82 -1763 0
-1764 68 0
-1765 97 0
1763 -116 1761 1762 1764 1765 0
-1803 33 0
-1804 85 0
-1805 37 0
-1806 70 0
-1807 22 0
-118 1805 1803 1804 1807 1806 0
-1915 3 0
-1916 9 0
-1917 17 0
-1918 33 0
-1919 65 0
-123 1915 1916 1917 1918 1919 0
-2035 7 0
-2035 121 0
-2036 11 0
-2036 117 0
-2037 19 0
-2037 109 0
-2038 35 0
-2038 93 0
-2039 67 0
-2039 61 0
2039 2035 -127 2036 2038 2037 0
7 -2040 0
-2040 121 0
13 -2041 0
-2041 115 0
-2042 21 0
-2042 107 0
37 -2043 0
-2043 91 0
-2044 69 0
-2044 59 0
2040 2043 -127 2042 2044 2041 0
-2045 11 0
-2045 117 0
-2046 115 0
-2047 103 0
-2048 41 0
-2048 87 0
73 -2049 0
-2049 55 0
2048 2046 -127 2049 2047 2045 0
-2050 109 0
-2051 107 0
-2052 103 0
49 -2053 0
-2053 79 0
81 -2054 0
-2054 47 0
2054 2053 -127 2051 2052 2050 0
-2055 93 0
37 -2056 0
-2056 91 0
-2057 41 0
-2057 87 0
-2058 79 0
-2059 31 0
2057 2058 -127 2056 2059 2055 0
-2060 67 0
-2060 61 0
-2061 69 0
-2061 59 0
-2062 73 0
-2062 55 0
-2063 47 0
-2064 97 0
-2064 31 0
2060 2061 -127 2062 2063 2064 0
-2086 5 0
-2087 123 0
-2088 7 0
-2088 122 0
-2089 13 0
-2089 116 0
-2090 108 0
-2091 37 0
-2091 92 0
-2092 69 0
-2092 60 0
2089 2088 2090 2091 2092 -128 2086 2087 0
-2095 118 0
-2100 17 0
-2101 111 0
-2102 110 0
-2103 108 0
-2104 104 0
-2105 80 0
-2106 48 0
2102 2103 2104 2105 2106 -128 2100 2101 0
-2114 65 0
-2115 63 0
-2116 67 0
-2116 62 0
-2117 60 0
-2118 73 0
-2118 56 0
-2119 48 0
-2120 97 0
-2120 32 0
2117 2116 2118 2119 2120 -128 2114 2115 0
-2277 134 0
-2278 138 0
-2279 141 0
-158 2278 2277 2279 0
-2379 130 0
-2380 162 0
-2381 161 0
-170 2380 2379 2381 0
-2427 134 0
-2427 169 0
-2428 138 0
-2429 141 0
2429 -174 2427 2428 0
-2529 134 0
-2530 146 0
-2531 162 0
-2531 149 0
-182 2531 2529 2530 0
-2595 138 0
-2596 146 0
-2597 162 0
-186 2595 2596 2597 0
-2649 141 0
-2649 177 0
-2650 149 0
-2650 169 0
-2651 165 0
2650 -189 2649 2651 0
-2949 134 0
-2950 146 0
-2951 194 0
-214 2950 2951 2949 0
-3015 138 0
-3016 146 0
-3017 194 0
-218 3015 3017 3016 0
-3069 141 0
-3069 209 0
-3070 149 0
-3070 201 0
-3071 197 0
-221 3069 3071 3070 0
-3171 130 0
-3172 161 0
-3173 193 0
-226 3171 3172 3173 0
-3219 225 0
-3220 162 0
-3220 197 0
-3221 194 0
-3221 165 0
-230 3220 3221 3219 0
-3231 225 0
-3232 163 0
-3233 165 0
-231 3232 3233 3231 0
-3273 225 0
-3274 161 0
-3275 193 0
-233 3273 3274 3275 0
-3285 225 0
162 -3286 0
-3287 194 0
3286 -234 3287 3285 0
-3319 234 0
-3320 233 0
-3321 226 0
-3322 163 0
-3323 170 0
-236 3319 3322 3321 3320 3323 0
-3411 237 0
-3412 134 0
-3413 231 0
-3414 162 0
-3415 175 0
-240 3413 3414 3412 3411 3415 0
-3441 225 0
-3442 161 0
-3443 193 0
-241 3441 3442 3443 0
-3453 225 0
-3454 162 0
-3454 209 0
-3455 194 0
-242 3454 3455 3453 0
-3482 130 0
-3483 241 0
-3484 227 0
-3485 162 0
-3486 194 0
-244 3485 3482 3486 3484 3483 0
-3508 209 0
-3519 130 0
-3520 133 0
-3521 230 0
-3522 161 0
-3523 193 0
-246 3521 3520 3519 3522 3523 0
-3589 243 0
-3590 242 0
-3591 149 0
-3591 228 0
-3592 165 0
-3593 180 0
-248 3593 3591 3590 3589 3592 0
-3609 225 0
-3610 169 0
-3610 209 0
-3611 201 0
-3611 177 0
-249 3611 3609 3610 0
-3741 134 0
-3741 249 0
-3742 138 0
-3742 245 0
-3743 146 0
-3744 162 0
-3744 221 0
-3745 194 0
189 -3745 0
3742 3743 -254 3741 3745 3744 0
-3746 134 0
-3746 249 0
141 -3747 0
-3747 242 0
-3748 149 0
-3748 234 0
-3749 165 0
-3749 218 0
-3750 197 0
-3750 186 0
3748 3749 -254 3747 3746 3750 0
-3751 138 0
-3751 245 0
141 -3752 0
-3752 242 0
-3753 153 0
-3753 230 0
-3754 169 0
-3754 214 0
-3755 201 0
182 -3755 0
3755 3754 -254 3752 3751 3753 0
-3756 146 0
-3756 237 0
-3757 149 0
-3757 234 0
-3758 230 0
-3759 177 0
-3759 206 0
-3760 209 0
174 -3760 0
3757 3758 -254 3760 3759 3756 0
-3761 162 0
-3761 221 0
-3762 165 0
-3762 218 0
169 -3763 0
177 -3764 0
-3765 225 0
-3765 158 0
3764 3763 -254 3765 3761 3762 0
-3766 194 0
189 -3766 0
-3767 186 0
-3768 201 0
-3768 182 0
-3769 209 0
-3769 174 0
-3770 225 0
-3770 158 0
3768 3767 -254 3766 3769 3770 0
-3809 132 0
-3811 138 0
-3829 248 0
-3830 138 0
-3830 247 0
-3831 246 0
-3832 244 0
-3833 232 0
-3834 216 0
-3835 184 0
3829 3830 3831 3832 3833 3834 3835 -256 0
-3836 240 0
-3837 146 0
-3838 238 0
-3839 236 0
-3840 232 0
-3841 208 0
-3842 209 0
3837 3836 3838 3839 3840 3841 3842 -256 0
-3905 260 0
-3906 262 0
-3907 263 0
-272 3907 3906 3905 0
-3953 260 0
-3954 262 0
-3955 274 0
-3955 263 0
-280 3954 3953 3955 0
-3989 260 0
281 -3989 0
-3990 266 0
-3990 275 0
274 -3991 0
267 -3991 0
3991 3990 -284 3989 0
-4013 262 0
-4014 266 0
-4014 277 0
-4015 274 0
-4015 269 0
-286 4015 4014 4013 0
-4061 264 0
-4067 258 0
-4068 259 0
-4069 260 0
-292 4069 4068 4067 0
-4192 258 0
-4193 260 0
-4194 262 0
-4195 266 0
-4196 290 0
-304 4196 4192 4193 4195 4194 0
-4241 260 0
-4241 305 0
-4242 274 0
-4242 291 0
-4243 290 0
-4243 275 0
4243 4242 4241 -308 0
-4294 258 0
-4295 260 0
-4296 262 0
-4297 274 0
-4298 290 0
-312 4296 4294 4297 4298 4295 0
-4331 266 0
-4331 305 0
-4332 274 0
-4332 297 0
-4333 290 0
-4333 281 0
-314 4331 4332 4333 0
-4355 258 0
-4356 259 0
-4357 265 0
-4358 273 0
-4359 284 0
-316 4359 4356 4357 4358 4355 0
-4482 290 0
-4483 286 0
-4484 284 0
-4485 280 0
-4486 272 0
-320 4484 4486 4483 4482 4485 0
-4487 258 0
-4488 259 0
-4489 260 0
-324 4489 4488 4487 0
-4559 329 0
-4560 323 0
-4561 322 0
-332 4559 4560 4561 0
-4661 260 0
-4661 337 0
-4662 274 0
-4662 323 0
-4663 322 0
-4663 275 0
-340 4661 4663 4662 0
-4714 258 0
-4715 260 0
-4716 262 0
-4717 274 0
-4718 322 0
-344 4717 4714 4718 4715 4716 0
-4751 266 0
-4751 337 0
-4752 274 0
-4752 329 0
-4753 322 0
-4753 281 0
-346 4752 4751 4753 0
-4775 258 0
-4776 259 0
-4777 265 0
-4778 273 0
-4779 284 0
-348 4779 4776 4777 4778 4775 0
-4902 322 0
-4903 286 0
-4904 284 0
-4905 280 0
-4906 272 0
-352 4904 4902 4906 4905 4903 0
-4994 356 0
-4995 262 0
-4996 263 0
-4997 324 0
-4998 292 0
-360 4996 4997 4994 4995 4998 0
-5021 266 0
-5022 290 0
-5023 322 0
-362 5022 5021 5023 0
-5345 281 0
-5346 297 0
-5346 337 0
-5347 329 0
-5347 305 0
-377 5345 5346 5347 0
-5417 260 0
-5417 377 0
-5418 266 0
-5418 371 0
-5419 274 0
-5419 363 0
-5420 290 0
-5421 322 0
-5421 315 0
5420 5419 -380 5418 5417 5421 0
-5422 260 0
-5422 377 0
-5423 267 0
-5423 370 0
-5424 362 0
-5425 291 0
-5425 346 0
-5426 323 0
-5426 314 0
5425 5424 -380 5426 5422 5423 0
-5427 371 0
-5428 267 0
-5428 370 0
-5429 281 0
-5429 356 0
-5430 297 0
-5430 340 0
329 -5431 0
308 -5431 0
5431 5429 -380 5427 5428 5430 0
-5432 274 0
-5433 362 0
-5434 281 0
-5435 305 0
-5436 337 0
-5436 300 0
5435 5432 -380 5434 5436 5433 0
-5437 290 0
-5437 347 0
-5438 291 0
-5438 346 0
-5439 297 0
-5439 340 0
-5440 305 0
-5440 332 0
353 -5441 0
-5441 284 0
5441 5438 -380 5440 5439 5437 0
-5442 322 0
-5442 315 0
-5443 323 0
-5443 314 0
-5444 329 0
-5444 308 0
-5445 337 0
-5445 300 0
353 -5446 0
284 -5446 0
5446 5445 -380 5443 5444 5442 0
-5566 266 0
-5568 372 0
-5569 360 0
-5579 352 0
-5580 290 0
-5581 350 0
-5582 348 0
-5583 344 0
-5584 305 0
-5585 288 0
5580 5579 5581 5582 5583 5584 5585 -384 0
-5586 320 0
-5587 322 0
-5588 318 0
-5589 316 0
-5590 312 0
-5591 337 0
-5591 304 0
353 -5592 0
288 -5592 0
5587 5586 5588 5589 5590 5591 5592 -384 0
-249 -264 0
-247 -266 0
-243 -270 0
-242 -271 0
-238 -275 0
-279 -234 0
-232 -281 0
-228 -285 0
-225 -288 0
-305 -208 0
-312 -201 0
-314 -199 0
-167 -346 0
-377 -136 0
-237 -275 -2 0
-315 -197 -2 0
-249 -8 0
-281 -225 -8 0
-297 -8 -209 0
-305 -8 -201 0
-8 -177 -329 0
-337 -8 -169 0
-153 -353 -8 0
-377 -8 0
-245 -12 0
-305 -12 -197 0
-12 -353 -149 0
-227 -13 -274 0
-305 -13 -196 0
-337 -164 -13 0
-372 -13 0
-323 -14 -177 0
-371 -14 0
-237 -20 0
-20 -353 -141 0
-227 -21 -266 0
-297 -21 -196 0
-329 -21 -164 0
-22 -291 -201 0
-363 -22 0
-25 -232 0
-26 -291 -197 0
-32 -225 0
-32 -353 0
-209 -270 -35 0
-35 -278 -201 0
-285 -35 -194 0
-350 -35 0
-221 -36 0
-337 -141 -36 0
-347 -38 0
-216 -41 0
-41 -279 -194 0
-337 -41 -136 0
-42 -275 -197 0
-48 -209 0
-337 -48 0
-208 -49 0
-264 -49 -201 0
-266 -49 -199 0
-271 -49 -194 0
-267 -50 -197 0
-50 -323 -141 0
-56 -201 0
-329 -56 0
-60 -197 0
-61 -196 0
-323 -62 0
-67 -270 -177 0
-67 -169 -278 0
-67 -285 -162 0
-318 -67 0
-68 -189 0
-305 -68 -141 0
-69 -281 -164 0
-70 -169 -275 0
-315 -70 0
-184 -73 0
-73 -264 -177 0
-167 -73 -274 0
-73 -279 -162 0
-305 -73 -136 0
-165 -74 -275 0
-80 -177 0
-305 -80 0
-163 -81 -270 0
-81 -162 -271 0
-175 -82 0
-165 -82 -267 0
-88 -169 0
-297 -88 0
-91 -162 -261 0
-165 -92 0
-93 -164 0
-94 -291 0
-97 -288 0
-104 -281 0
-107 -146 -261 0
-107 -278 0
-149 -108 0
-277 -108 0
-275 -110 0
-115 -270 0
-116 -141 0
-269 -116 0
-118 -267 0
-121 -136 0
-132 -121 -261 0
-121 -264 0
-3 0
-5 0
-9 0
-17 0
-33 0
-65 0
2 0
127 0
-263 -249 0
-221 -291 0
-323 -189 0
-149 -363 0
-371 -141 0
-122 121 0
-117 118 0
-118 117 0
-115 116 0
-116 115 0
110 -109 0
-110 109 0
108 -107 0
-108 107 0
-103 104 0
-104 103 0
-93 94 0
-92 91 0
-87 88 0
82 -81 0
-79 80 0
-80 79 0
74 -73 0
-74 73 0
-69 70 0
-70 69 0
-67 68 0
-68 67 0
62 -61 0
-59 60 0
-60 59 0
-55 56 0
50 -49 0
-47 48 0
-48 47 0
-41 42 0
-37 38 0
36 -35 0
-31 32 0
-32 31 0
-19 20 0
-20 19 0
-13 14 0
13 -14 0
-11 12 0
-12 11 0
8 -7 0
7 -8 0
-130 0
-133 0
-161 0
-193 0
254 0
-117 -266 0
-109 -274 0
-290 -93 0
-314 -69 0
-322 -61 0
-346 -37 0
-370 -13 0
-117 -260 0
-262 -115 0
-103 -274 0
-290 -87 0
-69 -308 0
-322 -55 0
-340 -37 0
-356 -21 0
-370 -7 0
-109 -260 0
-262 -107 0
-266 -103 0
-290 -79 0
-300 -69 0
-322 -47 0
-332 -37 0
-356 -13 0
-362 -7 0
-230 232 0
-232 230 0
-225 227 0
-227 225 0
199 -197 0
196 -194 0
-165 167 0
164 -162 0
-134 136 0
-136 134 0
-258 0
-259 0
-265 0
-273 0
261 0
380 0
-115 -138 0
-180 -73 0
-67 -186 0
-59 -194 0
-218 -35 0
-19 -234 0
-11 -242 0
-91 -134 0
-87 -138 0
-79 -146 0
-158 -67 0
-31 -194 0
-19 -206 0
-11 -214 0
-218 -7 0
-134 -59 0
-138 -55 0
-47 -146 0
-31 -162 0
-19 -174 0
-11 -182 0
-186 -7 0
288 -284 0
284 -288 0
285 -281 0
-275 279 0
278 -274 0
-278 274 0
271 -267 0
270 -266 0
-270 266 0
-260 264 0
-264 260 0
