p cnf 5592 97
-703 7 0
-704 11 0
-705 35 0
-47 705 703 704 0
-1495 7 0
-1496 35 0
-1497 67 0
-103 1497 1495 1496 0
-1561 11 0
-1562 35 0
-1563 67 0
-107 1563 1561 1562 0
-2035 7 0
-2036 11 0
19 -2037 0
-2038 35 0
-2039 67 0
2039 2035 -127 2037 2036 2038 0
-2045 117 0
-2046 115 0
-2047 103 0
-2048 87 0
-2049 55 0
2045 2046 -127 2048 2047 2049 0
-2050 109 0
-2051 107 0
-2052 103 0
-2053 79 0
-2054 47 0
2050 2053 -127 2052 2051 2054 0
-3746 249 0
-3747 242 0
-3748 234 0
-3749 218 0
-3750 186 0
3746 3748 -254 3747 3749 3750 0
-3751 138 0
-3752 242 0
-3753 230 0
-3754 214 0
-3755 182 0
3753 3751 -254 3752 3754 3755 0
-3756 146 0
-3757 234 0
-3758 230 0
-3759 206 0
-3760 174 0
3756 3758 -254 3757 3759 3760 0
-3761 221 0
-3762 218 0
-3763 214 0
-3764 206 0
-3765 158 0
3761 3762 -254 3763 3764 3765 0
-3766 189 0
-3767 186 0
-3768 182 0
-3769 174 0
-3770 158 0
3766 3768 -254 3767 3769 3770 0
-249 -8 0
-221 -36 0
-189 -68 0
-109 -148 0
-117 -140 0
127 0
68 -67 0
36 -35 0
8 -7 0
254 0
148 -146 0
140 -138 0
-115 -138 0
-186 -67 0
-218 -35 0
-234 -19 0
-242 -11 0
-182 -67 0
-214 -35 0
-230 -19 0
-242 -7 0
-103 -138 0
-174 -67 0
-206 -35 0
-230 -11 0
-234 -7 0
-87 -138 0
-79 -146 0
-158 -67 0
-206 -19 0
-214 -11 0
-218 -7 0
-55 -138 0
-158 -35 0
-174 -19 0
-182 -11 0
-186 -7 0
