p cnf 5592 595
128 0
256 0
384 0
-421 3 0
-422 5 0
-423 7 0
-15 423 422 421 0
-619 3 0
-620 5 0
-621 33 0
-39 619 620 621 0
-655 3 0
-656 35 0
-657 33 0
-43 656 655 657 0
-720 47 0
-721 45 0
-722 43 0
-723 39 0
-724 15 0
-48 721 722 720 723 724 0
-740 33 0
-741 15 0
-742 35 0
-743 37 0
-743 12 0
-744 8 0
-48 742 740 744 743 741 0
-781 5 0
-782 37 0
-783 33 0
-53 782 781 783 0
-805 7 0
-806 37 0
-807 21 0
-55 805 806 807 0
-827 3 0
-828 53 0
-829 7 0
-830 38 0
-831 22 0
-56 831 827 830 828 829 0
-1039 3 0
-1040 5 0
-1041 65 0
-71 1039 1040 1041 0
-1075 3 0
-1076 67 0
-1077 65 0
-75 1076 1075 1077 0
-1099 5 0
-1100 69 0
-1101 65 0
-77 1100 1099 1101 0
-1123 7 0
-1125 13 0
-1140 79 0
-1141 77 0
-1142 75 0
-1143 71 0
-1144 15 0
-80 1142 1144 1140 1143 1141 0
-1145 3 0
-1146 77 0
-1147 7 0
-1148 70 0
-1149 67 0
-80 1149 1145 1147 1148 1146 0
-1201 5 0
-1202 69 0
-1203 65 0
-85 1202 1201 1203 0
-1225 7 0
-1226 69 0
-1227 67 0
-1227 21 0
-87 1225 1226 1227 0
-1242 87 0
-1247 3 0
-1248 85 0
-1249 7 0
-1250 70 0
-1251 22 0
-88 1251 1247 1249 1250 1248 0
-1447 3 0
-1448 33 0
-1449 65 0
-99 1447 1448 1449 0
-1501 35 0
-1501 69 0
-1502 37 0
-1502 67 0
-1503 7 0
-103 1503 1501 1502 0
-1522 5 0
-1523 99 0
-1524 7 0
-1524 98 0
-1525 37 0
-1525 68 0
-1526 69 0
-1526 36 0
-104 1524 1522 1523 1526 1525 0
-1603 97 0
-1604 37 0
-1604 73 0
-1605 69 0
41 -1605 0
1604 1603 1605 -109 0
-1645 3 0
-1646 5 0
-1647 103 0
-1648 33 0
-1649 65 0
-111 1647 1646 1645 1648 1649 0
115 -1741 0
-1742 3 0
-1743 100 0
-1744 33 0
-1745 65 0
1741 -116 1742 1743 1744 1745 0
-1771 21 0
-1772 37 0
-1773 69 0
1772 -117 1771 1773 0
-1803 33 0
-1804 85 0
-1805 37 0
-1806 70 0
-1807 22 0
-118 1807 1803 1805 1806 1804 0
-1813 3 0
-1814 5 0
-1815 103 0
-1816 33 0
-1817 65 0
-119 1815 1814 1813 1816 1817 0
-2035 121 0
-2036 117 0
19 -2037 0
109 -2037 0
-2038 93 0
-2039 61 0
2037 2038 -127 2035 2036 2039 0
7 -2040 0
-2040 121 0
13 -2041 0
115 -2041 0
-2042 21 0
37 -2043 0
91 -2043 0
-2044 69 0
59 -2044 0
2043 2041 -127 2042 2044 2040 0
-2045 11 0
-2045 117 0
-2046 13 0
-2046 115 0
-2047 103 0
-2048 87 0
-2049 55 0
2046 2048 -127 2045 2049 2047 0
-2050 109 0
-2051 21 0
107 -2051 0
-2052 103 0
-2053 79 0
-2054 47 0
2050 2053 -127 2052 2051 2054 0
-2055 93 0
-2056 37 0
-2056 91 0
87 -2057 0
-2058 49 0
-2058 79 0
-2059 31 0
2058 2057 -127 2055 2056 2059 0
-2093 120 0
-2094 119 0
-2095 11 0
-2095 118 0
13 -2096 0
116 -2096 0
-2097 104 0
88 -2098 0
-2099 56 0
2094 2095 2096 2097 2098 2099 -128 2093 0
-2100 112 0
-2101 111 0
-2102 19 0
110 -2102 0
-2103 21 0
-2104 104 0
-2105 80 0
-2106 81 0
-2106 48 0
2101 2102 2103 2104 2105 2106 -128 2100 0
-2277 134 0
-2277 153 0
-2278 138 0
-2278 149 0
-2279 146 0
-2279 141 0
-158 2278 2279 2277 0
-2427 134 0
-2428 138 0
-2429 141 0
-174 2429 2428 2427 0
-2517 133 0
-2518 145 0
-2519 149 0
-181 2519 2518 2517 0
-2529 134 0
-2529 177 0
146 -2530 0
165 -2530 0
-2531 162 0
-2531 149 0
2530 2531 -182 2529 0
-2558 130 0
-2559 181 0
-2560 134 0
-2561 146 0
-2562 151 0
-184 2561 2558 2559 2560 2562 0
-2937 133 0
-2938 145 0
-2939 149 0
-213 2939 2938 2937 0
-2949 134 0
-2949 209 0
-2950 146 0
-2950 197 0
-2951 194 0
-2951 149 0
-214 2951 2950 2949 0
-2978 130 0
-2979 132 0
-2979 213 0
-2980 134 0
-2981 146 0
-2982 151 0
-216 2981 2978 2980 2979 2982 0
-3219 134 0
-3220 162 0
197 -3220 0
194 -3221 0
-3221 165 0
-230 3221 3219 3220 0
-3339 141 0
-3340 165 0
-3341 197 0
-237 3339 3340 3341 0
-3453 146 0
-3454 162 0
-3454 209 0
-3455 194 0
-3455 177 0
-242 3455 3453 3454 0
-3524 130 0
-3525 134 0
-3525 241 0
-3526 146 0
-3527 213 0
-3528 181 0
-246 3527 3524 3526 3525 3528 0
-3741 134 0
-3742 138 0
-3743 237 0
221 -3744 0
-3745 189 0
3744 3742 -254 3745 3743 3741 0
-3746 134 0
-3746 249 0
-3747 141 0
-3747 242 0
-3748 149 0
-3749 165 0
-3749 218 0
-3750 197 0
186 -3750 0
3747 3748 -254 3750 3749 3746 0
-3751 245 0
-3752 242 0
-3753 230 0
-3754 169 0
-3754 214 0
-3755 182 0
3753 3752 -254 3754 3751 3755 0
-3756 146 0
-3756 237 0
-3757 149 0
-3757 234 0
153 -3758 0
230 -3758 0
-3759 177 0
-3759 206 0
209 -3760 0
-3760 174 0
3758 3759 -254 3760 3757 3756 0
-3761 221 0
-3762 165 0
-3762 218 0
-3763 169 0
-3763 214 0
-3764 177 0
-3764 206 0
-3765 158 0
3761 3765 -254 3762 3764 3763 0
189 -3766 0
-3767 197 0
-3767 186 0
-3768 201 0
-3768 182 0
-3769 209 0
-3769 174 0
-3770 158 0
3766 3767 -254 3769 3768 3770 0
-3829 248 0
-3830 138 0
-3831 246 0
-3832 244 0
153 -3833 0
-3833 232 0
-3834 216 0
-3835 184 0
3830 3831 3832 3833 3834 3835 -256 3829 0
-3836 240 0
-3837 146 0
-3838 238 0
-3839 149 0
-3840 232 0
-3841 208 0
-3842 176 0
3837 3838 3839 3840 3841 3842 -256 3836 0
-3989 260 0
-3990 266 0
-3991 267 0
-284 3989 3991 3990 0
-4127 259 0
-4128 265 0
-4129 267 0
-299 4129 4128 4127 0
-4139 260 0
-4140 266 0
-4140 291 0
-4141 290 0
-4141 267 0
4139 4140 4141 -300 0
-4192 258 0
-4193 260 0
-4194 299 0
-4195 266 0
-4196 271 0
-304 4193 4192 4194 4195 4196 0
-4547 259 0
-4548 265 0
-4549 267 0
-331 4549 4548 4547 0
-4559 260 0
-4560 266 0
322 -4561 0
-4561 267 0
4559 4560 4561 -332 0
-4612 258 0
-4613 260 0
-4614 331 0
-4615 266 0
-4616 271 0
-336 4613 4612 4616 4614 4615 0
-5050 258 0
-5051 260 0
-5052 266 0
-5053 331 0
-5054 299 0
-364 5051 5050 5053 5052 5054 0
-5204 275 0
-5205 323 0
-5206 291 0
-371 5206 5204 5205 0
-5417 260 0
-5418 371 0
-5419 274 0
-5420 290 0
-5420 347 0
-5421 315 0
5417 5418 -380 5419 5421 5420 0
-5422 260 0
-5423 267 0
-5423 370 0
-5424 275 0
-5424 362 0
-5425 291 0
-5425 346 0
-5426 323 0
-5426 314 0
5422 5423 -380 5426 5425 5424 0
-5427 266 0
-5428 267 0
-5428 370 0
281 -5429 0
-5429 356 0
-5430 340 0
329 -5431 0
-5431 308 0
5427 5429 -380 5430 5428 5431 0
-5432 274 0
-5432 363 0
-5433 275 0
-5433 362 0
-5434 356 0
-5435 332 0
-5436 300 0
5435 5434 -380 5433 5432 5436 0
-5437 347 0
-5438 346 0
-5439 340 0
305 -5440 0
332 -5440 0
-5441 284 0
5440 5439 -380 5441 5437 5438 0
-5442 315 0
-5443 314 0
-5444 308 0
337 -5445 0
300 -5445 0
-5446 284 0
5445 5442 -380 5446 5444 5443 0
-5572 368 0
-5573 274 0
-5574 275 0
-5575 364 0
-5576 360 0
-5577 336 0
-5578 304 0
5574 5573 5575 5576 5577 5578 -384 5572 0
-242 -271 0
-238 -275 0
-232 -281 0
-208 -305 0
-360 -153 0
-362 -151 0
-245 -267 -2 0
-237 -275 -2 0
-291 -221 -2 0
-323 -189 -2 0
-249 -8 0
-177 -329 -8 0
-169 -8 -337 0
-12 -305 -197 0
-244 -13 0
-241 -13 -260 0
-15 -242 0
-22 -363 0
-36 -221 0
-36 -141 -337 0
-201 -275 -38 0
-323 -153 -38 0
-347 -38 0
-216 -41 0
-136 -41 -337 0
-45 -275 -194 0
-48 -209 0
-48 -337 0
-49 -271 -194 0
-56 -329 0
-59 -194 -261 0
-189 -68 0
-177 -267 -70 0
-169 -275 -70 0
-315 -70 0
-73 -184 0
-73 -136 -305 0
-177 -80 0
-80 -305 0
-81 -176 0
-97 -153 -264 0
-98 -141 -275 0
-104 -153 0
-146 -107 -261 0
-148 -109 0
-110 -275 0
-138 -115 -261 0
-270 -115 0
-118 -267 0
-121 -264 0
-3 0
-5 0
-33 0
-65 0
2 0
127 0
-363 -149 0
-371 -141 0
-248 0
-275 -230 0
-214 -291 0
-308 -197 0
-323 -182 0
-149 -356 0
-371 -134 0
-240 0
-237 -260 0
-267 -230 0
-206 -291 0
-300 -197 0
-323 -174 0
-165 -332 0
-363 -134 0
-368 0
-103 104 0
-104 103 0
70 -69 0
-70 69 0
-68 67 0
38 -37 0
-38 37 0
8 -7 0
-8 7 0
-130 0
-133 0
-145 0
254 0
-117 -266 0
-274 -109 0
-93 -290 0
-314 -69 0
-346 -37 0
-362 -21 0
-370 -13 0
-120 0
-117 -260 0
-103 -274 0
-290 -87 0
-308 -69 0
-55 -322 0
-340 -37 0
-356 -21 0
-370 -7 0
-93 -260 0
-266 -87 0
-79 -274 0
-284 -69 0
-21 -332 0
-340 -13 0
-346 -7 0
-61 -260 0
-266 -55 0
-47 -274 0
-284 -37 0
-31 -290 0
-21 -300 0
-308 -13 0
-314 -7 0
-149 151 0
-151 149 0
-146 148 0
-134 136 0
-258 0
-259 0
-265 0
261 0
380 0
-100 -153 0
-162 -91 0
-67 -186 0
-35 -218 0
-234 -19 0
-242 -11 0
-112 0
-132 -109 0
-138 -103 0
-79 -162 0
-67 -174 0
-47 -194 0
-206 -35 0
-11 -230 0
-134 -91 0
-138 -87 0
-146 -79 0
-158 -67 0
-206 -19 0
-214 -11 0
-218 -7 0
-134 -59 0
-55 -138 0
-47 -146 0
-31 -162 0
-174 -19 0
-11 -182 0
-186 -7 0
271 -267 0
-271 267 0
-266 270 0
264 -260 0
