p cnf 5592 303
128 0
-397 11 0
-398 3 0
-399 4 0
-12 397 398 399 0
-421 3 0
-422 5 0
-423 7 0
-15 423 422 421 0
-445 19 0
-446 3 0
-447 4 0
-20 445 446 447 0
-469 3 0
-470 5 0
-471 7 0
-23 471 470 469 0
-580 5 0
-581 6 0
-582 7 0
-583 20 0
-584 12 0
-32 583 580 581 582 584 0
-595 35 0
-596 3 0
-597 4 0
595 -36 596 597 0
-725 3 0
-726 4 0
-727 7 0
-728 11 0
-729 35 0
729 -48 725 726 727 728 0
-730 5 0
-731 6 0
-732 7 0
36 -733 0
-734 12 0
733 -48 730 731 732 734 0
-1075 3 0
-1076 67 0
-1077 65 0
-75 1076 1075 1077 0
-1087 4 0
-1088 67 0
-1089 11 0
-76 1089 1087 1088 0
-1150 5 0
-1151 6 0
-1152 7 0
-1153 68 0
-1154 69 0
-80 1151 1150 1154 1152 1153 0
-1177 3 0
-1178 67 0
-1179 65 0
-83 1178 1177 1179 0
-1189 4 0
-1190 67 0
-1191 19 0
-84 1191 1189 1190 0
-1262 65 0
-1263 23 0
-1264 67 0
-1265 69 0
-1266 8 0
-88 1263 1262 1265 1264 1266 0
-1318 84 0
-1319 83 0
-1320 11 0
-1321 68 0
-1322 20 0
-92 1319 1320 1318 1321 1322 0
-1400 65 0
-1401 67 0
-1402 69 0
-1403 23 0
-1404 15 0
-95 1401 1400 1402 1403 1404 0
-1447 3 0
-1448 67 0
-1449 65 0
-99 1448 1447 1449 0
-1459 4 0
-1460 67 0
-1461 35 0
-100 1461 1459 1460 0
-1522 5 0
-1523 6 0
-1524 7 0
-1525 68 0
-1526 69 0
-104 1523 1522 1526 1524 1525 0
-1588 100 0
-1589 99 0
-1590 11 0
-1591 68 0
-1592 36 0
-108 1588 1590 1592 1591 1589 0
-1593 76 0
-1594 75 0
-1595 35 0
-1596 68 0
-1597 12 0
-108 1595 1593 1594 1596 1597 0
-1655 5 0
-1656 7 0
-1657 99 0
-1658 75 0
-1659 69 0
-111 1656 1655 1659 1658 1657 0
-1823 5 0
-1824 7 0
-1825 99 0
-1826 83 0
-1827 69 0
-119 1826 1823 1824 1825 1827 0
-2040 7 0
-2041 115 0
-2042 107 0
-2043 91 0
-2044 59 0
2040 2041 -127 2042 2043 2044 0
-2060 61 0
-2061 69 0
59 -2061 0
-2062 55 0
-2063 47 0
-2064 31 0
2061 2060 -127 2063 2062 2064 0
-2093 120 0
-2094 119 0
-2095 11 0
116 -2096 0
-2097 104 0
-2098 88 0
-2099 56 0
2095 2094 2096 2097 2098 2099 -128 2093 0
-2100 112 0
-2101 111 0
-2102 19 0
-2103 108 0
-2104 104 0
-2105 80 0
-2106 48 0
2101 2102 2103 2104 2105 2106 -128 2100 0
-2107 96 0
-2108 95 0
35 -2109 0
-2110 92 0
-2111 88 0
-2112 80 0
-2113 32 0
2108 2109 2110 2111 2112 2113 -128 2107 0
-2847 134 0
-2848 197 0
-2849 194 0
-206 2849 2848 2847 0
-2949 134 0
-2950 197 0
-2951 194 0
-214 2951 2950 2949 0
-3219 134 0
-3220 197 0
-3221 194 0
-3221 165 0
-230 3221 3220 3219 0
-3741 249 0
-3742 245 0
-3743 237 0
-3744 221 0
-3745 189 0
3743 3742 -254 3741 3744 3745 0
-3746 134 0
-3746 249 0
-3747 141 0
-3747 242 0
149 -3748 0
-3748 234 0
-3749 165 0
-3749 218 0
-3750 197 0
-3750 186 0
3747 3748 -254 3750 3746 3749 0
-3751 245 0
-3752 242 0
-3753 230 0
-3754 214 0
-3755 182 0
3755 3754 -254 3751 3753 3752 0
-3756 237 0
-3757 234 0
-3758 230 0
-3759 206 0
-3760 174 0
3757 3758 -254 3756 3759 3760 0
-3761 221 0
-3762 218 0
-3763 214 0
-3764 206 0
-3765 158 0
3765 3764 -254 3761 3763 3762 0
-3766 194 0
-3767 197 0
201 -3768 0
-3768 182 0
-3769 209 0
-3769 174 0
225 -3770 0
-3770 158 0
3768 3770 -254 3767 3766 3769 0
-5417 377 0
-5418 371 0
-5419 363 0
-5420 347 0
322 -5421 0
315 -5421 0
5419 5418 -380 5417 5420 5421 0
-5442 315 0
323 -5443 0
314 -5443 0
-5444 308 0
-5445 300 0
-5446 284 0
5443 5444 -380 5442 5445 5446 0
-314 -199 0
-197 -315 -2 0
-249 -8 0
-245 -12 0
-20 -237 0
-32 -225 0
-221 -36 0
-209 -48 0
-56 -201 0
-194 -59 -261 0
-61 -196 0
-70 -315 0
-165 -92 0
-108 -149 0
-141 -116 0
-3 0
-5 0
-65 0
2 0
127 0
-308 -197 0
-182 -323 0
-300 -197 0
-174 -323 0
-284 -197 0
-158 -323 0
-69 70 0
-68 67 0
8 -7 0
-8 7 0
254 0
-61 -322 0
-377 -6 0
-120 0
-308 -69 0
-55 -322 0
-371 -6 0
-112 0
-300 -69 0
-47 -322 0
-363 -6 0
-96 0
-284 -69 0
-31 -322 0
-347 -6 0
199 -197 0
196 -194 0
261 0
380 0
-218 -35 0
-234 -19 0
-242 -11 0
-249 -4 0
-115 -134 0
-67 -182 0
-55 -194 0
-214 -35 0
-242 -7 0
-245 -4 0
-107 -134 0
-100 -141 0
-76 -165 0
-67 -174 0
-47 -194 0
-234 -7 0
-237 -4 0
-91 -134 0
-84 -141 0
-67 -158 0
-31 -194 0
-218 -7 0
-221 -4 0
-134 -59 0
-158 -35 0
-19 -174 0
-11 -182 0
-186 -7 0
-189 -4 0
