p cnf 5592 131
256 0
-2040 121 0
-2041 115 0
-2042 107 0
-2043 91 0
-2044 59 0
2040 2041 -127 2042 2043 2044 0
117 -2045 0
-2046 115 0
-2047 103 0
-2048 87 0
-2049 55 0
2045 2046 -127 2047 2048 2049 0
-2050 109 0
-2051 107 0
-2052 103 0
-2053 79 0
-2054 47 0
2050 2052 -127 2051 2053 2054 0
-2055 35 0
-2056 91 0
87 -2057 0
-2058 79 0
-2059 31 0
2057 2055 -127 2058 2056 2059 0
-2060 61 0
-2061 59 0
-2062 55 0
-2063 47 0
-2064 31 0
2060 2061 -127 2062 2063 2064 0
-2229 130 0
-2230 146 0
-2231 145 0
-154 2230 2229 2231 0
-2316 133 0
-2317 134 0
-2318 154 0
-2319 148 0
-2320 140 0
-160 2320 2316 2317 2319 2318 0
-2799 130 0
-2800 194 0
-2801 193 0
-202 2800 2799 2801 0
-2886 133 0
-2887 134 0
-2888 202 0
-2889 196 0
-2890 140 0
-208 2890 2886 2887 2889 2888 0
-2949 134 0
-2950 146 0
-2951 194 0
-214 2951 2949 2950 0
-3059 145 0
-3060 146 0
-3061 202 0
-3062 196 0
-3063 140 0
-220 3063 3059 3060 3062 3061 0
-3081 130 0
-3082 133 0
-3083 214 0
-3084 145 0
-3085 193 0
-222 3083 3082 3081 3084 3085 0
-3741 134 0
-3742 138 0
-3743 146 0
162 -3744 0
221 -3744 0
-3745 194 0
3745 3744 -254 3741 3742 3743 0
-3761 221 0
-3762 218 0
-3763 214 0
-3764 206 0
-3765 158 0
3761 3762 -254 3763 3764 3765 0
-3843 224 0
162 -3844 0
-3845 222 0
-3846 220 0
-3847 216 0
-3848 208 0
-3849 160 0
3845 3844 3846 3847 3848 3849 -256 3843 0
-36 -221 0
-59 -194 -261 0
-61 -196 0
-107 -146 -261 0
-109 -148 0
-140 -117 0
-121 -136 0
127 0
-35 36 0
-130 0
-133 0
-145 0
-193 0
254 0
-216 214 0
196 -194 0
-196 194 0
148 -146 0
-148 146 0
136 -134 0
261 0
-115 -138 0
-91 -162 0
-218 -35 0
-115 -134 0
-103 -146 0
-87 -162 0
-55 -194 0
-107 -134 0
-103 -138 0
-79 -162 0
-47 -194 0
-206 -35 0
-91 -134 0
-138 -87 0
-79 -146 0
-31 -194 0
-224 0
-59 -134 0
-138 -55 0
-47 -146 0
-158 -35 0
-31 -162 0
