p cnf 5592 1579
128 0
256 0
384 0
-469 3 0
-470 5 0
-471 17 0
-23 469 470 471 0
-505 3 0
-506 19 0
-507 17 0
-27 506 505 507 0
-529 5 0
-530 21 0
-531 17 0
-29 530 529 531 0
-553 7 0
-553 25 0
-554 11 0
-554 21 0
-555 19 0
-555 13 0
-31 553 555 554 0
-565 31 0
-566 3 0
-567 5 0
-568 24 0
-569 17 0
-32 568 565 567 566 569 0
-575 3 0
-576 29 0
-577 7 0
-578 22 0
-579 19 0
-32 577 578 579 576 575 0
7 -703 0
41 -703 0
-704 11 0
-704 37 0
-705 35 0
-705 13 0
703 704 705 -47 0
-757 3 0
-758 17 0
-759 33 0
-51 757 758 759 0
-781 5 0
-782 17 0
-783 33 0
-53 781 782 783 0
-805 7 0
-805 49 0
-806 37 0
-807 35 0
-55 805 806 807 0
-827 3 0
-828 53 0
-829 7 0
-829 50 0
-830 19 0
-830 38 0
-831 35 0
-831 22 0
-56 829 831 830 827 828 0
-832 5 0
-833 51 0
-834 7 0
-834 50 0
-835 21 0
-835 36 0
-836 37 0
-836 20 0
-56 834 835 836 832 833 0
-842 33 0
-843 23 0
-844 35 0
-844 22 0
-845 37 0
-845 20 0
-846 49 0
-846 8 0
-56 846 845 844 842 843 0
-847 49 0
-848 17 0
-849 33 0
-57 847 848 849 0
-871 11 0
-871 49 0
-872 19 0
-872 41 0
-873 35 0
-873 25 0
-59 871 873 872 0
-883 59 0
-884 3 0
9 -885 0
52 -885 0
-886 17 0
-887 33 0
885 883 -60 884 886 887 0
-888 59 0
-889 57 0
-890 51 0
-891 18 0
-892 27 0
889 891 -60 888 892 890 0
-955 3 0
-956 5 0
-957 55 0
-958 17 0
-959 33 0
-63 957 956 955 958 959 0
-1123 7 0
-1123 73 0
-1124 11 0
-1124 69 0
-1125 67 0
-1125 13 0
1123 1124 -79 1125 0
-1135 79 0
-1136 3 0
-1137 5 0
-1138 72 0
-1139 65 0
-80 1135 1138 1137 1136 1139 0
-1177 3 0
-1178 17 0
-1179 65 0
-83 1177 1178 1179 0
-1225 7 0
-1226 19 0
-1227 67 0
-87 1225 1227 1226 0
-1250 19 0
-1251 67 0
-1252 5 0
-1253 83 0
-1254 7 0
-1255 21 0
-1255 68 0
-1256 20 0
-88 1254 1255 1256 1252 1253 0
-1260 68 0
-1291 11 0
-1292 19 0
-1293 67 0
-91 1291 1293 1292 0
-1303 91 0
-1304 3 0
-1305 84 0
-1306 17 0
-1307 65 0
-92 1305 1303 1304 1306 1307 0
-1311 75 0
-1345 93 0
-1346 5 0
-1347 86 0
-1348 17 0
-1349 65 0
-94 1347 1345 1346 1348 1349 0
-1447 3 0
-1448 33 0
-1449 65 0
-99 1447 1448 1449 0
-1495 7 0
-1496 69 0
-1519 7 0
-1520 35 0
-1522 5 0
-1523 99 0
-1524 7 0
-1524 98 0
-1525 37 0
-1525 68 0
-1526 69 0
-1526 36 0
1526 -104 1525 1524 1522 1523 0
-1536 8 0
-1561 11 0
-1561 97 0
-1562 35 0
-1562 73 0
-1563 41 0
-107 1562 1563 1561 0
-1573 107 0
-1574 3 0
-1575 100 0
-1576 33 0
-1577 65 0
-108 1573 1575 1574 1576 1577 0
-1605 69 0
-1645 3 0
-1646 5 0
-1647 103 0
-1648 33 0
-1649 65 0
-111 1647 1646 1645 1648 1649 0
-1729 19 0
-1729 97 0
-1730 35 0
-1730 81 0
-1731 67 0
-115 1730 1731 1729 0
-1753 19 0
-1755 67 0
-1761 33 0
-1762 83 0
-1763 35 0
-1764 68 0
-1765 20 0
-116 1763 1764 1765 1761 1762 0
-1768 67 0
-1771 21 0
-1771 97 0
-1772 37 0
-1772 81 0
-1773 69 0
-1773 49 0
-117 1773 1771 1772 0
-1801 49 0
-1808 65 0
-1809 53 0
-1810 69 0
-1810 50 0
-1811 81 0
-1811 38 0
-1812 97 0
-1812 22 0
-118 1810 1812 1811 1808 1809 0
-1813 3 0
-1814 5 0
-1815 17 0
-1816 33 0
-1817 65 0
-119 1813 1814 1815 1816 1817 0
-1873 25 0
-1873 97 0
-1874 41 0
-1875 49 0
-121 1874 1875 1873 0
-1975 5 0
-1976 117 0
-1977 17 0
-1978 33 0
-1979 65 0
-125 1976 1975 1977 1978 1979 0
-2035 7 0
-2035 121 0
-2036 11 0
-2036 117 0
-2037 19 0
-2037 109 0
-2038 35 0
-2038 93 0
-2039 67 0
-2039 61 0
2035 2038 2039 2036 2037 -127 0
-2040 7 0
-2040 121 0
-2041 115 0
-2042 21 0
-2042 107 0
-2043 37 0
-2043 91 0
-2044 69 0
-2044 59 0
2041 2040 2042 2044 2043 -127 0
-2045 11 0
-2045 117 0
-2046 13 0
-2046 115 0
-2047 25 0
-2047 103 0
-2048 41 0
-2048 87 0
-2049 73 0
-2049 55 0
2048 2046 2047 2049 2045 -127 0
-2050 19 0
-2050 109 0
-2051 21 0
-2051 107 0
-2052 25 0
-2052 103 0
-2053 49 0
-2053 79 0
81 -2054 0
47 -2054 0
2054 2053 2051 2050 2052 -127 0
-2055 35 0
-2055 93 0
-2056 37 0
-2056 91 0
41 -2057 0
-2057 87 0
49 -2058 0
79 -2058 0
-2059 97 0
-2059 31 0
2057 2055 2059 2056 2058 -127 0
-2060 61 0
-2061 59 0
-2062 55 0
81 -2063 0
47 -2063 0
-2064 31 0
2063 2060 2064 2062 2061 -127 0
-2079 3 0
-2080 125 0
-2081 7 0
-2082 118 0
-2083 19 0
-2084 35 0
-2085 67 0
2080 2081 2082 2083 2084 2085 -128 2079 0
-2088 7 0
-2089 116 0
-2092 69 0
-2093 120 0
-2094 119 0
-2095 11 0
-2095 118 0
-2096 13 0
-2096 116 0
-2097 25 0
-2097 104 0
-2098 41 0
-2098 88 0
-2099 73 0
-2099 56 0
2095 2096 2097 2098 2099 -128 2093 2094 0
-2100 17 0
-2101 111 0
-2102 19 0
-2103 21 0
-2103 108 0
-2104 104 0
-2105 80 0
81 -2106 0
-2106 48 0
2102 2101 2103 2104 2105 2106 -128 2100 0
-2107 33 0
-2108 95 0
-2109 94 0
-2110 92 0
-2111 88 0
-2112 80 0
-2113 32 0
2108 2109 2110 2111 2112 2113 -128 2107 0
-2114 65 0
-2115 63 0
-2116 67 0
-2116 62 0
-2117 69 0
-2117 60 0
-2118 73 0
-2118 56 0
81 -2119 0
48 -2119 0
-2120 32 0
2115 2116 2117 2118 2119 2120 -128 2114 0
-2145 130 0
-2146 133 0
-2147 137 0
-142 2145 2146 2147 0
-2181 130 0
-2182 146 0
-2183 132 0
-148 2183 2182 2181 0
-2193 130 0
-2194 133 0
-2195 134 0
-150 2195 2194 2193 0
-2229 130 0
-2230 137 0
-2231 138 0
-154 2231 2230 2229 0
-2277 134 0
-2277 153 0
-2278 138 0
-2278 149 0
-2279 146 0
-2279 141 0
-158 2279 2277 2278 0
-2316 133 0
-2317 134 0
-2318 154 0
-2319 141 0
-2320 140 0
-160 2318 2319 2317 2316 2320 0
-2343 130 0
-2344 133 0
-2345 161 0
-166 2343 2344 2345 0
-2427 134 0
-2427 169 0
-2428 138 0
-2428 165 0
-2429 162 0
-2429 141 0
-174 2427 2428 2429 0
-2458 171 0
-2480 169 0
-2481 130 0
-2482 162 0
-2483 161 0
-178 2482 2481 2483 0
-2529 134 0
-2530 146 0
-2530 165 0
-2531 162 0
-2531 149 0
-182 2531 2529 2530 0
-2583 137 0
-2584 169 0
-2585 161 0
-185 2584 2583 2585 0
-2595 138 0
-2596 146 0
-2596 169 0
-2597 162 0
-2597 153 0
-186 2595 2597 2596 0
-2624 130 0
-2625 132 0
-2626 138 0
-2627 171 0
-2628 162 0
-188 2626 2627 2625 2624 2628 0
-2636 139 0
-2649 141 0
-2650 169 0
-2651 153 0
2649 2650 2651 -189 0
-2661 130 0
-2662 133 0
-2663 137 0
-2664 174 0
-2665 161 0
-190 2664 2662 2663 2661 2665 0
-2691 189 0
-2692 133 0
-2693 137 0
-2694 175 0
-2695 161 0
2691 -191 2694 2693 2692 2695 0
-2763 130 0
-2764 133 0
-2765 193 0
-198 2763 2764 2765 0
-2799 130 0
-2800 137 0
-2801 193 0
-202 2799 2800 2801 0
-2835 133 0
-2836 137 0
-2837 193 0
-205 2835 2836 2837 0
-2847 134 0
-2847 201 0
-2848 138 0
-2848 197 0
194 -2849 0
141 -2849 0
2849 -206 2847 2848 0
-2880 194 0
-2894 196 0
-2901 130 0
-2902 194 0
-2903 193 0
-210 2902 2901 2903 0
-2949 134 0
-2949 209 0
-2950 146 0
-2950 197 0
-2951 194 0
-2951 149 0
-214 2951 2949 2950 0
-2973 130 0
-2974 214 0
-2975 133 0
-2976 200 0
-2977 193 0
-216 2974 2976 2975 2973 2977 0
-2983 214 0
-2984 132 0
-2985 210 0
-2986 198 0
-2987 150 0
-216 2987 2984 2983 2985 2986 0
-2988 133 0
-2989 134 0
-2990 210 0
-2991 196 0
-2992 148 0
-216 2991 2989 2992 2990 2988 0
-3015 138 0
-3016 146 0
-3016 201 0
-3017 194 0
3017 -218 3016 3015 0
-3051 210 0
-3054 137 0
-3055 138 0
-3056 210 0
-3057 196 0
-3058 201 0
3057 -220 3058 3055 3054 3056 0
-3086 130 0
-3087 134 0
-3088 138 0
-3089 205 0
-3090 194 0
-222 3090 3088 3087 3089 3086 0
-3091 133 0
-3092 134 0
-3093 141 0
-3094 202 0
-3095 154 0
-222 3092 3093 3091 3094 3095 0
-3106 193 0
-3107 194 0
-3108 154 0
-3109 201 0
-3110 142 0
-222 3107 3109 3108 3106 3110 0
-3111 221 0
-3112 133 0
-3113 137 0
-3114 207 0
-3115 193 0
-223 3111 3114 3113 3112 3115 0
-3171 130 0
-3172 161 0
-3173 193 0
-226 3171 3172 3173 0
-3207 133 0
-3208 161 0
-3209 193 0
-229 3207 3208 3209 0
-3219 134 0
-3219 225 0
-3220 162 0
165 -3221 0
3221 -230 3220 3219 0
-3268 193 0
-3269 194 0
167 -3269 0
-3270 166 0
-3271 197 0
-3271 164 0
-3272 225 0
-3272 136 0
3269 -232 3271 3272 3268 3270 0
-3273 137 0
-3274 161 0
-3275 193 0
-233 3273 3274 3275 0
-3285 138 0
-3285 225 0
-3286 162 0
-3286 201 0
-3287 194 0
-3287 169 0
3287 3285 -234 3286 0
-3314 130 0
-3315 233 0
-3316 227 0
-3317 162 0
-3318 171 0
3318 3317 -236 3315 3316 3314 0
-3324 137 0
-3325 138 0
-3325 227 0
-3326 226 0
-3327 169 0
-3328 164 0
3327 3325 -236 3326 3328 3324 0
141 -3339 0
-3339 225 0
-3340 165 0
-3341 169 0
-237 3340 3339 3341 0
-3351 130 0
-3352 133 0
-3353 137 0
-3354 161 0
-3355 193 0
-238 3351 3352 3353 3354 3355 0
-3396 137 0
-3397 229 0
-3398 227 0
-3399 169 0
-3400 201 0
-239 3399 3400 3398 3396 3397 0
-3436 175 0
-3437 174 0
-3438 172 0
-3439 168 0
-3440 225 0
-240 3439 3440 3436 3437 3438 0
-3441 225 0
-3442 161 0
-3443 193 0
-241 3441 3442 3443 0
-3453 146 0
-3453 225 0
-3454 162 0
-3454 209 0
-3455 194 0
3455 -242 3454 3453 0
-3477 130 0
-3478 242 0
-3479 228 0
-3480 161 0
-3481 193 0
-244 3478 3479 3477 3480 3481 0
-3487 242 0
-3488 132 0
-3488 241 0
-3489 226 0
-3490 210 0
-3491 178 0
-244 3487 3491 3490 3488 3489 0
-3495 196 0
-3497 161 0
-3498 162 0
-3499 210 0
-3500 196 0
-3501 225 0
-3501 148 0
-244 3500 3498 3501 3499 3497 0
-3510 149 0
-3510 225 0
-3511 197 0
165 -3512 0
-245 3512 3511 3510 0
-3519 130 0
-3520 133 0
-3521 230 0
-3522 161 0
-3523 193 0
-246 3521 3520 3519 3522 3523 0
-3549 245 0
-3550 133 0
-3551 231 0
-3552 161 0
-3553 193 0
-247 3549 3551 3550 3552 3553 0
-3609 225 0
-3610 209 0
177 -3618 0
-3619 169 0
-3620 153 0
-249 3619 3618 3620 0
-3626 130 0
-3627 241 0
-3628 233 0
-3629 162 0
-3630 185 0
-250 3629 3630 3628 3627 3626 0
-3641 161 0
-3642 162 0
-3643 169 0
-3644 202 0
-3645 225 0
-250 3642 3643 3641 3644 3645 0
-3711 133 0
-3712 137 0
-3713 237 0
-3714 161 0
-3715 193 0
-253 3713 3712 3711 3714 3715 0
-3741 134 0
-3741 249 0
-3742 138 0
-3742 245 0
-3743 146 0
-3743 237 0
-3744 162 0
-3744 221 0
-3745 194 0
-3745 189 0
3745 3744 3741 3743 -254 3742 0
134 -3746 0
-3746 249 0
141 -3747 0
242 -3747 0
149 -3748 0
-3748 234 0
-3749 165 0
-3749 218 0
-3750 197 0
186 -3750 0
3747 3749 3748 3746 3750 -254 0
138 -3751 0
-3751 245 0
141 -3752 0
242 -3752 0
153 -3753 0
-3753 230 0
-3754 169 0
-3754 214 0
-3755 201 0
182 -3755 0
3752 3755 3753 3751 -254 3754 0
-3756 146 0
-3756 237 0
149 -3757 0
-3757 234 0
153 -3758 0
-3758 230 0
177 -3759 0
-3759 206 0
-3760 209 0
-3760 174 0
3757 3759 3758 3756 3760 -254 0
-3761 162 0
-3761 221 0
-3762 165 0
-3762 218 0
-3763 169 0
-3763 214 0
177 -3764 0
-3764 206 0
-3765 225 0
-3765 158 0
3762 3761 3764 3765 3763 -254 0
194 -3766 0
189 -3766 0
-3767 197 0
186 -3767 0
-3768 201 0
-3768 182 0
-3769 209 0
-3769 174 0
-3770 225 0
-3770 158 0
3766 3769 3770 3767 3768 -254 0
-3808 255 0
-3809 132 0
-3809 253 0
-3810 134 0
251 -3810 0
-3811 138 0
-3811 247 0
-3812 146 0
-3812 239 0
-3813 162 0
223 -3813 0
-3814 194 0
191 -3814 0
3809 3810 3811 3812 3813 3814 -256 3808 0
-3822 133 0
-3823 134 0
-3823 251 0
-3824 250 0
-3825 244 0
-3826 236 0
-3827 165 0
-3827 220 0
-3828 197 0
-3828 188 0
3824 3823 3825 3826 3827 3828 -256 3822 0
-3829 248 0
-3830 138 0
-3830 247 0
-3831 246 0
-3832 141 0
-3832 244 0
-3833 232 0
-3834 169 0
-3834 216 0
-3835 201 0
-3835 184 0
3831 3830 3832 3833 3834 3835 -256 3829 0
-3836 240 0
-3837 146 0
-3837 239 0
-3838 238 0
149 -3839 0
236 -3839 0
153 -3840 0
-3840 232 0
-3841 208 0
-3842 176 0
3837 3836 3839 3840 3841 3842 -256 3838 0
-3843 161 0
-3844 162 0
-3845 222 0
-3846 220 0
-3847 169 0
-3847 216 0
-3848 208 0
-3849 160 0
3845 3844 3846 3847 3848 3849 -256 3843 0
-3850 193 0
-3851 194 0
-3852 190 0
-3853 188 0
-3854 184 0
-3855 176 0
-3856 225 0
3852 3851 3853 3854 3855 3856 -256 3850 0
-3869 258 0
-3870 259 0
260 -3871 0
3871 -268 3870 3869 0
-3881 258 0
-3882 266 0
-3883 262 0
-270 3883 3882 3881 0
-3893 259 0
-3894 267 0
-3895 263 0
-271 3895 3894 3893 0
-3917 258 0
-3918 259 0
-3919 273 0
-276 3917 3918 3919 0
-3953 260 0
-3954 262 0
-3954 275 0
-3955 274 0
-3955 263 0
-280 3955 3954 3953 0
-3965 258 0
-3966 274 0
-3967 273 0
-282 3966 3965 3967 0
-3977 259 0
-3978 275 0
-3979 273 0
-283 3978 3977 3979 0
-3989 260 0
-3989 281 0
-3990 266 0
-3990 275 0
-3991 274 0
-3991 267 0
-284 3991 3990 3989 0
-4042 258 0
260 -4043 0
285 -4043 0
-4044 262 0
-4044 283 0
-4045 266 0
-4045 279 0
-4046 274 0
-4046 271 0
4043 -288 4044 4046 4045 4042 0
-4047 259 0
-4048 260 0
-4048 285 0
-4049 263 0
-4049 282 0
-4050 267 0
-4050 278 0
-4051 275 0
270 -4051 0
4048 4049 -288 4051 4050 4047 0
-4052 284 0
-4053 283 0
-4054 282 0
-4055 276 0
-4056 268 0
4054 -288 4056 4053 4052 4055 0
-4058 266 0
-4059 267 0
-4062 273 0
-4063 274 0
-4063 271 0
-4064 275 0
270 -4064 0
268 -4065 0
-4066 281 0
264 -4066 0
4066 -288 4065 4063 4064 4062 0
-4067 258 0
-4068 259 0
-4069 260 0
-292 4069 4068 4067 0
-4139 260 0
-4140 266 0
-4141 290 0
-4141 267 0
-300 4140 4139 4141 0
-4241 260 0
-4241 305 0
-4242 274 0
-4242 291 0
-4243 290 0
-4243 275 0
-308 4241 4243 4242 0
-4296 307 0
-4298 290 0
-4314 280 0
-4315 279 0
-4316 291 0
-4316 278 0
-4317 276 0
-4318 264 0
-312 4318 4315 4316 4314 4317 0
-4343 267 0
-4344 275 0
-4345 291 0
-4345 281 0
-315 4343 4344 4345 0
-4366 260 0
-4368 275 0
-4375 273 0
-4376 299 0
-4377 275 0
-4378 292 0
-4379 268 0
-316 4376 4377 4378 4379 4375 0
-4397 258 0
-4398 314 0
-4399 310 0
-4400 273 0
286 -4401 0
4401 -318 4398 4399 4400 4397 0
-4447 273 0
-4448 275 0
-4449 277 0
-4449 299 0
-4450 295 0
-4451 271 0
-319 4451 4448 4450 4449 4447 0
-4487 258 0
-4488 259 0
-4489 321 0
-324 4487 4488 4489 0
-4523 325 0
-4524 323 0
-4525 322 0
-328 4523 4525 4524 0
-4547 259 0
-4548 323 0
-4549 321 0
-331 4548 4547 4549 0
-4559 260 0
329 -4559 0
-4560 266 0
-4560 323 0
-4561 322 0
-4561 267 0
4559 -332 4560 4561 0
-4612 258 0
-4613 260 0
-4614 331 0
-4615 327 0
-4616 322 0
-336 4613 4616 4614 4615 4612 0
-4623 331 0
-4637 258 0
-4638 273 0
-4639 321 0
-338 4637 4638 4639 0
-4661 260 0
-4661 337 0
-4662 274 0
-4662 323 0
-4663 322 0
-4663 275 0
-340 4661 4663 4662 0
-4685 337 0
-4686 325 0
-4687 322 0
-342 4685 4687 4686 0
-4729 273 0
-4730 327 0
-4731 275 0
-4732 324 0
-4733 337 0
-344 4733 4731 4730 4732 4729 0
-4736 278 0
-4738 337 0
-4739 337 0
-4740 273 0
-4741 321 0
-345 4739 4740 4741 0
-4751 266 0
-4751 337 0
-4752 274 0
-4752 329 0
-4753 322 0
-4753 281 0
-346 4752 4751 4753 0
-4763 267 0
-4763 337 0
-4764 275 0
-4764 329 0
-4765 323 0
-4765 281 0
-347 4763 4764 4765 0
-4822 258 0
-4823 345 0
-4824 341 0
-4825 274 0
-4826 322 0
-350 4823 4825 4826 4824 4822 0
-4907 258 0
-4908 322 0
-4909 321 0
-354 4908 4907 4909 0
-4919 259 0
-4920 323 0
-4921 321 0
-355 4920 4919 4921 0
-4931 260 0
-4932 323 0
-4933 322 0
-356 4931 4932 4933 0
-4979 258 0
-4980 259 0
-4981 356 0
-4982 328 0
-4983 321 0
4981 -360 4982 4979 4980 4983 0
-4984 258 0
-4985 260 0
-4985 357 0
-4986 262 0
-4986 355 0
-4987 327 0
-4988 322 0
4985 4988 -360 4987 4986 4984 0
-4990 260 0
-5021 266 0
-5022 290 0
-5023 322 0
-362 5021 5022 5023 0
-5025 322 0
-5033 267 0
-5034 291 0
-5034 329 0
-5035 323 0
-363 5034 5033 5035 0
-5050 258 0
-5051 260 0
-5052 355 0
-5053 331 0
-5054 322 0
-364 5051 5054 5052 5053 5050 0
-5066 331 0
-5089 358 0
-5106 294 0
-5137 335 0
-5138 333 0
-5139 331 0
-5140 327 0
-5141 271 0
-367 5138 5139 5141 5140 5137 0
-5189 274 0
-5190 337 0
-5191 322 0
-5191 305 0
-370 5189 5191 5190 0
-5201 275 0
-5202 291 0
-5202 337 0
-5203 323 0
-371 5202 5201 5203 0
-5213 258 0
-5214 259 0
-5215 273 0
-5216 340 0
-5217 321 0
-372 5216 5214 5215 5213 5217 0
-5230 275 0
-5238 321 0
-5239 322 0
-5240 323 0
-5241 292 0
-5242 276 0
-372 5241 5240 5239 5238 5242 0
-5255 258 0
-5256 370 0
-5257 273 0
-5258 342 0
-5259 321 0
5258 -374 5256 5257 5255 5259 0
-5270 273 0
-5271 274 0
-5272 354 0
-5273 326 0
-5274 337 0
-374 5271 5274 5273 5272 5270 0
-5275 342 0
-5276 341 0
-5277 338 0
-5278 305 0
-5278 326 0
-5279 278 0
5275 -374 5278 5276 5279 5277 0
-5285 259 0
-5286 371 0
-5287 273 0
-5288 343 0
-5289 321 0
-375 5288 5286 5287 5285 5289 0
-5300 273 0
-5301 275 0
-5302 355 0
-5303 327 0
-5304 337 0
-375 5304 5302 5303 5301 5300 0
-5354 329 0
-5354 305 0
-5355 337 0
-5356 353 0
-5356 281 0
5354 5355 5356 -377 0
-5357 258 0
-5358 370 0
-5359 273 0
-5360 346 0
-5361 321 0
-378 5358 5360 5359 5357 5361 0
-5417 260 0
377 -5417 0
-5418 266 0
-5418 371 0
-5419 274 0
-5419 363 0
-5420 290 0
-5420 347 0
-5421 322 0
-5421 315 0
5417 5418 5420 5421 5419 -380 0
-5422 260 0
377 -5422 0
-5423 267 0
-5423 370 0
-5424 275 0
362 -5424 0
-5425 291 0
-5425 346 0
-5426 323 0
-5426 314 0
5422 5423 5424 5426 5425 -380 0
-5427 266 0
-5427 371 0
-5428 267 0
-5428 370 0
-5429 281 0
-5429 356 0
-5430 340 0
329 -5431 0
308 -5431 0
5431 5427 5430 5428 5429 -380 0
-5432 274 0
-5432 363 0
-5433 275 0
-5433 362 0
-5434 281 0
-5434 356 0
305 -5435 0
332 -5435 0
-5436 337 0
300 -5436 0
5435 5436 5433 5432 5434 -380 0
-5437 290 0
-5437 347 0
-5438 291 0
-5438 346 0
297 -5439 0
-5439 340 0
305 -5440 0
332 -5440 0
-5441 353 0
-5441 284 0
5440 5441 5438 5439 5437 -380 0
-5442 315 0
-5443 314 0
-5444 329 0
-5444 308 0
-5445 337 0
-5445 300 0
-5446 353 0
-5446 284 0
5444 5445 5443 5446 5442 -380 0
-5468 345 0
-5469 341 0
-5471 285 0
-5551 382 0
-5552 260 0
-5552 381 0
-5553 263 0
-5553 378 0
-5554 267 0
-5554 374 0
-5555 275 0
-5556 291 0
-5556 350 0
-5557 323 0
-5557 318 0
5553 5552 5554 5555 5556 5557 -384 5551 0
-5565 376 0
266 -5566 0
-5566 375 0
-5567 267 0
374 -5567 0
-5568 372 0
-5569 281 0
-5569 360 0
-5570 344 0
-5571 312 0
5567 5566 5568 5569 5570 5571 -384 5565 0
-5572 368 0
-5573 367 0
-5574 275 0
-5575 277 0
-5575 364 0
360 -5576 0
-5577 336 0
-5578 304 0
5573 5574 5575 5576 5577 5578 -384 5572 0
-5586 321 0
-5587 322 0
-5587 319 0
-5588 323 0
-5588 318 0
-5589 325 0
-5589 316 0
-5590 312 0
-5591 337 0
-5591 304 0
353 -5592 0
288 -5592 0
5587 5588 5589 5590 5591 5592 -384 5586 0
-251 -262 0
-249 -264 0
-247 -266 0
-242 -271 0
-274 -239 0
-277 -236 0
-279 -234 0
-232 -281 0
-225 -288 0
-216 -297 0
-299 -214 0
-304 -209 0
-305 -208 0
-307 -206 0
-312 -201 0
-314 -199 0
-316 -197 0
-319 -194 0
-327 -186 0
-184 -329 0
-337 -176 0
-342 -171 0
-344 -169 0
-346 -167 0
-160 -353 0
-367 -146 0
-370 -143 0
-372 -141 0
-375 -138 0
-136 -377 0
-381 -132 0
-263 -249 -2 0
-245 -267 -2 0
-231 -281 -2 0
-291 -221 -2 0
-315 -197 -2 0
-343 -169 -2 0
-347 -165 -2 0
-8 -249 0
-8 -225 -281 0
-8 -201 -305 0
-8 -337 -169 0
-8 -353 -153 0
-8 -377 0
-246 -11 0
-341 -11 -162 0
-357 -11 -146 0
-11 -374 0
-244 -13 0
-13 -305 -196 0
-13 -337 -164 0
-370 -13 -131 0
-18 -367 0
-19 -234 -261 0
-19 -326 -169 0
-20 -237 0
-20 -141 -353 0
-21 -236 0
-21 -266 -227 0
-290 -21 -203 0
-322 -171 -21 0
-21 -329 -164 0
-21 -140 -353 0
-22 -267 -225 0
-291 -22 -201 0
-323 -169 -22 0
-22 -363 0
-25 -232 0
-262 -25 -227 0
-325 -25 -164 0
-327 -25 -162 0
-136 -25 -353 0
-25 -360 0
-32 -353 0
-278 -201 -35 0
-35 -285 -194 0
-326 -35 -153 0
-341 -138 -35 0
-221 -36 0
-197 -36 -281 0
-325 -36 -153 0
-36 -329 -149 0
-337 -36 -141 0
-220 -37 0
-37 -274 -203 0
-37 -196 -281 0
-283 -37 -194 0
-37 -337 -140 0
-346 -37 -131 0
-209 -38 -267 0
-38 -275 -201 0
-347 -38 0
-216 -41 0
-199 -41 -274 0
-41 -279 -194 0
-41 -344 0
-210 -47 0
-209 -48 0
-337 -48 0
-208 -49 0
-201 -264 -49 0
-199 -266 -49 0
-197 -268 -49 0
-271 -194 -49 0
-322 -143 -49 0
-325 -140 -49 0
-327 -138 -49 0
-136 -329 -49 0
-336 -49 0
-207 -50 0
-197 -267 -50 0
-323 -141 -50 0
-335 -50 0
-201 -52 -261 0
-333 -52 0
-56 -201 0
-56 -329 0
-326 -59 0
-197 -60 0
-325 -60 0
-61 -196 0
-62 -323 0
-169 -67 -278 0
-67 -285 -162 0
-318 -67 0
-68 -189 0
-68 -297 -149 0
-188 -69 0
-69 -171 -274 0
-69 -281 -164 0
-69 -283 -162 0
-69 -140 -305 0
-316 -69 0
-70 -267 -177 0
-70 -275 -169 0
-315 -70 0
-73 -184 0
-73 -177 -264 0
-73 -274 -167 0
-73 -277 -164 0
-73 -279 -162 0
-295 -73 -146 0
-73 -136 -305 0
-73 -312 0
-75 -182 0
-80 -177 0
-80 -305 0
-176 -81 0
-262 -171 -81 0
-169 -264 -81 0
-271 -81 -162 0
-290 -143 -81 0
-297 -136 -81 0
-304 -81 0
-175 -82 0
-263 -169 -82 0
-267 -165 -82 0
-291 -141 -82 0
-84 -169 -261 0
-86 -171 0
-169 -88 0
-91 -162 -261 0
-294 -91 0
-93 -164 0
-292 -93 0
-95 -162 0
-97 -153 -264 0
-271 -97 -146 0
-97 -279 -138 0
-97 -136 -281 0
-97 -288 0
-98 -267 -149 0
-100 -153 -261 0
-282 -103 0
-104 -153 0
-104 -281 0
-150 -107 0
-107 -278 0
-148 -109 0
-109 -274 -131 0
-111 -146 0
-115 -270 0
-116 -141 0
-117 -140 0
-117 -266 -131 0
-117 -268 0
-139 -118 0
-118 -267 0
-121 -136 0
-262 -121 -131 0
-121 -264 0
-3 0
-5 0
-17 0
-33 0
-65 0
2 0
127 0
-255 0
-275 -237 0
-323 -189 0
-363 -149 0
-371 -141 0
-248 0
-245 -260 0
-263 -242 0
-231 -274 0
-275 -230 0
-291 -214 0
-200 -305 0
-197 -308 0
-323 -182 0
-340 -165 0
-356 -149 0
-371 -134 0
-376 0
-117 118 0
-118 117 0
-115 116 0
-116 115 0
-103 104 0
-104 103 0
-98 97 0
88 -87 0
-88 87 0
82 -81 0
-69 70 0
-67 68 0
-68 67 0
-55 56 0
-56 55 0
50 -49 0
-50 49 0
-37 38 0
-38 37 0
36 -35 0
-36 35 0
-21 22 0
-22 21 0
-19 20 0
-20 19 0
-7 8 0
-8 7 0
-130 0
-133 0
-137 0
-161 0
-193 0
131 0
254 0
-97 -286 0
-290 -93 0
-310 -73 0
-314 -69 0
-61 -322 0
-362 -21 0
-382 0
-109 -260 0
-107 -262 0
-266 -103 0
-290 -79 0
-69 -300 0
-322 -47 0
-37 -332 0
-356 -13 0
-358 -11 0
-362 -7 0
-368 0
-237 239 0
-239 237 0
-234 236 0
234 -236 0
-230 232 0
230 -232 0
227 -225 0
-227 225 0
-206 208 0
206 -208 0
203 -201 0
-197 199 0
196 -194 0
-196 194 0
-174 176 0
-176 174 0
171 -169 0
-171 169 0
167 -165 0
-162 164 0
162 -164 0
143 -141 0
-143 141 0
140 -138 0
-140 138 0
-134 136 0
-136 134 0
-258 0
-259 0
-273 0
-321 0
261 0
380 0
-132 -121 0
-115 -138 0
-107 -146 0
-172 -81 0
-67 -186 0
-59 -194 0
-218 -35 0
-228 -25 0
-11 -242 0
-120 0
-132 -117 0
-134 -115 0
-103 -146 0
-87 -162 0
-168 -81 0
-67 -182 0
-55 -194 0
-200 -49 0
-214 -35 0
-19 -230 0
-7 -242 0
-132 -93 0
-91 -134 0
-87 -138 0
-146 -79 0
-72 -153 0
-158 -67 0
-31 -194 0
-200 -25 0
-24 -201 0
-19 -206 0
-214 -11 0
-218 -7 0
-340 344 0
-344 340 0
-337 341 0
-341 337 0
-323 327 0
-327 323 0
-322 326 0
-326 322 0
-275 279 0
-279 275 0
278 -274 0
-278 274 0
264 -260 0
260 -264 0
