p cnf 5592 1277
128 0
256 0
384 0
-505 3 0
-506 9 0
-507 17 0
-27 505 506 507 0
-553 7 0
-553 25 0
-554 11 0
-554 21 0
-555 19 0
-555 13 0
-31 553 555 554 0
-584 12 0
-589 25 0
-594 25 0
-619 3 0
-620 5 0
-621 33 0
-39 619 620 621 0
-703 7 0
-703 41 0
-704 11 0
-704 37 0
-705 35 0
-705 13 0
-47 703 704 705 0
-728 11 0
-735 9 0
-736 39 0
-737 11 0
-738 13 0
-738 36 0
-739 41 0
-739 8 0
-48 739 737 738 735 736 0
-757 3 0
-758 17 0
-759 33 0
-51 757 758 759 0
-805 7 0
-806 37 0
-807 21 0
-55 805 807 806 0
-871 11 0
-871 49 0
-872 19 0
-872 41 0
-873 35 0
25 -873 0
-59 871 873 872 0
-898 9 0
-899 51 0
-900 11 0
-901 25 0
-902 20 0
-60 901 902 900 898 899 0
-908 33 0
-909 27 0
-910 35 0
-911 20 0
49 -912 0
-912 12 0
-60 912 910 911 908 909 0
-955 3 0
-956 5 0
-957 9 0
-958 17 0
-959 33 0
-63 955 956 957 958 959 0
-1039 3 0
-1040 5 0
-1041 65 0
-71 1039 1040 1041 0
-1075 3 0
-1076 9 0
-1077 65 0
-75 1075 1076 1077 0
-1099 5 0
-1100 9 0
-1101 65 0
-77 1099 1100 1101 0
-1123 7 0
-1124 11 0
-1125 67 0
1123 1124 -79 1125 0
-1145 3 0
-1146 77 0
-1147 7 0
-1148 11 0
-1149 67 0
1147 1148 -80 1146 1145 1149 0
-1201 5 0
-1202 17 0
-1203 65 0
-85 1201 1202 1203 0
-1225 7 0
81 -1225 0
-1226 19 0
-1226 69 0
-1227 67 0
21 -1227 0
1225 1227 -87 1226 0
-1250 19 0
-1267 9 0
-1268 17 0
-1269 65 0
-89 1267 1268 1269 0
-1291 11 0
-1292 19 0
-1293 67 0
-1293 25 0
-91 1293 1292 1291 0
-1320 11 0
-1333 13 0
-1334 73 0
-1335 25 0
1335 -93 1334 1333 0
-1360 9 0
-1361 85 0
-1362 13 0
-1363 25 0
-1364 22 0
1363 1364 1362 -94 1360 1361 0
-1375 3 0
-1376 5 0
-1377 9 0
-1378 17 0
-1379 65 0
-95 1375 1376 1377 1378 1379 0
-1447 3 0
-1448 33 0
-1449 65 0
-99 1447 1448 1449 0
-1496 35 0
-1519 7 0
-1520 35 0
-1522 5 0
-1523 99 0
-1524 7 0
-1524 98 0
37 -1525 0
68 -1525 0
-1526 69 0
-1526 36 0
1525 -104 1526 1523 1524 1522 0
-1527 33 0
-1528 71 0
-1529 35 0
-1530 37 0
-1531 97 0
-1531 8 0
1530 -104 1529 1528 1531 1527 0
-1532 65 0
-1533 39 0
67 -1534 0
-1535 69 0
-1536 8 0
1534 -104 1535 1533 1536 1532 0
-1537 9 0
-1538 33 0
-1539 65 0
-105 1537 1538 1539 0
-1593 33 0
-1594 75 0
-1595 35 0
-1596 68 0
-1597 97 0
-1597 12 0
-108 1596 1597 1594 1595 1593 0
-1609 73 0
-1610 41 0
-1610 69 0
-1611 13 0
-109 1610 1611 1609 0
-1625 5 0
-1626 105 0
-1627 13 0
-1627 98 0
-1628 37 0
-1628 74 0
-1629 69 0
-1629 42 0
-110 1629 1627 1628 1625 1626 0
-1632 13 0
-1645 3 0
-1646 5 0
-1647 9 0
-1648 33 0
-1649 65 0
-111 1645 1646 1647 1648 1649 0
-1729 19 0
-1729 97 0
-1730 35 0
-1730 81 0
-1731 67 0
49 -1731 0
1731 -115 1729 1730 0
-1813 3 0
-1814 5 0
-1815 17 0
-1816 33 0
-1817 65 0
-119 1813 1814 1815 1816 1817 0
-1875 49 0
-1899 50 0
-1900 17 0
-1901 105 0
-1902 25 0
49 -1903 0
-1903 74 0
-1904 42 0
1904 -122 1903 1902 1900 1901 0
-1905 33 0
-1906 89 0
-1907 41 0
-1908 49 0
-1908 74 0
-1909 97 0
-1909 26 0
1907 -122 1908 1909 1905 1906 0
-1975 5 0
-1976 9 0
-1977 17 0
-1978 33 0
-1979 65 0
-125 1975 1976 1977 1978 1979 0
-2035 7 0
-2035 121 0
-2036 11 0
-2036 117 0
-2037 19 0
-2037 109 0
-2038 35 0
-2038 93 0
-2039 67 0
2035 2039 2038 2036 -127 2037 0
7 -2040 0
121 -2040 0
-2041 13 0
-2041 115 0
-2042 107 0
-2043 91 0
69 -2044 0
-2044 59 0
2040 2043 2044 2041 -127 2042 0
-2045 11 0
-2045 117 0
-2046 13 0
-2046 115 0
-2047 25 0
-2047 103 0
-2048 41 0
-2048 87 0
-2049 73 0
-2049 55 0
2048 2046 2049 2045 2047 -127 0
-2050 19 0
-2050 109 0
-2051 107 0
-2052 25 0
-2052 103 0
-2053 49 0
-2053 79 0
-2054 81 0
-2054 47 0
2052 2051 2053 2050 -127 2054 0
-2055 35 0
-2055 93 0
-2056 37 0
-2056 91 0
41 -2057 0
87 -2057 0
49 -2058 0
-2058 79 0
-2059 97 0
-2059 31 0
2057 2055 2059 2056 2058 -127 0
67 -2060 0
61 -2060 0
-2061 59 0
73 -2062 0
-2062 55 0
-2063 81 0
-2063 47 0
-2064 97 0
-2064 31 0
2060 2061 2062 2064 -127 2063 0
-2079 3 0
-2080 125 0
-2081 7 0
-2082 118 0
-2083 19 0
-2083 110 0
-2084 94 0
-2085 67 0
2082 2081 2083 2084 2085 -128 2079 2080 0
-2089 13 0
-2091 92 0
-2093 9 0
-2094 119 0
-2095 11 0
-2096 13 0
-2096 116 0
-2097 25 0
-2097 104 0
-2098 41 0
-2098 88 0
-2099 56 0
2095 2096 2097 2098 2099 -128 2093 2094 0
-2100 17 0
-2101 111 0
-2102 19 0
-2102 110 0
-2103 108 0
25 -2104 0
104 -2104 0
-2105 49 0
-2105 80 0
-2106 81 0
-2106 48 0
2102 2103 2104 2105 2106 -128 2100 2101 0
-2107 33 0
-2108 95 0
-2109 35 0
-2110 92 0
-2111 88 0
-2112 80 0
-2113 32 0
2109 2110 2111 2112 2113 -128 2107 2108 0
-2114 65 0
-2115 63 0
-2116 67 0
-2117 60 0
-2118 73 0
-2119 48 0
-2120 97 0
-2120 32 0
2117 2116 2118 2119 2120 -128 2114 2115 0
-2277 134 0
-2277 153 0
-2278 138 0
-2278 149 0
-2279 146 0
-2279 141 0
-158 2277 2279 2278 0
-2415 133 0
-2416 165 0
-2417 161 0
-173 2416 2415 2417 0
-2427 134 0
-2427 169 0
-2428 138 0
-2428 165 0
-2429 162 0
-2429 141 0
-174 2428 2429 2427 0
-2456 130 0
-2457 132 0
-2457 173 0
-2458 134 0
-2458 171 0
-2459 138 0
-2459 167 0
-2460 162 0
-176 2457 2460 2458 2459 2456 0
-2461 174 0
-2481 130 0
-2482 145 0
-2483 161 0
-178 2481 2482 2483 0
-2517 133 0
-2518 145 0
-2519 161 0
-181 2517 2518 2519 0
-2529 177 0
-2530 146 0
165 -2530 0
-2531 162 0
-2531 149 0
2529 2530 -182 2531 0
-2558 130 0
-2559 181 0
-2560 134 0
-2560 179 0
-2561 146 0
-2561 167 0
-2562 162 0
-2562 151 0
2560 2561 -184 2562 2558 2559 0
-2572 148 0
-2574 167 0
-2595 138 0
-2595 177 0
-2596 146 0
-2596 169 0
-2597 162 0
-2597 153 0
-186 2595 2597 2596 0
-2634 180 0
-2635 138 0
-2636 178 0
-2637 164 0
-2638 148 0
-188 2634 2638 2635 2637 2636 0
-2649 141 0
-2650 149 0
-2650 169 0
-2651 153 0
-189 2649 2651 2650 0
-2661 130 0
-2662 133 0
-2663 182 0
-2664 145 0
-2665 161 0
-190 2663 2662 2661 2664 2665 0
-2666 130 0
-2667 134 0
-2668 181 0
-2669 173 0
-2670 162 0
-2670 157 0
-190 2669 2670 2667 2666 2668 0
-2690 142 0
-2706 183 0
-2707 181 0
-2708 141 0
-2709 167 0
-2710 151 0
-191 2706 2710 2708 2709 2707 0
-2763 130 0
-2764 133 0
-2765 193 0
-198 2763 2764 2765 0
-2847 134 0
-2848 138 0
-2848 197 0
-2849 194 0
-2849 141 0
-206 2849 2847 2848 0
-2871 130 0
-2872 206 0
-2873 133 0
-2874 200 0
-2875 193 0
-208 2874 2872 2873 2871 2875 0
-2895 136 0
-2937 133 0
-2938 145 0
-2939 193 0
-213 2937 2938 2939 0
-2949 134 0
-2949 209 0
-2950 146 0
-2951 194 0
-2951 149 0
-214 2949 2950 2951 0
-2993 145 0
-2994 199 0
-2995 198 0
-2996 196 0
-2997 209 0
-2997 136 0
-216 2994 2997 2996 2993 2995 0
-3015 138 0
-3016 146 0
-3017 194 0
-218 3017 3016 3015 0
-3039 130 0
-3040 218 0
-3041 212 0
-3042 145 0
-3043 193 0
-220 3041 3040 3039 3042 3043 0
-3069 141 0
-3070 149 0
-3071 153 0
3069 3070 -221 3071 0
-3081 130 0
-3082 133 0
-3083 214 0
-3084 145 0
-3085 193 0
-222 3083 3082 3081 3084 3085 0
-3126 215 0
-3127 213 0
-3128 141 0
-3129 199 0
-3130 151 0
3128 3130 3126 -223 3129 3127 0
-3207 133 0
-3208 161 0
-3209 193 0
-229 3207 3208 3209 0
-3219 134 0
-3219 225 0
-3220 162 0
-3220 197 0
-3221 194 0
-3221 165 0
-230 3219 3220 3221 0
-3250 134 0
-3285 138 0
-3285 225 0
-3286 162 0
-3287 194 0
-234 3287 3286 3285 0
-3309 130 0
-3310 234 0
-3311 228 0
-3312 161 0
-3313 193 0
-236 3311 3310 3309 3312 3313 0
-3339 141 0
-3348 197 0
-3348 169 0
-3349 165 0
-3350 141 0
-237 3349 3348 3350 0
-3351 130 0
-3352 133 0
-3353 230 0
-3354 161 0
-3355 193 0
-238 3353 3352 3351 3354 3355 0
-3356 130 0
-3357 134 0
-3358 229 0
-3359 205 0
-3360 194 0
-238 3359 3357 3360 3356 3358 0
-3441 145 0
-3442 161 0
-3443 193 0
-241 3441 3442 3443 0
-3455 177 0
-3482 130 0
-3483 241 0
-3484 146 0
-3484 227 0
-3485 162 0
211 -3485 0
-3486 194 0
-3486 179 0
3486 -244 3484 3485 3482 3483 0
-3502 193 0
-3503 194 0
-3504 178 0
209 -3505 0
-3506 148 0
3505 3503 -244 3506 3502 3504 0
-3741 134 0
-3741 249 0
-3742 138 0
-3742 245 0
-3743 146 0
-3743 237 0
-3744 162 0
-3744 221 0
-3745 194 0
-3745 189 0
3742 3741 3743 3744 3745 -254 0
-3746 134 0
-3746 249 0
141 -3747 0
242 -3747 0
-3748 149 0
-3748 234 0
-3749 165 0
-3749 218 0
-3750 197 0
-3750 186 0
3747 3749 3750 3748 3746 -254 0
-3751 138 0
-3751 245 0
-3752 141 0
-3752 242 0
-3753 230 0
-3754 169 0
-3754 214 0
201 -3755 0
182 -3755 0
3755 3752 3751 3754 3753 -254 0
-3756 146 0
-3756 237 0
-3757 149 0
-3757 234 0
-3758 153 0
-3758 230 0
-3759 177 0
-3759 206 0
209 -3760 0
-3760 174 0
3757 3756 3760 3758 3759 -254 0
-3761 162 0
-3761 221 0
-3762 218 0
169 -3763 0
-3763 214 0
-3764 177 0
-3764 206 0
-3765 225 0
-3765 158 0
3761 3764 3763 3762 3765 -254 0
-3766 189 0
-3767 186 0
201 -3768 0
182 -3768 0
-3769 174 0
-3770 158 0
3768 3766 3770 3769 3767 -254 0
-3809 132 0
-3813 162 0
-3836 145 0
-3837 146 0
-3838 147 0
-3838 238 0
-3839 149 0
236 -3839 0
-3840 153 0
-3840 232 0
-3841 177 0
-3841 208 0
-3842 209 0
-3842 176 0
3838 3837 3839 3840 3841 3842 -256 3836 0
-3843 161 0
-3844 162 0
223 -3844 0
-3845 222 0
165 -3846 0
-3846 220 0
-3847 169 0
-3847 216 0
-3848 177 0
-3848 208 0
-3849 160 0
3845 3844 3846 3847 3848 3849 -256 3843 0
-3850 193 0
-3851 194 0
-3851 191 0
-3852 190 0
-3853 197 0
-3853 188 0
-3854 184 0
176 -3855 0
-3856 225 0
-3856 160 0
3851 3852 3853 3854 3855 3856 -256 3850 0
-3917 258 0
-3918 259 0
-3919 260 0
-276 3919 3918 3917 0
-3943 263 0
-3953 260 0
-3954 262 0
-3955 263 0
-280 3955 3954 3953 0
-3989 260 0
-3989 281 0
-3990 266 0
-3990 275 0
-3991 274 0
-3991 267 0
-284 3990 3991 3989 0
-4025 263 0
-4026 267 0
-4027 269 0
-287 4027 4025 4026 0
-4042 258 0
-4043 260 0
-4044 262 0
-4045 266 0
274 -4046 0
4045 4046 -288 4044 4043 4042 0
-4057 265 0
266 -4058 0
279 -4058 0
-4059 267 0
-4060 269 0
-4061 264 0
4058 4059 -288 4060 4061 4057 0
-4103 260 0
-4104 262 0
-4105 263 0
-296 4103 4104 4105 0
-4139 260 0
-4139 297 0
-4140 266 0
-4140 291 0
-4141 290 0
-4141 267 0
-300 4140 4141 4139 0
-4175 263 0
-4176 267 0
-4177 269 0
-303 4176 4175 4177 0
-4241 260 0
-4242 274 0
-4242 291 0
-4243 290 0
-4243 275 0
-308 4242 4241 4243 0
-4252 260 0
-4289 258 0
-4290 259 0
-4291 308 0
-4292 296 0
-4293 280 0
-312 4291 4293 4292 4290 4289 0
-4331 266 0
-4332 274 0
-4332 297 0
-4333 290 0
-4333 281 0
-314 4331 4333 4332 0
-4343 267 0
-4344 275 0
-4344 297 0
-4345 281 0
-315 4345 4343 4344 0
-4412 265 0
-4413 266 0
-4414 269 0
-4415 281 0
-4416 297 0
-318 4415 4414 4413 4416 4412 0
-4427 259 0
-4428 315 0
-4429 265 0
-4430 303 0
-4431 287 0
-319 4428 4431 4430 4427 4429 0
-4535 258 0
-4536 265 0
-4537 321 0
-330 4535 4536 4537 0
-4559 260 0
-4559 329 0
-4560 323 0
-4561 322 0
-4561 267 0
-332 4560 4561 4559 0
-4562 329 0
-4563 267 0
-4563 322 0
-4564 323 0
-4564 266 0
-332 4564 4563 4562 0
-4583 262 0
-4583 329 0
-4584 266 0
-4585 322 0
-4585 269 0
-334 4584 4583 4585 0
-4595 263 0
-4596 267 0
-4597 269 0
-335 4596 4595 4597 0
-4661 260 0
-4662 274 0
-4663 322 0
-4663 275 0
-340 4662 4663 4661 0
-4735 322 0
-4735 279 0
-4737 276 0
-4738 264 0
-4739 265 0
-4740 329 0
-4741 321 0
-345 4740 4739 4741 0
-4751 266 0
-4751 337 0
-4752 274 0
-4752 329 0
-4753 322 0
-4753 281 0
-346 4751 4752 4753 0
-4763 267 0
-4764 275 0
-4764 329 0
-4765 323 0
-4765 281 0
-347 4765 4763 4764 0
-4837 334 0
-4838 274 0
-4838 333 0
-4839 330 0
-4840 281 0
-4841 270 0
-350 4837 4840 4838 4841 4839 0
-4850 335 0
-4931 260 0
-4932 290 0
-4933 291 0
-356 4933 4931 4932 0
-5021 266 0
-5021 353 0
-5022 290 0
-5022 329 0
-5023 322 0
-5023 297 0
-362 5021 5023 5022 0
-5033 267 0
-5034 291 0
-5034 329 0
-5035 323 0
-363 5033 5034 5035 0
-5087 258 0
-5088 362 0
-5089 265 0
-5090 334 0
-5091 321 0
-366 5088 5090 5089 5087 5091 0
-5103 266 0
-5104 269 0
-5105 297 0
-5133 267 0
-5134 269 0
-5135 297 0
-5189 274 0
-5190 290 0
-5191 322 0
5189 -370 5191 5190 0
-5204 275 0
-5204 353 0
-5205 323 0
-5206 337 0
-5206 291 0
5204 -371 5205 5206 0
-5255 258 0
-5256 370 0
-5257 358 0
-5258 342 0
-5259 321 0
-374 5257 5256 5258 5255 5259 0
-5345 281 0
-5346 297 0
-5346 337 0
-5347 329 0
-377 5346 5347 5345 0
-5357 258 0
-5358 265 0
-5359 362 0
-5360 346 0
-5361 321 0
-378 5359 5360 5357 5358 5361 0
-5417 260 0
-5417 377 0
-5418 371 0
274 -5419 0
-5419 363 0
-5420 290 0
-5420 347 0
-5421 322 0
-5421 315 0
5419 5421 5420 5418 -380 5417 0
-5422 260 0
-5422 377 0
-5423 267 0
-5423 370 0
-5424 275 0
-5424 362 0
-5425 291 0
-5425 346 0
323 -5426 0
-5426 314 0
5424 5426 5422 5425 5423 -380 0
-5427 371 0
-5428 267 0
-5428 370 0
-5429 281 0
-5429 356 0
-5430 297 0
340 -5430 0
-5431 329 0
-5431 308 0
5429 5427 5431 5428 -380 5430 0
-5432 274 0
-5432 363 0
275 -5433 0
-5433 362 0
-5434 281 0
-5434 356 0
-5435 305 0
-5435 332 0
-5436 337 0
-5436 300 0
5433 5432 5435 5434 5436 -380 0
-5437 347 0
-5438 346 0
-5439 297 0
-5439 340 0
-5440 305 0
-5440 332 0
-5441 353 0
284 -5441 0
5441 5438 5440 5439 5437 -380 0
-5442 315 0
-5443 314 0
-5444 329 0
-5444 308 0
-5445 337 0
-5445 300 0
-5446 353 0
-5446 284 0
5446 5442 5445 5444 5443 -380 0
-5467 349 0
-5468 345 0
-5469 341 0
-5470 333 0
-5471 353 0
-381 5471 5467 5469 5470 5468 0
-5545 260 0
-5546 262 0
-5551 382 0
-5552 260 0
-5552 381 0
-5553 263 0
-5553 378 0
-5554 267 0
-5554 374 0
-5555 275 0
-5555 366 0
-5556 291 0
-5556 350 0
-5557 323 0
-5557 318 0
5553 5552 5554 5555 5556 5557 -384 5551 0
-5566 266 0
-5568 269 0
-5568 372 0
-5571 329 0
-5586 321 0
-5587 322 0
-5587 319 0
-5588 323 0
-5589 316 0
-5590 329 0
-5590 312 0
-5591 337 0
-5591 304 0
353 -5592 0
288 -5592 0
5587 5588 5589 5590 5591 5592 -384 5586 0
-249 -264 0
-247 -266 0
-269 -244 0
-271 -242 0
-279 -234 0
-232 -281 0
-225 -288 0
-297 -216 0
-205 -308 0
-199 -314 0
-316 -197 0
-191 -322 0
-190 -323 0
-186 -327 0
-329 -184 0
-180 -333 0
-336 -177 0
-337 -176 0
-171 -342 0
-346 -167 0
-349 -164 0
-160 -353 0
-157 -356 0
-362 -151 0
-377 -136 0
-263 -249 -2 0
-245 -267 -2 0
-291 -221 -2 0
-183 -329 -2 0
-363 -149 -2 0
-371 -141 -2 0
-249 -8 0
-281 -225 -8 0
-297 -209 -8 0
-329 -177 -8 0
-337 -169 -8 0
-153 -8 -353 0
-377 -8 0
-11 -242 -261 0
-341 -11 -162 0
-374 -11 0
-245 -12 0
-337 -165 -12 0
-149 -12 -353 0
-13 -244 0
-227 -13 -274 0
-290 -13 -211 0
-305 -13 -196 0
-337 -13 -164 0
-13 -148 -353 0
-372 -13 0
-291 -14 -209 0
-177 -323 -14 0
-147 -14 -353 0
-371 -14 0
-238 -19 0
-173 -322 -19 0
-326 -19 -169 0
-333 -19 -162 0
-366 -19 0
-237 -20 0
-297 -20 -197 0
-329 -165 -20 0
-20 -141 -353 0
-22 -291 -201 0
-22 -363 0
-232 -25 0
-264 -225 -25 0
-290 -199 -25 0
-322 -167 -25 0
-327 -25 -162 0
-136 -25 -353 0
-197 -291 -26 0
-323 -165 -26 0
-225 -32 0
-32 -353 0
-222 -35 0
-326 -153 -35 0
-333 -146 -35 0
-350 -35 0
-221 -36 0
-197 -281 -36 0
-329 -149 -36 0
-337 -141 -36 0
-37 -220 0
-37 -281 -196 0
-329 -37 -148 0
-38 -275 -201 0
-347 -38 0
-216 -41 0
-264 -209 -41 0
-199 -274 -41 0
-279 -41 -194 0
-327 -146 -41 0
-337 -136 -41 0
-215 -42 0
-275 -197 -42 0
-323 -149 -42 0
-48 -209 0
-337 -48 0
-208 -49 0
-264 -49 -201 0
-199 -49 -266 0
-271 -49 -194 0
-336 -49 0
-197 -267 -50 0
-56 -201 0
-329 -56 0
-59 -194 -261 0
-326 -59 0
-197 -60 0
-61 -196 0
-177 -270 -67 0
-318 -67 0
-189 -68 0
-269 -177 -68 0
-281 -165 -68 0
-297 -149 -68 0
-305 -141 -68 0
-179 -69 -266 0
-281 -69 -164 0
-297 -148 -69 0
-316 -69 0
-177 -267 -70 0
-153 -291 -70 0
-315 -70 0
-73 -184 0
-177 -264 -73 0
-73 -274 -167 0
-290 -151 -73 0
-312 -73 0
-149 -74 -291 0
-177 -80 0
-81 -176 0
-81 -169 -264 0
-81 -167 -266 0
-269 -81 -164 0
-81 -271 -162 0
-297 -136 -81 0
-304 -81 0
-82 -165 -267 0
-291 -82 -141 0
-303 -82 0
-169 -88 0
-297 -88 0
-91 -162 -261 0
-92 -165 0
-93 -164 0
-290 -93 -131 0
-94 -291 0
-160 -97 0
-97 -153 -264 0
-97 -266 -151 0
-269 -97 -148 0
-97 -146 -271 0
-97 -281 -136 0
-97 -288 0
-98 -149 -267 0
-275 -98 -141 0
-153 -104 0
-281 -104 0
-149 -108 0
-109 -148 0
-109 -274 -131 0
-110 -275 0
-142 -115 0
-115 -138 -261 0
-270 -115 0
-116 -141 0
-269 -116 0
-117 -266 -131 0
-118 -267 0
-136 -121 0
-264 -121 0
-263 -122 0
-3 0
-5 0
-9 0
-17 0
-33 0
-65 0
2 0
127 0
-237 -275 0
-315 -197 0
-347 -165 0
122 -121 0
-122 121 0
-117 118 0
-115 116 0
-116 115 0
-109 110 0
-110 109 0
-107 108 0
-108 107 0
-103 104 0
103 -104 0
98 -97 0
-98 97 0
-93 94 0
-94 93 0
-91 92 0
-92 91 0
88 -87 0
-88 87 0
82 -81 0
80 -79 0
-80 79 0
74 -73 0
-74 73 0
70 -69 0
-70 69 0
68 -67 0
-68 67 0
60 -59 0
-55 56 0
50 -49 0
-50 49 0
-47 48 0
-48 47 0
42 -41 0
-42 41 0
38 -37 0
-38 37 0
36 -35 0
-36 35 0
-31 32 0
-32 31 0
26 -25 0
-21 22 0
-19 20 0
19 -20 0
14 -13 0
-14 13 0
12 -11 0
-12 11 0
8 -7 0
-8 7 0
-130 0
-133 0
-145 0
-161 0
-193 0
131 0
254 0
-262 -121 0
-314 -69 0
-37 -346 0
-13 -370 0
-382 0
-117 -260 0
-262 -115 0
-274 -103 0
-290 -87 0
-308 -69 0
-322 -55 0
-37 -340 0
-342 -35 0
-21 -356 0
-358 -19 0
-370 -7 0
-245 247 0
244 -242 0
-244 242 0
-230 232 0
-232 230 0
227 -225 0
-227 225 0
-214 216 0
211 -209 0
-211 209 0
-197 199 0
-199 197 0
196 -194 0
-196 194 0
184 -182 0
179 -177 0
-179 177 0
167 -165 0
-167 165 0
164 -162 0
-164 162 0
151 -149 0
-151 149 0
148 -146 0
-148 146 0
-134 136 0
-136 134 0
-258 0
-259 0
-265 0
-321 0
261 0
380 0
-132 -121 0
-107 -146 0
-186 -67 0
-212 -41 0
-218 -35 0
-234 -19 0
-134 -107 0
-103 -138 0
-162 -79 0
-174 -67 0
-47 -194 0
-200 -41 0
-206 -35 0
-228 -13 0
-230 -11 0
-234 -7 0
-132 -93 0
-91 -134 0
-138 -87 0
-146 -79 0
-158 -67 0
-31 -194 0
-206 -19 0
-214 -11 0
-218 -7 0
-332 336 0
-336 332 0
-329 333 0
-333 329 0
-323 327 0
-322 326 0
-267 271 0
270 -266 0
-270 266 0
-260 264 0
-264 260 0
