p cnf 5592 639
128 0
256 0
384 0
-469 3 0
-470 5 0
-471 17 0
-23 469 470 471 0
-575 3 0
-576 4 0
-577 26 0
-578 22 0
-579 19 0
-32 577 575 576 579 578 0
-619 3 0
-620 5 0
-621 33 0
-39 619 620 621 0
-805 7 0
49 -805 0
-806 19 0
-806 37 0
-807 35 0
-807 21 0
-55 805 807 806 0
-829 7 0
-834 7 0
-837 17 0
-838 39 0
-839 19 0
-839 38 0
-840 21 0
-841 8 0
-56 841 837 838 840 839 0
-842 33 0
-843 23 0
-844 35 0
-845 37 0
-846 8 0
844 -56 842 843 846 845 0
-871 11 0
-872 19 0
-873 25 0
871 872 -59 873 0
-1225 7 0
-1226 19 0
-1227 67 0
-87 1225 1226 1227 0
-1375 3 0
-1376 5 0
-1377 87 0
-1378 17 0
-1379 65 0
-95 1377 1376 1375 1378 1379 0
-1471 5 0
-1472 33 0
-1473 65 0
-101 1471 1472 1473 0
-1517 3 0
-1518 101 0
-1519 7 0
-1520 35 0
-1521 67 0
-104 1520 1517 1518 1519 1521 0
-1609 37 0
-1610 69 0
-1611 13 0
1611 1609 -109 1610 0
-1729 19 0
-1730 35 0
-1731 67 0
1730 -115 1729 1731 0
-1771 21 0
-1772 37 0
-1773 69 0
1771 1772 -117 1773 0
-1813 3 0
-1814 5 0
-1815 17 0
-1816 33 0
-1817 65 0
-119 1813 1814 1815 1816 1817 0
-2035 7 0
-2035 121 0
-2036 117 0
-2037 19 0
-2037 109 0
35 -2038 0
-2038 93 0
-2039 67 0
2036 2038 -127 2039 2037 2035 0
-2040 7 0
-2040 121 0
13 -2041 0
-2041 115 0
-2042 21 0
-2042 107 0
-2043 37 0
-2043 91 0
69 -2044 0
-2044 59 0
2040 2042 -127 2044 2041 2043 0
-2045 117 0
13 -2046 0
-2046 115 0
-2047 103 0
-2048 87 0
73 -2049 0
-2049 55 0
2047 2048 -127 2049 2045 2046 0
-2050 19 0
109 -2050 0
-2051 21 0
-2051 107 0
-2052 103 0
-2053 79 0
81 -2054 0
-2054 47 0
2050 2053 -127 2054 2052 2051 0
-2055 93 0
-2056 91 0
-2057 87 0
-2058 79 0
-2059 97 0
2055 2056 -127 2059 2058 2057 0
-2060 61 0
-2061 59 0
-2062 55 0
-2063 47 0
-2064 31 0
2060 2062 -127 2063 2064 2061 0
-2079 3 0
-2080 4 0
-2081 7 0
-2082 118 0
-2083 19 0
-2083 110 0
-2084 35 0
-2084 94 0
-2085 67 0
2080 2081 2082 2083 2084 2085 -128 2079 0
-2093 120 0
-2094 119 0
-2095 118 0
-2096 13 0
-2096 116 0
-2097 25 0
-2098 88 0
-2099 56 0
2096 2095 2097 2098 2099 -128 2093 2094 0
-2105 49 0
-2107 33 0
-2108 95 0
-2109 35 0
-2110 37 0
-2110 92 0
-2111 88 0
-2112 49 0
-2112 80 0
-2113 32 0
2108 2109 2110 2111 2112 2113 -128 2107 0
-2116 67 0
-2277 134 0
-2277 153 0
-2278 138 0
149 -2278 0
-2279 146 0
-2279 141 0
2278 2279 -158 2277 0
-2343 130 0
-2344 133 0
-2345 161 0
-166 2343 2344 2345 0
-2379 130 0
-2380 162 0
-2381 161 0
-170 2380 2379 2381 0
-2427 134 0
-2427 169 0
-2428 138 0
-2428 165 0
-2429 162 0
-2429 141 0
2429 2428 -174 2427 0
-2461 174 0
-2462 132 0
-2463 170 0
-2464 166 0
-2465 163 0
-176 2463 2461 2462 2464 2465 0
-2481 130 0
-2482 162 0
-2483 161 0
-178 2482 2481 2483 0
-2563 182 0
-2564 132 0
-2565 178 0
-2566 166 0
-2567 163 0
-184 2565 2563 2564 2566 2567 0
-2595 138 0
-2596 146 0
-2596 169 0
-2597 162 0
2597 -186 2595 2596 0
-2629 186 0
-2630 132 0
-2631 178 0
-2632 170 0
-2633 163 0
-188 2631 2629 2630 2632 2633 0
-2661 130 0
-2662 133 0
-2663 182 0
-2664 174 0
-2665 161 0
-190 2663 2662 2661 2664 2665 0
-2847 134 0
-2847 201 0
-2848 138 0
-2849 194 0
-206 2847 2848 2849 0
134 -3219 0
-3220 162 0
-3221 194 0
3219 3220 -230 3221 0
138 -3285 0
-3286 162 0
-3287 194 0
3285 -234 3286 3287 0
134 -3741 0
-3741 249 0
-3742 138 0
-3742 245 0
-3743 146 0
-3743 237 0
-3744 221 0
-3745 194 0
3741 3744 -254 3742 3743 3745 0
134 -3746 0
-3746 249 0
-3747 141 0
-3747 242 0
-3748 234 0
-3749 218 0
197 -3750 0
-3750 186 0
3747 3750 -254 3746 3748 3749 0
146 -3756 0
-3756 237 0
149 -3757 0
-3757 234 0
-3758 230 0
-3759 206 0
209 -3760 0
-3760 174 0
3759 3760 -254 3756 3757 3758 0
-3761 221 0
-3762 165 0
-3762 218 0
-3763 214 0
-3764 177 0
-3764 206 0
225 -3765 0
-3765 158 0
3764 3762 -254 3765 3761 3763 0
-3766 194 0
-3767 186 0
-3768 182 0
174 -3769 0
225 -3770 0
158 -3770 0
3769 3768 -254 3766 3770 3767 0
-3828 188 0
-3850 193 0
-3851 194 0
-3852 190 0
-3853 188 0
-3854 184 0
-3855 176 0
-3856 160 0
3851 3852 3853 3854 3855 3856 -256 3850 0
-3989 260 0
-3989 281 0
-3990 266 0
-3990 275 0
-3991 274 0
-3991 267 0
3991 3990 -284 3989 0
-4139 260 0
-4140 266 0
-4141 267 0
-300 4141 4140 4139 0
-4487 258 0
-4488 259 0
-4489 321 0
-324 4487 4488 4489 0
-4523 260 0
-4524 262 0
-4525 322 0
-328 4525 4523 4524 0
-4559 260 0
-4559 329 0
-4560 266 0
-4560 323 0
-4561 322 0
-4561 267 0
-332 4561 4559 4560 0
-4637 258 0
-4638 322 0
-4639 321 0
-338 4638 4637 4639 0
-4661 260 0
-4662 323 0
-4663 275 0
-340 4662 4663 4661 0
-4724 340 0
-4725 339 0
-4726 338 0
-4727 324 0
-4728 276 0
-344 4724 4725 4726 4727 4728 0
-4734 321 0
-4735 322 0
-4735 279 0
-4736 278 0
-4737 276 0
-4738 264 0
-344 4736 4734 4738 4737 4735 0
-4751 266 0
337 -4751 0
-4752 274 0
-4752 329 0
-4753 322 0
-4753 281 0
4753 -346 4751 4752 0
-4760 322 0
-4760 281 0
-4907 258 0
-4908 322 0
-4909 321 0
-354 4908 4907 4909 0
-4931 353 0
-4932 290 0
-4933 291 0
-356 4932 4931 4933 0
-4979 258 0
-4980 259 0
-4981 356 0
-4982 328 0
-4983 321 0
-360 4981 4980 4979 4982 4983 0
-4989 259 0
-4990 357 0
-4991 354 0
-4992 326 0
-4993 323 0
-360 4991 4989 4990 4993 4992 0
-4994 356 0
-4998 292 0
-4999 328 0
-5000 290 0
-5001 291 0
-5002 324 0
-5003 353 0
-360 4999 5000 5001 5002 5003 0
-5060 356 0
-5061 355 0
-5062 354 0
-5063 324 0
-5064 292 0
-364 5062 5061 5060 5063 5064 0
-5189 353 0
-5190 290 0
-5233 340 0
-5234 339 0
-5235 338 0
-5236 324 0
-5237 276 0
-372 5233 5234 5235 5236 5237 0
-5241 292 0
-5242 353 0
-5345 353 0
-5420 290 0
-5421 315 0
-5422 260 0
-5422 377 0
-5423 267 0
-5423 370 0
-5424 275 0
-5424 362 0
291 -5425 0
346 -5425 0
-5426 323 0
-5426 314 0
5425 5424 -380 5422 5426 5423 0
-5427 266 0
-5427 371 0
-5428 267 0
-5428 370 0
-5429 281 0
-5429 356 0
340 -5430 0
-5431 329 0
-5431 308 0
5430 5429 -380 5428 5431 5427 0
-5432 363 0
-5433 362 0
-5434 356 0
-5435 332 0
-5436 300 0
5432 5435 -380 5433 5436 5434 0
-5437 347 0
-5438 346 0
-5439 340 0
-5440 332 0
-5441 353 0
-5441 284 0
5439 5437 -380 5440 5441 5438 0
-5442 315 0
-5443 314 0
-5444 308 0
-5445 300 0
353 -5446 0
284 -5446 0
5446 5442 -380 5444 5445 5443 0
-5544 383 0
-5545 260 0
-5546 262 0
-5547 375 0
-5548 274 0
-5549 351 0
-5550 322 0
5545 5546 5547 5548 5549 5550 -384 5544 0
-5565 376 0
-5566 266 0
-5566 375 0
-5567 267 0
-5568 372 0
-5569 360 0
-5570 344 0
-5571 329 0
-5571 312 0
5566 5567 5568 5569 5570 5571 -384 5565 0
-5572 368 0
-5573 367 0
-5574 275 0
364 -5575 0
-5576 360 0
-5577 336 0
-5578 304 0
5574 5573 5575 5576 5577 5578 -384 5572 0
-314 -199 0
-327 -186 0
-339 -174 0
-167 -346 0
-351 -162 0
-160 -353 0
-355 -158 0
-153 -360 0
-367 -146 0
-372 -141 0
-375 -138 0
-377 -136 0
-275 -237 -2 0
-221 -291 -2 0
-315 -197 -2 0
-363 -149 -2 0
-371 -141 -2 0
-249 -8 0
-281 -225 -8 0
-177 -329 -8 0
-169 -337 -8 0
-377 -8 0
-357 -19 -138 0
-20 -237 0
-165 -329 -20 0
-141 -20 -353 0
-266 -21 -227 0
-22 -267 -225 0
-201 -22 -291 0
-363 -22 0
-25 -232 0
-25 -353 -136 0
-26 -197 -291 0
-32 -353 0
-221 -36 0
-329 -149 -36 0
-209 -38 -267 0
-347 -38 0
-266 -199 -49 0
-327 -49 -138 0
-336 -49 0
-329 -56 0
-61 -196 0
-281 -164 -69 0
-275 -169 -70 0
-315 -70 0
-276 -165 -73 0
-312 -73 0
-80 -177 0
-304 -81 0
-141 -82 -291 0
-169 -88 0
-92 -165 0
-93 -164 0
-290 -93 -131 0
-292 -93 0
-163 -94 0
-94 -291 0
-276 -97 -141 0
-279 -97 -138 0
-275 -98 -141 0
-153 -104 0
-281 -104 0
-107 -146 -261 0
-278 -107 0
-110 -275 0
-141 -116 0
-266 -117 -131 0
-267 -118 0
-121 -136 0
-121 -264 0
-3 0
-5 0
-17 0
-33 0
-65 0
2 0
127 0
-245 -267 0
-383 0
-245 -260 0
-214 -291 0
-308 -197 0
-323 -182 0
-165 -340 0
-356 -149 0
-371 -134 0
-376 0
118 -117 0
-118 117 0
116 -115 0
-116 115 0
104 -103 0
98 -97 0
88 -87 0
-88 87 0
82 -81 0
70 -69 0
56 -55 0
-56 55 0
38 -37 0
-38 37 0
36 -35 0
-21 22 0
-22 21 0
-19 20 0
8 -7 0
-8 7 0
-130 0
-133 0
-161 0
-193 0
131 0
254 0
-274 -109 0
-314 -69 0
-37 -346 0
-362 -21 0
-370 -13 0
-120 0
-260 -117 0
-103 -274 0
-308 -69 0
-322 -55 0
-328 -49 0
-37 -340 0
-356 -21 0
-370 -7 0
-260 -109 0
-262 -107 0
-300 -69 0
-322 -47 0
-332 -37 0
-356 -13 0
-362 -7 0
-368 0
232 -230 0
227 -225 0
225 -227 0
199 -197 0
197 -199 0
196 -194 0
-165 167 0
164 -162 0
136 -134 0
-258 0
-259 0
-321 0
261 0
380 0
-115 -138 0
-91 -162 0
-186 -67 0
-59 -194 0
-218 -35 0
-234 -19 0
-249 -4 0
-115 -134 0
-103 -146 0
-87 -162 0
-182 -67 0
-55 -194 0
-214 -35 0
-230 -19 0
-242 -7 0
-245 -4 0
-107 -134 0
-103 -138 0
-79 -162 0
-174 -67 0
-47 -194 0
-206 -35 0
-11 -230 0
-234 -7 0
-237 -4 0
-132 -93 0
-91 -134 0
-87 -138 0
-79 -146 0
-158 -67 0
-31 -194 0
-206 -19 0
-218 -7 0
-221 -4 0
-323 327 0
-326 322 0
264 -260 0
-264 260 0
