p cnf 5592 1208
128 0
256 0
384 0
-421 3 0
-422 5 0
-423 7 0
-15 423 422 421 0
-553 7 0
-553 25 0
-554 11 0
-554 21 0
-555 19 0
-555 13 0
-31 553 555 554 0
-655 3 0
-656 35 0
-657 33 0
-43 656 655 657 0
-703 7 0
-703 41 0
-704 11 0
-704 37 0
-705 35 0
-47 703 705 704 0
-740 33 0
-741 15 0
-742 35 0
-743 37 0
-743 12 0
-744 8 0
-48 744 743 742 741 740 0
-769 49 0
-770 35 0
-771 34 0
-52 769 771 770 0
7 -805 0
-805 49 0
-806 19 0
-806 37 0
-807 35 0
-807 21 0
805 -55 807 806 0
-840 36 0
-871 11 0
49 -871 0
-872 19 0
41 -872 0
-873 35 0
25 -873 0
873 871 -59 872 0
-883 59 0
-884 3 0
-885 52 0
-886 17 0
-887 33 0
885 -60 883 884 886 887 0
-955 3 0
-956 5 0
-957 55 0
-958 17 0
-959 33 0
-63 957 956 955 958 959 0
-1039 3 0
-1040 5 0
-1041 65 0
-71 1039 1040 1041 0
-1075 3 0
-1076 67 0
-1077 65 0
-75 1076 1075 1077 0
-1135 79 0
-1136 3 0
-1137 5 0
-1138 72 0
-1139 65 0
-80 1138 1135 1137 1136 1139 0
-1160 65 0
-1161 15 0
-1162 67 0
-1163 69 0
-1163 12 0
-1164 8 0
1163 1164 -80 1162 1161 1160 0
-1225 7 0
-1225 81 0
-1226 19 0
-1226 69 0
-1227 67 0
-1227 21 0
-87 1225 1226 1227 0
-1291 11 0
-1291 81 0
-1292 19 0
-1293 67 0
-1293 25 0
-91 1292 1293 1291 0
-1303 91 0
-1304 3 0
-1305 84 0
-1306 17 0
-1307 65 0
-92 1305 1303 1304 1306 1307 0
-1333 81 0
-1334 21 0
-1335 69 0
1335 1333 -93 1334 0
-1447 3 0
-1448 33 0
-1449 65 0
-99 1447 1448 1449 0
-1495 7 0
-1496 69 0
-1497 67 0
1496 1495 -103 1497 0
-1527 33 0
-1528 71 0
-1529 35 0
-1530 37 0
-1530 68 0
-1531 97 0
-1531 8 0
1529 1530 -104 1531 1527 1528 0
-1537 97 0
-1538 33 0
-1539 65 0
-105 1537 1538 1539 0
-1573 107 0
-1574 3 0
-1575 100 0
-1576 33 0
-1577 65 0
-108 1575 1573 1574 1576 1577 0
-1588 100 0
-1589 99 0
-1590 11 0
-1591 68 0
-1592 36 0
1588 -108 1590 1591 1592 1589 0
-1593 33 0
-1594 34 0
-1594 75 0
-1595 35 0
-1595 74 0
-1596 68 0
-1597 97 0
-1597 12 0
-108 1595 1594 1597 1596 1593 0
-1599 43 0
-1601 36 0
-1603 13 0
-1604 37 0
-1605 69 0
-109 1605 1603 1604 0
-1615 109 0
-1616 5 0
-1617 102 0
-1618 33 0
-1619 65 0
-110 1617 1615 1616 1618 1619 0
-1645 3 0
-1646 5 0
-1647 103 0
-1648 33 0
-1649 65 0
-111 1647 1646 1645 1648 1649 0
-1655 5 0
-1656 7 0
-1657 99 0
-1658 75 0
-1659 69 0
-111 1659 1658 1656 1655 1657 0
-1735 35 0
-1735 81 0
-1736 49 0
-1736 67 0
-1737 19 0
-115 1735 1737 1736 0
-1771 21 0
-1772 37 0
-1772 81 0
-1773 69 0
-1773 49 0
-117 1773 1771 1772 0
-1795 98 0
-1813 3 0
-1814 5 0
-1815 17 0
-1816 33 0
-1817 65 0
-119 1813 1814 1815 1816 1817 0
-1873 25 0
-1874 81 0
-1875 49 0
1875 -121 1874 1873 0
-1886 114 0
-1915 3 0
-1916 115 0
-1917 17 0
-1918 33 0
-1919 65 0
-123 1916 1915 1917 1918 1919 0
-1975 5 0
-1976 117 0
-1977 17 0
-1978 33 0
-1979 65 0
-125 1976 1975 1977 1978 1979 0
-1982 105 0
-2035 121 0
-2036 11 0
-2036 117 0
-2037 19 0
-2037 109 0
35 -2038 0
93 -2038 0
-2039 67 0
2038 2036 2037 2035 2039 -127 0
-2040 7 0
-2040 121 0
13 -2041 0
-2041 115 0
-2042 21 0
-2042 107 0
-2043 37 0
-2043 91 0
-2044 69 0
-2044 59 0
2040 2043 2044 2041 -127 2042 0
-2045 11 0
-2045 117 0
-2046 115 0
-2047 103 0
41 -2048 0
-2048 87 0
73 -2049 0
-2049 55 0
2045 2048 2049 2046 -127 2047 0
-2050 19 0
-2050 109 0
-2051 21 0
-2051 107 0
-2052 25 0
-2052 103 0
-2053 49 0
-2053 79 0
-2054 81 0
-2054 47 0
2050 2053 2054 2051 2052 -127 0
93 -2055 0
-2056 91 0
-2057 87 0
-2058 79 0
-2059 97 0
-2059 31 0
2055 2058 2059 2057 2056 -127 0
67 -2060 0
61 -2060 0
69 -2061 0
-2061 59 0
-2062 73 0
-2062 55 0
-2063 47 0
-2064 97 0
-2064 31 0
2060 2061 2062 2063 2064 -127 0
-2079 3 0
-2080 125 0
122 -2081 0
-2082 118 0
-2083 19 0
-2083 110 0
-2084 35 0
-2085 67 0
2080 2081 2082 2083 2084 2085 -128 2079 0
-2086 5 0
-2087 123 0
7 -2088 0
-2089 116 0
-2090 108 0
-2091 37 0
-2092 69 0
-2092 60 0
2087 2088 2089 2090 2091 2092 -128 2086 0
-2093 120 0
-2094 119 0
-2095 11 0
-2095 118 0
-2096 116 0
-2097 25 0
-2097 104 0
41 -2098 0
-2098 88 0
-2099 56 0
2096 2095 2097 2098 2099 -128 2093 2094 0
-2100 17 0
-2101 111 0
-2102 19 0
110 -2102 0
-2103 21 0
-2103 108 0
-2104 104 0
-2105 49 0
80 -2105 0
-2106 81 0
-2106 48 0
2101 2102 2103 2104 2105 2106 -128 2100 0
-2107 33 0
-2108 95 0
-2109 35 0
-2110 92 0
-2111 88 0
-2112 49 0
-2112 80 0
-2113 97 0
-2113 32 0
2108 2109 2110 2111 2112 2113 -128 2107 0
-2114 65 0
-2115 63 0
-2116 67 0
-2117 69 0
-2118 56 0
-2119 81 0
48 -2119 0
-2120 97 0
-2120 32 0
2115 2116 2117 2118 2119 2120 -128 2114 0
-2145 130 0
-2146 133 0
-2147 137 0
-142 2145 2146 2147 0
-2193 130 0
-2194 133 0
-2195 134 0
-150 2195 2194 2193 0
-2277 134 0
-2277 153 0
-2278 138 0
-2278 149 0
-2279 146 0
-2279 141 0
2277 2279 -158 2278 0
-2321 137 0
-2322 138 0
-2323 139 0
-2324 141 0
-2325 136 0
-160 2323 2324 2322 2325 2321 0
-2343 130 0
-2344 133 0
-2345 161 0
-166 2343 2344 2345 0
-2379 130 0
-2380 137 0
-2381 161 0
-170 2379 2380 2381 0
-2427 134 0
-2427 169 0
-2428 138 0
-2428 165 0
-2429 162 0
-2429 141 0
-174 2427 2428 2429 0
-2466 133 0
-2467 134 0
-2468 170 0
-2469 141 0
-2469 164 0
165 -2470 0
-2470 140 0
2467 2470 -176 2469 2466 2468 0
-2480 136 0
-2529 134 0
-2530 146 0
-2530 165 0
-2531 162 0
-2531 149 0
-182 2529 2530 2531 0
-2573 168 0
-2574 167 0
-2575 166 0
-2576 149 0
-2577 136 0
-184 2574 2577 2576 2573 2575 0
-2583 137 0
-2584 169 0
-2585 161 0
-185 2584 2583 2585 0
-2595 138 0
-2596 146 0
-2597 153 0
2597 2595 -186 2596 0
-2649 141 0
-2649 177 0
-2650 149 0
-2650 169 0
-2651 165 0
-2651 153 0
-189 2651 2650 2649 0
-2661 130 0
-2662 133 0
-2663 137 0
-2664 174 0
-2665 161 0
-190 2664 2662 2663 2661 2665 0
-2715 143 0
-2763 130 0
-2764 133 0
-2765 193 0
-198 2763 2764 2765 0
-2847 134 0
-2847 201 0
-2848 138 0
-2848 197 0
-2849 194 0
-2849 141 0
2847 -206 2848 2849 0
-2887 134 0
-2896 193 0
-2897 194 0
-2898 142 0
-2899 140 0
-2900 136 0
2899 -208 2897 2900 2896 2898 0
-2901 130 0
-2902 194 0
-2903 193 0
-210 2902 2901 2903 0
-2949 134 0
-2950 146 0
-2951 149 0
2949 -214 2950 2951 0
-2973 130 0
-2974 214 0
-2975 133 0
-2976 200 0
-2977 193 0
2974 -216 2976 2975 2973 2977 0
-2983 214 0
-2984 213 0
-2985 210 0
-2986 198 0
-2987 150 0
2983 -216 2984 2985 2987 2986 0
-3003 137 0
-3004 201 0
-3005 193 0
-217 3004 3003 3005 0
-3015 138 0
-3018 138 0
-3019 153 0
-3020 146 0
-218 3019 3018 3020 0
-3069 141 0
-3069 209 0
-3070 149 0
-3070 201 0
-3071 197 0
-3071 153 0
-221 3069 3071 3070 0
-3081 130 0
-3082 133 0
-3083 137 0
-3084 206 0
-3085 193 0
-222 3084 3082 3083 3081 3085 0
-3171 130 0
-3172 161 0
-3173 193 0
-226 3171 3172 3173 0
-3207 133 0
-3208 161 0
-3209 193 0
-229 3207 3208 3209 0
-3225 162 0
-3226 194 0
-3227 225 0
-3227 134 0
-230 3225 3226 3227 0
-3324 137 0
-3325 138 0
-3325 227 0
-3326 226 0
-3327 169 0
-3327 196 0
-3328 164 0
-236 3328 3325 3327 3324 3326 0
-3351 130 0
-3352 133 0
-3353 137 0
-3354 161 0
-3355 193 0
-238 3351 3352 3353 3354 3355 0
-3396 137 0
-3397 229 0
141 -3398 0
-3398 227 0
-3399 169 0
-3399 199 0
-3400 201 0
167 -3400 0
3400 3399 -239 3398 3396 3397 0
-3477 130 0
-3478 242 0
-3479 228 0
-3480 161 0
-3481 193 0
-244 3479 3478 3477 3480 3481 0
-3497 161 0
-3498 162 0
-3499 210 0
-3500 196 0
148 -3501 0
-244 3501 3499 3500 3498 3497 0
-3519 130 0
-3520 133 0
-3521 230 0
-3522 161 0
-3523 193 0
-246 3521 3520 3519 3522 3523 0
-3609 153 0
-3609 225 0
-3610 169 0
201 -3611 0
-3611 177 0
-249 3611 3610 3609 0
-3621 130 0
-3622 137 0
-3623 234 0
-3624 161 0
-3625 193 0
-250 3623 3622 3621 3624 3625 0
-3672 217 0
-3674 203 0
-3675 155 0
-3676 193 0
-3677 185 0
-3678 201 0
-3679 171 0
-3680 155 0
-251 3678 3679 3680 3677 3676 0
134 -3741 0
-3741 249 0
-3742 138 0
-3742 245 0
-3743 146 0
237 -3743 0
-3744 162 0
-3744 221 0
-3745 194 0
-3745 189 0
3744 3743 3745 3742 -254 3741 0
-3746 134 0
-3746 249 0
-3747 141 0
-3747 242 0
-3748 149 0
-3748 234 0
165 -3749 0
-3749 218 0
-3750 197 0
-3750 186 0
3749 3747 3750 3746 3748 -254 0
-3751 138 0
-3751 245 0
-3752 141 0
-3752 242 0
-3753 153 0
-3753 230 0
-3754 169 0
-3754 214 0
-3755 201 0
-3755 182 0
3752 3751 3755 3754 3753 -254 0
-3756 146 0
-3756 237 0
-3757 234 0
-3758 230 0
-3759 206 0
-3760 174 0
3759 3758 3760 3757 3756 -254 0
-3761 162 0
-3761 221 0
165 -3762 0
-3762 218 0
-3763 169 0
-3763 214 0
-3764 206 0
-3765 225 0
158 -3765 0
3764 3762 3763 3765 3761 -254 0
-3766 189 0
-3767 197 0
-3767 186 0
-3768 182 0
-3769 209 0
-3769 174 0
225 -3770 0
158 -3770 0
3770 3769 3767 3768 3766 -254 0
-3812 146 0
-3812 239 0
-3814 194 0
-3822 133 0
-3823 134 0
-3823 251 0
-3824 250 0
-3825 141 0
-3825 244 0
-3826 236 0
-3827 220 0
-3828 197 0
3824 3823 3825 3826 3827 3828 -256 3822 0
-3829 248 0
-3830 138 0
-3830 247 0
-3831 246 0
-3832 141 0
-3832 244 0
-3833 232 0
-3834 169 0
-3834 216 0
-3835 201 0
184 -3835 0
3831 3830 3832 3833 3834 3835 -256 3829 0
-3836 240 0
-3837 146 0
-3837 239 0
-3838 238 0
-3839 149 0
-3839 236 0
-3840 153 0
-3840 232 0
177 -3841 0
-3841 208 0
209 -3842 0
-3842 176 0
3837 3839 3840 3841 3842 -256 3836 3838 0
-3843 161 0
-3844 162 0
-3845 222 0
220 -3846 0
-3847 169 0
216 -3847 0
-3848 208 0
-3849 160 0
3844 3845 3846 3847 3848 3849 -256 3843 0
-3850 193 0
-3851 194 0
-3852 190 0
-3853 197 0
-3853 188 0
-3854 201 0
-3855 176 0
-3856 160 0
3852 3851 3853 3854 3855 3856 -256 3850 0
-3869 258 0
-3870 259 0
-3871 260 0
-268 3871 3870 3869 0
-3905 260 0
-3906 262 0
-3907 263 0
-272 3907 3906 3905 0
-3917 258 0
-3918 259 0
-3919 260 0
-276 3919 3918 3917 0
-3989 260 0
-3989 281 0
-3990 275 0
-3991 274 0
-284 3990 3989 3991 0
272 -4062 0
-4063 274 0
-4064 275 0
-4065 268 0
-4066 264 0
4062 4065 -288 4064 4063 4066 0
-4139 260 0
-4139 297 0
-4140 266 0
-4140 291 0
-4141 290 0
-4141 267 0
-300 4139 4141 4140 0
-4244 260 0
-4245 275 0
-4246 274 0
-308 4245 4244 4246 0
-4314 289 0
-4315 279 0
-4316 291 0
-4317 293 0
-4318 305 0
4315 -312 4318 4317 4316 4314 0
-4343 267 0
-4343 305 0
-4344 275 0
-4344 297 0
-4345 291 0
-4345 281 0
-315 4343 4344 4345 0
-4365 259 0
-4366 260 0
-4367 267 0
-4368 298 0
-4369 291 0
-316 4368 4367 4366 4369 4365 0
-4535 258 0
-4536 322 0
-4537 321 0
-330 4536 4535 4537 0
-4559 260 0
-4559 329 0
-4560 266 0
-4560 323 0
-4561 322 0
-4561 267 0
-332 4559 4560 4561 0
-4619 330 0
-4620 326 0
-4662 274 0
-4664 260 0
-4664 337 0
-4665 275 0
-4665 322 0
-4666 323 0
-4666 274 0
-340 4666 4664 4665 0
-4734 321 0
-4735 322 0
-4735 279 0
-4736 323 0
-4737 325 0
-4737 276 0
-4738 264 0
-344 4736 4738 4735 4737 4734 0
-4785 259 0
-4786 260 0
-4787 267 0
-4788 330 0
-4789 323 0
-348 4787 4788 4786 4789 4785 0
-4907 258 0
-4908 289 0
-4909 321 0
-354 4907 4908 4909 0
-4933 291 0
-4989 259 0
-4990 260 0
-4990 357 0
-4991 354 0
-4992 291 0
-4992 326 0
-4993 323 0
-4993 294 0
-360 4990 4993 4992 4989 4991 0
-5009 353 0
-5010 289 0
-5011 321 0
-361 5009 5010 5011 0
-5033 267 0
-5034 291 0
297 -5035 0
5035 5033 5034 -363 0
-5045 258 0
-5046 259 0
-5047 356 0
-5048 289 0
-5049 321 0
-364 5047 5046 5045 5048 5049 0
-5123 361 0
-5124 357 0
-5126 323 0
-5177 353 0
-5178 289 0
-5179 321 0
-369 5177 5178 5179 0
-5201 353 0
-5202 337 0
-5203 323 0
-371 5201 5203 5202 0
-5213 258 0
-5214 259 0
-5215 356 0
-5216 289 0
-5217 321 0
-372 5215 5214 5213 5216 5217 0
-5290 259 0
-5291 369 0
-5292 357 0
-5293 291 0
-5294 323 0
-375 5292 5293 5294 5291 5290 0
-5354 329 0
-5354 305 0
-5355 337 0
-5355 297 0
-5356 353 0
-5356 281 0
-377 5356 5355 5354 0
-5417 260 0
-5417 377 0
-5418 266 0
-5418 371 0
-5419 274 0
363 -5419 0
-5420 290 0
-5420 347 0
-5421 322 0
-5421 315 0
5419 5420 5418 5417 5421 -380 0
-5422 260 0
-5422 377 0
267 -5423 0
370 -5423 0
-5424 275 0
-5424 362 0
-5425 291 0
-5425 346 0
-5426 323 0
-5426 314 0
5423 5425 5424 5422 5426 -380 0
-5427 371 0
-5428 267 0
-5428 370 0
-5429 356 0
-5430 297 0
-5430 340 0
-5431 329 0
-5431 308 0
5427 5428 5430 5431 5429 -380 0
-5432 274 0
-5432 363 0
-5433 275 0
-5433 362 0
-5434 356 0
-5435 305 0
-5435 332 0
-5436 337 0
-5436 300 0
5434 5435 5433 5432 5436 -380 0
-5437 290 0
-5437 347 0
-5438 291 0
-5438 346 0
-5439 340 0
-5440 332 0
-5441 353 0
-5441 284 0
5441 5440 5438 5437 5439 -380 0
-5442 322 0
-5442 315 0
-5443 314 0
-5444 329 0
-5444 308 0
-5445 337 0
-5445 300 0
353 -5446 0
-5446 284 0
5444 5446 5442 5445 5443 -380 0
-5565 376 0
-5566 266 0
-5566 375 0
267 -5567 0
-5568 372 0
-5569 360 0
-5570 344 0
-5571 329 0
-5571 312 0
5566 5567 5568 5569 5570 5571 -384 5565 0
-5572 368 0
-5573 274 0
-5574 275 0
-5574 366 0
-5575 364 0
-5576 360 0
-5577 305 0
-5577 336 0
-5578 337 0
-5578 304 0
5573 5574 5575 5576 5577 5578 -384 5572 0
-5579 289 0
-5580 290 0
-5580 351 0
-5581 291 0
-5582 348 0
-5583 344 0
-5584 336 0
-5585 288 0
5581 5580 5582 5583 5584 5585 -384 5579 0
-5586 321 0
-5587 322 0
-5587 319 0
-5588 323 0
-5589 325 0
-5589 316 0
-5590 312 0
-5591 304 0
353 -5592 0
-5592 288 0
5588 5587 5589 5590 5591 5592 -384 5586 0
-249 -264 0
-247 -266 0
-274 -239 0
-232 -281 0
-288 -225 0
-295 -218 0
-213 -300 0
-304 -209 0
-305 -208 0
-312 -201 0
-314 -199 0
-316 -197 0
-319 -194 0
-327 -186 0
-337 -176 0
-344 -169 0
-346 -167 0
-351 -162 0
-160 -353 0
-360 -153 0
-370 -143 0
-375 -138 0
-377 -136 0
-275 -237 -2 0
-189 -323 -2 0
-249 -8 0
-281 -8 -225 0
-297 -8 -209 0
-305 -201 -8 0
-329 -177 -8 0
-337 -8 -169 0
-153 -8 -353 0
-377 -8 0
-294 -209 -11 0
-11 -146 -357 0
-12 -245 0
-12 -337 -165 0
-12 -149 -353 0
-13 -337 -164 0
-234 -19 -261 0
-294 -201 -19 0
-326 -19 -169 0
-138 -19 -357 0
-366 -19 0
-20 -237 0
-329 -20 -165 0
-21 -236 0
-266 -21 -227 0
-21 -290 -203 0
-297 -21 -196 0
-322 -21 -171 0
-329 -21 -164 0
-21 -140 -353 0
-267 -22 -225 0
-22 -291 -201 0
-323 -22 -169 0
-22 -363 0
-25 -232 0
-25 -264 -225 0
-25 -327 -162 0
-360 -25 0
-32 -225 0
-32 -353 0
-34 -337 -143 0
-221 -36 0
-281 -197 -36 0
-329 -149 -36 0
-337 -141 -36 0
-37 -220 0
-37 -274 -203 0
-37 -281 -196 0
-155 -322 -37 0
-337 -140 -37 0
-348 -37 0
-267 -38 -209 0
-275 -38 -201 0
-153 -323 -38 0
-347 -38 0
-216 -41 0
-199 -41 -274 0
-279 -41 -194 0
-327 -41 -146 0
-337 -41 -136 0
-344 -41 0
-48 -337 0
-208 -49 0
-201 -49 -264 0
-266 -199 -49 0
-322 -143 -49 0
-325 -140 -49 0
-327 -138 -49 0
-329 -136 -49 0
-336 -49 0
-267 -197 -50 0
-323 -141 -50 0
-201 -56 0
-329 -56 0
-59 -194 -261 0
-326 -59 0
-197 -60 0
-325 -60 0
-61 -196 0
-63 -194 0
-189 -68 0
-188 -69 0
-274 -171 -69 0
-155 -290 -69 0
-305 -140 -69 0
-316 -69 0
-267 -177 -70 0
-275 -70 -169 0
-315 -70 0
-73 -177 -264 0
-274 -73 -167 0
-279 -73 -162 0
-73 -295 -146 0
-312 -73 0
-74 -275 -165 0
-177 -80 0
-305 -80 0
-81 -176 0
-81 -264 -169 0
-266 -81 -167 0
-290 -143 -81 0
-293 -81 -140 0
-295 -138 -81 0
-297 -81 -136 0
-304 -81 0
-267 -82 -165 0
-298 -87 0
-88 -169 0
-297 -88 0
-294 -91 0
-92 -165 0
-93 -164 0
-290 -93 -131 0
-95 -162 0
-95 -290 0
-160 -97 0
-97 -153 -264 0
-274 -97 -143 0
-97 -288 0
-267 -149 -98 0
-275 -98 -141 0
-153 -104 0
-149 -108 0
-109 -148 0
-110 -275 0
-111 -274 0
-114 -143 0
-116 -141 0
-117 -140 0
-266 -117 -131 0
-139 -118 0
-118 -267 0
-136 -121 0
-262 -121 -131 0
-121 -264 0
-263 -122 0
-3 0
-5 0
-17 0
-33 0
-65 0
2 0
127 0
-267 -245 0
-221 -291 0
-315 -197 0
-347 -165 0
-149 -363 0
-371 -141 0
-248 0
-245 -260 0
-230 -275 0
-291 -214 0
-308 -197 0
-323 -182 0
-168 -337 0
-340 -165 0
-356 -149 0
-371 -134 0
-376 0
118 -117 0
-118 117 0
-115 116 0
-116 115 0
104 -103 0
-104 103 0
98 -97 0
-98 97 0
-87 88 0
-88 87 0
82 -81 0
70 -69 0
68 -67 0
-68 67 0
56 -55 0
-56 55 0
50 -49 0
38 -37 0
36 -35 0
-36 35 0
-21 22 0
-22 21 0
-19 20 0
8 -7 0
7 -8 0
-130 0
-133 0
-137 0
-161 0
-193 0
131 0
254 0
-109 -274 0
-314 -69 0
-322 -61 0
-346 -37 0
-362 -21 0
-109 -260 0
-266 -103 0
-102 -267 0
-79 -290 0
-300 -69 0
-322 -47 0
-332 -37 0
-356 -13 0
-362 -7 0
-368 0
239 -237 0
-239 237 0
-234 236 0
-236 234 0
232 -230 0
-232 230 0
227 -225 0
-227 225 0
-206 208 0
-208 206 0
203 -201 0
-203 201 0
-197 199 0
-199 197 0
196 -194 0
-196 194 0
-174 176 0
-176 174 0
171 -169 0
-171 169 0
167 -165 0
165 -167 0
164 -162 0
-164 162 0
143 -141 0
-143 141 0
140 -138 0
-134 136 0
-136 134 0
-258 0
-259 0
-289 0
-321 0
261 0
380 0
-115 -138 0
-107 -146 0
-91 -162 0
-84 -169 0
-186 -67 0
-218 -35 0
-242 -11 0
-120 0
-115 -134 0
-146 -103 0
-87 -162 0
-182 -67 0
-55 -194 0
-200 -49 0
-214 -35 0
-228 -21 0
-230 -19 0
-242 -7 0
-107 -134 0
-138 -103 0
-100 -141 0
-79 -162 0
-72 -169 0
-174 -67 0
-47 -194 0
-206 -35 0
-230 -11 0
-234 -7 0
-240 0
-356 360 0
-360 356 0
357 -353 0
-357 353 0
-323 327 0
-322 326 0
-326 322 0
-291 295 0
-290 294 0
-294 290 0
264 -260 0
-264 260 0
