p cnf 5592 757
128 0
256 0
384 0
-469 3 0
-470 5 0
-471 7 0
-23 471 470 469 0
-556 7 0
-557 19 0
-558 11 0
-31 557 558 556 0
-619 3 0
-620 5 0
-621 33 0
-39 619 620 621 0
-631 37 0
-632 35 0
-655 3 0
-656 35 0
-657 33 0
-43 656 655 657 0
-703 7 0
-704 11 0
-704 37 0
-705 35 0
703 -47 704 705 0
-730 5 0
-731 43 0
-732 7 0
-733 36 0
-734 12 0
-48 732 730 733 734 731 0
-757 3 0
-758 35 0
-759 33 0
-51 758 757 759 0
-805 7 0
-805 49 0
-806 19 0
37 -806 0
-807 35 0
-807 21 0
806 805 807 -55 0
-822 55 0
-823 53 0
-824 51 0
-825 39 0
-826 23 0
-56 823 822 824 825 826 0
-970 55 0
-971 53 0
-972 51 0
-973 39 0
-974 23 0
-63 971 972 970 973 974 0
-1039 3 0
-1040 5 0
-1041 65 0
-71 1039 1040 1041 0
-1075 3 0
-1076 67 0
-1077 65 0
-75 1076 1075 1077 0
-1150 5 0
-1151 75 0
-1152 7 0
-1153 68 0
-1154 12 0
1153 1151 1150 1154 1152 -80 0
-1177 3 0
-1178 67 0
-1179 65 0
-83 1178 1177 1179 0
-1201 5 0
-1202 69 0
-1203 65 0
-85 1202 1201 1203 0
-1225 7 0
-1242 87 0
-1243 85 0
-1244 83 0
-1245 71 0
-1246 23 0
-88 1244 1242 1246 1245 1243 0
-1390 87 0
-1391 11 0
-1391 85 0
-1392 83 0
-1393 71 0
-1394 23 0
-95 1392 1391 1394 1393 1390 0
-1471 5 0
-1472 33 0
-1473 65 0
-101 1471 1472 1473 0
-1517 3 0
-1518 101 0
-1519 7 0
-1519 98 0
-1520 35 0
-1520 70 0
67 -1521 0
38 -1521 0
1521 1519 1517 1518 -104 1520 0
-1561 11 0
-1562 35 0
-1563 67 0
-107 1563 1562 1561 0
-1771 21 0
-1772 37 0
-1772 81 0
-1773 69 0
1773 -117 1771 1772 0
-1833 33 0
-1834 35 0
-1835 37 0
-1836 71 0
-1837 23 0
-119 1835 1833 1834 1836 1837 0
-2035 7 0
-2035 121 0
11 -2036 0
-2036 117 0
-2037 19 0
-2037 109 0
-2038 35 0
-2038 93 0
67 -2039 0
-2039 61 0
2035 2037 -127 2039 2038 2036 0
-2040 7 0
-2040 121 0
13 -2041 0
115 -2041 0
-2042 107 0
-2043 91 0
-2044 59 0
2041 2040 -127 2043 2044 2042 0
-2050 19 0
-2050 109 0
-2051 21 0
-2051 107 0
25 -2052 0
103 -2052 0
-2053 79 0
81 -2054 0
-2054 47 0
2052 2050 -127 2054 2053 2051 0
-2055 35 0
-2055 93 0
37 -2056 0
-2056 91 0
-2057 41 0
-2057 87 0
49 -2058 0
-2058 79 0
-2059 97 0
-2059 31 0
2057 2055 -127 2059 2058 2056 0
-2060 67 0
-2060 61 0
69 -2061 0
59 -2061 0
73 -2062 0
-2062 55 0
-2063 81 0
-2063 47 0
-2064 31 0
2061 2060 -127 2063 2064 2062 0
-2094 119 0
-2095 11 0
-2096 116 0
-2107 33 0
-2108 95 0
-2109 35 0
-2109 94 0
-2110 37 0
-2111 88 0
80 -2112 0
-2113 32 0
2109 2108 2110 2111 2112 2113 -128 2107 0
-2114 65 0
-2115 63 0
-2116 67 0
-2117 69 0
-2118 56 0
-2119 48 0
-2120 32 0
2115 2116 2117 2118 2119 2120 -128 2114 0
-2133 130 0
-2134 138 0
-2135 132 0
-140 2135 2133 2134 0
-2145 130 0
-2146 133 0
-2147 134 0
-142 2147 2146 2145 0
-2229 130 0
-2230 146 0
-2231 145 0
-154 2230 2229 2231 0
-2265 133 0
-2266 149 0
-2267 145 0
-157 2266 2265 2267 0
-2277 134 0
-2278 149 0
-2279 146 0
-158 2279 2277 2278 0
-2316 133 0
-2317 134 0
-2318 135 0
-2318 154 0
-2319 148 0
-2320 149 0
-2320 140 0
-160 2319 2316 2317 2320 2318 0
-2326 145 0
-2327 146 0
-2328 142 0
-2329 149 0
-2329 140 0
-2330 136 0
-160 2327 2326 2328 2330 2329 0
-2331 130 0
-2332 162 0
-2333 132 0
-164 2332 2331 2333 0
-2343 130 0
-2344 133 0
-2345 134 0
-166 2345 2344 2343 0
-2461 174 0
-2462 132 0
-2463 135 0
-2463 170 0
-2464 166 0
-2465 142 0
-176 2464 2461 2462 2465 2463 0
-2466 133 0
-2467 134 0
-2468 135 0
-2469 164 0
-2470 140 0
-176 2468 2466 2467 2469 2470 0
-2517 133 0
-2518 145 0
-2519 149 0
-181 2519 2518 2517 0
-2529 134 0
-2530 146 0
-2530 165 0
-2531 162 0
-2531 149 0
2531 2529 -182 2530 0
-2568 133 0
-2569 134 0
-2570 135 0
-2571 149 0
-2572 148 0
-184 2571 2568 2569 2572 2570 0
-2644 156 0
-2645 162 0
-2646 154 0
-2647 148 0
-2648 140 0
-188 2645 2644 2647 2646 2648 0
-2666 130 0
-2667 134 0
-2668 181 0
-2669 146 0
-2670 157 0
-190 2670 2666 2667 2669 2668 0
-2763 130 0
-2764 133 0
-2765 193 0
-198 2763 2764 2765 0
-2799 130 0
-2800 194 0
-2801 193 0
-202 2800 2799 2801 0
-2847 134 0
-2848 138 0
-2848 197 0
-2849 194 0
-206 2847 2848 2849 0
-2881 206 0
-2882 132 0
-2883 135 0
-2883 202 0
-2884 198 0
-2885 142 0
-208 2882 2883 2881 2884 2885 0
-2891 200 0
-2892 138 0
-2893 198 0
-2894 196 0
-2895 136 0
2895 2894 2892 2893 2891 -208 0
-2896 193 0
-2897 194 0
-2898 142 0
-2899 197 0
-2899 140 0
-2900 136 0
-208 2897 2896 2898 2900 2899 0
-2937 133 0
-2938 145 0
-2939 193 0
-213 2937 2938 2939 0
-2949 134 0
-2949 209 0
-2950 146 0
-2950 197 0
-2951 194 0
-2951 149 0
-214 2951 2949 2950 0
-2978 130 0
-2979 213 0
-2980 134 0
-2981 199 0
-2982 151 0
-216 2981 2978 2979 2980 2982 0
-3059 145 0
-3060 146 0
-3061 202 0
-3062 196 0
-3063 209 0
-3063 140 0
-220 3063 3059 3060 3062 3061 0
-3064 193 0
-3065 194 0
-3066 154 0
-3067 148 0
-3068 140 0
-220 3068 3064 3067 3065 3066 0
-3081 130 0
-3082 133 0
-3083 214 0
-3084 145 0
-3085 193 0
-222 3083 3082 3081 3084 3085 0
-3086 130 0
-3087 134 0
-3088 213 0
-3089 146 0
-3090 194 0
-3090 157 0
-222 3089 3086 3088 3087 3090 0
-3219 134 0
-3220 162 0
-3220 197 0
-3221 194 0
-3221 165 0
-230 3219 3221 3220 0
-3248 130 0
-3249 132 0
-3250 134 0
-3251 162 0
-3252 194 0
-232 3251 3248 3250 3252 3249 0
-3319 234 0
-3376 193 0
-3377 194 0
-3378 197 0
-3379 166 0
-3380 142 0
-238 3377 3376 3379 3380 3378 0
-3453 146 0
162 -3454 0
-3454 209 0
-3455 194 0
-3455 177 0
3454 -242 3453 3455 0
-3507 149 0
-3746 134 0
-3746 249 0
141 -3747 0
-3747 242 0
-3748 149 0
-3748 234 0
-3749 165 0
-3749 218 0
-3750 197 0
-3750 186 0
3747 3746 -254 3749 3748 3750 0
-3751 138 0
245 -3751 0
-3752 242 0
-3753 230 0
-3754 214 0
-3755 182 0
3755 3754 -254 3751 3752 3753 0
-3756 146 0
-3756 237 0
-3757 149 0
-3757 234 0
-3758 153 0
-3758 230 0
177 -3759 0
-3759 206 0
-3760 209 0
-3760 174 0
3756 3758 -254 3759 3760 3757 0
162 -3761 0
221 -3761 0
-3762 165 0
-3762 218 0
169 -3763 0
-3763 214 0
-3764 206 0
-3765 158 0
3761 3762 -254 3765 3764 3763 0
-3766 194 0
-3766 189 0
-3767 197 0
-3767 186 0
201 -3768 0
182 -3768 0
-3769 209 0
-3769 174 0
225 -3770 0
-3770 158 0
3768 3766 -254 3767 3769 3770 0
-3836 240 0
-3837 146 0
-3838 238 0
-3839 149 0
-3840 232 0
-3841 208 0
-3842 209 0
-3842 176 0
3837 3838 3839 3840 3841 3842 -256 3836 0
-3843 224 0
-3844 162 0
-3844 223 0
-3845 222 0
-3846 165 0
-3846 220 0
-3847 216 0
-3848 177 0
208 -3848 0
-3849 160 0
3845 3844 3846 3847 3848 3849 -256 3843 0
-3850 193 0
-3851 194 0
-3852 190 0
-3853 197 0
-3853 188 0
-3854 184 0
-3855 176 0
-3856 160 0
3851 3852 3853 3854 3855 3856 -256 3850 0
-3989 260 0
-3989 281 0
-3990 266 0
-3990 275 0
-3991 274 0
-3991 267 0
-284 3990 3991 3989 0
-4139 260 0
-4139 297 0
-4140 266 0
291 -4140 0
-4141 290 0
-4141 267 0
4141 4139 -300 4140 0
-4241 260 0
291 -4242 0
-4243 290 0
-4243 275 0
-308 4241 4242 4243 0
-4331 266 0
305 -4331 0
-4332 274 0
-4332 297 0
290 -4333 0
-4333 281 0
-314 4331 4333 4332 0
-4343 267 0
-4344 275 0
-4344 297 0
-4345 281 0
-315 4343 4345 4344 0
260 -4559 0
-4559 329 0
-4560 323 0
-4561 322 0
4559 -332 4560 4561 0
-4751 266 0
-4752 274 0
-4753 322 0
-346 4751 4752 4753 0
-4931 260 0
-4932 290 0
-4932 323 0
-4933 322 0
-4933 291 0
-356 4933 4932 4931 0
-5021 266 0
-5022 290 0
-5022 329 0
-5023 322 0
-5023 297 0
-362 5021 5022 5023 0
-5201 275 0
-5202 291 0
-5203 323 0
5202 -371 5201 5203 0
-5417 260 0
-5417 377 0
-5418 266 0
-5418 371 0
-5419 274 0
363 -5419 0
290 -5420 0
-5420 347 0
-5421 322 0
-5421 315 0
5417 5419 -380 5421 5420 5418 0
-5422 260 0
-5422 377 0
-5423 267 0
-5423 370 0
-5424 275 0
362 -5424 0
291 -5425 0
-5425 346 0
-5426 323 0
-5426 314 0
5422 5423 -380 5424 5426 5425 0
-5427 266 0
-5427 371 0
-5428 267 0
-5428 370 0
-5429 281 0
-5429 356 0
297 -5430 0
-5430 340 0
-5431 329 0
-5431 308 0
5427 5428 -380 5429 5430 5431 0
-5432 274 0
-5432 363 0
-5433 275 0
-5433 362 0
-5434 281 0
-5434 356 0
-5435 332 0
-5436 300 0
5436 5435 -380 5434 5433 5432 0
-5437 347 0
-5438 346 0
-5439 340 0
332 -5440 0
-5441 284 0
5440 5438 -380 5441 5437 5439 0
-5442 322 0
-5442 315 0
-5443 323 0
-5443 314 0
-5444 329 0
-5444 308 0
300 -5445 0
-5446 284 0
5445 5442 -380 5446 5443 5444 0
-5565 376 0
-5566 266 0
-5567 267 0
-5568 269 0
-5569 281 0
-5570 344 0
-5571 312 0
5567 5566 5568 5569 5570 5571 -384 5565 0
-242 -271 0
-232 -281 0
-223 -290 0
-216 -297 0
-312 -201 0
-199 -314 0
-184 -329 0
-166 -347 0
-151 -362 0
-377 -136 0
-245 -267 -2 0
-237 -275 -2 0
-189 -323 -2 0
-141 -371 -2 0
-249 -8 0
-281 -225 -8 0
-209 -297 -8 0
-177 -329 -8 0
-377 -8 0
-12 -245 0
-211 -290 -13 0
-238 -19 0
-23 -225 -266 0
-23 -362 0
-199 -290 -25 0
-32 -225 0
-270 -209 -35 0
-221 -36 0
-220 -37 0
-281 -37 -196 0
-329 -37 -148 0
-275 -38 -201 0
-323 -153 -38 0
-347 -38 0
-41 -216 0
-344 -41 0
-49 -208 0
-49 -329 -136 0
-53 -323 -138 0
-61 -196 0
-190 -67 0
-165 -281 -68 0
-297 -149 -68 0
-188 -69 0
-297 -148 -69 0
-169 -275 -70 0
-315 -70 0
-73 -151 -290 0
-305 -80 0
-176 -81 0
-297 -81 -136 0
-85 -291 -138 0
-170 -87 0
-290 -93 -131 0
-94 -291 0
-95 -290 0
-160 -97 0
-269 -97 -148 0
-146 -97 -271 0
-281 -97 -136 0
-281 -104 0
-107 -146 -261 0
-109 -148 0
-109 -274 -131 0
-142 -115 0
-270 -115 0
-116 -141 0
-140 -117 0
-121 -136 0
-3 0
-5 0
-33 0
-65 0
2 0
127 0
-197 -315 0
-165 -347 0
-149 -363 0
-275 -230 0
-214 -291 0
-308 -197 0
-323 -182 0
-149 -356 0
-371 -134 0
-376 0
-240 0
-230 -267 0
-200 -297 0
-197 -300 0
-174 -323 0
-165 -332 0
-356 -141 0
-135 -362 0
-363 -134 0
104 -103 0
-98 97 0
70 -69 0
68 -67 0
-68 67 0
38 -37 0
37 -38 0
36 -35 0
-36 35 0
8 -7 0
-8 7 0
-130 0
-133 0
-145 0
-193 0
131 0
254 0
-266 -117 0
-314 -69 0
-322 -61 0
-346 -37 0
-21 -362 0
-370 -13 0
-117 -260 0
-274 -103 0
-87 -290 0
-308 -69 0
-322 -55 0
-340 -37 0
-370 -7 0
-93 -260 0
-87 -266 0
-79 -274 0
-284 -69 0
-31 -322 0
-21 -332 0
-340 -13 0
-346 -7 0
-214 216 0
-216 214 0
211 -209 0
-197 199 0
196 -194 0
-196 194 0
-149 151 0
148 -146 0
-148 146 0
136 -134 0
-136 134 0
261 0
380 0
-138 -115 0
-91 -162 0
-186 -67 0
-59 -194 0
-218 -35 0
-19 -234 0
-242 -11 0
-132 -109 0
-107 -134 0
-138 -103 0
-79 -162 0
-174 -67 0
-47 -194 0
-200 -41 0
-206 -35 0
-11 -230 0
-7 -234 0
-134 -91 0
-87 -138 0
-79 -146 0
-158 -67 0
-31 -194 0
-206 -19 0
-214 -11 0
-218 -7 0
-224 0
-132 -61 0
-59 -134 0
-138 -55 0
-47 -146 0
-156 -37 0
-158 -35 0
-31 -162 0
-174 -19 0
-11 -182 0
-186 -7 0
271 -267 0
-266 270 0
