p cnf 5592 506
128 0
384 0
-529 5 0
-530 9 0
-531 17 0
-29 529 530 531 0
-575 3 0
-576 29 0
-577 7 0
-577 26 0
-578 11 0
-578 22 0
-579 19 0
-32 578 575 576 579 577 0
-619 3 0
-620 5 0
-621 33 0
-39 619 620 621 0
-655 3 0
-656 9 0
-657 33 0
-43 655 656 657 0
-703 41 0
-704 37 0
-705 35 0
704 705 703 -47 0
-730 5 0
-731 43 0
-732 7 0
-733 36 0
-734 12 0
734 733 730 731 732 -48 0
-757 3 0
-758 17 0
-759 33 0
-51 757 758 759 0
-805 7 0
-806 19 0
-807 35 0
-807 21 0
-55 805 806 807 0
-834 7 0
-837 17 0
-838 39 0
-839 19 0
-840 36 0
-841 8 0
-56 841 837 838 839 840 0
-955 3 0
-956 5 0
-957 9 0
-958 17 0
-959 33 0
-63 955 956 957 958 959 0
-1039 3 0
-1040 5 0
-1041 65 0
-71 1039 1040 1041 0
-1123 7 0
-1228 7 0
-1229 67 0
-1230 19 0
-87 1228 1230 1229 0
-1257 17 0
-1258 71 0
-1259 19 0
-1260 68 0
-1261 8 0
-88 1261 1257 1258 1259 1260 0
-1471 5 0
-1472 33 0
-1473 65 0
-101 1471 1472 1473 0
-1495 7 0
-1496 69 0
-1497 37 0
-103 1496 1495 1497 0
-1527 33 0
-1528 71 0
-1529 70 0
-1530 37 0
-1531 8 0
-104 1529 1527 1528 1531 1530 0
-1755 67 0
-1766 65 0
-1767 51 0
-1768 67 0
-1769 36 0
-1770 20 0
-116 1769 1766 1767 1768 1770 0
-1771 21 0
-1772 37 0
-1772 81 0
69 -1773 0
1773 -117 1772 1771 0
-1798 17 0
-1799 101 0
-1800 21 0
-1801 70 0
-1802 38 0
1801 -118 1798 1799 1802 1800 0
-1813 3 0
-1814 5 0
-1815 17 0
-1816 33 0
-1817 65 0
-119 1813 1814 1815 1816 1817 0
-2035 7 0
-2036 117 0
-2037 19 0
-2038 35 0
-2038 93 0
-2039 67 0
-2039 61 0
2036 2038 -127 2035 2039 2037 0
11 -2045 0
117 -2045 0
13 -2046 0
-2046 115 0
-2047 25 0
-2047 103 0
-2048 87 0
-2049 55 0
2046 2045 -127 2047 2048 2049 0
-2050 19 0
-2051 107 0
-2052 103 0
-2053 79 0
-2054 47 0
2051 2053 -127 2050 2052 2054 0
-2055 35 0
-2055 93 0
-2056 37 0
-2056 91 0
87 -2057 0
49 -2058 0
-2058 79 0
-2059 31 0
2057 2056 -127 2055 2059 2058 0
-2060 61 0
69 -2061 0
59 -2061 0
-2062 55 0
81 -2063 0
-2063 47 0
-2064 31 0
2061 2060 -127 2062 2063 2064 0
-2093 9 0
-2094 119 0
-2095 11 0
-2095 118 0
13 -2096 0
-2096 116 0
-2097 104 0
-2098 88 0
-2099 56 0
2096 2095 2097 2098 2099 -128 2093 2094 0
-2114 65 0
-2115 63 0
-2116 67 0
-2117 60 0
-2118 56 0
-2119 48 0
-2120 32 0
2116 2117 2118 2119 2120 -128 2114 2115 0
-2277 134 0
-2278 138 0
-2279 141 0
-158 2279 2277 2278 0
-2427 134 0
-2427 169 0
-2428 138 0
-2429 162 0
-2429 141 0
-174 2429 2428 2427 0
-2595 138 0
-2596 169 0
-2597 162 0
2596 2595 -186 2597 0
-2847 134 0
-2847 201 0
-2848 138 0
-2849 194 0
-2849 141 0
-206 2849 2847 2848 0
-3219 134 0
-3220 162 0
-3221 165 0
3220 3219 3221 -230 0
-3267 225 0
-3285 138 0
-3285 225 0
-3286 162 0
-3286 201 0
-3287 194 0
-3287 169 0
-234 3287 3286 3285 0
-3294 169 0
-3609 225 0
-3610 169 0
-3610 209 0
-3611 201 0
-3611 177 0
-249 3609 3610 3611 0
-3741 134 0
-3741 249 0
-3742 138 0
-3742 245 0
146 -3743 0
237 -3743 0
-3744 162 0
-3744 221 0
-3745 194 0
3744 3745 -254 3743 3741 3742 0
-3746 249 0
-3747 242 0
-3748 234 0
-3749 218 0
-3750 186 0
3746 3750 -254 3749 3748 3747 0
-3751 245 0
-3752 242 0
-3753 230 0
-3754 214 0
-3755 182 0
3754 3755 -254 3752 3753 3751 0
-3756 237 0
-3757 234 0
-3758 230 0
-3759 177 0
-3759 206 0
-3760 174 0
3756 3758 -254 3757 3760 3759 0
-3761 221 0
-3762 218 0
-3763 214 0
-3764 177 0
-3764 206 0
-3765 158 0
3763 3761 -254 3762 3764 3765 0
-3766 194 0
189 -3766 0
197 -3767 0
186 -3767 0
-3768 182 0
-3769 174 0
-3770 158 0
3769 3766 -254 3767 3768 3770 0
-3953 260 0
-3954 275 0
-3955 263 0
-280 3955 3954 3953 0
-3989 260 0
-3989 281 0
-3990 266 0
-3992 260 0
-3992 281 0
-3993 267 0
-3993 274 0
-3994 275 0
-3994 266 0
3993 3992 -284 3994 0
-4139 260 0
-4140 266 0
-4141 290 0
-4141 267 0
-300 4140 4139 4141 0
-4241 260 0
-4242 274 0
-4243 290 0
-308 4242 4241 4243 0
-4289 258 0
-4290 259 0
-4291 308 0
-4292 273 0
-4293 280 0
-312 4293 4290 4289 4292 4291 0
-4331 266 0
-4332 274 0
-4333 290 0
-4333 281 0
-314 4332 4333 4331 0
-4343 267 0
-4343 305 0
-4344 275 0
-4345 281 0
-315 4345 4344 4343 0
-4559 260 0
-4559 329 0
-4560 266 0
323 -4560 0
-4561 322 0
-4561 267 0
-332 4560 4561 4559 0
-4661 337 0
-4662 274 0
-4663 275 0
-340 4662 4663 4661 0
-4709 258 0
-4710 259 0
-4711 340 0
-4712 273 0
-4713 280 0
-344 4711 4710 4709 4712 4713 0
-4751 266 0
-4751 337 0
-4752 274 0
-4753 322 0
-4753 281 0
-346 4751 4753 4752 0
-5224 260 0
-5227 306 0
-5417 260 0
-5418 266 0
-5419 274 0
-5420 290 0
-5421 315 0
5419 5418 -380 5421 5417 5420 0
-5423 267 0
-5423 370 0
274 -5432 0
363 -5432 0
-5433 275 0
-5433 362 0
-5434 281 0
-5434 356 0
-5435 305 0
-5435 332 0
-5436 337 0
-5436 300 0
5432 5436 -380 5433 5435 5434 0
290 -5437 0
347 -5437 0
-5438 291 0
-5438 346 0
-5439 340 0
-5440 332 0
-5441 284 0
5439 5438 -380 5437 5440 5441 0
-5442 322 0
-5442 315 0
-5443 314 0
-5444 308 0
-5445 337 0
-5445 300 0
284 -5446 0
5446 5445 -380 5443 5444 5442 0
-5552 260 0
-5553 263 0
-5565 376 0
-5566 266 0
-5567 267 0
-5568 269 0
-5569 281 0
-5570 344 0
-5571 312 0
5567 5566 5568 5569 5570 5571 -384 5565 0
-279 -234 0
-281 -232 0
-312 -201 0
-344 -169 0
-249 -8 0
-225 -278 -11 0
-245 -12 0
-337 -13 -164 0
-20 -237 0
-329 -21 -164 0
-22 -363 0
-25 -232 0
-264 -25 -225 0
-32 -225 0
-35 -201 -278 0
-221 -36 0
-38 -347 0
-41 -344 0
-209 -48 0
-337 -48 0
-264 -201 -49 0
-269 -49 -196 0
-263 -201 -50 0
-201 -56 0
-60 -197 0
-61 -196 0
-61 -322 -131 0
-323 -62 0
-67 -169 -278 0
-68 -189 0
-315 -70 0
-306 -79 0
-177 -80 0
-305 -80 0
-264 -169 -81 0
-269 -164 -81 0
-263 -169 -82 0
-169 -88 0
-165 -92 0
-93 -164 0
-291 -94 0
-281 -104 0
-141 -116 0
-266 -117 -131 0
-267 -118 0
-3 0
-5 0
-9 0
-17 0
-33 0
-65 0
127 0
-291 -221 0
118 -117 0
-118 117 0
116 -115 0
-116 115 0
104 -103 0
-104 103 0
94 -93 0
92 -91 0
88 -87 0
-88 87 0
82 -81 0
80 -79 0
70 -69 0
68 -67 0
62 -61 0
-55 56 0
-56 55 0
50 -49 0
48 -47 0
-37 38 0
-38 37 0
-35 36 0
-36 35 0
-31 32 0
-26 25 0
-21 22 0
-19 20 0
-20 19 0
12 -11 0
-12 11 0
8 -7 0
-8 7 0
131 0
254 0
-93 -290 0
-314 -69 0
-346 -37 0
-21 -362 0
-370 -13 0
-260 -117 0
-103 -274 0
-87 -290 0
-308 -69 0
-340 -37 0
-356 -21 0
-376 0
-266 -103 0
-79 -290 0
-300 -69 0
-322 -47 0
-332 -37 0
-356 -13 0
232 -230 0
-232 230 0
196 -194 0
-196 194 0
164 -162 0
-164 162 0
-258 0
-259 0
-273 0
380 0
-138 -115 0
-107 -146 0
-162 -91 0
-67 -186 0
-59 -194 0
-218 -35 0
-19 -234 0
-242 -11 0
-134 -115 0
-103 -146 0
-162 -87 0
-182 -67 0
-55 -194 0
-214 -35 0
-230 -19 0
-242 -7 0
-134 -91 0
-138 -87 0
-79 -146 0
-158 -67 0
-31 -194 0
-19 -206 0
-214 -11 0
-218 -7 0
-138 -55 0
-47 -146 0
-158 -35 0
-31 -162 0
-174 -19 0
-182 -11 0
-7 -186 0
-275 279 0
278 -274 0
-260 264 0
