p cnf 5592 1012
128 0
256 0
384 0
-505 3 0
-506 19 0
-507 17 0
-27 506 505 507 0
-580 5 0
-581 27 0
-582 26 0
-583 20 0
-584 21 0
-584 12 0
-32 584 580 583 582 581 0
-679 5 0
-680 37 0
-681 33 0
-45 680 679 681 0
7 -703 0
-704 11 0
-704 37 0
-705 35 0
13 -705 0
703 704 705 -47 0
7 -805 0
49 -805 0
-806 19 0
-806 37 0
-807 35 0
-807 21 0
-55 805 807 806 0
-883 59 0
-884 3 0
52 -885 0
-886 17 0
-887 33 0
885 -60 884 883 886 887 0
-913 13 0
-914 41 0
-915 25 0
913 -61 915 914 0
-933 45 0
-934 29 0
-945 17 0
-946 45 0
-947 21 0
-948 38 0
-949 14 0
947 949 945 -62 948 946 0
-950 33 0
-951 29 0
-952 37 0
-953 41 0
22 -953 0
-954 14 0
-62 951 950 952 953 954 0
-955 3 0
-956 5 0
-957 55 0
-958 17 0
-959 33 0
-63 957 956 955 958 959 0
-1099 5 0
-1100 69 0
-1101 65 0
-77 1100 1099 1101 0
-1145 3 0
-1146 77 0
-1147 74 0
-1148 70 0
-1149 67 0
-80 1146 1145 1149 1147 1148 0
-1225 7 0
-1226 19 0
-1227 67 0
-87 1225 1227 1226 0
-1234 67 0
-1291 11 0
-1291 81 0
-1292 19 0
-1293 67 0
-91 1293 1291 1292 0
13 -1333 0
-1334 21 0
-1335 69 0
-1335 25 0
1333 1334 -93 1335 0
-1375 3 0
-1376 5 0
-1377 87 0
-1378 17 0
-1379 65 0
-95 1377 1376 1375 1378 1379 0
-1447 3 0
-1448 33 0
-1449 65 0
-99 1447 1448 1449 0
-1495 7 0
-1495 97 0
-1496 35 0
-1496 69 0
-1497 67 0
-1497 37 0
-103 1497 1496 1495 0
-1522 5 0
-1523 99 0
-1524 7 0
-1524 98 0
-1525 37 0
-1526 69 0
1526 -104 1522 1523 1525 1524 0
-1561 97 0
-1562 35 0
-1563 67 0
-107 1561 1562 1563 0
-1645 3 0
-1646 5 0
-1647 103 0
-1648 33 0
-1649 65 0
-111 1647 1646 1645 1648 1649 0
-1705 17 0
-1706 33 0
-1707 65 0
-113 1705 1706 1707 0
-1729 19 0
-1729 97 0
-1730 35 0
-1731 67 0
-115 1729 1730 1731 0
-1771 97 0
-1772 37 0
-1773 69 0
1773 -117 1771 1772 0
-1793 5 0
-1794 113 0
-1795 21 0
-1796 37 0
-1797 69 0
1797 -118 1793 1794 1796 1795 0
-1813 3 0
-1814 5 0
-1815 17 0
-1816 33 0
-1817 65 0
-119 1813 1814 1815 1816 1817 0
-1915 3 0
-1916 115 0
-1917 17 0
-1918 33 0
-1919 65 0
-123 1916 1915 1917 1918 1919 0
-1975 5 0
-1976 117 0
-1977 17 0
-1978 33 0
-1979 65 0
-125 1976 1975 1977 1978 1979 0
-2035 7 0
-2035 121 0
-2036 117 0
-2037 19 0
-2037 109 0
-2038 35 0
93 -2038 0
-2039 67 0
-2039 61 0
2035 2037 -127 2038 2039 2036 0
-2040 7 0
-2040 121 0
-2041 115 0
21 -2042 0
-2042 107 0
-2043 37 0
91 -2043 0
-2044 69 0
-2044 59 0
2042 2043 -127 2044 2041 2040 0
-2045 11 0
-2045 117 0
13 -2046 0
-2046 115 0
-2047 103 0
-2048 41 0
-2048 87 0
-2049 73 0
-2049 55 0
2048 2045 -127 2049 2046 2047 0
-2050 109 0
-2051 107 0
-2052 103 0
-2053 79 0
81 -2054 0
47 -2054 0
2054 2053 -127 2050 2052 2051 0
-2055 35 0
-2055 93 0
-2056 37 0
-2056 91 0
-2057 87 0
-2058 49 0
-2058 79 0
-2059 97 0
2058 2056 -127 2055 2057 2059 0
-2060 67 0
-2060 61 0
69 -2061 0
-2061 59 0
-2062 55 0
81 -2063 0
47 -2063 0
-2064 97 0
-2064 31 0
2061 2060 -127 2064 2063 2062 0
-2079 3 0
-2080 125 0
-2081 7 0
-2082 118 0
-2083 19 0
-2084 94 0
-2085 67 0
2081 2080 2082 2083 2084 2085 -128 2079 0
-2086 5 0
-2087 123 0
-2088 7 0
-2089 116 0
-2090 108 0
-2091 37 0
-2092 69 0
2088 2087 2089 2090 2091 2092 -128 2086 0
-2093 120 0
-2094 119 0
-2095 118 0
-2096 116 0
-2097 104 0
-2098 88 0
-2099 73 0
-2099 56 0
2096 2095 2097 2098 2099 -128 2093 2094 0
-2100 17 0
-2101 111 0
-2102 19 0
-2103 108 0
-2104 104 0
-2105 80 0
-2106 48 0
2102 2101 2103 2104 2105 2106 -128 2100 0
-2107 33 0
-2108 34 0
-2108 95 0
-2109 35 0
-2109 94 0
-2110 37 0
-2111 41 0
-2111 88 0
-2112 49 0
-2112 80 0
-2113 97 0
-2113 32 0
2109 2108 2110 2111 2112 2113 -128 2107 0
-2114 65 0
-2115 63 0
-2116 67 0
-2116 62 0
-2117 69 0
-2117 60 0
-2118 56 0
-2119 48 0
-2120 97 0
-2120 32 0
2115 2116 2117 2118 2119 2120 -128 2114 0
-2193 130 0
-2194 133 0
-2195 134 0
-150 2195 2194 2193 0
-2277 134 0
-2278 138 0
-2279 141 0
-158 2279 2278 2277 0
-2427 134 0
-2427 169 0
-2428 138 0
-2428 165 0
-2429 162 0
-2429 141 0
-174 2427 2429 2428 0
-2517 133 0
-2518 165 0
-2519 161 0
-181 2518 2517 2519 0
-2529 134 0
-2530 165 0
-2531 162 0
-182 2529 2530 2531 0
-2595 138 0
-2596 169 0
-2597 162 0
-186 2597 2595 2596 0
-2649 141 0
149 -2650 0
-2651 165 0
2650 2651 -189 2649 0
-2666 130 0
-2667 134 0
-2668 138 0
-2669 173 0
-2670 162 0
-190 2669 2666 2668 2667 2670 0
-2763 130 0
-2764 133 0
-2765 193 0
-198 2763 2764 2765 0
-2787 132 0
-2788 134 0
-2789 194 0
-200 2789 2787 2788 0
-2847 134 0
-2847 201 0
-2848 138 0
197 -2848 0
-2849 194 0
-2849 141 0
-206 2848 2849 2847 0
-2871 130 0
-2872 206 0
-2873 133 0
-2874 200 0
-2875 193 0
-208 2874 2871 2873 2872 2875 0
-2886 133 0
-2887 134 0
-2888 202 0
-2889 196 0
-2890 140 0
2890 2888 2886 -208 2887 2889 0
-2901 130 0
-2902 194 0
-2903 193 0
-210 2902 2901 2903 0
-2983 214 0
-2984 132 0
-2985 210 0
-2986 198 0
-2987 150 0
-216 2984 2985 2983 2986 2987 0
-2988 133 0
-2989 211 0
-2990 210 0
-2991 196 0
-2992 197 0
-2992 148 0
-216 2992 2988 2989 2991 2990 0
-3111 221 0
-3112 133 0
-3113 215 0
-3114 207 0
-3115 193 0
-223 3111 3112 3114 3113 3115 0
-3219 134 0
-3219 225 0
-3220 162 0
197 -3220 0
-3221 194 0
-3221 165 0
-230 3220 3221 3219 0
-3261 165 0
-3285 138 0
-3285 225 0
-3286 162 0
-3286 201 0
-3287 194 0
-3287 169 0
-234 3286 3285 3287 0
-3295 162 0
-3339 225 0
-3340 165 0
-3341 169 0
-237 3341 3339 3340 0
-3431 207 0
-3432 206 0
-3433 165 0
-3434 200 0
-3435 225 0
-240 3434 3432 3435 3431 3433 0
-3453 225 0
-3454 162 0
194 -3455 0
3455 -242 3453 3454 0
-3497 161 0
-3498 211 0
-3499 210 0
-3500 196 0
-3501 225 0
3500 -244 3497 3501 3498 3499 0
-3519 130 0
-3520 133 0
-3521 230 0
-3522 161 0
-3523 193 0
-246 3521 3520 3519 3522 3523 0
-3528 181 0
-3609 225 0
-3610 169 0
-3611 201 0
-249 3610 3611 3609 0
-3741 134 0
-3741 249 0
-3742 138 0
-3742 245 0
-3743 146 0
-3743 237 0
-3744 162 0
-3745 194 0
-3745 189 0
3745 3742 -254 3741 3743 3744 0
-3746 134 0
-3746 249 0
-3747 141 0
-3747 242 0
149 -3748 0
-3748 234 0
-3749 165 0
-3749 218 0
-3750 197 0
-3750 186 0
3750 3747 -254 3748 3749 3746 0
-3751 138 0
-3751 245 0
-3752 141 0
-3752 242 0
153 -3753 0
-3753 230 0
-3754 169 0
-3754 214 0
-3755 201 0
-3755 182 0
3751 3754 -254 3752 3753 3755 0
-3756 146 0
-3756 237 0
-3757 149 0
-3757 234 0
-3758 230 0
177 -3759 0
-3759 206 0
-3760 209 0
-3760 174 0
3756 3759 -254 3760 3757 3758 0
-3761 162 0
-3761 221 0
165 -3762 0
-3762 218 0
-3763 169 0
-3763 214 0
177 -3764 0
-3764 206 0
-3765 225 0
-3765 158 0
3764 3761 -254 3762 3765 3763 0
-3766 194 0
-3766 189 0
-3767 197 0
-3767 186 0
-3768 201 0
-3768 182 0
-3769 209 0
-3769 174 0
-3770 225 0
158 -3770 0
3767 3766 -254 3770 3769 3768 0
-3811 247 0
-3813 162 0
-3814 194 0
-3829 248 0
-3830 247 0
-3831 246 0
-3832 244 0
-3833 232 0
-3834 169 0
-3834 216 0
-3835 201 0
3831 3830 3832 3833 3834 3835 -256 3829 0
-3836 240 0
-3837 146 0
-3838 238 0
-3839 149 0
-3840 232 0
-3841 208 0
-3842 176 0
3836 3837 3838 3839 3840 3841 3842 -256 0
-3843 161 0
-3844 162 0
-3844 223 0
-3845 222 0
-3846 165 0
-3846 220 0
-3847 169 0
-3847 216 0
-3848 177 0
-3848 208 0
-3849 160 0
3845 3844 3846 3847 3848 3849 -256 3843 0
-3850 193 0
-3851 194 0
-3852 190 0
-3853 197 0
-3853 188 0
-3854 184 0
-3855 176 0
-3856 160 0
3852 3851 3853 3854 3855 3856 -256 3850 0
-3869 258 0
-3870 259 0
-3871 260 0
-268 3871 3870 3869 0
-3977 259 0
-3978 275 0
-3979 273 0
-283 3978 3977 3979 0
-3989 260 0
-3989 281 0
-3990 266 0
275 -3990 0
274 -3991 0
-3991 267 0
3991 3989 3990 -284 0
-3998 267 0
-3999 266 0
-4000 281 0
-4000 260 0
3998 4000 3999 -284 0
-4037 258 0
-4038 259 0
-4039 284 0
280 -4040 0
-4041 273 0
4040 4039 4038 4037 -288 4041 0
-4042 258 0
-4043 285 0
-4044 283 0
-4045 279 0
-4046 274 0
4045 4043 4042 -288 4044 4046 0
-4062 273 0
271 -4063 0
-4064 275 0
-4065 268 0
-4066 264 0
4063 4065 4062 -288 4064 4066 0
-4139 260 0
-4139 297 0
-4140 266 0
-4140 291 0
-4141 290 0
-4141 267 0
4141 -300 4140 4139 0
-4142 260 0
-4143 267 0
-4144 266 0
4143 -300 4144 4142 0
-4229 259 0
-4230 273 0
-4231 275 0
-307 4231 4230 4229 0
-4241 305 0
-4242 291 0
-4243 290 0
-308 4243 4241 4242 0
-4331 266 0
-4332 274 0
-4333 281 0
-314 4332 4331 4333 0
-4362 307 0
-4364 283 0
-4535 258 0
-4536 322 0
-4537 321 0
-330 4536 4535 4537 0
-4559 260 0
-4559 329 0
-4560 266 0
-4560 323 0
-4561 322 0
-4561 267 0
-332 4559 4561 4560 0
-4562 260 0
-4563 267 0
-4564 266 0
-332 4562 4564 4563 0
-4617 259 0
-4618 260 0
-4619 330 0
-4620 326 0
-4621 323 0
-336 4618 4617 4621 4620 4619 0
-4649 259 0
-4650 273 0
-4651 321 0
-339 4649 4650 4651 0
-4661 260 0
-4662 323 0
-4663 322 0
-340 4661 4662 4663 0
-4714 258 0
-4715 260 0
-4716 339 0
-4717 327 0
-4718 322 0
-344 4717 4714 4716 4715 4718 0
-4731 326 0
-4751 266 0
337 -4751 0
-4752 274 0
-4752 329 0
-4753 322 0
-4753 281 0
-346 4751 4752 4753 0
-4763 267 0
-4764 329 0
-4765 281 0
-347 4765 4763 4764 0
-4907 258 0
-4908 322 0
-4909 321 0
-354 4908 4907 4909 0
-4931 260 0
-4932 290 0
-4932 323 0
-4933 322 0
-356 4931 4932 4933 0
-4979 258 0
-4980 259 0
-4981 356 0
-4982 328 0
-4983 321 0
-360 4981 4980 4979 4982 4983 0
-4989 259 0
-4990 260 0
-4991 354 0
-4992 326 0
-4993 323 0
-4993 294 0
-360 4990 4989 4993 4992 4991 0
-5055 259 0
-5056 260 0
-5057 354 0
-5058 330 0
-5059 323 0
-364 5056 5055 5059 5057 5058 0
-5213 258 0
-5214 259 0
-5215 273 0
-5216 340 0
-5217 321 0
-372 5216 5214 5215 5213 5217 0
-5255 258 0
-5256 370 0
-5257 273 0
-5258 342 0
-5259 321 0
-374 5256 5255 5257 5258 5259 0
-5417 260 0
-5417 377 0
-5418 371 0
-5419 274 0
-5419 363 0
-5420 290 0
-5420 347 0
-5421 322 0
5418 5420 -380 5419 5421 5417 0
-5422 377 0
-5423 370 0
-5424 362 0
-5425 291 0
-5425 346 0
-5426 323 0
-5426 314 0
5425 5422 -380 5423 5424 5426 0
371 -5427 0
-5428 370 0
-5429 281 0
-5429 356 0
297 -5430 0
-5430 340 0
-5431 329 0
-5431 308 0
5427 5430 -380 5428 5431 5429 0
-5432 274 0
-5432 363 0
-5433 275 0
-5433 362 0
-5434 281 0
-5434 356 0
-5435 305 0
-5435 332 0
-5436 337 0
-5436 300 0
5435 5433 -380 5436 5432 5434 0
-5437 290 0
-5437 347 0
-5438 291 0
-5438 346 0
-5439 297 0
-5439 340 0
-5440 305 0
-5440 332 0
353 -5441 0
284 -5441 0
5441 5439 -380 5440 5438 5437 0
-5442 322 0
-5442 315 0
-5443 323 0
-5443 314 0
-5444 329 0
-5444 308 0
-5445 337 0
-5445 300 0
353 -5446 0
284 -5446 0
5446 5445 -380 5442 5443 5444 0
-5565 376 0
-5566 375 0
-5567 267 0
-5567 374 0
-5568 372 0
-5569 281 0
-5569 360 0
-5570 344 0
-5571 329 0
5567 5566 5568 5569 5570 5571 -384 5565 0
-5572 368 0
-5573 274 0
-5573 367 0
-5574 275 0
-5574 366 0
-5575 364 0
-5576 281 0
-5576 360 0
-5577 336 0
-5578 304 0
5574 5573 5575 5576 5577 5578 -384 5572 0
-5586 321 0
-5587 322 0
-5588 323 0
-5588 318 0
-5589 325 0
-5589 316 0
-5590 329 0
-5591 304 0
353 -5592 0
288 -5592 0
5587 5588 5589 5590 5591 5592 -384 5586 0
-249 -264 0
-247 -266 0
-234 -279 0
-232 -281 0
-225 -288 0
-222 -291 0
-304 -209 0
-208 -305 0
-314 -199 0
-316 -197 0
-186 -327 0
-184 -329 0
-169 -344 0
-167 -346 0
-160 -353 0
-364 -149 0
-367 -146 0
-375 -138 0
-136 -377 0
-245 -267 -2 0
-221 -291 -2 0
-215 -297 -2 0
-207 -305 -2 0
-315 -197 -2 0
-347 -165 -2 0
-363 -149 -2 0
-141 -371 -2 0
-249 -8 0
-297 -209 -8 0
-329 -177 -8 0
-169 -337 -8 0
-377 -8 0
-12 -245 0
-227 -274 -13 0
-305 -13 -196 0
-164 -13 -337 0
-148 -13 -353 0
-14 -209 -291 0
-238 -19 0
-366 -19 0
-237 -20 0
-141 -20 -353 0
-227 -21 -266 0
-140 -21 -353 0
-225 -22 -267 0
-201 -22 -291 0
-363 -22 0
-25 -325 -164 0
-25 -136 -353 0
-26 -197 -291 0
-29 -291 -194 0
-32 -225 0
-34 -201 -279 0
-222 -35 0
-201 -278 -35 0
-285 -35 -194 0
-138 -35 -341 0
-221 -36 0
-325 -153 -36 0
-329 -149 -36 0
-337 -141 -36 0
-220 -37 0
-211 -37 -266 0
-281 -37 -196 0
-283 -37 -194 0
-148 -329 -37 0
-209 -267 -38 0
-201 -275 -38 0
-347 -38 0
-41 -209 -264 0
-41 -279 -194 0
-327 -41 -146 0
-48 -209 0
-48 -337 0
-208 -49 0
-201 -264 -49 0
-266 -49 -199 0
-271 -49 -194 0
-327 -138 -49 0
-336 -49 0
-207 -50 0
-197 -267 -50 0
-323 -141 -50 0
-202 -55 0
-56 -201 0
-56 -329 0
-59 -194 -261 0
-60 -197 0
-61 -196 0
-322 -61 -131 0
-62 -323 0
-190 -67 0
-169 -67 -278 0
-318 -67 0
-68 -189 0
-281 -68 -165 0
-305 -141 -68 0
-188 -69 0
-316 -69 0
-267 -177 -70 0
-169 -275 -70 0
-153 -291 -70 0
-315 -70 0
-73 -264 -177 0
-73 -274 -167 0
-73 -162 -279 0
-74 -149 -291 0
-80 -177 0
-80 -305 0
-176 -81 0
-173 -260 -81 0
-169 -264 -81 0
-266 -167 -81 0
-162 -271 -81 0
-136 -297 -81 0
-304 -81 0
-267 -165 -82 0
-141 -291 -82 0
-169 -88 0
-297 -88 0
-162 -91 -261 0
-294 -91 0
-164 -93 0
-290 -93 -131 0
-94 -291 0
-97 -138 -279 0
-97 -136 -281 0
-97 -288 0
-98 -267 -149 0
-153 -104 0
-281 -104 0
-107 -278 0
-108 -149 0
-138 -115 -261 0
-116 -141 0
-117 -266 -131 0
-267 -118 0
-136 -121 0
-121 -264 0
-3 0
-5 0
-17 0
-33 0
-65 0
2 0
127 0
-237 -275 0
-323 -189 0
-248 0
-245 -260 0
-230 -275 0
-291 -214 0
-308 -197 0
-182 -323 0
-328 -177 0
-340 -165 0
-356 -149 0
-134 -371 0
-376 0
118 -117 0
-118 117 0
116 -115 0
-116 115 0
104 -103 0
-104 103 0
-97 98 0
88 -87 0
-88 87 0
82 -81 0
70 -69 0
-70 69 0
-67 68 0
-55 56 0
-56 55 0
50 -49 0
38 -37 0
-38 37 0
36 -35 0
22 -21 0
20 -19 0
-20 19 0
8 -7 0
-8 7 0
-130 0
-133 0
-161 0
-193 0
131 0
254 0
-109 -274 0
-314 -69 0
-37 -346 0
-362 -21 0
-370 -13 0
-120 0
-260 -117 0
-103 -274 0
-290 -87 0
-308 -69 0
-322 -55 0
-340 -37 0
-342 -35 0
-356 -21 0
-370 -7 0
-109 -260 0
-103 -266 0
-290 -79 0
-300 -69 0
-322 -47 0
-332 -37 0
-356 -13 0
-362 -7 0
-368 0
232 -230 0
-232 230 0
227 -225 0
199 -197 0
196 -194 0
194 -196 0
-165 167 0
-162 164 0
-134 136 0
-258 0
-259 0
-273 0
-321 0
261 0
380 0
-107 -146 0
-186 -67 0
-201 -52 0
-218 -35 0
-234 -19 0
-242 -11 0
-134 -115 0
-146 -103 0
-162 -87 0
-182 -67 0
-55 -194 0
-200 -49 0
-214 -35 0
-230 -19 0
-242 -7 0
-132 -93 0
-134 -91 0
-87 -138 0
-79 -146 0
-158 -67 0
-31 -194 0
-206 -19 0
-11 -214 0
-218 -7 0
344 -340 0
-344 340 0
341 -337 0
327 -323 0
-326 322 0
279 -275 0
-279 275 0
278 -274 0
264 -260 0
